<?xml version="1.0"?>
<VTKFile type="UnstructuredGrid" version="0.1" byte_order="LittleEndian">
<UnstructuredGrid>
<Piece NumberOfPoints="29622" NumberOfCells="10370">
<Points>
<DataArray type="Float64" NumberOfComponents="3" format="ascii">
-0.49485421638997129 -0.48903540387187389 0 -0.47966379557855132 -0.48208057761239048 0 -0.45751766390445858 -0.5 0 -0.49485421638997129 -0.48903540387187389 0 -0.48132784707583531 -0.46780503325861211 0 -0.5 -0.39304332915441309 0 -0.49485421638997129 -0.48903540387187389 0 -0.5 -0.5 0 -0.5 -0.39304332915441309 0 -0.49485421638997129 -0.48903540387187389 0 -0.5 -0.5 0 -0.45751766390445858 -0.5 0 -0.49485421638997129 -0.48903540387187389 0 -0.47966379557855132 -0.48208057761239048 0 -0.48132784707583531 -0.46780503325861211 0 -0.49485421638997129 -0.48903540387187389 0 -0.48132784707583531 -0.46780503325861211 0 -0.47966379557855132 -0.48208057761239048 0 -0.47195399330063897 -0.473203497292849 0 -0.48132784707583531 -0.46780503325861211 0 -0.47966379557855132 -0.48208057761239048 0 -0.47195399330063897 -0.473203497292849 0 -0.45751766390445858 -0.5 0 -0.45751766390445858 -0.5 0 -0.42620230597632591 -0.50000000000000089 0 -0.43480942387586652 -0.48036079921444441 0 -0.47195399330063897 -0.473203497292849 0 -0.45305143556040289 -0.47753612750543212 0 -0.45071632046259408 -0.45996853728771042 0 -0.47195399330063897 -0.473203497292849 0 -0.45751766390445858 -0.5 0 -0.45305143556040289 -0.47753612750543212 0 -0.45305143556040289 -0.47753612750543212 0 -0.43480942387586652 -0.48036079921444441 0 -0.43627077375768197 -0.46331343798553171 0 -0.45751766390445858 -0.5 0 -0.45305143556040289 -0.47753612750543212 0 -0.43480942387586652 -0.48036079921444441 0 -0.45047061609287048 -0.44376226569403138 0 -0.44104809386808058 -0.43352676383870747 0 -0.42947864762454918 -0.4467335772825719 0 -0.45047061609287048 -0.44376226569403138 0 -0.45071632046259408 -0.45996853728771042 0 -0.42947864762454918 -0.4467335772825719 0 -0.45305143556040289 -0.47753612750543212 0 -0.45071632046259408 -0.45996853728771042 0 -0.43627077375768197 -0.46331343798553171 0 -0.45071632046259408 -0.45996853728771042 0 -0.42947864762454918 -0.4467335772825719 0 -0.45071632046259408 -0.45996853728771042 0 -0.43627077375768197 -0.46331343798553171 0 -0.42947864762454918 -0.4467335772825719 0 -0.47195399330063897 -0.473203497292849 0 -0.45071632046259408 -0.45996853728771042 0 -0.4676094613981967 -0.46165311892656757 0 -0.47195399330063897 -0.473203497292849 0 -0.45071632046259408 -0.45996853728771042 0 -0.45071632046259408 -0.45996853728771042 0 -0.45984069590491328 -0.45401373694973829 0 -0.4676094613981967 -0.46165311892656757 0 -0.4676094613981967 -0.46165311892656757 0 -0.46780147776169873 -0.44657466264535067 0 -0.45984069590491328 -0.45401373694973829 0 -0.4676094613981967 -0.46165311892656757 0 -0.46780147776169873 -0.44657466264535067 0 -0.45047061609287048 -0.44376226569403138 0 -0.45984069590491328 -0.45401373694973829 0 -0.46780147776169873 -0.44657466264535067 0 -0.45047061609287048 -0.44376226569403138 0 -0.45071632046259408 -0.45996853728771042 0 -0.45984069590491328 -0.45401373694973829 0 -0.45047061609287048 -0.44376226569403138 0 -0.46780147776169873 -0.44657466264535067 0 -0.45349168221317732 -0.42411466204654691 0 -0.46780147776169873 -0.44657466264535067 0 -0.48132784707583531 -0.46780503325861211 0 -0.4676094613981967 -0.46165311892656757 0 -0.46780147776169873 -0.44657466264535067 0 -0.48132784707583531 -0.46780503325861211 0 -0.47195399330063897 -0.473203497292849 0 -0.4676094613981967 -0.46165311892656757 0 -0.48132784707583531 -0.46780503325861211 0 -0.46780147776169873 -0.44657466264535067 0 -0.5 -0.39304332915441309 0 -0.46811911363238717 -0.42163169162870001 0 -0.46780147776169873 -0.44657466264535067 0 -0.48132784707583531 -0.46780503325861211 0 -0.5 -0.39304332915441309 0 -0.5 -0.39304332915441309 0 -0.46843674950307651 -0.39668872061204918 0 -0.46811911363238717 -0.42163169162870001 0 -0.5 -0.39304332915441309 0 -0.46843674950307651 -0.39668872061204918 0 -0.46875438537376568 -0.37174574959539841 0 -0.46843674950307651 -0.39668872061204918 0 -0.46875438537376568 -0.37174574959539841 0 -0.45710457142705352 -0.38504504192178968 0 -0.46843674950307651 -0.39668872061204918 0 -0.46875438537376568 -0.37174574959539841 0 -0.45710457142705352 -0.38504504192178968 0 -0.46843674950307651 -0.39668872061204918 0 -0.45814675552769368 -0.40820001903729841 0 -0.45710457142705352 -0.38504504192178968 0 -0.43918188666465519 -0.40165466144774348 0 -0.45814675552769368 -0.40820001903729841 0 -0.45710457142705352 -0.38504504192178968 0 -0.43918188666465519 -0.40165466144774348 0 -0.44104219080419582 -0.37347083416253418 0 -0.45710457142705352 -0.38504504192178968 0 -0.4572122904922577 -0.36774700747612332 0 -0.44104219080419582 -0.37347083416253418 0 -0.46780147776169873 -0.44657466264535067 0 -0.45349168221317732 -0.42411466204654691 0 -0.46811911363238717 -0.42163169162870001 0 -0.46780147776169873 -0.44657466264535067 0 -0.45349168221317732 -0.42411466204654691 0 -0.46780147776169873 -0.44657466264535067 0 -0.46811911363238717 -0.42163169162870001 0 -0.46843674950307651 -0.39668872061204918 0 -0.46811911363238717 -0.42163169162870001 0 -0.45814675552769368 -0.40820001903729841 0 -0.45349168221317732 -0.42411466204654691 0 -0.46811911363238717 -0.42163169162870001 0 -0.45814675552769368 -0.40820001903729841 0 -0.46843674950307651 -0.39668872061204918 0 -0.46811911363238717 -0.42163169162870001 0 -0.43918188666465519 -0.40165466144774348 0 -0.45349168221317732 -0.42411466204654691 0 -0.43918188666465519 -0.40165466144774348 0 -0.45349168221317732 -0.42411466204654691 0 -0.45814675552769368 -0.40820001903729841 0 -0.43918188666465519 -0.40165466144774348 0 -0.45349168221317732 -0.42411466204654691 0 -0.43003658358618901 -0.42326990374997903 0 -0.45349168221317732 -0.42411466204654691 0 -0.44104809386808058 -0.43352676383870747 0 -0.43003658358618901 -0.42326990374997903 0 -0.45047061609287048 -0.44376226569403138 0 -0.45349168221317732 -0.42411466204654691 0 -0.44104809386808058 -0.43352676383870747 0 -0.44104809386808058 -0.43352676383870747 0 -0.43003658358618901 -0.42326990374997903 0 -0.42947864762454918 -0.4467335772825719 0 -0.43003658358618901 -0.42326990374997903 0 -0.40824097478650417 -0.43349861727743327 0 -0.42947864762454918 -0.4467335772825719 0 -0.43918188666465519 -0.40165466144774348 0 -0.43003658358618901 -0.42326990374997903 0 -0.41939074694921452 -0.39847550860422248 0 -0.40933736888919142 -0.41582472602523213 0 -0.41939074694921452 -0.39847550860422248 0 -0.39691773321276591 -0.40451995308690569 0 -0.43003658358618901 -0.42326990374997903 0 -0.40933736888919142 -0.41582472602523213 0 -0.41939074694921452 -0.39847550860422248 0 -0.43003658358618901 -0.42326990374997903 0 -0.40933736888919142 -0.41582472602523213 0 -0.40824097478650417 -0.43349861727743327 0 -0.43918188666465519 -0.40165466144774348 0 -0.42487209111613222 -0.37919466084894071 0 -0.42487209111613222 -0.37919466084894071 0 -0.44104219080419582 -0.37347083416253418 0 -0.43918188666465519 -0.40165466144774348 0 -0.42487209111613222 -0.37919466084894071 0 -0.44104219080419582 -0.37347083416253418 0 -0.43918188666465519 -0.40165466144774348 0 -0.42487209111613222 -0.37919466084894071 0 -0.41939074694921452 -0.39847550860422248 0 -0.41939074694921452 -0.39847550860422248 0 -0.40300003565967968 -0.38693684284679258 0 -0.39691773321276591 -0.40451995308690569 0 -0.42487209111613222 -0.37919466084894071 0 -0.40300003565967968 -0.38693684284679258 0 -0.42487209111613222 -0.37919466084894071 0 -0.41939074694921452 -0.39847550860422248 0 -0.40300003565967968 -0.38693684284679258 0 -0.42487209111613222 -0.37919466084894071 0 -0.40300003565967968 -0.38693684284679258 0 -0.40034883944948352 -0.37081685356611482 0 -0.40300003565967968 -0.38693684284679258 0 -0.38720811424459922 -0.38269289919929472 0 -0.40034883944948352 -0.37081685356611482 0 -0.40300003565967968 -0.38693684284679258 0 -0.39691773321276591 -0.40451995308690569 0 -0.38112798020322552 -0.39467902484464013 0 -0.40300003565967968 -0.38693684284679258 0 -0.38112798020322552 -0.39467902484464013 0 -0.39691773321276591 -0.40451995308690569 0 -0.38092085950929938 -0.40584578046397218 0 -0.38112798020322552 -0.39467902484464013 0 -0.38092085950929938 -0.40584578046397218 0 -0.38112798020322552 -0.39467902484464013 0 -0.37260182642857559 -0.39831487258102538 0 -0.38112798020322552 -0.39467902484464013 0 -0.3755243739538135 -0.38933559825649589 0 -0.37260182642857559 -0.39831487258102538 0 -0.40300003565967968 -0.38693684284679258 0 -0.38112798020322552 -0.39467902484464013 0 -0.38720811424459922 -0.38269289919929472 0 -0.38112798020322552 -0.39467902484464013 0 -0.38066855662570548 -0.38741133800680971 0 -0.38720811424459922 -0.38269289919929472 0 -0.3755243739538135 -0.38933559825649589 0 -0.37881375810118412 -0.38293782972680801 0 -0.37166373307095851 -0.38075684139963512 0 -0.38066855662570548 -0.38741133800680971 0 -0.37881375810118412 -0.38293782972680801 0 -0.38720811424459922 -0.38269289919929472 0 -0.38112798020322552 -0.39467902484464013 0 -0.38066855662570548 -0.38741133800680971 0 -0.3755243739538135 -0.38933559825649589 0 -0.38066855662570548 -0.38741133800680971 0 -0.3755243739538135 -0.38933559825649589 0 -0.37881375810118412 -0.38293782972680801 0 -0.37881375810118412 -0.38293782972680801 0 -0.37785856937865758 -0.37355414846445112 0 -0.37166373307095851 -0.38075684139963512 0 -0.37881375810118412 -0.38293782972680801 0 -0.38720811424459922 -0.38269289919929472 0 -0.37785856937865758 -0.37355414846445112 0 -0.40824097478650417 -0.43349861727743327 0 -0.38700330194845922 -0.4202636572722947 0 -0.40824097478650417 -0.43349861727743327 0 -0.38700330194845922 -0.4202636572722947 0 -0.38330031069482279 -0.4443361399444733 0 -0.40933736888919142 -0.41582472602523213 0 -0.40824097478650417 -0.43349861727743327 0 -0.38700330194845922 -0.4202636572722947 0 -0.40933736888919142 -0.41582472602523213 0 -0.39691773321276591 -0.40451995308690569 0 -0.38700330194845922 -0.4202636572722947 0 -0.38700330194845922 -0.4202636572722947 0 -0.36576562911041288 -0.40702869726715851 0 -0.39691773321276591 -0.40451995308690569 0 -0.38092085950929938 -0.40584578046397218 0 -0.38700330194845922 -0.4202636572722947 0 -0.38092085950929938 -0.40584578046397218 0 -0.38700330194845922 -0.4202636572722947 0 -0.36576562911041288 -0.40702869726715851 0 -0.38700330194845922 -0.4202636572722947 0 -0.38330031069482279 -0.4443361399444733 0 -0.36899964560098858 -0.42578151992596419 0 -0.38330031069482279 -0.4443361399444733 0 -0.36899964560098858 -0.42578151992596419 0 -0.38330031069482279 -0.4443361399444733 0 -0.37270893307682018 -0.44729025694925029 0 -0.36899964560098858 -0.42578151992596419 0 -0.38330031069482279 -0.4443361399444733 0 -0.39760097578865711 -0.46289075996298262 0 -0.40782041891334347 -0.4503593079750462 0 -0.40824097478650417 -0.43349861727743327 0 -0.38330031069482279 -0.4443361399444733 0 -0.40782041891334347 -0.4503593079750462 0 -0.38330031069482279 -0.4443361399444733 0 -0.37641822055265189 -0.46879899397253638 0 -0.37270893307682018 -0.44729025694925029 0 -0.38330031069482279 -0.4443361399444733 0 -0.39760097578865711 -0.46289075996298262 0 -0.38330031069482279 -0.4443361399444733 0 -0.39760097578865711 -0.46289075996298262 0 -0.37641822055265189 -0.46879899397253638 0 -0.39055325385004619 -0.48262702678340219 0 -0.37641822055265189 -0.46879899397253638 0 -0.36916285269217869 -0.5 0 -0.39760097578865711 -0.46289075996298262 0 -0.39055325385004619 -0.48262702678340219 0 -0.37641822055265189 -0.46879899397253638 0 -0.39055325385004619 -0.48262702678340219 0 -0.39768257933425227 -0.5 0 -0.36916285269217869 -0.5 0 -0.39055325385004619 -0.48262702678340219 0 -0.39768257933425227 -0.5 0 -0.41190164088249132 -0.48144537998149178 0 -0.39760097578865711 -0.46289075996298262 0 -0.39055325385004619 -0.48262702678340219 0 -0.41190164088249132 -0.48144537998149178 0 -0.39760097578865711 -0.46289075996298262 0 -0.41190164088249132 -0.48144537998149178 0 -0.39760097578865711 -0.46289075996298262 0 -0.41190164088249132 -0.48144537998149178 0 -0.42048118567218379 -0.46433744540776978 0 -0.39768257933425227 -0.5 0 -0.41190164088249132 -0.48144537998149178 0 -0.42620230597632591 -0.50000000000000089 0 -0.41190164088249132 -0.48144537998149178 0 -0.42620230597632591 -0.50000000000000089 0 -0.41190164088249132 -0.48144537998149178 0 -0.42620230597632591 -0.50000000000000089 0 -0.43480942387586652 -0.48036079921444441 0 -0.41190164088249132 -0.48144537998149178 0 -0.43480942387586652 -0.48036079921444441 0 -0.42048118567218379 -0.46433744540776978 0 -0.43480942387586652 -0.48036079921444441 0 -0.43627077375768197 -0.46331343798553171 0 -0.42048118567218379 -0.46433744540776978 0 -0.43627077375768197 -0.46331343798553171 0 -0.42947864762454918 -0.4467335772825719 0 -0.42048118567218379 -0.46433744540776978 0 -0.40824097478650417 -0.43349861727743327 0 -0.42947864762454918 -0.4467335772825719 0 -0.40824097478650417 -0.43349861727743327 0 -0.42947864762454918 -0.4467335772825719 0 -0.40782041891334347 -0.4503593079750462 0 -0.42947864762454918 -0.4467335772825719 0 -0.40782041891334347 -0.4503593079750462 0 -0.42048118567218379 -0.46433744540776978 0 -0.39760097578865711 -0.46289075996298262 0 -0.40782041891334347 -0.4503593079750462 0 -0.42048118567218379 -0.46433744540776978 0 -0.44010656732289788 -0.26085838252996851 0 -0.43229081015205362 -0.25417199456554668 0 -0.44919232957202387 -0.24371303005310249 0 -0.44010656732289788 -0.26085838252996851 0 -0.4585662804787824 -0.26837484511018372 0 -0.44919232957202387 -0.24371303005310249 0 -0.4585662804787824 -0.26837484511018372 0 -0.43331385691330632 -0.27523940154096399 0 -0.4585662804787824 -0.26837484511018372 0 -0.44508278518625372 -0.29022146997540149 0 -0.43331385691330632 -0.27523940154096399 0 -0.44010656732289788 -0.26085838252996851 0 -0.4585662804787824 -0.26837484511018372 0 -0.43331385691330632 -0.27523940154096399 0 -0.4585662804787824 -0.26837484511018372 0 -0.47428105998689429 -0.28423500876683627 0 -0.44508278518625372 -0.29022146997540149 0 -0.4585662804787824 -0.26837484511018372 0 -0.47206243562756728 -0.25762347179270151 0 -0.47428105998689429 -0.28423500876683627 0 -0.4585662804787824 -0.26837484511018372 0 -0.47206243562756728 -0.25762347179270151 0 -0.44919232957202387 -0.24371303005310249 0 -0.47206243562756728 -0.25762347179270151 0 -0.5 -0.25346781598992812 0 -0.47428105998689429 -0.28423500876683627 0 -0.5 -0.25346781598992812 0 -0.47428105998689429 -0.28423500876683627 0 -0.5 -0.31254948970543461 0 -0.47428105998689429 -0.28423500876683627 0 -0.45729638832408492 -0.30885946939829773 0 -0.5 -0.31254948970543461 0 -0.47428105998689429 -0.28423500876683627 0 -0.45729638832408492 -0.30885946939829773 0 -0.44508278518625372 -0.29022146997540149 0 -0.45729638832408492 -0.30885946939829773 0 -0.44508278518625372 -0.29022146997540149 0 -0.42853737653284157 -0.30510640683750923 0 -0.45729638832408492 -0.30885946939829773 0 -0.43699745755478858 -0.32306842198357949 0 -0.42853737653284157 -0.30510640683750923 0 -0.5 -0.39304332915441309 0 -0.5 -0.31254948970543461 0 -0.47241259606178537 -0.3558508069929105 0 -0.45729638832408492 -0.30885946939829773 0 -0.45839405500437219 -0.33290437505148701 0 -0.43699745755478858 -0.32306842198357949 0 -0.45839405500437219 -0.33290437505148701 0 -0.43067678219142541 -0.34169949368338881 0 -0.43699745755478858 -0.32306842198357949 0 -0.45839405500437219 -0.33290437505148701 0 -0.45127087866163201 -0.35662662241956261 0 -0.43067678219142541 -0.34169949368338881 0 -0.45729638832408492 -0.30885946939829773 0 -0.45839405500437219 -0.33290437505148701 0 -0.5 -0.31254948970543461 0 -0.45839405500437219 -0.33290437505148701 0 -0.5 -0.31254948970543461 0 -0.47241259606178537 -0.3558508069929105 0 -0.5 -0.39304332915441309 0 -0.47241259606178537 -0.3558508069929105 0 -0.46875438537376568 -0.37174574959539841 0 -0.47241259606178537 -0.3558508069929105 0 -0.46875438537376568 -0.37174574959539841 0 -0.4572122904922577 -0.36774700747612332 0 -0.47241259606178537 -0.3558508069929105 0 -0.4572122904922577 -0.36774700747612332 0 -0.45127087866163201 -0.35662662241956261 0 -0.45710457142705352 -0.38504504192178968 0 -0.46875438537376568 -0.37174574959539841 0 -0.4572122904922577 -0.36774700747612332 0 -0.45839405500437219 -0.33290437505148701 0 -0.47241259606178537 -0.3558508069929105 0 -0.45127087866163201 -0.35662662241956261 0 -0.45127087866163201 -0.35662662241956261 0 -0.43067678219142541 -0.34169949368338881 0 -0.45127087866163201 -0.35662662241956261 0 -0.43987209026751978 -0.36123248436258282 0 -0.43067678219142541 -0.34169949368338881 0 -0.4572122904922577 -0.36774700747612332 0 -0.43987209026751978 -0.36123248436258282 0 -0.44104219080419582 -0.37347083416253418 0 -0.4572122904922577 -0.36774700747612332 0 -0.45127087866163201 -0.35662662241956261 0 -0.43987209026751978 -0.36123248436258282 0 -0.4572122904922577 -0.36774700747612332 0 -0.44104219080419582 -0.37347083416253418 0 -0.42487209111613222 -0.37919466084894071 0 -0.44104219080419582 -0.37347083416253418 0 -0.4275783003043449 -0.36113725079068981 0 -0.43987209026751978 -0.36123248436258282 0 -0.44104219080419582 -0.37347083416253418 0 -0.4275783003043449 -0.36113725079068981 0 -0.4275783003043449 -0.36113725079068981 0 -0.4100686429142083 -0.35595984562379013 0 -0.43067678219142541 -0.34169949368338881 0 -0.43987209026751978 -0.36123248436258282 0 -0.4275783003043449 -0.36113725079068981 0 -0.43067678219142541 -0.34169949368338881 0 -0.4100686429142083 -0.35595984562379013 0 -0.40035709127217922 -0.33926472118523682 0 -0.43067678219142541 -0.34169949368338881 0 -0.42487209111613222 -0.37919466084894071 0 -0.4275783003043449 -0.36113725079068981 0 -0.4100686429142083 -0.35595984562379013 0 -0.42487209111613222 -0.37919466084894071 0 -0.4100686429142083 -0.35595984562379013 0 -0.42487209111613222 -0.37919466084894071 0 -0.4100686429142083 -0.35595984562379013 0 -0.40034883944948352 -0.37081685356611482 0 -0.40034883944948352 -0.37081685356611482 0 -0.38747576214499502 -0.36767407004114872 0 -0.38946839061728628 -0.35244280283672202 0 -0.4100686429142083 -0.35595984562379013 0 -0.40034883944948352 -0.37081685356611482 0 -0.38946839061728628 -0.35244280283672202 0 -0.38720811424459922 -0.38269289919929472 0 -0.40034883944948352 -0.37081685356611482 0 -0.38747576214499502 -0.36767407004114872 0 -0.38720811424459922 -0.38269289919929472 0 -0.38747576214499502 -0.36767407004114872 0 -0.37785856937865758 -0.37355414846445112 0 -0.38747576214499502 -0.36767407004114872 0 -0.3803946439638905 -0.36232002362510379 0 -0.38946839061728628 -0.35244280283672202 0 -0.3803946439638905 -0.36232002362510379 0 -0.37401747194061841 -0.35596288952493021 0 -0.37296559159509202 -0.36681209433909601 0 -0.38747576214499502 -0.36767407004114872 0 -0.3803946439638905 -0.36232002362510379 0 -0.37785856937865758 -0.37355414846445112 0 -0.3803946439638905 -0.36232002362510379 0 -0.37785856937865758 -0.37355414846445112 0 -0.37296559159509202 -0.36681209433909601 0 -0.38946839061728628 -0.35244280283672202 0 -0.38238774798475528 -0.33591035907699268 0 -0.37448260438615971 -0.34426094393418077 0 -0.38946839061728628 -0.35244280283672202 0 -0.37401747194061841 -0.35596288952493021 0 -0.37448260438615971 -0.34426094393418077 0 -0.3803946439638905 -0.36232002362510379 0 -0.38946839061728628 -0.35244280283672202 0 -0.37401747194061841 -0.35596288952493021 0 -0.4100686429142083 -0.35595984562379013 0 -0.38946839061728628 -0.35244280283672202 0 -0.40035709127217922 -0.33926472118523682 0 -0.40035709127217922 -0.33926472118523682 0 -0.38797351392448293 -0.32568087391539041 0 -0.41008268572121848 -0.32677236494721501 0 -0.38946839061728628 -0.35244280283672202 0 -0.40035709127217922 -0.33926472118523682 0 -0.38238774798475528 -0.33591035907699268 0 -0.38238774798475528 -0.33591035907699268 0 -0.38797351392448293 -0.32568087391539041 0 -0.37059884822804079 -0.32608535496615632 0 -0.40035709127217922 -0.33926472118523682 0 -0.38238774798475528 -0.33591035907699268 0 -0.38797351392448293 -0.32568087391539041 0 -0.38238774798475528 -0.33591035907699268 0 -0.37059884822804079 -0.32608535496615632 0 -0.37245731417969702 -0.33680980758053142 0 -0.38238774798475528 -0.33591035907699268 0 -0.37245731417969702 -0.33680980758053142 0 -0.37448260438615971 -0.34426094393418077 0 -0.38797351392448293 -0.32568087391539041 0 -0.37059884822804079 -0.32608535496615632 0 -0.37492612108969181 -0.3142072071057001 0 -0.38797351392448293 -0.32568087391539041 0 -0.38948858925101182 -0.31184523621104121 0 -0.37492612108969181 -0.3142072071057001 0 -0.41008268572121848 -0.32677236494721501 0 -0.40729960469588677 -0.30229803823159662 0 -0.38948858925101182 -0.31184523621104121 0 -0.38797351392448293 -0.32568087391539041 0 -0.41008268572121848 -0.32677236494721501 0 -0.38948858925101182 -0.31184523621104121 0 -0.41008268572121848 -0.32677236494721501 0 -0.38948858925101182 -0.31184523621104121 0 -0.40035709127217922 -0.33926472118523682 0 -0.41008268572121848 -0.32677236494721501 0 -0.43067678219142541 -0.34169949368338881 0 -0.41008268572121848 -0.32677236494721501 0 -0.43067678219142541 -0.34169949368338881 0 -0.41008268572121848 -0.32677236494721501 0 -0.43067678219142541 -0.34169949368338881 0 -0.43699745755478858 -0.32306842198357949 0 -0.41008268572121848 -0.32677236494721501 0 -0.43699745755478858 -0.32306842198357949 0 -0.42853737653284157 -0.30510640683750923 0 -0.44508278518625372 -0.29022146997540149 0 -0.42349010575833401 -0.29031445008222201 0 -0.43331385691330632 -0.27523940154096399 0 -0.44508278518625372 -0.29022146997540149 0 -0.42853737653284157 -0.30510640683750923 0 -0.42349010575833401 -0.29031445008222201 0 -0.42349010575833401 -0.29031445008222201 0 -0.40806143334783002 -0.28210395797174442 0 -0.40729960469588677 -0.30229803823159662 0 -0.42349010575833401 -0.29031445008222201 0 -0.40806143334783002 -0.28210395797174442 0 -0.43331385691330632 -0.27523940154096399 0 -0.41008268572121848 -0.32677236494721501 0 -0.42853737653284157 -0.30510640683750923 0 -0.40729960469588677 -0.30229803823159662 0 -0.42853737653284157 -0.30510640683750923 0 -0.42349010575833401 -0.29031445008222201 0 -0.40729960469588677 -0.30229803823159662 0 -0.40729960469588677 -0.30229803823159662 0 -0.38948858925101182 -0.31184523621104121 0 -0.38280900978235383 -0.28896851440252469 0 -0.38948858925101182 -0.31184523621104121 0 -0.38280900978235383 -0.28896851440252469 0 -0.37406820646594491 -0.30170550445788319 0 -0.38948858925101182 -0.31184523621104121 0 -0.37406820646594491 -0.30170550445788319 0 -0.37492612108969181 -0.3142072071057001 0 -0.40806143334783002 -0.28210395797174442 0 -0.40729960469588677 -0.30229803823159662 0 -0.38280900978235383 -0.28896851440252469 0 -0.40806143334783002 -0.28210395797174442 0 -0.38280900978235383 -0.28896851440252469 0 -0.40806143334783002 -0.28210395797174442 0 -0.38280900978235383 -0.28896851440252469 0 -0.39871185054603869 -0.27677795884715362 0 -0.39871185054603869 -0.27677795884715362 0 -0.39860938059960438 -0.26904337260100453 0 -0.41445257499164462 -0.27057269373934362 0 -0.39860938059960438 -0.26904337260100453 0 -0.39810996818713362 -0.26144843047246158 0 -0.41445257499164462 -0.27057269373934362 0 -0.39860938059960438 -0.26904337260100453 0 -0.38962685400876068 -0.27320125552115049 0 -0.39095110290033352 -0.26488203789557568 0 -0.39871185054603869 -0.27677795884715362 0 -0.39860938059960438 -0.26904337260100453 0 -0.38962685400876068 -0.27320125552115049 0 -0.38280900978235383 -0.28896851440252469 0 -0.38962685400876068 -0.27320125552115049 0 -0.37813623778559691 -0.2757487650759663 0 -0.38280900978235383 -0.28896851440252469 0 -0.39871185054603869 -0.27677795884715362 0 -0.38962685400876068 -0.27320125552115049 0 -0.38962685400876068 -0.27320125552115049 0 -0.38159921527471208 -0.26605342888719852 0 -0.39095110290033352 -0.26488203789557568 0 -0.38962685400876068 -0.27320125552115049 0 -0.38159921527471208 -0.26605342888719852 0 -0.37813623778559691 -0.2757487650759663 0 -0.38159921527471208 -0.26605342888719852 0 -0.37813623778559691 -0.2757487650759663 0 -0.37060646000876091 -0.2656695854631318 0 -0.38095164741168391 -0.2563498561797824 0 -0.3946454953443147 -0.25111581076896788 0 -0.36635813716559879 -0.25495480734123471 0 -0.3946454953443147 -0.25111581076896788 0 -0.36635813716559879 -0.25495480734123471 0 -0.37474812662003493 -0.2480042625025452 0 -0.3946454953443147 -0.25111581076896788 0 -0.36635813716559879 -0.25495480734123471 0 -0.38159921527471208 -0.26605342888719852 0 -0.37438277794060287 -0.2608297426875657 0 -0.37060646000876091 -0.2656695854631318 0 -0.38159921527471208 -0.26605342888719852 0 -0.38095164741168391 -0.2563498561797824 0 -0.37438277794060287 -0.2608297426875657 0 -0.38159921527471208 -0.26605342888719852 0 -0.38625279174344318 -0.26037761955139449 0 -0.39095110290033352 -0.26488203789557568 0 -0.38159921527471208 -0.26605342888719852 0 -0.38095164741168391 -0.2563498561797824 0 -0.38625279174344318 -0.26037761955139449 0 -0.38625279174344318 -0.26037761955139449 0 -0.3885141392956068 -0.25526433030317458 0 -0.39212884756338268 -0.25875179694052691 0 -0.38625279174344318 -0.26037761955139449 0 -0.39095110290033352 -0.26488203789557568 0 -0.39212884756338268 -0.25875179694052691 0 -0.38095164741168391 -0.2563498561797824 0 -0.3885141392956068 -0.25526433030317458 0 -0.3946454953443147 -0.25111581076896788 0 -0.38095164741168391 -0.2563498561797824 0 -0.38625279174344318 -0.26037761955139449 0 -0.3885141392956068 -0.25526433030317458 0 -0.39660955792707342 -0.25084925955993409 0 -0.39810996818713362 -0.26144843047246158 0 -0.41445257499164462 -0.27057269373934362 0 -0.39271725459051021 -0.25513166038481522 0 -0.39558053615873617 -0.25539470352659149 0 -0.3946454953443147 -0.25111581076896788 0 -0.39558053615873617 -0.25539470352659149 0 -0.39660955792707342 -0.25084925955993409 0 -0.39810996818713362 -0.26144843047246158 0 -0.3885141392956068 -0.25526433030317458 0 -0.39271725459051021 -0.25513166038481522 0 -0.3946454953443147 -0.25111581076896788 0 -0.39660955792707342 -0.25084925955993409 0 -0.41445257499164462 -0.27057269373934362 0 -0.3885141392956068 -0.25526433030317458 0 -0.39271725459051021 -0.25513166038481522 0 -0.39212884756338268 -0.25875179694052691 0 -0.39271725459051021 -0.25513166038481522 0 -0.39558053615873617 -0.25539470352659149 0 -0.39212884756338268 -0.25875179694052691 0 -0.39558053615873617 -0.25539470352659149 0 -0.39660955792707342 -0.25084925955993409 0 -0.3946454953443147 -0.25111581076896788 0 -0.39558053615873617 -0.25539470352659149 0 -0.3946454953443147 -0.25111581076896788 0 -0.39660955792707342 -0.25084925955993409 0 -0.3946454953443147 -0.25111581076896788 0 -0.39095110290033352 -0.26488203789557568 0 -0.39212884756338268 -0.25875179694052691 0 -0.39810996818713362 -0.26144843047246158 0 -0.39558053615873617 -0.25539470352659149 0 -0.39212884756338268 -0.25875179694052691 0 -0.39810996818713362 -0.26144843047246158 0 -0.39860938059960438 -0.26904337260100453 0 -0.39095110290033352 -0.26488203789557568 0 -0.39810996818713362 -0.26144843047246158 0 -0.39660955792707342 -0.25084925955993409 0 -0.41544737069407062 -0.25762699815209289 0 -0.41305431339371562 -0.24861747250264279 0 -0.39660955792707342 -0.25084925955993409 0 -0.41544737069407062 -0.25762699815209289 0 -0.41445257499164462 -0.27057269373934362 0 -0.41544737069407062 -0.25762699815209289 0 -0.42440311049531892 -0.25168108644196319 0 -0.41305431339371562 -0.24861747250264279 0 -0.41544737069407062 -0.25762699815209289 0 -0.41445257499164462 -0.27057269373934362 0 -0.42691419670745179 -0.26223096694888948 0 -0.40806143334783002 -0.28210395797174442 0 -0.43331385691330632 -0.27523940154096399 0 -0.40806143334783002 -0.28210395797174442 0 -0.39871185054603869 -0.27677795884715362 0 -0.41445257499164462 -0.27057269373934362 0 -0.40806143334783002 -0.28210395797174442 0 -0.41445257499164462 -0.27057269373934362 0 -0.43331385691330632 -0.27523940154096399 0 -0.41445257499164462 -0.27057269373934362 0 -0.43331385691330632 -0.27523940154096399 0 -0.42691419670745179 -0.26223096694888948 0 -0.44010656732289788 -0.26085838252996851 0 -0.43331385691330632 -0.27523940154096399 0 -0.42691419670745179 -0.26223096694888948 0 -0.44010656732289788 -0.26085838252996851 0 -0.43229081015205362 -0.25417199456554668 0 -0.42691419670745179 -0.26223096694888948 0 -0.43229081015205362 -0.25417199456554668 0 -0.42440311049531892 -0.25168108644196319 0 -0.42691419670745179 -0.26223096694888948 0 -0.41544737069407062 -0.25762699815209289 0 -0.42440311049531892 -0.25168108644196319 0 -0.42691419670745179 -0.26223096694888948 0 -0.43229081015205362 -0.25417199456554668 0 -0.42440311049531892 -0.25168108644196319 0 -0.42949906886035771 -0.2463856854453515 0 -0.32283211294546338 -0.26562263696370042 0 -0.33476312054528728 -0.25708724346025841 0 -0.31524025484529539 -0.24633488066413101 0 -0.32283211294546338 -0.26562263696370042 0 -0.31524025484529539 -0.24633488066413101 0 -0.32283211294546338 -0.26562263696370042 0 -0.30458347269285779 -0.26268955606795308 0 -0.31524025484529539 -0.24633488066413101 0 -0.32283211294546338 -0.26562263696370042 0 -0.3304239710456281 -0.28491039326327122 0 -0.31157618436438339 -0.28029125651555831 0 -0.32283211294546338 -0.26562263696370042 0 -0.3304239710456281 -0.28491039326327122 0 -0.32283211294546338 -0.26562263696370042 0 -0.31157618436438339 -0.28029125651555831 0 -0.30458347269285779 -0.26268955606795308 0 -0.32283211294546338 -0.26562263696370042 0 -0.33604732664861009 -0.27455389337527719 0 -0.3304239710456281 -0.28491039326327122 0 -0.32283211294546338 -0.26562263696370042 0 -0.33526703067793778 -0.26564234312803131 0 -0.33604732664861009 -0.27455389337527719 0 -0.33604732664861009 -0.27455389337527719 0 -0.3369357948806076 -0.28144400949699699 0 -0.3304239710456281 -0.28491039326327122 0 -0.33604732664861009 -0.27455389337527719 0 -0.34671445835268849 -0.26642492479899921 0 -0.3439851661365918 -0.28003850931616381 0 -0.33604732664861009 -0.27455389337527719 0 -0.3439851661365918 -0.28003850931616381 0 -0.3369357948806076 -0.28144400949699699 0 -0.33526703067793778 -0.26564234312803131 0 -0.33604732664861009 -0.27455389337527719 0 -0.34671445835268849 -0.26642492479899921 0 -0.33526703067793778 -0.26564234312803131 0 -0.33476312054528728 -0.25708724346025841 0 -0.34671445835268849 -0.26642492479899921 0 -0.33476312054528728 -0.25708724346025841 0 -0.34801697513192281 -0.25390758607183572 0 -0.34671445835268849 -0.26642492479899921 0 -0.32283211294546338 -0.26562263696370042 0 -0.33526703067793778 -0.26564234312803131 0 -0.33476312054528728 -0.25708724346025841 0 -0.33476312054528728 -0.25708724346025841 0 -0.34801697513192281 -0.25390758607183572 0 -0.33542008743563279 -0.2451751824225199 0 -0.34801697513192281 -0.25390758607183572 0 -0.36075725608683479 -0.25252399222535399 0 -0.35559992002597007 -0.2440154841809076 0 -0.34801697513192281 -0.25390758607183572 0 -0.36075725608683479 -0.25252399222535399 0 -0.34671445835268849 -0.26642492479899921 0 -0.36075725608683479 -0.25252399222535399 0 -0.36635813716559879 -0.25495480734123471 0 -0.37060646000876091 -0.2656695854631318 0 -0.36075725608683479 -0.25252399222535399 0 -0.36635813716559879 -0.25495480734123471 0 -0.36512292251027972 -0.2486019884582186 0 -0.36635813716559879 -0.25495480734123471 0 -0.37438277794060287 -0.2608297426875657 0 -0.37060646000876091 -0.2656695854631318 0 -0.38095164741168391 -0.2563498561797824 0 -0.36635813716559879 -0.25495480734123471 0 -0.37438277794060287 -0.2608297426875657 0 -0.36635813716559879 -0.25495480734123471 0 -0.37474812662003493 -0.2480042625025452 0 -0.36512292251027972 -0.2486019884582186 0 -0.36075725608683479 -0.25252399222535399 0 -0.36129152276450049 -0.28201018559850127 0 -0.36075725608683479 -0.25252399222535399 0 -0.37060646000876091 -0.2656695854631318 0 -0.36129152276450049 -0.28201018559850127 0 -0.37813623778559691 -0.2757487650759663 0 -0.37060646000876091 -0.2656695854631318 0 -0.36129152276450049 -0.28201018559850127 0 -0.36075725608683479 -0.25252399222535399 0 -0.34671445835268849 -0.26642492479899921 0 -0.36129152276450049 -0.28201018559850127 0 -0.34671445835268849 -0.26642492479899921 0 -0.3439851661365918 -0.28003850931616381 0 -0.36129152276450049 -0.28201018559850127 0 -0.34772555594805649 -0.29036259723189622 0 -0.36129152276450049 -0.28201018559850127 0 -0.36182578944216631 -0.31149637897164861 0 -0.3439851661365918 -0.28003850931616381 0 -0.34772555594805649 -0.29036259723189622 0 -0.36129152276450049 -0.28201018559850127 0 -0.34772555594805649 -0.29036259723189622 0 -0.34682914589746999 -0.30153795677248801 0 -0.34101992379458718 -0.29455448865626349 0 -0.38280900978235383 -0.28896851440252469 0 -0.37813623778559691 -0.2757487650759663 0 -0.36129152276450049 -0.28201018559850127 0 -0.38280900978235383 -0.28896851440252469 0 -0.36129152276450049 -0.28201018559850127 0 -0.37406820646594491 -0.30170550445788319 0 -0.36129152276450049 -0.28201018559850127 0 -0.36182578944216631 -0.31149637897164861 0 -0.36129152276450049 -0.28201018559850127 0 -0.37406820646594491 -0.30170550445788319 0 -0.36182578944216631 -0.31149637897164861 0 -0.37406820646594491 -0.30170550445788319 0 -0.36182578944216631 -0.31149637897164861 0 -0.37492612108969181 -0.3142072071057001 0 -0.34772555594805649 -0.29036259723189622 0 -0.36182578944216631 -0.31149637897164861 0 -0.34682914589746999 -0.30153795677248801 0 -0.36182578944216631 -0.31149637897164861 0 -0.34682914589746999 -0.30153795677248801 0 -0.35014837504727508 -0.31097185002676653 0 -0.34682914589746999 -0.30153795677248801 0 -0.35014837504727508 -0.31097185002676653 0 -0.34133000127675289 -0.3117143833911511 0 -0.34133000127675289 -0.3117143833911511 0 -0.33223827764122182 -0.30004415858739392 0 -0.32884587052191733 -0.31289253674887108 0 -0.34682914589746999 -0.30153795677248801 0 -0.33223827764122182 -0.30004415858739392 0 -0.34101992379458718 -0.29455448865626349 0 -0.34682914589746999 -0.30153795677248801 0 -0.34133000127675289 -0.3117143833911511 0 -0.33223827764122182 -0.30004415858739392 0 -0.33223827764122182 -0.30004415858739392 0 -0.33728671569160029 -0.28627324203327592 0 -0.3152297866469731 -0.29827970437485918 0 -0.33223827764122182 -0.30004415858739392 0 -0.34101992379458718 -0.29455448865626349 0 -0.33728671569160029 -0.28627324203327592 0 -0.34772555594805649 -0.29036259723189622 0 -0.34101992379458718 -0.29455448865626349 0 -0.33728671569160029 -0.28627324203327592 0 -0.3439851661365918 -0.28003850931616381 0 -0.34772555594805649 -0.29036259723189622 0 -0.33728671569160029 -0.28627324203327592 0 -0.3439851661365918 -0.28003850931616381 0 -0.33728671569160029 -0.28627324203327592 0 -0.3369357948806076 -0.28144400949699699 0 -0.33728671569160029 -0.28627324203327592 0 -0.3369357948806076 -0.28144400949699699 0 -0.3304239710456281 -0.28491039326327122 0 -0.33728671569160029 -0.28627324203327592 0 -0.3304239710456281 -0.28491039326327122 0 -0.3152297866469731 -0.29827970437485918 0 -0.33728671569160029 -0.28627324203327592 0 -0.3152297866469731 -0.29827970437485918 0 -0.3304239710456281 -0.28491039326327122 0 -0.3152297866469731 -0.29827970437485918 0 -0.31157618436438339 -0.28029125651555831 0 -0.3152297866469731 -0.29827970437485918 0 -0.31422413592869902 -0.31743272776447279 0 -0.32884587052191733 -0.31289253674887108 0 -0.33223827764122182 -0.30004415858739392 0 -0.3152297866469731 -0.29827970437485918 0 -0.32884587052191733 -0.31289253674887108 0 -0.31422413592869902 -0.31743272776447279 0 -0.31927989166815879 -0.33670294927020528 0 -0.32853347472783639 -0.32568834179478451 0 -0.31422413592869902 -0.31743272776447279 0 -0.32853347472783639 -0.32568834179478451 0 -0.32884587052191733 -0.31289253674887108 0 -0.31927989166815879 -0.33670294927020528 0 -0.33456050343839111 -0.33560920325654842 0 -0.32892688952284788 -0.34630243927364579 0 -0.31927989166815879 -0.33670294927020528 0 -0.33456050343839111 -0.33560920325654842 0 -0.32853347472783639 -0.32568834179478451 0 -0.33456050343839111 -0.33560920325654842 0 -0.33929897840474083 -0.32319258203362711 0 -0.32853347472783639 -0.32568834179478451 0 -0.33456050343839111 -0.33560920325654842 0 -0.34063501355090869 -0.34693830561089889 0 -0.32892688952284788 -0.34630243927364579 0 -0.33456050343839111 -0.33560920325654842 0 -0.34504188372250172 -0.33592722246308898 0 -0.34063501355090869 -0.34693830561089889 0 -0.33456050343839111 -0.33560920325654842 0 -0.33929897840474083 -0.32319258203362711 0 -0.34504188372250172 -0.33592722246308898 0 -0.33929897840474083 -0.32319258203362711 0 -0.32853347472783639 -0.32568834179478451 0 -0.32884587052191733 -0.31289253674887108 0 -0.34133000127675289 -0.3117143833911511 0 -0.33929897840474083 -0.32319258203362711 0 -0.35060856357271131 -0.31913868097177861 0 -0.34133000127675289 -0.3117143833911511 0 -0.33929897840474083 -0.32319258203362711 0 -0.32884587052191733 -0.31289253674887108 0 -0.36182578944216631 -0.31149637897164861 0 -0.35060856357271131 -0.31913868097177861 0 -0.36236005611983202 -0.3409825723447959 0 -0.35014837504727508 -0.31097185002676653 0 -0.34133000127675289 -0.3117143833911511 0 -0.35060856357271131 -0.31913868097177861 0 -0.33929897840474083 -0.32319258203362711 0 -0.35060856357271131 -0.31913868097177861 0 -0.34504188372250172 -0.33592722246308898 0 -0.36182578944216631 -0.31149637897164861 0 -0.35014837504727508 -0.31097185002676653 0 -0.35060856357271131 -0.31913868097177861 0 -0.36182578944216631 -0.31149637897164861 0 -0.36236005611983202 -0.3409825723447959 0 -0.36182578944216631 -0.31149637897164861 0 -0.37059884822804079 -0.32608535496615632 0 -0.36236005611983202 -0.3409825723447959 0 -0.36182578944216631 -0.31149637897164861 0 -0.37059884822804079 -0.32608535496615632 0 -0.37492612108969181 -0.3142072071057001 0 -0.37245731417969702 -0.33680980758053142 0 -0.36236005611983202 -0.3409825723447959 0 -0.37448260438615971 -0.34426094393418077 0 -0.37059884822804079 -0.32608535496615632 0 -0.37245731417969702 -0.33680980758053142 0 -0.36236005611983202 -0.3409825723447959 0 -0.35060856357271131 -0.31913868097177861 0 -0.35468203150014871 -0.34275916091433012 0 -0.35060856357271131 -0.31913868097177861 0 -0.35468203150014871 -0.34275916091433012 0 -0.34504188372250172 -0.33592722246308898 0 -0.35060856357271131 -0.31913868097177861 0 -0.36236005611983202 -0.3409825723447959 0 -0.35468203150014871 -0.34275916091433012 0 -0.34504188372250172 -0.33592722246308898 0 -0.34730753831272593 -0.34538685922746698 0 -0.34063501355090869 -0.34693830561089889 0 -0.35468203150014871 -0.34275916091433012 0 -0.34504188372250172 -0.33592722246308898 0 -0.34730753831272593 -0.34538685922746698 0 -0.34730753831272593 -0.34538685922746698 0 -0.34887122447734481 -0.35592274792154999 0 -0.34063501355090869 -0.34693830561089889 0 -0.35468203150014871 -0.34275916091433012 0 -0.34730753831272593 -0.34538685922746698 0 -0.34887122447734481 -0.35592274792154999 0 -0.35468203150014871 -0.34275916091433012 0 -0.34887122447734481 -0.35592274792154999 0 -0.358755499427586 -0.36637964085688163 0 -0.36236005611983202 -0.3409825723447959 0 -0.35468203150014871 -0.34275916091433012 0 -0.358755499427586 -0.36637964085688163 0 -0.35468203150014871 -0.34275916091433012 0 -0.358755499427586 -0.36637964085688163 0 -0.36236005611983202 -0.3409825723447959 0 -0.36289432279749773 -0.37046876571794318 0 -0.358755499427586 -0.36637964085688163 0 -0.36236005611983202 -0.3409825723447959 0 -0.36843861381102688 -0.35291879288046252 0 -0.36289432279749773 -0.37046876571794318 0 -0.36236005611983202 -0.3409825723447959 0 -0.36289432279749773 -0.37046876571794318 0 -0.36236005611983202 -0.3409825723447959 0 -0.36843861381102688 -0.35291879288046252 0 -0.37448260438615971 -0.34426094393418077 0 -0.37401747194061841 -0.35596288952493021 0 -0.36843861381102688 -0.35291879288046252 0 -0.37448260438615971 -0.34426094393418077 0 -0.37401747194061841 -0.35596288952493021 0 -0.36843861381102688 -0.35291879288046252 0 -0.36289432279749773 -0.37046876571794318 0 -0.37785856937865758 -0.37355414846445112 0 -0.37003119626130082 -0.37369109823104057 0 -0.37296559159509202 -0.36681209433909601 0 -0.37003119626130082 -0.37369109823104057 0 -0.37296559159509202 -0.36681209433909601 0 -0.36289432279749773 -0.37046876571794318 0 -0.37401747194061841 -0.35596288952493021 0 -0.37296559159509202 -0.36681209433909601 0 -0.36289432279749773 -0.37046876571794318 0 -0.36289432279749773 -0.37046876571794318 0 -0.358755499427586 -0.36637964085688163 0 -0.36477376446429832 -0.37686364123407801 0 -0.37003119626130082 -0.37369109823104057 0 -0.36289432279749773 -0.37046876571794318 0 -0.36477376446429832 -0.37686364123407801 0 -0.358755499427586 -0.36637964085688163 0 -0.35097894450571637 -0.37083881405636682 0 -0.35437395489609541 -0.37929674451861578 0 -0.358755499427586 -0.36637964085688163 0 -0.34839114446565489 -0.36492314902673528 0 -0.35097894450571637 -0.37083881405636682 0 -0.34887122447734481 -0.35592274792154999 0 -0.358755499427586 -0.36637964085688163 0 -0.34839114446565489 -0.36492314902673528 0 -0.34887122447734481 -0.35592274792154999 0 -0.34839114446565489 -0.36492314902673528 0 -0.33493578144888347 -0.35887016711687841 0 -0.34839114446565489 -0.36492314902673528 0 -0.35097894450571637 -0.37083881405636682 0 -0.34239517923352952 -0.37275572182323441 0 -0.35097894450571637 -0.37083881405636682 0 -0.34239517923352952 -0.37275572182323441 0 -0.35437395489609541 -0.37929674451861578 0 -0.34239517923352952 -0.37275572182323441 0 -0.33493578144888347 -0.35887016711687841 0 -0.31729017267945342 -0.37681960929470648 0 -0.34839114446565489 -0.36492314902673528 0 -0.34239517923352952 -0.37275572182323441 0 -0.33493578144888347 -0.35887016711687841 0 -0.34887122447734481 -0.35592274792154999 0 -0.34063501355090869 -0.34693830561089889 0 -0.33493578144888347 -0.35887016711687841 0 -0.34063501355090869 -0.34693830561089889 0 -0.32892688952284788 -0.34630243927364579 0 -0.33493578144888347 -0.35887016711687841 0 -0.32892688952284788 -0.34630243927364579 0 -0.33493578144888347 -0.35887016711687841 0 -0.31516358625109059 -0.35553384982399189 0 -0.31927989166815879 -0.33670294927020528 0 -0.31516358625109059 -0.35553384982399189 0 -0.30430281764213141 -0.34502201071979538 0 -0.31927989166815879 -0.33670294927020528 0 -0.32892688952284788 -0.34630243927364579 0 -0.31516358625109059 -0.35553384982399189 0 -0.33493578144888347 -0.35887016711687841 0 -0.31516358625109059 -0.35553384982399189 0 -0.31729017267945342 -0.37681960929470648 0 -0.31516358625109059 -0.35553384982399189 0 -0.29425011618554131 -0.36246143415289889 0 -0.31729017267945342 -0.37681960929470648 0 -0.29425011618554131 -0.36246143415289889 0 -0.31729017267945342 -0.37681960929470648 0 -0.29425011618554131 -0.36246143415289889 0 -0.31729017267945342 -0.37681960929470648 0 -0.29953903879506422 -0.38050833176702498 0 -0.31516358625109059 -0.35553384982399189 0 -0.30430281764213141 -0.34502201071979538 0 -0.29425011618554131 -0.36246143415289889 0 -0.29425011618554131 -0.36246143415289889 0 -0.2712100596916297 -0.34810325901109102 0 -0.29079013738089082 -0.34291013415811739 0 -0.30430281764213141 -0.34502201071979538 0 -0.29425011618554131 -0.36246143415289889 0 -0.29079013738089082 -0.34291013415811739 0 -0.29425011618554131 -0.36246143415289889 0 -0.2712100596916297 -0.34810325901109102 0 -0.29425011618554131 -0.36246143415289889 0 -0.27871097237567111 -0.37336117949457481 0 -0.29953903879506422 -0.38050833176702498 0 -0.29425011618554131 -0.36246143415289889 0 -0.27871097237567111 -0.37336117949457481 0 -0.2712100596916297 -0.34810325901109102 0 -0.27871097237567111 -0.37336117949457481 0 -0.26021245460069309 -0.36910979395736082 0 -0.2712100596916297 -0.34810325901109102 0 -0.26021245460069309 -0.36910979395736082 0 -0.25233789448144839 -0.34879846937914188 0 -0.24780058098437621 -0.36906566620035891 0 -0.26021245460069309 -0.36910979395736082 0 -0.25233789448144839 -0.34879846937914188 0 -0.2712100596916297 -0.34810325901109102 0 -0.26021245460069309 -0.36910979395736082 0 -0.2712100596916297 -0.34810325901109102 0 -0.2712100596916297 -0.34810325901109102 0 -0.28362270653440003 -0.32439385159721051 0 -0.2712100596916297 -0.34810325901109102 0 -0.27111592855771849 -0.32229262905802603 0 -0.28362270653440003 -0.32439385159721051 0 -0.25233789448144839 -0.34879846937914188 0 -0.2712100596916297 -0.34810325901109102 0 -0.2490589995130878 -0.33429909139960301 0 -0.27111592855771849 -0.32229262905802603 0 -0.2490589995130878 -0.33429909139960301 0 -0.2712100596916297 -0.34810325901109102 0 -0.2490589995130878 -0.33429909139960301 0 -0.2712100596916297 -0.34810325901109102 0 -0.27111592855771849 -0.32229262905802603 0 -0.2490589995130878 -0.33429909139960301 0 -0.25353646602606589 -0.3209638071760379 0 -0.26211628043869101 -0.31081584409556701 0 -0.2431357343990431 -0.30735227651364311 0 -0.25353646602606589 -0.3209638071760379 0 -0.27111592855771849 -0.32229262905802603 0 -0.2490589995130878 -0.33429909139960301 0 -0.25353646602606589 -0.3209638071760379 0 -0.27111592855771849 -0.32229262905802603 0 -0.26211628043869101 -0.31081584409556701 0 -0.27111592855771849 -0.32229262905802603 0 -0.27661794251674038 -0.31460699177302298 0 -0.26211628043869101 -0.31081584409556701 0 -0.27111592855771849 -0.32229262905802603 0 -0.27661794251674038 -0.31460699177302298 0 -0.29317285760234579 -0.3102861667164426 0 -0.28362270653440003 -0.32439385159721051 0 -0.30203035672497541 -0.32750168619376319 0 -0.29317285760234579 -0.3102861667164426 0 -0.27111592855771849 -0.32229262905802603 0 -0.29317285760234579 -0.3102861667164426 0 -0.27111592855771849 -0.32229262905802603 0 -0.28362270653440003 -0.32439385159721051 0 -0.29317285760234579 -0.3102861667164426 0 -0.2712100596916297 -0.34810325901109102 0 -0.28362270653440003 -0.32439385159721051 0 -0.29079013738089082 -0.34291013415811739 0 -0.28362270653440003 -0.32439385159721051 0 -0.29079013738089082 -0.34291013415811739 0 -0.30203035672497541 -0.32750168619376319 0 -0.30430281764213141 -0.34502201071979538 0 -0.29079013738089082 -0.34291013415811739 0 -0.30203035672497541 -0.32750168619376319 0 -0.31927989166815879 -0.33670294927020528 0 -0.30430281764213141 -0.34502201071979538 0 -0.30203035672497541 -0.32750168619376319 0 -0.31422413592869902 -0.31743272776447279 0 -0.31927989166815879 -0.33670294927020528 0 -0.30203035672497541 -0.32750168619376319 0 -0.31422413592869902 -0.31743272776447279 0 -0.30203035672497541 -0.32750168619376319 0 -0.29317285760234579 -0.3102861667164426 0 -0.3152297866469731 -0.29827970437485918 0 -0.29613246210248317 -0.29180249802625241 0 -0.29317285760234579 -0.3102861667164426 0 -0.3152297866469731 -0.29827970437485918 0 -0.29317285760234579 -0.3102861667164426 0 -0.3152297866469731 -0.29827970437485918 0 -0.31422413592869902 -0.31743272776447279 0 -0.29317285760234579 -0.3102861667164426 0 -0.29613246210248317 -0.29180249802625241 0 -0.29332664111729712 -0.27684364447900273 0 -0.31157618436438339 -0.28029125651555831 0 -0.3152297866469731 -0.29827970437485918 0 -0.29613246210248317 -0.29180249802625241 0 -0.31157618436438339 -0.28029125651555831 0 -0.29613246210248317 -0.29180249802625241 0 -0.27902704863103212 -0.28431712583216789 0 -0.29332664111729712 -0.27684364447900273 0 -0.29613246210248317 -0.29180249802625241 0 -0.2832165339691235 -0.29970507234876209 0 -0.27902704863103212 -0.28431712583216789 0 -0.27661794251674038 -0.31460699177302298 0 -0.29317285760234579 -0.3102861667164426 0 -0.2832165339691235 -0.29970507234876209 0 -0.29613246210248317 -0.29180249802625241 0 -0.29317285760234579 -0.3102861667164426 0 -0.2832165339691235 -0.29970507234876209 0 -0.27661794251674038 -0.31460699177302298 0 -0.2832165339691235 -0.29970507234876209 0 -0.26740689868424322 -0.294207829800534 0 -0.27661794251674038 -0.31460699177302298 0 -0.26740689868424322 -0.294207829800534 0 -0.27661794251674038 -0.31460699177302298 0 -0.26211628043869101 -0.31081584409556701 0 -0.26740689868424322 -0.294207829800534 0 -0.26211628043869101 -0.31081584409556701 0 -0.26740689868424322 -0.294207829800534 0 -0.2431357343990431 -0.30735227651364311 0 -0.26740689868424322 -0.294207829800534 0 -0.24401608157629889 -0.284645358213933 0 -0.2431357343990431 -0.30735227651364311 0 -0.26740689868424322 -0.294207829800534 0 -0.25819585485174579 -0.27380866782804492 0 -0.24401608157629889 -0.284645358213933 0 -0.26740689868424322 -0.294207829800534 0 -0.25819585485174579 -0.27380866782804492 0 -0.27902704863103212 -0.28431712583216789 0 -0.26740689868424322 -0.294207829800534 0 -0.25819585485174579 -0.27380866782804492 0 -0.2832165339691235 -0.29970507234876209 0 -0.27902704863103212 -0.28431712583216789 0 -0.26740689868424322 -0.294207829800534 0 -0.27902704863103212 -0.28431712583216789 0 -0.27588390106130017 -0.26953504251041199 0 -0.25819585485174579 -0.27380866782804492 0 -0.27588390106130017 -0.26953504251041199 0 -0.25819585485174579 -0.27380866782804492 0 -0.2611968910486121 -0.25947921393684831 0 -0.25819585485174579 -0.27380866782804492 0 -0.24898481101924899 -0.25340950585555583 0 -0.24489642875355369 -0.26193843991422289 0 -0.25059524740695288 -0.25004991155547401 0 -0.2611968910486121 -0.25947921393684831 0 -0.27214358321973381 -0.24881156792502829 0 -0.25819585485174579 -0.27380866782804492 0 -0.24898481101924899 -0.25340950585555583 0 -0.25819585485174579 -0.27380866782804492 0 -0.2611968910486121 -0.25947921393684831 0 -0.24898481101924899 -0.25340950585555583 0 -0.25059524740695288 -0.25004991155547401 0 -0.2611968910486121 -0.25947921393684831 0 -0.24898481101924899 -0.25340950585555583 0 -0.27588390106130017 -0.26953504251041199 0 -0.2611968910486121 -0.25947921393684831 0 -0.27214358321973381 -0.24881156792502829 0 -0.27588390106130017 -0.26953504251041199 0 -0.28826843814776892 -0.26152109157517678 0 -0.27214358321973381 -0.24881156792502829 0 -0.28826843814776892 -0.26152109157517678 0 -0.29369191903251463 -0.2475732242945802 0 -0.27214358321973381 -0.24881156792502829 0 -0.28826843814776892 -0.26152109157517678 0 -0.30458347269285779 -0.26268955606795308 0 -0.29369191903251463 -0.2475732242945802 0 -0.27902704863103212 -0.28431712583216789 0 -0.27588390106130017 -0.26953504251041199 0 -0.29332664111729712 -0.27684364447900273 0 -0.27588390106130017 -0.26953504251041199 0 -0.28826843814776892 -0.26152109157517678 0 -0.29332664111729712 -0.27684364447900273 0 -0.28826843814776892 -0.26152109157517678 0 -0.29332664111729712 -0.27684364447900273 0 -0.30458347269285779 -0.26268955606795308 0 -0.29332664111729712 -0.27684364447900273 0 -0.31157618436438339 -0.28029125651555831 0 -0.30458347269285779 -0.26268955606795308 0 -0.30458347269285779 -0.26268955606795308 0 -0.29369191903251463 -0.2475732242945802 0 -0.31524025484529539 -0.24633488066413101 0 -0.33947692408993702 -0.45053900051504248 0 -0.32778880730845378 -0.47199473556850441 0 -0.35127740522716289 -0.4624703186731623 0 -0.33947692408993702 -0.45053900051504248 0 -0.31953952714470613 -0.45844922002762523 0 -0.32778880730845378 -0.47199473556850441 0 -0.33947692408993702 -0.45053900051504248 0 -0.32294378664178652 -0.44509729717026469 0 -0.33264123820424352 -0.43499253865892268 0 -0.33947692408993702 -0.45053900051504248 0 -0.34718654969370999 -0.43624756140549131 0 -0.33264123820424352 -0.43499253865892268 0 -0.32294378664178652 -0.44509729717026469 0 -0.31659593990825941 -0.43140708835283181 0 -0.30928009124943001 -0.44728071794402419 0 -0.33947692408993702 -0.45053900051504248 0 -0.32294378664178652 -0.44509729717026469 0 -0.31953952714470613 -0.45844922002762523 0 -0.32294378664178652 -0.44509729717026469 0 -0.31953952714470613 -0.45844922002762523 0 -0.30928009124943001 -0.44728071794402419 0 -0.31953952714470613 -0.45844922002762523 0 -0.32778880730845378 -0.47199473556850441 0 -0.30254264328530178 -0.46932916331849711 0 -0.32778880730845378 -0.47199473556850441 0 -0.31212339940803158 -0.5 0 -0.30254264328530178 -0.46932916331849711 0 -0.32778880730845378 -0.47199473556850441 0 -0.34064312605010522 -0.5 0 -0.31212339940803158 -0.5 0 -0.32778880730845378 -0.47199473556850441 0 -0.34447798005218327 -0.47834162122385621 0 -0.35127740522716289 -0.4624703186731623 0 -0.32778880730845378 -0.47199473556850441 0 -0.34064312605010522 -0.5 0 -0.34447798005218327 -0.47834162122385621 0 -0.34447798005218327 -0.47834162122385621 0 -0.359564090080012 -0.48132386746754241 0 -0.35127740522716289 -0.4624703186731623 0 -0.34064312605010522 -0.5 0 -0.34447798005218327 -0.47834162122385621 0 -0.359564090080012 -0.48132386746754241 0 -0.34064312605010522 -0.5 0 -0.36916285269217869 -0.5 0 -0.359564090080012 -0.48132386746754241 0 -0.37641822055265189 -0.46879899397253638 0 -0.359564090080012 -0.48132386746754241 0 -0.35127740522716289 -0.4624703186731623 0 -0.37641822055265189 -0.46879899397253638 0 -0.36916285269217869 -0.5 0 -0.359564090080012 -0.48132386746754241 0 -0.37641822055265189 -0.46879899397253638 0 -0.36065266518752542 -0.45176826346095961 0 -0.37270893307682018 -0.44729025694925029 0 -0.37641822055265189 -0.46879899397253638 0 -0.37270893307682018 -0.44729025694925029 0 -0.37641822055265189 -0.46879899397253638 0 -0.35127740522716289 -0.4624703186731623 0 -0.36065266518752542 -0.45176826346095961 0 -0.35127740522716289 -0.4624703186731623 0 -0.35192384534367999 -0.44786557832309892 0 -0.36065266518752542 -0.45176826346095961 0 -0.33947692408993702 -0.45053900051504248 0 -0.35127740522716289 -0.4624703186731623 0 -0.35192384534367999 -0.44786557832309892 0 -0.33947692408993702 -0.45053900051504248 0 -0.35192384534367999 -0.44786557832309892 0 -0.34718654969370999 -0.43624756140549131 0 -0.35192384534367999 -0.44786557832309892 0 -0.36102568252006489 -0.43830274756083881 0 -0.36065266518752542 -0.45176826346095961 0 -0.35192384534367999 -0.44786557832309892 0 -0.36102568252006489 -0.43830274756083881 0 -0.34718654969370999 -0.43624756140549131 0 -0.36102568252006489 -0.43830274756083881 0 -0.36065266518752542 -0.45176826346095961 0 -0.37270893307682018 -0.44729025694925029 0 -0.36102568252006489 -0.43830274756083881 0 -0.37270893307682018 -0.44729025694925029 0 -0.36899964560098858 -0.42578151992596419 0 -0.37270893307682018 -0.44729025694925029 0 -0.36899964560098858 -0.42578151992596419 0 -0.36102568252006489 -0.43830274756083881 0 -0.36899964560098858 -0.42578151992596419 0 -0.35562956941671131 -0.42754794560063653 0 -0.36899964560098858 -0.42578151992596419 0 -0.36286286666808859 -0.41781926079392923 0 -0.35562956941671131 -0.42754794560063653 0 -0.36899964560098858 -0.42578151992596419 0 -0.36576562911041288 -0.40702869726715851 0 -0.36286286666808859 -0.41781926079392923 0 -0.36899964560098858 -0.42578151992596419 0 -0.36576562911041288 -0.40702869726715851 0 -0.38700330194845922 -0.4202636572722947 0 -0.36899964560098858 -0.42578151992596419 0 -0.36576562911041288 -0.40702869726715851 0 -0.36576562911041288 -0.40702869726715851 0 -0.36286286666808859 -0.41781926079392923 0 -0.34980184849645701 -0.40938764120259918 0 -0.36899964560098858 -0.42578151992596419 0 -0.36286286666808859 -0.41781926079392923 0 -0.36286286666808859 -0.41781926079392923 0 -0.34980184849645701 -0.40938764120259918 0 -0.35048864947679492 -0.41947815680734452 0 -0.36286286666808859 -0.41781926079392923 0 -0.35048864947679492 -0.41947815680734452 0 -0.35562956941671131 -0.42754794560063653 0 -0.34980184849645701 -0.40938764120259918 0 -0.35048864947679492 -0.41947815680734452 0 -0.3419802294323292 -0.4160898829575122 0 -0.35048864947679492 -0.41947815680734452 0 -0.34216873337038811 -0.4265460534820455 0 -0.3419802294323292 -0.4160898829575122 0 -0.35048864947679492 -0.41947815680734452 0 -0.35562956941671131 -0.42754794560063653 0 -0.34216873337038811 -0.4265460534820455 0 -0.34718654969370999 -0.43624756140549131 0 -0.35562956941671131 -0.42754794560063653 0 -0.34216873337038811 -0.4265460534820455 0 -0.36102568252006489 -0.43830274756083881 0 -0.34718654969370999 -0.43624756140549131 0 -0.35562956941671131 -0.42754794560063653 0 -0.358755499427586 -0.36637964085688163 0 -0.36477376446429832 -0.37686364123407801 0 -0.36282896735502318 -0.39000012079943303 0 -0.358755499427586 -0.36637964085688163 0 -0.36282896735502318 -0.39000012079943303 0 -0.36477376446429832 -0.37686364123407801 0 -0.37166373307095851 -0.38075684139963512 0 -0.36282896735502318 -0.39000012079943303 0 -0.37785856937865758 -0.37355414846445112 0 -0.37003119626130082 -0.37369109823104057 0 -0.37166373307095851 -0.38075684139963512 0 -0.37003119626130082 -0.37369109823104057 0 -0.36477376446429832 -0.37686364123407801 0 -0.37166373307095851 -0.38075684139963512 0 -0.3755243739538135 -0.38933559825649589 0 -0.36282896735502318 -0.39000012079943303 0 -0.3755243739538135 -0.38933559825649589 0 -0.37166373307095851 -0.38075684139963512 0 -0.36282896735502318 -0.39000012079943303 0 -0.36576562911041288 -0.40702869726715851 0 -0.36282896735502318 -0.39000012079943303 0 -0.36576562911041288 -0.40702869726715851 0 -0.36282896735502318 -0.39000012079943303 0 -0.37260182642857559 -0.39831487258102538 0 -0.3755243739538135 -0.38933559825649589 0 -0.36282896735502318 -0.39000012079943303 0 -0.37260182642857559 -0.39831487258102538 0 -0.38092085950929938 -0.40584578046397218 0 -0.36576562911041288 -0.40702869726715851 0 -0.37260182642857559 -0.39831487258102538 0 -0.36576562911041288 -0.40702869726715851 0 -0.36282896735502318 -0.39000012079943303 0 -0.34033022917336508 -0.3911777844365143 0 -0.36576562911041288 -0.40702869726715851 0 -0.34033022917336508 -0.3911777844365143 0 -0.36576562911041288 -0.40702869726715851 0 -0.34980184849645701 -0.40938764120259918 0 -0.34033022917336508 -0.3911777844365143 0 -0.36282896735502318 -0.39000012079943303 0 -0.35437395489609541 -0.37929674451861578 0 -0.34033022917336508 -0.3911777844365143 0 -0.36282896735502318 -0.39000012079943303 0 -0.34033022917336508 -0.3911777844365143 0 -0.358755499427586 -0.36637964085688163 0 -0.36282896735502318 -0.39000012079943303 0 -0.35437395489609541 -0.37929674451861578 0 -0.34239517923352952 -0.37275572182323441 0 -0.35437395489609541 -0.37929674451861578 0 -0.34033022917336508 -0.3911777844365143 0 -0.34033022917336508 -0.3911777844365143 0 -0.31729017267945342 -0.37681960929470648 0 -0.34239517923352952 -0.37275572182323441 0 -0.34033022917336508 -0.3911777844365143 0 -0.31729017267945342 -0.37681960929470648 0 -0.34980184849645701 -0.40938764120259918 0 -0.34033022917336508 -0.3911777844365143 0 -0.3333434742467295 -0.40564363852146451 0 -0.34033022917336508 -0.3911777844365143 0 -0.3333434742467295 -0.40564363852146451 0 -0.31472092386701139 -0.39251826617316571 0 -0.34033022917336508 -0.3911777844365143 0 -0.31472092386701139 -0.39251826617316571 0 -0.31472092386701139 -0.39251826617316571 0 -0.31949109241072271 -0.40695340025340082 0 -0.30768914942794112 -0.41316184033381442 0 -0.3333434742467295 -0.40564363852146451 0 -0.31472092386701139 -0.39251826617316571 0 -0.31949109241072271 -0.40695340025340082 0 -0.34033022917336508 -0.3911777844365143 0 -0.31472092386701139 -0.39251826617316571 0 -0.31729017267945342 -0.37681960929470648 0 -0.33264123820424352 -0.43499253865892268 0 -0.34216873337038811 -0.4265460534820455 0 -0.32730695913358948 -0.41899907705510958 0 -0.34718654969370999 -0.43624756140549131 0 -0.33264123820424352 -0.43499253865892268 0 -0.34216873337038811 -0.4265460534820455 0 -0.34980184849645701 -0.40938764120259918 0 -0.3333434742467295 -0.40564363852146451 0 -0.3419802294323292 -0.4160898829575122 0 -0.34216873337038811 -0.4265460534820455 0 -0.3419802294323292 -0.4160898829575122 0 -0.32730695913358948 -0.41899907705510958 0 -0.3333434742467295 -0.40564363852146451 0 -0.3419802294323292 -0.4160898829575122 0 -0.32730695913358948 -0.41899907705510958 0 -0.32730695913358948 -0.41899907705510958 0 -0.31949109241072271 -0.40695340025340082 0 -0.30768914942794112 -0.41316184033381442 0 -0.32730695913358948 -0.41899907705510958 0 -0.31659593990825941 -0.43140708835283181 0 -0.30768914942794112 -0.41316184033381442 0 -0.3333434742467295 -0.40564363852146451 0 -0.32730695913358948 -0.41899907705510958 0 -0.31949109241072271 -0.40695340025340082 0 -0.33264123820424352 -0.43499253865892268 0 -0.32730695913358948 -0.41899907705510958 0 -0.31659593990825941 -0.43140708835283181 0 -0.32294378664178652 -0.44509729717026469 0 -0.33264123820424352 -0.43499253865892268 0 -0.31659593990825941 -0.43140708835283181 0 -0.31659593990825941 -0.43140708835283181 0 -0.30116910120875479 -0.4327365399191711 0 -0.30928009124943001 -0.44728071794402419 0 -0.30116910120875479 -0.4327365399191711 0 -0.30768914942794112 -0.41316184033381442 0 -0.29428959114817571 -0.42058968508403138 0 -0.31659593990825941 -0.43140708835283181 0 -0.30116910120875479 -0.4327365399191711 0 -0.30768914942794112 -0.41316184033381442 0 -0.30768914942794112 -0.41316184033381442 0 -0.29428959114817571 -0.42058968508403138 0 -0.28911161856065759 -0.39385874790981679 0 -0.29428959114817571 -0.42058968508403138 0 -0.28911161856065759 -0.39385874790981679 0 -0.28055419517705099 -0.41809716856934698 0 -0.29428959114817571 -0.42058968508403138 0 -0.28191097607081861 -0.43069309412154289 0 -0.28055419517705099 -0.41809716856934698 0 -0.30116910120875479 -0.4327365399191711 0 -0.29428959114817571 -0.42058968508403138 0 -0.28191097607081861 -0.43069309412154289 0 -0.31472092386701139 -0.39251826617316571 0 -0.29953903879506422 -0.38050833176702498 0 -0.28911161856065759 -0.39385874790981679 0 -0.31472092386701139 -0.39251826617316571 0 -0.31729017267945342 -0.37681960929470648 0 -0.29953903879506422 -0.38050833176702498 0 -0.31472092386701139 -0.39251826617316571 0 -0.30768914942794112 -0.41316184033381442 0 -0.28911161856065759 -0.39385874790981679 0 -0.31472092386701139 -0.39251826617316571 0 -0.28911161856065759 -0.39385874790981679 0 -0.28911161856065759 -0.39385874790981679 0 -0.27565146641475752 -0.40371298183943721 0 -0.28055419517705099 -0.41809716856934698 0 -0.27871097237567111 -0.37336117949457481 0 -0.29953903879506422 -0.38050833176702498 0 -0.28911161856065759 -0.39385874790981679 0 -0.27871097237567111 -0.37336117949457481 0 -0.28911161856065759 -0.39385874790981679 0 -0.26900981611120689 -0.38974001894866023 0 -0.27871097237567111 -0.37336117949457481 0 -0.26021245460069309 -0.36910979395736082 0 -0.26900981611120689 -0.38974001894866023 0 -0.28911161856065759 -0.39385874790981679 0 -0.26900981611120689 -0.38974001894866023 0 -0.27565146641475752 -0.40371298183943721 0 -0.26900981611120689 -0.38974001894866023 0 -0.27565146641475752 -0.40371298183943721 0 -0.26115753520571239 -0.40828108158714482 0 -0.26900981611120689 -0.38974001894866023 0 -0.26115753520571239 -0.40828108158714482 0 -0.2492148495097499 -0.39011632890362719 0 -0.26021245460069309 -0.36910979395736082 0 -0.26900981611120689 -0.38974001894866023 0 -0.2492148495097499 -0.39011632890362719 0 -0.26021245460069309 -0.36910979395736082 0 -0.2492148495097499 -0.39011632890362719 0 -0.26021245460069309 -0.36910979395736082 0 -0.2492148495097499 -0.39011632890362719 0 -0.24780058098437621 -0.36906566620035891 0 -0.28191097607081861 -0.43069309412154289 0 -0.2694580369415101 -0.4190999998916532 0 -0.25814706465220311 -0.42981066701586029 0 -0.28191097607081861 -0.43069309412154289 0 -0.25814706465220311 -0.42981066701586029 0 -0.27807688488560028 -0.44849847018182731 0 -0.28191097607081861 -0.43069309412154289 0 -0.28055419517705099 -0.41809716856934698 0 -0.2694580369415101 -0.4190999998916532 0 -0.27565146641475752 -0.40371298183943721 0 -0.28055419517705099 -0.41809716856934698 0 -0.2694580369415101 -0.4190999998916532 0 -0.27565146641475752 -0.40371298183943721 0 -0.2694580369415101 -0.4190999998916532 0 -0.26115753520571239 -0.40828108158714482 0 -0.2694580369415101 -0.4190999998916532 0 -0.26115753520571239 -0.40828108158714482 0 -0.25814706465220311 -0.42981066701586029 0 -0.26115753520571239 -0.40828108158714482 0 -0.25814706465220311 -0.42981066701586029 0 -0.2382172444188061 -0.41112286384989338 0 -0.25814706465220311 -0.42981066701586029 0 -0.25677198870167001 -0.44826044896924988 0 -0.24237122713312539 -0.43352525392010449 0 -0.25814706465220311 -0.42981066701586029 0 -0.25677198870167001 -0.44826044896924988 0 -0.27807688488560028 -0.44849847018182731 0 -0.25677198870167001 -0.44826044896924988 0 -0.2671326616220428 -0.47449578623611888 0 -0.2484527787808474 -0.46609939256093919 0 -0.25677198870167001 -0.44826044896924988 0 -0.27807688488560028 -0.44849847018182731 0 -0.2671326616220428 -0.47449578623611888 0 -0.27807688488560028 -0.44849847018182731 0 -0.28401907426526729 -0.46630226495485272 0 -0.2671326616220428 -0.47449578623611888 0 -0.25814706465220311 -0.42981066701586029 0 -0.27807688488560028 -0.44849847018182731 0 -0.28191097607081861 -0.43069309412154289 0 -0.27807688488560028 -0.44849847018182731 0 -0.2928331284941954 -0.44914004173998578 0 -0.30116910120875479 -0.4327365399191711 0 -0.28191097607081861 -0.43069309412154289 0 -0.2928331284941954 -0.44914004173998578 0 -0.2928331284941954 -0.44914004173998578 0 -0.28401907426526729 -0.46630226495485272 0 -0.30254264328530178 -0.46932916331849711 0 -0.27807688488560028 -0.44849847018182731 0 -0.2928331284941954 -0.44914004173998578 0 -0.28401907426526729 -0.46630226495485272 0 -0.31953952714470613 -0.45844922002762523 0 -0.30928009124943001 -0.44728071794402419 0 -0.30254264328530178 -0.46932916331849711 0 -0.2928331284941954 -0.44914004173998578 0 -0.30928009124943001 -0.44728071794402419 0 -0.30254264328530178 -0.46932916331849711 0 -0.30116910120875479 -0.4327365399191711 0 -0.2928331284941954 -0.44914004173998578 0 -0.30928009124943001 -0.44728071794402419 0 -0.31212339940803158 -0.5 0 -0.30254264328530178 -0.46932916331849711 0 -0.29076093054498031 -0.48323680163013538 0 -0.28401907426526729 -0.46630226495485272 0 -0.30254264328530178 -0.46932916331849711 0 -0.29076093054498031 -0.48323680163013538 0 -0.31212339940803158 -0.5 0 -0.29076093054498031 -0.48323680163013538 0 -0.28360367276595788 -0.5 0 -0.28360367276595788 -0.5 0 -0.2671326616220428 -0.47449578623611888 0 -0.25508394612388419 -0.5 0 -0.29076093054498031 -0.48323680163013538 0 -0.28360367276595788 -0.5 0 -0.2671326616220428 -0.47449578623611888 0 -0.28401907426526729 -0.46630226495485272 0 -0.29076093054498031 -0.48323680163013538 0 -0.2671326616220428 -0.47449578623611888 0 -0.2671326616220428 -0.47449578623611888 0 -0.2375072020822577 -0.48294963976573613 0 -0.2484527787808474 -0.46609939256093919 0 -0.2671326616220428 -0.47449578623611888 0 -0.25508394612388419 -0.5 0 -0.2375072020822577 -0.48294963976573613 0 -0.25508394612388419 -0.5 0 -0.2375072020822577 -0.48294963976573613 0 -0.22656421948181049 -0.5 0 -0.2375072020822577 -0.48294963976573613 0 -0.2484527787808474 -0.46609939256093919 0 -0.22966266026127899 -0.46427005690286782 0 -0.2375072020822577 -0.48294963976573613 0 -0.22966266026127899 -0.46427005690286782 0 -0.2157907941861491 -0.48092628371723189 0 -0.2375072020822577 -0.48294963976573613 0 -0.22656421948181049 -0.5 0 -0.2157907941861491 -0.48092628371723189 0 -0.25677198870167001 -0.44826044896924988 0 -0.23183691400197201 -0.44565973052365931 0 -0.24237122713312539 -0.43352525392010449 0 -0.25677198870167001 -0.44826044896924988 0 -0.24168108543644209 -0.45607240723917902 0 -0.23183691400197201 -0.44565973052365931 0 -0.25677198870167001 -0.44826044896924988 0 -0.23183691400197201 -0.44565973052365931 0 -0.24168108543644209 -0.45607240723917902 0 -0.22966266026127899 -0.46427005690286782 0 -0.23183691400197201 -0.44565973052365931 0 -0.24168108543644209 -0.45607240723917902 0 -0.2484527787808474 -0.46609939256093919 0 -0.22966266026127899 -0.46427005690286782 0 -0.25677198870167001 -0.44826044896924988 0 -0.24168108543644209 -0.45607240723917902 0 -0.2484527787808474 -0.46609939256093919 0 -0.22966266026127899 -0.46427005690286782 0 -0.20812079112521789 -0.46120494929907402 0 -0.22966266026127899 -0.46427005690286782 0 -0.21990961660111219 -0.45332671202555469 0 -0.20812079112521789 -0.46120494929907402 0 -0.22966266026127899 -0.46427005690286782 0 -0.21990961660111219 -0.45332671202555469 0 -0.23183691400197201 -0.44565973052365931 0 -0.23183691400197201 -0.44565973052365931 0 -0.2069018393022739 -0.44305901207807169 0 -0.23183691400197201 -0.44565973052365931 0 -0.2069018393022739 -0.44305901207807169 0 -0.22688292389097589 -0.43277255924186009 0 -0.21990961660111219 -0.45332671202555469 0 -0.23183691400197201 -0.44565973052365931 0 -0.20834480504175951 -0.44512316631436161 0 -0.23183691400197201 -0.44565973052365931 0 -0.2069018393022739 -0.44305901207807169 0 -0.20834480504175951 -0.44512316631436161 0 -0.2069018393022739 -0.44305901207807169 0 -0.20834480504175951 -0.44512316631436161 0 -0.20259304185531979 -0.44760755227314097 0 -0.2069018393022739 -0.44305901207807169 0 -0.20834480504175951 -0.44512316631436161 0 -0.21990961660111219 -0.45332671202555469 0 -0.20834480504175951 -0.44512316631436161 0 -0.21054876038637349 -0.45273407017044481 0 -0.20834480504175951 -0.44512316631436161 0 -0.21054876038637349 -0.45273407017044481 0 -0.20581982877740471 -0.45128145304278922 0 -0.20834480504175951 -0.44512316631436161 0 -0.20581982877740471 -0.45128145304278922 0 -0.20259304185531979 -0.44760755227314097 0 -0.21054876038637349 -0.45273407017044481 0 -0.20581982877740471 -0.45128145304278922 0 -0.20812079112521789 -0.46120494929907402 0 -0.20581982877740471 -0.45128145304278922 0 -0.20812079112521789 -0.46120494929907402 0 -0.19727758863051181 -0.45132336805782258 0 -0.21990961660111219 -0.45332671202555469 0 -0.21054876038637349 -0.45273407017044481 0 -0.20812079112521789 -0.46120494929907402 0 -0.20812079112521789 -0.46120494929907402 0 -0.19484539932659281 -0.47713305633571379 0 -0.18657892198915671 -0.45813984169528021 0 -0.20812079112521789 -0.46120494929907402 0 -0.18657892198915671 -0.45813984169528021 0 -0.20812079112521789 -0.46120494929907402 0 -0.19727758863051181 -0.45132336805782258 0 -0.18657892198915671 -0.45813984169528021 0 -0.2069018393022739 -0.44305901207807169 0 -0.18948635924806881 -0.44124258438489877 0 -0.19727758863051181 -0.45132336805782258 0 -0.18948635924806881 -0.44124258438489877 0 -0.18657892198915671 -0.45813984169528021 0 -0.2069018393022739 -0.44305901207807169 0 -0.20259304185531979 -0.44760755227314097 0 -0.18948635924806881 -0.44124258438489877 0 -0.19727758863051181 -0.45132336805782258 0 -0.20259304185531979 -0.44760755227314097 0 -0.18948635924806881 -0.44124258438489877 0 -0.20581982877740471 -0.45128145304278922 0 -0.19727758863051181 -0.45132336805782258 0 -0.20259304185531979 -0.44760755227314097 0 -0.22656421948181049 -0.5 0 -0.2157907941861491 -0.48092628371723189 0 -0.1980444928397368 -0.5 0 -0.22966266026127899 -0.46427005690286782 0 -0.20812079112521789 -0.46120494929907402 0 -0.2157907941861491 -0.48092628371723189 0 -0.20812079112521789 -0.46120494929907402 0 -0.2157907941861491 -0.48092628371723189 0 -0.19484539932659281 -0.47713305633571379 0 -0.19484539932659281 -0.47713305633571379 0 -0.1980444928397368 -0.5 0 -0.18133194436630659 -0.4863058817101818 0 -0.2157907941861491 -0.48092628371723189 0 -0.19484539932659281 -0.47713305633571379 0 -0.1980444928397368 -0.5 0 -0.18133194436630659 -0.4863058817101818 0 -0.1695247661976631 -0.5 0 -0.1655623192563401 -0.48019343432959077 0 -0.1980444928397368 -0.5 0 -0.18133194436630659 -0.4863058817101818 0 -0.1695247661976631 -0.5 0 -0.1695247661976631 -0.5 0 -0.1655623192563401 -0.48019343432959077 0 -0.15373207664451899 -0.48704269265950229 0 -0.1588703522790284 -0.47172082108655189 0 -0.1655623192563401 -0.48019343432959077 0 -0.15469027776709959 -0.47758850589863322 0 -0.1655623192563401 -0.48019343432959077 0 -0.15373207664451899 -0.48704269265950229 0 -0.15469027776709959 -0.47758850589863322 0 -0.1655623192563401 -0.48019343432959077 0 -0.17868274421120039 -0.4742029178856042 0 -0.1677727641040648 -0.46678462014028038 0 -0.1588703522790284 -0.47172082108655189 0 -0.1655623192563401 -0.48019343432959077 0 -0.1677727641040648 -0.46678462014028038 0 -0.18133194436630659 -0.4863058817101818 0 -0.1655623192563401 -0.48019343432959077 0 -0.17868274421120039 -0.4742029178856042 0 -0.19484539932659281 -0.47713305633571379 0 -0.17868274421120039 -0.4742029178856042 0 -0.18657892198915671 -0.45813984169528021 0 -0.19484539932659281 -0.47713305633571379 0 -0.18133194436630659 -0.4863058817101818 0 -0.17868274421120039 -0.4742029178856042 0 -0.17868274421120039 -0.4742029178856042 0 -0.18657892198915671 -0.45813984169528021 0 -0.1677727641040648 -0.46678462014028038 0 -0.18657892198915671 -0.45813984169528021 0 -0.17829330332104609 -0.44847082921584902 0 -0.16503705285309539 -0.45507473409148691 0 -0.18657892198915671 -0.45813984169528021 0 -0.1677727641040648 -0.46678462014028038 0 -0.16503705285309539 -0.45507473409148691 0 -0.18657892198915671 -0.45813984169528021 0 -0.16503705285309539 -0.45507473409148691 0 -0.18948635924806881 -0.44124258438489877 0 -0.17829330332104609 -0.44847082921584902 0 -0.1720708791938633 -0.43942615669173007 0 -0.18948635924806881 -0.44124258438489877 0 -0.1720708791938633 -0.43942615669173007 0 -0.18948635924806881 -0.44124258438489877 0 -0.18657892198915671 -0.45813984169528021 0 -0.17829330332104609 -0.44847082921584902 0 -0.1720708791938633 -0.43942615669173007 0 -0.14328437306120531 -0.43642373546841429 0 -0.1720708791938633 -0.43942615669173007 0 -0.16503705285309539 -0.45507473409148691 0 -0.14772443677375541 -0.45261139022605001 0 -0.17829330332104609 -0.44847082921584902 0 -0.1720708791938633 -0.43942615669173007 0 -0.16503705285309539 -0.45507473409148691 0 -0.1720708791938633 -0.43942615669173007 0 -0.16503705285309539 -0.45507473409148691 0 -0.16503705285309539 -0.45507473409148691 0 -0.14772443677375541 -0.45261139022605001 0 -0.16503705285309539 -0.45507473409148691 0 -0.15669891229156649 -0.45862054329001511 0 -0.14772443677375541 -0.45261139022605001 0 -0.1677727641040648 -0.46678462014028038 0 -0.16503705285309539 -0.45507473409148691 0 -0.16044499443490109 -0.46120326207285139 0 -0.16503705285309539 -0.45507473409148691 0 -0.15669891229156649 -0.45862054329001511 0 -0.16044499443490109 -0.46120326207285139 0 -0.16044499443490109 -0.46120326207285139 0 -0.16010972716796981 -0.46623042096455219 0 -0.15437703177068021 -0.4648877435743326 0 -0.15669891229156649 -0.45862054329001511 0 -0.16044499443490109 -0.46120326207285139 0 -0.15437703177068021 -0.4648877435743326 0 -0.1588703522790284 -0.47172082108655189 0 -0.1677727641040648 -0.46678462014028038 0 -0.16010972716796981 -0.46623042096455219 0 -0.1677727641040648 -0.46678462014028038 0 -0.16044499443490109 -0.46120326207285139 0 -0.16010972716796981 -0.46623042096455219 0 -0.1588703522790284 -0.47172082108655189 0 -0.16010972716796981 -0.46623042096455219 0 -0.15437703177068021 -0.4648877435743326 0 -0.15669891229156649 -0.45862054329001511 0 -0.15437703177068021 -0.4648877435743326 0 -0.14780827232911209 -0.46234775994295713 0 -0.15437703177068021 -0.4648877435743326 0 -0.14780827232911209 -0.46234775994295713 0 -0.1510232271120267 -0.47198705686418352 0 -0.15669891229156649 -0.45862054329001511 0 -0.14780827232911209 -0.46234775994295713 0 -0.14772443677375541 -0.45261139022605001 0 -0.14780827232911209 -0.46234775994295713 0 -0.14772443677375541 -0.45261139022605001 0 -0.13898271886655961 -0.45915668870203658 0 -0.14780827232911209 -0.46234775994295713 0 -0.1510232271120267 -0.47198705686418352 0 -0.14259214218169039 -0.47170847306594421 0 -0.14780827232911209 -0.46234775994295713 0 -0.13898271886655961 -0.45915668870203658 0 -0.14259214218169039 -0.47170847306594421 0 -0.1720708791938633 -0.43942615669173007 0 -0.14772443677375541 -0.45261139022605001 0 -0.14328437306120531 -0.43642373546841429 0 -0.13041182069441559 -0.45014804636061112 0 -0.14328437306120531 -0.43642373546841429 0 -0.1144978669285472 -0.43342131424510028 0 -0.14772443677375541 -0.45261139022605001 0 -0.13041182069441559 -0.45014804636061112 0 -0.14328437306120531 -0.43642373546841429 0 -0.14772443677375541 -0.45261139022605001 0 -0.13041182069441559 -0.45014804636061112 0 -0.14772443677375541 -0.45261139022605001 0 -0.13041182069441559 -0.45014804636061112 0 -0.13898271886655961 -0.45915668870203658 0 -0.13041182069441559 -0.45014804636061112 0 -0.12812679042635369 -0.4736338620561753 0 -0.1172320913349795 -0.44827275464751171 0 -0.13041182069441559 -0.45014804636061112 0 -0.13898271886655961 -0.45915668870203658 0 -0.12812679042635369 -0.4736338620561753 0 -0.13898271886655961 -0.45915668870203658 0 -0.12812679042635369 -0.4736338620561753 0 -0.14259214218169039 -0.47170847306594421 0 -0.13041182069441559 -0.45014804636061112 0 -0.13898271886655961 -0.45915668870203658 0 -0.12812679042635369 -0.4736338620561753 0 -0.143152537091979 -0.4859470556687811 0 -0.14259214218169039 -0.47170847306594421 0 -0.1283723102502615 -0.49662016383431629 0 -0.13902148951772611 -0.49899496946483962 0 -0.1141883482570055 -0.48641244582059712 0 -0.12812679042635369 -0.4736338620561753 0 -0.13902148951772611 -0.49899496946483962 0 -0.143152537091979 -0.4859470556687811 0 -0.12812679042635369 -0.4736338620561753 0 -0.13902148951772611 -0.49899496946483962 0 -0.1141883482570055 -0.48641244582059712 0 -0.12812679042635369 -0.4736338620561753 0 -0.13902148951772611 -0.49899496946483962 0 -0.13902148951772611 -0.49899496946483962 0 -0.1141883482570055 -0.48641244582059712 0 -0.1283723102502615 -0.49662016383431629 0 -0.13902148951772611 -0.49899496946483962 0 -0.1121559362476179 -0.5 0 -0.13902148951772611 -0.49899496946483962 0 -0.14100503955558941 -0.50000000000000044 0 -0.143152537091979 -0.4859470556687811 0 -0.14100503955558941 -0.50000000000000044 0 -0.15373207664451899 -0.48704269265950229 0 -0.1695247661976631 -0.5 0 -0.14100503955558941 -0.50000000000000044 0 -0.15373207664451899 -0.48704269265950229 0 -0.13902148951772611 -0.49899496946483962 0 -0.143152537091979 -0.4859470556687811 0 -0.14100503955558941 -0.50000000000000044 0 -0.143152537091979 -0.4859470556687811 0 -0.15373207664451899 -0.48704269265950229 0 -0.14845751999844281 -0.47852716006000923 0 -0.15373207664451899 -0.48704269265950229 0 -0.14845751999844281 -0.47852716006000923 0 -0.15469027776709959 -0.47758850589863322 0 -0.1588703522790284 -0.47172082108655189 0 -0.15469027776709959 -0.47758850589863322 0 -0.1510232271120267 -0.47198705686418352 0 -0.1588703522790284 -0.47172082108655189 0 -0.15437703177068021 -0.4648877435743326 0 -0.1510232271120267 -0.47198705686418352 0 -0.14845751999844281 -0.47852716006000923 0 -0.15469027776709959 -0.47758850589863322 0 -0.1510232271120267 -0.47198705686418352 0 -0.14845751999844281 -0.47852716006000923 0 -0.1510232271120267 -0.47198705686418352 0 -0.14259214218169039 -0.47170847306594421 0 -0.143152537091979 -0.4859470556687811 0 -0.14845751999844281 -0.47852716006000923 0 -0.14259214218169039 -0.47170847306594421 0 -0.14949455534407299 -0.39478041726358581 0 -0.1405389847136593 -0.39104956752552578 0 -0.13880704920346371 -0.40200604901074838 0 -0.14949455534407299 -0.39478041726358581 0 -0.13880704920346371 -0.40200604901074838 0 -0.15135329741449929 -0.40658724426120602 0 -0.14949455534407299 -0.39478041726358581 0 -0.15135329741449929 -0.40658724426120602 0 -0.1601455585631284 -0.3996472136052146 0 -0.14949455534407299 -0.39478041726358581 0 -0.1601455585631284 -0.3996472136052146 0 -0.15888012459222869 -0.38924657454195832 0 -0.14949455534407299 -0.39478041726358581 0 -0.14866843321912421 -0.38514223323369201 0 -0.15888012459222869 -0.38924657454195832 0 -0.14866843321912421 -0.38514223323369201 0 -0.15888012459222869 -0.38924657454195832 0 -0.1570820738191932 -0.37179212253355609 0 -0.14866843321912421 -0.38514223323369201 0 -0.13827213961799559 -0.37927114421765912 0 -0.1570820738191932 -0.37179212253355609 0 -0.14866843321912421 -0.38514223323369201 0 -0.13827213961799559 -0.37927114421765912 0 -0.1405389847136593 -0.39104956752552578 0 -0.14949455534407299 -0.39478041726358581 0 -0.14866843321912421 -0.38514223323369201 0 -0.1405389847136593 -0.39104956752552578 0 -0.13827213961799559 -0.37927114421765912 0 -0.12745274618364011 -0.39404799390194339 0 -0.1405389847136593 -0.39104956752552578 0 -0.13827213961799559 -0.37927114421765912 0 -0.12745274618364011 -0.39404799390194339 0 -0.11926597608187289 -0.37271568155493462 0 -0.12745274618364011 -0.39404799390194339 0 -0.13880704920346371 -0.40200604901074838 0 -0.1224189277706723 -0.41116494477443788 0 -0.12745274618364011 -0.39404799390194339 0 -0.1405389847136593 -0.39104956752552578 0 -0.13880704920346371 -0.40200604901074838 0 -0.13880704920346371 -0.40200604901074838 0 -0.14250949578576719 -0.41483478625161702 0 -0.1224189277706723 -0.41116494477443788 0 -0.14328437306120531 -0.43642373546841429 0 -0.14250949578576719 -0.41483478625161702 0 -0.1224189277706723 -0.41116494477443788 0 -0.14328437306120531 -0.43642373546841429 0 -0.1144978669285472 -0.43342131424510028 0 -0.1224189277706723 -0.41116494477443788 0 -0.14328437306120531 -0.43642373546841429 0 -0.1144978669285472 -0.43342131424510028 0 -0.14328437306120531 -0.43642373546841429 0 -0.14250949578576719 -0.41483478625161702 0 -0.1538401288239406 -0.41817954830316928 0 -0.14328437306120531 -0.43642373546841429 0 -0.1538401288239406 -0.41817954830316928 0 -0.16237050573595421 -0.4266171377746083 0 -0.13880704920346371 -0.40200604901074838 0 -0.14250949578576719 -0.41483478625161702 0 -0.15135329741449929 -0.40658724426120602 0 -0.1538401288239406 -0.41817954830316928 0 -0.15135329741449929 -0.40658724426120602 0 -0.16266472323709039 -0.40982412696582948 0 -0.14250949578576719 -0.41483478625161702 0 -0.1538401288239406 -0.41817954830316928 0 -0.15135329741449929 -0.40658724426120602 0 -0.16266472323709039 -0.40982412696582948 0 -0.17159471920116481 -0.41517264710104568 0 -0.16237050573595421 -0.4266171377746083 0 -0.1538401288239406 -0.41817954830316928 0 -0.16266472323709039 -0.40982412696582948 0 -0.16237050573595421 -0.4266171377746083 0 -0.16266472323709039 -0.40982412696582948 0 -0.17159471920116481 -0.41517264710104568 0 -0.16984062357204199 -0.4027421798794113 0 -0.1720708791938633 -0.43942615669173007 0 -0.14328437306120531 -0.43642373546841429 0 -0.16237050573595421 -0.4266171377746083 0 -0.1720708791938633 -0.43942615669173007 0 -0.16237050573595421 -0.4266171377746083 0 -0.17838954088486711 -0.42536864919236977 0 -0.17159471920116481 -0.41517264710104568 0 -0.16237050573595421 -0.4266171377746083 0 -0.17838954088486711 -0.42536864919236977 0 -0.18948635924806881 -0.44124258438489877 0 -0.1720708791938633 -0.43942615669173007 0 -0.17838954088486711 -0.42536864919236977 0 -0.1720708791938633 -0.43942615669173007 0 -0.17838954088486711 -0.42536864919236977 0 -0.17838954088486711 -0.42536864919236977 0 -0.18470820257587231 -0.41131114169301008 0 -0.19580502093907259 -0.42718507688554119 0 -0.17159471920116481 -0.41517264710104568 0 -0.18470820257587231 -0.41131114169301008 0 -0.16984062357204199 -0.4027421798794113 0 -0.17159471920116481 -0.41517264710104568 0 -0.17838954088486711 -0.42536864919236977 0 -0.18470820257587231 -0.41131114169301008 0 -0.17838954088486711 -0.42536864919236977 0 -0.18470820257587231 -0.41131114169301008 0 -0.18470820257587231 -0.41131114169301008 0 -0.18261151890942581 -0.39641190974232232 0 -0.1708951381975343 -0.39155163211328198 0 -0.18470820257587231 -0.41131114169301008 0 -0.1708951381975343 -0.39155163211328198 0 -0.18470820257587231 -0.41131114169301008 0 -0.16984062357204199 -0.4027421798794113 0 -0.1708951381975343 -0.39155163211328198 0 -0.18470820257587231 -0.41131114169301008 0 -0.18261151890942581 -0.39641190974232232 0 -0.1930361487943707 -0.39278345780268159 0 -0.18261151890942581 -0.39641190974232232 0 -0.18126708349718901 -0.38943223257683862 0 -0.1930361487943707 -0.39278345780268159 0 -0.18261151890942581 -0.39641190974232232 0 -0.1708951381975343 -0.39155163211328198 0 -0.18126708349718901 -0.38943223257683862 0 -0.16266472323709039 -0.40982412696582948 0 -0.16984062357204199 -0.4027421798794113 0 -0.1601455585631284 -0.3996472136052146 0 -0.16984062357204199 -0.4027421798794113 0 -0.16494036123123329 -0.39579690003496648 0 -0.1601455585631284 -0.3996472136052146 0 -0.16494036123123329 -0.39579690003496648 0 -0.1708951381975343 -0.39155163211328198 0 -0.15888012459222869 -0.38924657454195832 0 -0.16984062357204199 -0.4027421798794113 0 -0.16494036123123329 -0.39579690003496648 0 -0.1708951381975343 -0.39155163211328198 0 -0.16494036123123329 -0.39579690003496648 0 -0.1601455585631284 -0.3996472136052146 0 -0.15888012459222869 -0.38924657454195832 0 -0.15135329741449929 -0.40658724426120602 0 -0.16266472323709039 -0.40982412696582948 0 -0.1601455585631284 -0.3996472136052146 0 -0.1708951381975343 -0.39155163211328198 0 -0.1570820738191932 -0.37179212253355609 0 -0.1708951381975343 -0.39155163211328198 0 -0.1696236035998403 -0.37902153028438701 0 -0.1570820738191932 -0.37179212253355609 0 -0.1708951381975343 -0.39155163211328198 0 -0.15888012459222869 -0.38924657454195832 0 -0.1570820738191932 -0.37179212253355609 0 -0.1708951381975343 -0.39155163211328198 0 -0.1696236035998403 -0.37902153028438701 0 -0.173806303622073 -0.38828287331052108 0 -0.173806303622073 -0.38828287331052108 0 -0.1836762163825216 -0.3698895365543633 0 -0.1696236035998403 -0.37902153028438701 0 -0.173806303622073 -0.38828287331052108 0 -0.17785286183965521 -0.37305941967268591 0 -0.173806303622073 -0.38828287331052108 0 -0.1827787955229459 -0.38139534737342112 0 -0.1836762163825216 -0.3698895365543633 0 -0.173806303622073 -0.38828287331052108 0 -0.17785286183965521 -0.37305941967268591 0 -0.1836762163825216 -0.3698895365543633 0 -0.173806303622073 -0.38828287331052108 0 -0.18126708349718901 -0.38943223257683862 0 -0.1827787955229459 -0.38139534737342112 0 -0.1708951381975343 -0.39155163211328198 0 -0.173806303622073 -0.38828287331052108 0 -0.18126708349718901 -0.38943223257683862 0 -0.18126708349718901 -0.38943223257683862 0 -0.1827787955229459 -0.38139534737342112 0 -0.18837208506426359 -0.3834251794275656 0 -0.1827787955229459 -0.38139534737342112 0 -0.18967967526701271 -0.37616427390820523 0 -0.1836762163825216 -0.3698895365543633 0 -0.1827787955229459 -0.38139534737342112 0 -0.18967967526701271 -0.37616427390820523 0 -0.18837208506426359 -0.3834251794275656 0 -0.18837208506426359 -0.3834251794275656 0 -0.1930361487943707 -0.39278345780268159 0 -0.20136409501287081 -0.37425577391235409 0 -0.1930361487943707 -0.39278345780268159 0 -0.20136409501287081 -0.37425577391235409 0 -0.18967967526701271 -0.37616427390820523 0 -0.18837208506426359 -0.3834251794275656 0 -0.20136409501287081 -0.37425577391235409 0 -0.1930361487943707 -0.39278345780268159 0 -0.2102212025694806 -0.38564190034223927 0 -0.20136409501287081 -0.37425577391235409 0 -0.18126708349718901 -0.38943223257683862 0 -0.18837208506426359 -0.3834251794275656 0 -0.1930361487943707 -0.39278345780268159 0 -0.18470820257587231 -0.41131114169301008 0 -0.1930361487943707 -0.39278345780268159 0 -0.2006604301287632 -0.41312132268052848 0 -0.18470820257587231 -0.41131114169301008 0 -0.1930361487943707 -0.39278345780268159 0 -0.1930361487943707 -0.39278345780268159 0 -0.20821857834362081 -0.39995782604109342 0 -0.2006604301287632 -0.41312132268052848 0 -0.20821857834362081 -0.39995782604109342 0 -0.2166741382660255 -0.4124389466286949 0 -0.22112052755624231 -0.39509160637891738 0 -0.1930361487943707 -0.39278345780268159 0 -0.20821857834362081 -0.39995782604109342 0 -0.2102212025694806 -0.38564190034223927 0 -0.20821857834362081 -0.39995782604109342 0 -0.2102212025694806 -0.38564190034223927 0 -0.22112052755624231 -0.39509160637891738 0 -0.2102212025694806 -0.38564190034223927 0 -0.20136409501287081 -0.37425577391235409 0 -0.21483622155450341 -0.36952367628306138 0 -0.2102212025694806 -0.38564190034223927 0 -0.22376230573935521 -0.38066889779956109 0 -0.21483622155450341 -0.36952367628306138 0 -0.2102212025694806 -0.38564190034223927 0 -0.22376230573935521 -0.38066889779956109 0 -0.22112052755624231 -0.39509160637891738 0 -0.2069018393022739 -0.44305901207807169 0 -0.18948635924806881 -0.44124258438489877 0 -0.19580502093907259 -0.42718507688554119 0 -0.19580502093907259 -0.42718507688554119 0 -0.2006604301287632 -0.41312132268052848 0 -0.2120035216183084 -0.42760220339130312 0 -0.2069018393022739 -0.44305901207807169 0 -0.19580502093907259 -0.42718507688554119 0 -0.18948635924806881 -0.44124258438489877 0 -0.17838954088486711 -0.42536864919236977 0 -0.19580502093907259 -0.42718507688554119 0 -0.18470820257587231 -0.41131114169301008 0 -0.19580502093907259 -0.42718507688554119 0 -0.2006604301287632 -0.41312132268052848 0 -0.18470820257587231 -0.41131114169301008 0 -0.19580502093907259 -0.42718507688554119 0 -0.20821857834362081 -0.39995782604109342 0 -0.2006604301287632 -0.41312132268052848 0 -0.2166741382660255 -0.4124389466286949 0 -0.2006604301287632 -0.41312132268052848 0 -0.2166741382660255 -0.4124389466286949 0 -0.2120035216183084 -0.42760220339130312 0 -0.2166741382660255 -0.4124389466286949 0 -0.2120035216183084 -0.42760220339130312 0 -0.223444457048529 -0.42098414327793782 0 -0.2069018393022739 -0.44305901207807169 0 -0.19580502093907259 -0.42718507688554119 0 -0.2120035216183084 -0.42760220339130312 0 -0.2069018393022739 -0.44305901207807169 0 -0.2120035216183084 -0.42760220339130312 0 -0.22688292389097589 -0.43277255924186009 0 -0.22688292389097589 -0.43277255924186009 0 -0.2382172444188061 -0.41112286384989338 0 -0.23183691400197201 -0.44565973052365931 0 -0.22688292389097589 -0.43277255924186009 0 -0.24237122713312539 -0.43352525392010449 0 -0.2120035216183084 -0.42760220339130312 0 -0.22688292389097589 -0.43277255924186009 0 -0.223444457048529 -0.42098414327793782 0 -0.22688292389097589 -0.43277255924186009 0 -0.223444457048529 -0.42098414327793782 0 -0.2382172444188061 -0.41112286384989338 0 -0.2166741382660255 -0.4124389466286949 0 -0.223444457048529 -0.42098414327793782 0 -0.2382172444188061 -0.41112286384989338 0 -0.25814706465220311 -0.42981066701586029 0 -0.2382172444188061 -0.41112286384989338 0 -0.22688292389097589 -0.43277255924186009 0 -0.2382172444188061 -0.41112286384989338 0 -0.24237122713312539 -0.43352525392010449 0 -0.25814706465220311 -0.42981066701586029 0 -0.2382172444188061 -0.41112286384989338 0 -0.24237122713312539 -0.43352525392010449 0 -0.22376230573935521 -0.38066889779956109 0 -0.23495883536803999 -0.3919896694380966 0 -0.24035800379935571 -0.37899867172594792 0 -0.22376230573935521 -0.38066889779956109 0 -0.24035800379935571 -0.37899867172594792 0 -0.2313409707555644 -0.37268782953488921 0 -0.22376230573935521 -0.38066889779956109 0 -0.22112052755624231 -0.39509160637891738 0 -0.23495883536803999 -0.3919896694380966 0 -0.2166741382660255 -0.4124389466286949 0 -0.2382172444188061 -0.41112286384989338 0 -0.22112052755624231 -0.39509160637891738 0 -0.2382172444188061 -0.41112286384989338 0 -0.22112052755624231 -0.39509160637891738 0 -0.23495883536803999 -0.3919896694380966 0 -0.2382172444188061 -0.41112286384989338 0 -0.22112052755624231 -0.39509160637891738 0 -0.2382172444188061 -0.41112286384989338 0 -0.2492148495097499 -0.39011632890362719 0 -0.26115753520571239 -0.40828108158714482 0 -0.2382172444188061 -0.41112286384989338 0 -0.2492148495097499 -0.39011632890362719 0 -0.2382172444188061 -0.41112286384989338 0 -0.23495883536803999 -0.3919896694380966 0 -0.2492148495097499 -0.39011632890362719 0 -0.2492148495097499 -0.39011632890362719 0 -0.24035800379935571 -0.37899867172594792 0 -0.24780058098437621 -0.36906566620035891 0 -0.23495883536803999 -0.3919896694380966 0 -0.2492148495097499 -0.39011632890362719 0 -0.24035800379935571 -0.37899867172594792 0 -0.24035800379935571 -0.37899867172594792 0 -0.24780058098437621 -0.36906566620035891 0 -0.24114939352551329 -0.35858624544759571 0 -0.24035800379935571 -0.37899867172594792 0 -0.2313409707555644 -0.37268782953488921 0 -0.24114939352551329 -0.35858624544759571 0 -0.24035800379935571 -0.37899867172594792 0 -0.24114939352551329 -0.35858624544759571 0 -0.22376230573935521 -0.38066889779956109 0 -0.22725128500969399 -0.36246980210424978 0 -0.21483622155450341 -0.36952367628306138 0 -0.22376230573935521 -0.38066889779956109 0 -0.22725128500969399 -0.36246980210424978 0 -0.22376230573935521 -0.38066889779956109 0 -0.2313409707555644 -0.37268782953488921 0 -0.22725128500969399 -0.36246980210424978 0 -0.2313409707555644 -0.37268782953488921 0 -0.22725128500969399 -0.36246980210424978 0 -0.24114939352551329 -0.35858624544759571 0 -0.2307402642800335 -0.3442707064089387 0 -0.20969204123137239 -0.35572809002202721 0 -0.22725128500969399 -0.36246980210424978 0 -0.2307402642800335 -0.3442707064089387 0 -0.24114939352551329 -0.35858624544759571 0 -0.22725128500969399 -0.36246980210424978 0 -0.2307402642800335 -0.3442707064089387 0 -0.22725128500969399 -0.36246980210424978 0 -0.2307402642800335 -0.3442707064089387 0 -0.20969204123137239 -0.35572809002202721 0 -0.2307402642800335 -0.3442707064089387 0 -0.21827489581142101 -0.3366332961360422 0 -0.20969204123137239 -0.35572809002202721 0 -0.2307402642800335 -0.3442707064089387 0 -0.24114939352551329 -0.35858624544759571 0 -0.24194078325166959 -0.33817381916924327 0 -0.24114939352551329 -0.35858624544759571 0 -0.24194078325166959 -0.33817381916924327 0 -0.25233789448144839 -0.34879846937914188 0 -0.24114939352551329 -0.35858624544759571 0 -0.24194078325166959 -0.33817381916924327 0 -0.25233789448144839 -0.34879846937914188 0 -0.24780058098437621 -0.36906566620035891 0 -0.24114939352551329 -0.35858624544759571 0 -0.25233789448144839 -0.34879846937914188 0 -0.2490589995130878 -0.33429909139960301 0 -0.24194078325166959 -0.33817381916924327 0 -0.2307402642800335 -0.3442707064089387 0 -0.24194078325166959 -0.33817381916924327 0 -0.23440292273820301 -0.32516567120676038 0 -0.2490589995130878 -0.33429909139960301 0 -0.24194078325166959 -0.33817381916924327 0 -0.2490589995130878 -0.33429909139960301 0 -0.24225538722178741 -0.33005919481335327 0 -0.24194078325166959 -0.33817381916924327 0 -0.25353646602606589 -0.3209638071760379 0 -0.2490589995130878 -0.33429909139960301 0 -0.24225538722178741 -0.33005919481335327 0 -0.2490589995130878 -0.33429909139960301 0 -0.24225538722178741 -0.33005919481335327 0 -0.24225538722178741 -0.33005919481335327 0 -0.24194078325166959 -0.33817381916924327 0 -0.23440292273820301 -0.32516567120676038 0 -0.24225538722178741 -0.33005919481335327 0 -0.24194078325166959 -0.33817381916924327 0 -0.2307402642800335 -0.3442707064089387 0 -0.24194078325166959 -0.33817381916924327 0 -0.24225538722178741 -0.33005919481335327 0 -0.23440292273820301 -0.32516567120676038 0 -0.2431357343990431 -0.30735227651364311 0 -0.23440292273820301 -0.32516567120676038 0 -0.23830180588682801 -0.30482844876182541 0 -0.24225538722178741 -0.33005919481335327 0 -0.2431357343990431 -0.30735227651364311 0 -0.25353646602606589 -0.3209638071760379 0 -0.24225538722178741 -0.33005919481335327 0 -0.2431357343990431 -0.30735227651364311 0 -0.23440292273820301 -0.32516567120676038 0 -0.23081076188726901 -0.31393467005515402 0 -0.23830180588682801 -0.30482844876182541 0 -0.24225538722178741 -0.33005919481335327 0 -0.23440292273820301 -0.32516567120676038 0 -0.23440292273820301 -0.32516567120676038 0 -0.23081076188726901 -0.31393467005515402 0 -0.2191458530951432 -0.31565772238103917 0 -0.23440292273820301 -0.32516567120676038 0 -0.2191458530951432 -0.31565772238103917 0 -0.23440292273820301 -0.32516567120676038 0 -0.22308789932052661 -0.32632727483083751 0 -0.2191458530951432 -0.31565772238103917 0 -0.2307402642800335 -0.3442707064089387 0 -0.23440292273820301 -0.32516567120676038 0 -0.22308789932052661 -0.32632727483083751 0 -0.2307402642800335 -0.3442707064089387 0 -0.22308789932052661 -0.32632727483083751 0 -0.21827489581142101 -0.3366332961360422 0 -0.2307402642800335 -0.3442707064089387 0 -0.23440292273820301 -0.32516567120676038 0 -0.21159432229445321 -0.31786201249255358 0 -0.1976352693384876 -0.34387577452345852 0 -0.20782003377046809 -0.33928495679867782 0 -0.21159432229445321 -0.31786201249255358 0 -0.1976352693384876 -0.34387577452345852 0 -0.21159432229445321 -0.31786201249255358 0 -0.20084521038754211 -0.32637643156679752 0 -0.1976352693384876 -0.34387577452345852 0 -0.22308789932052661 -0.32632727483083751 0 -0.21827489581142101 -0.3366332961360422 0 -0.20782003377046809 -0.33928495679867782 0 -0.2191458530951432 -0.31565772238103917 0 -0.20782003377046809 -0.33928495679867782 0 -0.21159432229445321 -0.31786201249255358 0 -0.22308789932052661 -0.32632727483083751 0 -0.2191458530951432 -0.31565772238103917 0 -0.20782003377046809 -0.33928495679867782 0 -0.2191458530951432 -0.31565772238103917 0 -0.20782003377046809 -0.33928495679867782 0 -0.21159432229445321 -0.31786201249255358 0 -0.19856833993115061 -0.31574606436282793 0 -0.20084521038754211 -0.32637643156679752 0 -0.19856833993115061 -0.31574606436282793 0 -0.182634461243292 -0.31052356581855423 0 -0.18621423201910001 -0.32345515767940519 0 -0.19856833993115061 -0.31574606436282793 0 -0.20084521038754211 -0.32637643156679752 0 -0.19558290998607691 -0.32802187488834977 0 -0.19856833993115061 -0.31574606436282793 0 -0.19558290998607691 -0.32802187488834977 0 -0.18621423201910001 -0.32345515767940519 0 -0.20084521038754211 -0.32637643156679752 0 -0.19558290998607691 -0.32802187488834977 0 -0.1976352693384876 -0.34387577452345852 0 -0.19558290998607691 -0.32802187488834977 0 -0.18758316108133649 -0.33609703226990822 0 -0.1976352693384876 -0.34387577452345852 0 -0.19558290998607691 -0.32802187488834977 0 -0.18758316108133649 -0.33609703226990822 0 -0.18621423201910001 -0.32345515767940519 0 -0.18758316108133649 -0.33609703226990822 0 -0.1976352693384876 -0.34387577452345852 0 -0.18736904641091279 -0.34363981031361368 0 -0.20782003377046809 -0.33928495679867782 0 -0.19649421444579279 -0.36291219121631629 0 -0.1976352693384876 -0.34387577452345852 0 -0.18278454550253209 -0.35879019720047572 0 -0.185149333404385 -0.35086061955119402 0 -0.1976352693384876 -0.34387577452345852 0 -0.1836762163825216 -0.3698895365543633 0 -0.20782003377046809 -0.33928495679867782 0 -0.1976352693384876 -0.34387577452345852 0 -0.19649421444579279 -0.36291219121631629 0 -0.1976352693384876 -0.34387577452345852 0 -0.1836762163825216 -0.3698895365543633 0 -0.18278454550253209 -0.35879019720047572 0 -0.1976352693384876 -0.34387577452345852 0 -0.185149333404385 -0.35086061955119402 0 -0.18736904641091279 -0.34363981031361368 0 -0.1976352693384876 -0.34387577452345852 0 -0.19649421444579279 -0.36291219121631629 0 -0.1836762163825216 -0.3698895365543633 0 -0.19649421444579279 -0.36291219121631629 0 -0.20969204123137239 -0.35572809002202721 0 -0.19649421444579279 -0.36291219121631629 0 -0.1836762163825216 -0.3698895365543633 0 -0.20136409501287081 -0.37425577391235409 0 -0.19649421444579279 -0.36291219121631629 0 -0.20969204123137239 -0.35572809002202721 0 -0.18967967526701271 -0.37616427390820523 0 -0.1922071843524619 -0.37185553227332208 0 -0.20136409501287081 -0.37425577391235409 0 -0.1922071843524619 -0.37185553227332208 0 -0.19649421444579279 -0.36291219121631629 0 -0.1922071843524619 -0.37185553227332208 0 -0.19649421444579279 -0.36291219121631629 0 -0.1836762163825216 -0.3698895365543633 0 -0.18967967526701271 -0.37616427390820523 0 -0.1922071843524619 -0.37185553227332208 0 -0.1836762163825216 -0.3698895365543633 0 -0.1922071843524619 -0.37185553227332208 0 -0.20136409501287081 -0.37425577391235409 0 -0.19649421444579279 -0.36291219121631629 0 -0.22725128500969399 -0.36246980210424978 0 -0.21483622155450341 -0.36952367628306138 0 -0.20969204123137239 -0.35572809002202721 0 -0.20136409501287081 -0.37425577391235409 0 -0.21483622155450341 -0.36952367628306138 0 -0.20969204123137239 -0.35572809002202721 0 -0.20136409501287081 -0.37425577391235409 0 -0.20969204123137239 -0.35572809002202721 0 -0.20782003377046809 -0.33928495679867782 0 -0.19649421444579279 -0.36291219121631629 0 -0.20969204123137239 -0.35572809002202721 0 -0.21827489581142101 -0.3366332961360422 0 -0.20782003377046809 -0.33928495679867782 0 -0.20969204123137239 -0.35572809002202721 0 -0.21827489581142101 -0.3366332961360422 0 -0.20969204123137239 -0.35572809002202721 0 -0.219880402739211 -0.25181503776220382 0 -0.24489642875355369 -0.26193843991422289 0 -0.22624664466326569 -0.26962876443151218 0 -0.219880402739211 -0.25181503776220382 0 -0.2453456506564767 -0.25035159632384441 0 -0.219880402739211 -0.25181503776220382 0 -0.2453456506564767 -0.25035159632384441 0 -0.24489642875355369 -0.26193843991422289 0 -0.24898481101924899 -0.25340950585555583 0 -0.24489642875355369 -0.26193843991422289 0 -0.2453456506564767 -0.25035159632384441 0 -0.24489642875355369 -0.26193843991422289 0 -0.2453456506564767 -0.25035159632384441 0 -0.24898481101924899 -0.25340950585555583 0 -0.24489642875355369 -0.26193843991422289 0 -0.25059524740695288 -0.25004991155547401 0 -0.24754692042651941 -0.25022509335756632 0 -0.25059524740695288 -0.25004991155547401 0 -0.24898481101924899 -0.25340950585555583 0 -0.24754692042651941 -0.25022509335756632 0 -0.25059524740695288 -0.25004991155547401 0 -0.24898481101924899 -0.25340950585555583 0 -0.24898481101924899 -0.25340950585555583 0 -0.24754692042651941 -0.25022509335756632 0 -0.2453456506564767 -0.25035159632384441 0 -0.24754692042651941 -0.25022509335756632 0 -0.2453456506564767 -0.25035159632384441 0 -0.24898481101924899 -0.25340950585555583 0 -0.24754692042651941 -0.25022509335756632 0 -0.24489642875355369 -0.26193843991422289 0 -0.22624664466326569 -0.26962876443151218 0 -0.23202114092434811 -0.28879808114763089 0 -0.24489642875355369 -0.26193843991422289 0 -0.23202114092434811 -0.28879808114763089 0 -0.25819585485174579 -0.27380866782804492 0 -0.24489642875355369 -0.26193843991422289 0 -0.24401608157629889 -0.284645358213933 0 -0.24489642875355369 -0.26193843991422289 0 -0.24401608157629889 -0.284645358213933 0 -0.24489642875355369 -0.26193843991422289 0 -0.23202114092434811 -0.28879808114763089 0 -0.24401608157629889 -0.284645358213933 0 -0.22624664466326569 -0.26962876443151218 0 -0.23202114092434811 -0.28879808114763089 0 -0.2081886062359489 -0.27596349890199118 0 -0.24401608157629889 -0.284645358213933 0 -0.2431357343990431 -0.30735227651364311 0 -0.23202114092434811 -0.28879808114763089 0 -0.24401608157629889 -0.284645358213933 0 -0.23830180588682801 -0.30482844876182541 0 -0.23440292273820301 -0.32516567120676038 0 -0.2431357343990431 -0.30735227651364311 0 -0.23830180588682801 -0.30482844876182541 0 -0.24401608157629889 -0.284645358213933 0 -0.2431357343990431 -0.30735227651364311 0 -0.23830180588682801 -0.30482844876182541 0 -0.23081076188726901 -0.31393467005515402 0 -0.2191458530951432 -0.31565772238103917 0 -0.23202114092434811 -0.28879808114763089 0 -0.23081076188726901 -0.31393467005515402 0 -0.23202114092434811 -0.28879808114763089 0 -0.23830180588682801 -0.30482844876182541 0 -0.2191458530951432 -0.31565772238103917 0 -0.23202114092434811 -0.28879808114763089 0 -0.2191458530951432 -0.31565772238103917 0 -0.23202114092434811 -0.28879808114763089 0 -0.21304858131753521 -0.29572906277915217 0 -0.2191458530951432 -0.31565772238103917 0 -0.19828662948472919 -0.30265860556031893 0 -0.21304858131753521 -0.29572906277915217 0 -0.2191458530951432 -0.31565772238103917 0 -0.19828662948472919 -0.30265860556031893 0 -0.2191458530951432 -0.31565772238103917 0 -0.21159432229445321 -0.31786201249255358 0 -0.19828662948472919 -0.30265860556031893 0 -0.21159432229445321 -0.31786201249255358 0 -0.19856833993115061 -0.31574606436282793 0 -0.19828662948472919 -0.30265860556031893 0 -0.19856833993115061 -0.31574606436282793 0 -0.19828662948472919 -0.30265860556031893 0 -0.182634461243292 -0.31052356581855423 0 -0.19828662948472919 -0.30265860556031893 0 -0.19381122211527549 -0.28660454560493898 0 -0.17742740587431691 -0.28965948873959563 0 -0.19828662948472919 -0.30265860556031893 0 -0.17742740587431691 -0.28965948873959563 0 -0.19828662948472919 -0.30265860556031893 0 -0.19381122211527549 -0.28660454560493898 0 -0.21304858131753521 -0.29572906277915217 0 -0.19381122211527549 -0.28660454560493898 0 -0.21304858131753521 -0.29572906277915217 0 -0.2081886062359489 -0.27596349890199118 0 -0.23202114092434811 -0.28879808114763089 0 -0.21304858131753521 -0.29572906277915217 0 -0.2081886062359489 -0.27596349890199118 0 -0.219880402739211 -0.25181503776220382 0 -0.22624664466326569 -0.26962876443151218 0 -0.2081886062359489 -0.27596349890199118 0 -0.2081886062359489 -0.27596349890199118 0 -0.19441515482194541 -0.25327847920056412 0 -0.18282627148966149 -0.27097396544033442 0 -0.19381122211527549 -0.28660454560493898 0 -0.2081886062359489 -0.27596349890199118 0 -0.18282627148966149 -0.27097396544033442 0 -0.219880402739211 -0.25181503776220382 0 -0.2081886062359489 -0.27596349890199118 0 -0.19441515482194541 -0.25327847920056412 0 -0.219880402739211 -0.25181503776220382 0 -0.19441515482194541 -0.25327847920056412 0 -0.16894990690467979 -0.25474192063892442 0 -0.15656818226390479 -0.27666037191887233 0 -0.14348465898741411 -0.25620536207728473 0 -0.19441515482194541 -0.25327847920056412 0 -0.16894990690467979 -0.25474192063892442 0 -0.19441515482194541 -0.25327847920056412 0 -0.16894990690467979 -0.25474192063892442 0 -0.18282627148966149 -0.27097396544033442 0 -0.18282627148966149 -0.27097396544033442 0 -0.15656818226390479 -0.27666037191887233 0 -0.17742740587431691 -0.28965948873959563 0 -0.16894990690467979 -0.25474192063892442 0 -0.18282627148966149 -0.27097396544033442 0 -0.15656818226390479 -0.27666037191887233 0 -0.15656818226390479 -0.27666037191887233 0 -0.17742740587431691 -0.28965948873959563 0 -0.15656818226390479 -0.27666037191887233 0 -0.17742740587431691 -0.28965948873959563 0 -0.1559040992964221 -0.29156247966112209 0 -0.17742740587431691 -0.28965948873959563 0 -0.16344550902426419 -0.30516699332867969 0 -0.1559040992964221 -0.29156247966112209 0 -0.19381122211527549 -0.28660454560493898 0 -0.18282627148966149 -0.27097396544033442 0 -0.17742740587431691 -0.28965948873959563 0 -0.19828662948472919 -0.30265860556031893 0 -0.17742740587431691 -0.28965948873959563 0 -0.182634461243292 -0.31052356581855423 0 -0.17742740587431691 -0.28965948873959563 0 -0.182634461243292 -0.31052356581855423 0 -0.16344550902426419 -0.30516699332867969 0 -0.14273596819013359 -0.29857062809825702 0 -0.15271315540044539 -0.317608291493782 0 -0.13792643156609449 -0.31660996118260398 0 -0.16344550902426419 -0.30516699332867969 0 -0.14273596819013359 -0.29857062809825702 0 -0.15271315540044539 -0.317608291493782 0 -0.16344550902426419 -0.30516699332867969 0 -0.14273596819013359 -0.29857062809825702 0 -0.1559040992964221 -0.29156247966112209 0 -0.14273596819013359 -0.29857062809825702 0 -0.1321908221382421 -0.30582848771654703 0 -0.12556006532294811 -0.29665681700128921 0 -0.14273596819013359 -0.29857062809825702 0 -0.1321908221382421 -0.30582848771654703 0 -0.13792643156609449 -0.31660996118260398 0 -0.1321908221382421 -0.30582848771654703 0 -0.12593166682397261 -0.31942180862689562 0 -0.12221250860588311 -0.30764708607330432 0 -0.1321908221382421 -0.30582848771654703 0 -0.12556006532294811 -0.29665681700128921 0 -0.12221250860588311 -0.30764708607330432 0 -0.14273596819013359 -0.29857062809825702 0 -0.12556006532294811 -0.29665681700128921 0 -0.1377810012006534 -0.28646544234369542 0 -0.12556006532294811 -0.29665681700128921 0 -0.1377810012006534 -0.28646544234369542 0 -0.1222197456654929 -0.28728830630709667 0 -0.1377810012006534 -0.28646544234369542 0 -0.1262895362602621 -0.27920804073568761 0 -0.1222197456654929 -0.28728830630709667 0 -0.14273596819013359 -0.29857062809825702 0 -0.1377810012006534 -0.28646544234369542 0 -0.1559040992964221 -0.29156247966112209 0 -0.15656818226390479 -0.27666037191887233 0 -0.1377810012006534 -0.28646544234369542 0 -0.1559040992964221 -0.29156247966112209 0 -0.15656818226390479 -0.27666037191887233 0 -0.1377810012006534 -0.28646544234369542 0 -0.1351894114054103 -0.27531145268354362 0 -0.15656818226390479 -0.27666037191887233 0 -0.1357089586534927 -0.26366125509814908 0 -0.15656818226390479 -0.27666037191887233 0 -0.1351894114054103 -0.27531145268354362 0 -0.1357089586534927 -0.26366125509814908 0 -0.1377810012006534 -0.28646544234369542 0 -0.1351894114054103 -0.27531145268354362 0 -0.1262895362602621 -0.27920804073568761 0 -0.1351894114054103 -0.27531145268354362 0 -0.1262895362602621 -0.27920804073568761 0 -0.1237611880095134 -0.26840005677391637 0 -0.1351894114054103 -0.27531145268354362 0 -0.1357089586534927 -0.26366125509814908 0 -0.1237611880095134 -0.26840005677391637 0 -0.1357089586534927 -0.26366125509814908 0 -0.13138631030816489 -0.25257813007746482 0 -0.1237611880095134 -0.26840005677391637 0 -0.13138631030816489 -0.25257813007746482 0 -0.14348465898741411 -0.25620536207728473 0 -0.14123905081936811 -0.24435887240762211 0 -0.1357089586534927 -0.26366125509814908 0 -0.13138631030816489 -0.25257813007746482 0 -0.14348465898741411 -0.25620536207728473 0 -0.16894990690467979 -0.25474192063892442 0 -0.14348465898741411 -0.25620536207728473 0 -0.15522258220679089 -0.24477908560778669 0 -0.15656818226390479 -0.27666037191887233 0 -0.1357089586534927 -0.26366125509814908 0 -0.14348465898741411 -0.25620536207728473 0 -0.16894990690467979 -0.25474192063892442 0 -0.14348465898741411 -0.25620536207728473 0 -0.17037810915819801 -0.35068825148088778 0 -0.16199611201137559 -0.34558911755691768 0 -0.16217695080494671 -0.35867573078163117 0 -0.17037810915819801 -0.35068825148088778 0 -0.16217695080494671 -0.35867573078163117 0 -0.17354032143367271 -0.36048718159480092 0 -0.17037810915819801 -0.35068825148088778 0 -0.16199611201137559 -0.34558911755691768 0 -0.1686936364859847 -0.33798793824082651 0 -0.16199611201137559 -0.34558911755691768 0 -0.16217695080494671 -0.35867573078163117 0 -0.1502758047480735 -0.34721763595288269 0 -0.16217695080494671 -0.35867573078163117 0 -0.1570820738191932 -0.37179212253355609 0 -0.1697529657756835 -0.36831271757751172 0 -0.16217695080494671 -0.35867573078163117 0 -0.1570820738191932 -0.37179212253355609 0 -0.15112923272941761 -0.35947923890823219 0 -0.1696236035998403 -0.37902153028438701 0 -0.1570820738191932 -0.37179212253355609 0 -0.1697529657756835 -0.36831271757751172 0 -0.16217695080494671 -0.35867573078163117 0 -0.1697529657756835 -0.36831271757751172 0 -0.17354032143367271 -0.36048718159480092 0 -0.1697529657756835 -0.36831271757751172 0 -0.17354032143367271 -0.36048718159480092 0 -0.17752138218681299 -0.36610781051996749 0 -0.17354032143367271 -0.36048718159480092 0 -0.17752138218681299 -0.36610781051996749 0 -0.18278454550253209 -0.35879019720047572 0 -0.1697529657756835 -0.36831271757751172 0 -0.17752138218681299 -0.36610781051996749 0 -0.17785286183965521 -0.37305941967268591 0 -0.1696236035998403 -0.37902153028438701 0 -0.1697529657756835 -0.36831271757751172 0 -0.17785286183965521 -0.37305941967268591 0 -0.17752138218681299 -0.36610781051996749 0 -0.17785286183965521 -0.37305941967268591 0 -0.1836762163825216 -0.3698895365543633 0 -0.17785286183965521 -0.37305941967268591 0 -0.1836762163825216 -0.3698895365543633 0 -0.17752138218681299 -0.36610781051996749 0 -0.1836762163825216 -0.3698895365543633 0 -0.18278454550253209 -0.35879019720047572 0 -0.18278454550253209 -0.35879019720047572 0 -0.17819214626364599 -0.35291041294745051 0 -0.185149333404385 -0.35086061955119402 0 -0.17354032143367271 -0.36048718159480092 0 -0.18278454550253209 -0.35879019720047572 0 -0.17819214626364599 -0.35291041294745051 0 -0.17037810915819801 -0.35068825148088778 0 -0.17354032143367271 -0.36048718159480092 0 -0.17819214626364599 -0.35291041294745051 0 -0.17037810915819801 -0.35068825148088778 0 -0.17819214626364599 -0.35291041294745051 0 -0.17910842181944231 -0.34372581490989401 0 -0.17037810915819801 -0.35068825148088778 0 -0.17910842181944231 -0.34372581490989401 0 -0.1686936364859847 -0.33798793824082651 0 -0.185149333404385 -0.35086061955119402 0 -0.18736904641091279 -0.34363981031361368 0 -0.17910842181944231 -0.34372581490989401 0 -0.17819214626364599 -0.35291041294745051 0 -0.185149333404385 -0.35086061955119402 0 -0.17910842181944231 -0.34372581490989401 0 -0.18758316108133649 -0.33609703226990822 0 -0.18736904641091279 -0.34363981031361368 0 -0.17910842181944231 -0.34372581490989401 0 -0.18758316108133649 -0.33609703226990822 0 -0.17859719495139831 -0.33235523987188531 0 -0.17910842181944231 -0.34372581490989401 0 -0.18758316108133649 -0.33609703226990822 0 -0.17859719495139831 -0.33235523987188531 0 -0.18621423201910001 -0.32345515767940519 0 -0.17859719495139831 -0.33235523987188531 0 -0.16992677759805569 -0.32279649304551977 0 -0.1686936364859847 -0.33798793824082651 0 -0.17859719495139831 -0.33235523987188531 0 -0.17910842181944231 -0.34372581490989401 0 -0.1686936364859847 -0.33798793824082651 0 -0.17859719495139831 -0.33235523987188531 0 -0.18621423201910001 -0.32345515767940519 0 -0.16992677759805569 -0.32279649304551977 0 -0.182634461243292 -0.31052356581855423 0 -0.18621423201910001 -0.32345515767940519 0 -0.16992677759805569 -0.32279649304551977 0 -0.182634461243292 -0.31052356581855423 0 -0.16344550902426419 -0.30516699332867969 0 -0.16992677759805569 -0.32279649304551977 0 -0.16992677759805569 -0.32279649304551977 0 -0.15809177213793091 -0.33284083858764568 0 -0.15271315540044539 -0.317608291493782 0 -0.16344550902426419 -0.30516699332867969 0 -0.16992677759805569 -0.32279649304551977 0 -0.15271315540044539 -0.317608291493782 0 -0.16992677759805569 -0.32279649304551977 0 -0.1686936364859847 -0.33798793824082651 0 -0.15809177213793091 -0.33284083858764568 0 -0.16199611201137559 -0.34558911755691768 0 -0.1686936364859847 -0.33798793824082651 0 -0.15809177213793091 -0.33284083858764568 0 -0.16199611201137559 -0.34558911755691768 0 -0.15809177213793091 -0.33284083858764568 0 -0.1502758047480735 -0.34721763595288269 0 -0.14415247388619379 -0.32966483471998598 0 -0.13615634332810661 -0.34116958560660332 0 -0.1502758047480735 -0.34721763595288269 0 -0.15809177213793091 -0.33284083858764568 0 -0.14415247388619379 -0.32966483471998598 0 -0.1502758047480735 -0.34721763595288269 0 -0.15809177213793091 -0.33284083858764568 0 -0.14415247388619379 -0.32966483471998598 0 -0.15271315540044539 -0.317608291493782 0 -0.14415247388619379 -0.32966483471998598 0 -0.15271315540044539 -0.317608291493782 0 -0.13792643156609449 -0.31660996118260398 0 -0.14415247388619379 -0.32966483471998598 0 -0.13792643156609449 -0.31660996118260398 0 -0.12987213415438151 -0.32916880487111611 0 -0.13792643156609449 -0.31660996118260398 0 -0.12593166682397261 -0.31942180862689562 0 -0.12987213415438151 -0.32916880487111611 0 -0.1321908221382421 -0.30582848771654703 0 -0.13792643156609449 -0.31660996118260398 0 -0.12593166682397261 -0.31942180862689562 0 -0.13615634332810661 -0.34116958560660332 0 -0.12987213415438151 -0.32916880487111611 0 -0.11954797721235751 -0.33951639511172738 0 -0.14415247388619379 -0.32966483471998598 0 -0.13615634332810661 -0.34116958560660332 0 -0.12987213415438151 -0.32916880487111611 0 -0.13615634332810661 -0.34116958560660332 0 -0.12637955156622571 -0.35168175825312581 0 -0.11954797721235751 -0.33951639511172738 0 -0.13615634332810661 -0.34116958560660332 0 -0.12637955156622571 -0.35168175825312581 0 -0.13782642761859251 -0.36183846242912487 0 -0.13615634332810661 -0.34116958560660332 0 -0.1502758047480735 -0.34721763595288269 0 -0.13782642761859251 -0.36183846242912487 0 -0.1502758047480735 -0.34721763595288269 0 -0.15112923272941761 -0.35947923890823219 0 -0.13782642761859251 -0.36183846242912487 0 -0.16217695080494671 -0.35867573078163117 0 -0.1502758047480735 -0.34721763595288269 0 -0.15112923272941761 -0.35947923890823219 0 -0.13827213961799559 -0.37927114421765912 0 -0.1570820738191932 -0.37179212253355609 0 -0.13782642761859251 -0.36183846242912487 0 -0.1570820738191932 -0.37179212253355609 0 -0.15112923272941761 -0.35947923890823219 0 -0.13782642761859251 -0.36183846242912487 0 -0.12637955156622571 -0.35168175825312581 0 -0.13782642761859251 -0.36183846242912487 0 -0.11926597608187289 -0.37271568155493462 0 -0.13827213961799559 -0.37927114421765912 0 -0.13782642761859251 -0.36183846242912487 0 -0.11926597608187289 -0.37271568155493462 0 -0.11926597608187289 -0.37271568155493462 0 -0.1060820800103324 -0.36578765651885892 0 -0.1110792059801058 -0.35138336920792568 0 -0.11926597608187289 -0.37271568155493462 0 -0.1110792059801058 -0.35138336920792568 0 -0.1060820800103324 -0.36578765651885892 0 -0.095171459228352115 -0.35713800915847732 0 -0.093004181173005282 -0.37291375001574001 0 -0.1060820800103324 -0.36578765651885892 0 -0.095171459228352115 -0.35713800915847732 0 -0.1110792059801058 -0.35138336920792568 0 -0.095171459228352115 -0.35713800915847732 0 -0.1110792059801058 -0.35138336920792568 0 -0.091777942701117859 -0.34376785720284381 0 -0.12637955156622571 -0.35168175825312581 0 -0.11926597608187289 -0.37271568155493462 0 -0.1110792059801058 -0.35138336920792568 0 -0.12637955156622571 -0.35168175825312581 0 -0.1110792059801058 -0.35138336920792568 0 -0.11954797721235751 -0.33951639511172738 0 -0.11954797721235751 -0.33951639511172738 0 -0.116486340626912 -0.32757697677472147 0 -0.1028924358783387 -0.3300510568609169 0 -0.1110792059801058 -0.35138336920792568 0 -0.11954797721235751 -0.33951639511172738 0 -0.1028924358783387 -0.3300510568609169 0 -0.12987213415438151 -0.32916880487111611 0 -0.11954797721235751 -0.33951639511172738 0 -0.116486340626912 -0.32757697677472147 0 -0.12593166682397261 -0.31942180862689562 0 -0.11838009758979109 -0.31627115060292121 0 -0.12221250860588311 -0.30764708607330432 0 -0.12593166682397261 -0.31942180862689562 0 -0.12987213415438151 -0.32916880487111611 0 -0.116486340626912 -0.32757697677472147 0 -0.12593166682397261 -0.31942180862689562 0 -0.11838009758979109 -0.31627115060292121 0 -0.116486340626912 -0.32757697677472147 0 -0.11838009758979109 -0.31627115060292121 0 -0.116486340626912 -0.32757697677472147 0 -0.1116923791977463 -0.31422088916290641 0 -0.116486340626912 -0.32757697677472147 0 -0.1116923791977463 -0.31422088916290641 0 -0.1049808524805452 -0.31260104733727578 0 -0.11838009758979109 -0.31627115060292121 0 -0.1116923791977463 -0.31422088916290641 0 -0.1140455259096496 -0.30760619540956868 0 -0.116486340626912 -0.32757697677472147 0 -0.1028924358783387 -0.3300510568609169 0 -0.094705665776571191 -0.30871874451390818 0 -0.1028924358783387 -0.3300510568609169 0 -0.094705665776571191 -0.30871874451390818 0 -0.116486340626912 -0.32757697677472147 0 -0.094705665776571191 -0.30871874451390818 0 -0.116486340626912 -0.32757697677472147 0 -0.1049808524805452 -0.31260104733727578 0 -0.094705665776571191 -0.30871874451390818 0 -0.1028924358783387 -0.3300510568609169 0 -0.09159086228574205 -0.3238046487769044 0 -0.094705665776571191 -0.30871874451390818 0 -0.1110792059801058 -0.35138336920792568 0 -0.1028924358783387 -0.3300510568609169 0 -0.1110792059801058 -0.35138336920792568 0 -0.1028924358783387 -0.3300510568609169 0 -0.091777942701117859 -0.34376785720284381 0 -0.1028924358783387 -0.3300510568609169 0 -0.087432884607917205 -0.33277140194231469 0 -0.091777942701117859 -0.34376785720284381 0 -0.1028924358783387 -0.3300510568609169 0 -0.087432884607917205 -0.33277140194231469 0 -0.09159086228574205 -0.3238046487769044 0 -0.087432884607917205 -0.33277140194231469 0 -0.078543565328609205 -0.33688360785486771 0 -0.082454875737409936 -0.32565735731511603 0 -0.087432884607917205 -0.33277140194231469 0 -0.078543565328609205 -0.33688360785486771 0 -0.091777942701117859 -0.34376785720284381 0 -0.089244310412011585 -0.31503338391868752 0 -0.09159086228574205 -0.3238046487769044 0 -0.084459327098719963 -0.31712614237624642 0 -0.089244310412011585 -0.31503338391868752 0 -0.084459327098719963 -0.31712614237624642 0 -0.084770748604463875 -0.30814549206771941 0 -0.089244310412011585 -0.31503338391868752 0 -0.09159086228574205 -0.3238046487769044 0 -0.094705665776571191 -0.30871874451390818 0 -0.087432884607917205 -0.33277140194231469 0 -0.09159086228574205 -0.3238046487769044 0 -0.082454875737409936 -0.32565735731511603 0 -0.09159086228574205 -0.3238046487769044 0 -0.082454875737409936 -0.32565735731511603 0 -0.084459327098719963 -0.31712614237624642 0 -0.082454875737409936 -0.32565735731511603 0 -0.084459327098719963 -0.31712614237624642 0 -0.073471524642168301 -0.31939959605711188 0 -0.084459327098719963 -0.31712614237624642 0 -0.073471524642168301 -0.31939959605711188 0 -0.077727542558783738 -0.30994760288463952 0 -0.073471524642168301 -0.31939959605711188 0 -0.077727542558783738 -0.30994760288463952 0 -0.062336611832247903 -0.31208955120119669 0 -0.082454875737409936 -0.32565735731511603 0 -0.073471524642168301 -0.31939959605711188 0 -0.072114872135104424 -0.32825924354600461 0 -0.073471524642168301 -0.31939959605711188 0 -0.064475530610396833 -0.32429323910277702 0 -0.072114872135104424 -0.32825924354600461 0 -0.073471524642168301 -0.31939959605711188 0 -0.064475530610396833 -0.32429323910277702 0 -0.062336611832247903 -0.31208955120119669 0 -0.078543565328609205 -0.33688360785486771 0 -0.063589434575338194 -0.33466255525704192 0 -0.078296807874171731 -0.35378815263639091 0 -0.078543565328609205 -0.33688360785486771 0 -0.072114872135104424 -0.32825924354600461 0 -0.063589434575338194 -0.33466255525704192 0 -0.078543565328609205 -0.33688360785486771 0 -0.082454875737409936 -0.32565735731511603 0 -0.072114872135104424 -0.32825924354600461 0 -0.064475530610396833 -0.32429323910277702 0 -0.072114872135104424 -0.32825924354600461 0 -0.063589434575338194 -0.33466255525704192 0 -0.063589434575338194 -0.33466255525704192 0 -0.078296807874171731 -0.35378815263639091 0 -0.064206943221684853 -0.34781599848244271 0 -0.073015040385982166 -0.36583771281757022 0 -0.078296807874171731 -0.35378815263639091 0 -0.064206943221684853 -0.34781599848244271 0 -0.073015040385982166 -0.36583771281757022 0 -0.063589434575338194 -0.33466255525704192 0 -0.064206943221684853 -0.34781599848244271 0 -0.078296807874171731 -0.35378815263639091 0 -0.064206943221684853 -0.34781599848244271 0 -0.073015040385982166 -0.36583771281757022 0 -0.059343590821338728 -0.36097016756253852 0 -0.063683772153077967 -0.37405162642911338 0 -0.073015040385982166 -0.36583771281757022 0 -0.059343590821338728 -0.36097016756253852 0 -0.073015040385982166 -0.36583771281757022 0 -0.08183654068279006 -0.37268954431211709 0 -0.078296807874171731 -0.35378815263639091 0 -0.063683772153077967 -0.37405162642911338 0 -0.073015040385982166 -0.36583771281757022 0 -0.08182313755027848 -0.38385942715269822 0 -0.073015040385982166 -0.36583771281757022 0 -0.08182313755027848 -0.38385942715269822 0 -0.093004181173005282 -0.37291375001574001 0 -0.078296807874171731 -0.35378815263639091 0 -0.073015040385982166 -0.36583771281757022 0 -0.08183654068279006 -0.37268954431211709 0 -0.08182313755027848 -0.38385942715269822 0 -0.08183654068279006 -0.37268954431211709 0 -0.093004181173005282 -0.37291375001574001 0 -0.078296807874171731 -0.35378815263639091 0 -0.095171459228352115 -0.35713800915847732 0 -0.093004181173005282 -0.37291375001574001 0 -0.078296807874171731 -0.35378815263639091 0 -0.08183654068279006 -0.37268954431211709 0 -0.093004181173005282 -0.37291375001574001 0 -0.087242047055254332 -0.37828098002972549 0 -0.095171459228352115 -0.35713800915847732 0 -0.078296807874171731 -0.35378815263639091 0 -0.091777942701117859 -0.34376785720284381 0 -0.078543565328609205 -0.33688360785486771 0 -0.078296807874171731 -0.35378815263639091 0 -0.091777942701117859 -0.34376785720284381 0 -0.093802440156239938 -0.26200710103042618 0 -0.1024803928049134 -0.25248983375176598 0 -0.1060823145455133 -0.27095739139889469 0 -0.1024803928049134 -0.25248983375176598 0 -0.1180516765755087 -0.25804632408857098 0 -0.1060823145455133 -0.27095739139889469 0 -0.1024803928049134 -0.25248983375176598 0 -0.1180516765755087 -0.25804632408857098 0 -0.1132611434474206 -0.2481528401313787 0 -0.13138631030816489 -0.25257813007746482 0 -0.1180516765755087 -0.25804632408857098 0 -0.1237611880095134 -0.26840005677391637 0 -0.13138631030816489 -0.25257813007746482 0 -0.1180516765755087 -0.25804632408857098 0 -0.1227181660842256 -0.2423306863943781 0 -0.1237611880095134 -0.26840005677391637 0 -0.1145524275731418 -0.27961471929158588 0 -0.1060823145455133 -0.27095739139889469 0 -0.1180516765755087 -0.25804632408857098 0 -0.1237611880095134 -0.26840005677391637 0 -0.1060823145455133 -0.27095739139889469 0 -0.1262895362602621 -0.27920804073568761 0 -0.1237611880095134 -0.26840005677391637 0 -0.1145524275731418 -0.27961471929158588 0 -0.093802440156239938 -0.26200710103042618 0 -0.1060823145455133 -0.27095739139889469 0 -0.083276314858250891 -0.27279428841046682 0 -0.1145524275731418 -0.27961471929158588 0 -0.1060823145455133 -0.27095739139889469 0 -0.10137398237269191 -0.28587317497291992 0 -0.1060823145455133 -0.27095739139889469 0 -0.10137398237269191 -0.28587317497291992 0 -0.083276314858250891 -0.27279428841046682 0 -0.10137398237269191 -0.28587317497291992 0 -0.093579799475700512 -0.29624055479368738 0 -0.087430519537899196 -0.28672405617400332 0 -0.10137398237269191 -0.28587317497291992 0 -0.1018969053100278 -0.2961412311035882 0 -0.093579799475700512 -0.29624055479368738 0 -0.10137398237269191 -0.28587317497291992 0 -0.10899089400918111 -0.2955554998316744 0 -0.11295795749360001 -0.28928438147033392 0 -0.10137398237269191 -0.28587317497291992 0 -0.1018969053100278 -0.2961412311035882 0 -0.10899089400918111 -0.2955554998316744 0 -0.1145524275731418 -0.27961471929158588 0 -0.10137398237269191 -0.28587317497291992 0 -0.11295795749360001 -0.28928438147033392 0 -0.1145524275731418 -0.27961471929158588 0 -0.1222197456654929 -0.28728830630709667 0 -0.11295795749360001 -0.28928438147033392 0 -0.1262895362602621 -0.27920804073568761 0 -0.1145524275731418 -0.27961471929158588 0 -0.1222197456654929 -0.28728830630709667 0 -0.12556006532294811 -0.29665681700128921 0 -0.1222197456654929 -0.28728830630709667 0 -0.11295795749360001 -0.28928438147033392 0 -0.12556006532294811 -0.29665681700128921 0 -0.11295795749360001 -0.28928438147033392 0 -0.11569930031593249 -0.29983896524787951 0 -0.10899089400918111 -0.2955554998316744 0 -0.11295795749360001 -0.28928438147033392 0 -0.11569930031593249 -0.29983896524787951 0 -0.10899089400918111 -0.2955554998316744 0 -0.10989777745946309 -0.30308626952527429 0 -0.11569930031593249 -0.29983896524787951 0 -0.10989777745946309 -0.30308626952527429 0 -0.11569930031593249 -0.29983896524787951 0 -0.1140455259096496 -0.30760619540956868 0 -0.12556006532294811 -0.29665681700128921 0 -0.11569930031593249 -0.29983896524787951 0 -0.12221250860588311 -0.30764708607330432 0 -0.11569930031593249 -0.29983896524787951 0 -0.12221250860588311 -0.30764708607330432 0 -0.1140455259096496 -0.30760619540956868 0 -0.11838009758979109 -0.31627115060292121 0 -0.12221250860588311 -0.30764708607330432 0 -0.1140455259096496 -0.30760619540956868 0 -0.10989777745946309 -0.30308626952527429 0 -0.1140455259096496 -0.30760619540956868 0 -0.10741756985083591 -0.30813179182809969 0 -0.1116923791977463 -0.31422088916290641 0 -0.1140455259096496 -0.30760619540956868 0 -0.10741756985083591 -0.30813179182809969 0 -0.1116923791977463 -0.31422088916290641 0 -0.1049808524805452 -0.31260104733727578 0 -0.10741756985083591 -0.30813179182809969 0 -0.1049808524805452 -0.31260104733727578 0 -0.1028312874400335 -0.3075108730856112 0 -0.10741756985083591 -0.30813179182809969 0 -0.1049808524805452 -0.31260104733727578 0 -0.1028312874400335 -0.3075108730856112 0 -0.099420761099714275 -0.30843559445062563 0 -0.1028312874400335 -0.3075108730856112 0 -0.1052857456079538 -0.30483798144159913 0 -0.10741756985083591 -0.30813179182809969 0 -0.1028312874400335 -0.3075108730856112 0 -0.1052857456079538 -0.30483798144159913 0 -0.10158456862130071 -0.30442055772927412 0 -0.10989777745946309 -0.30308626952527429 0 -0.1052857456079538 -0.30483798144159913 0 -0.10741756985083591 -0.30813179182809969 0 -0.10989777745946309 -0.30308626952527429 0 -0.1052857456079538 -0.30483798144159913 0 -0.1046975246681356 -0.30104041503973628 0 -0.10899089400918111 -0.2955554998316744 0 -0.10989777745946309 -0.30308626952527429 0 -0.1046975246681356 -0.30104041503973628 0 -0.1018969053100278 -0.2961412311035882 0 -0.1046975246681356 -0.30104041503973628 0 -0.099246499036775404 -0.30128934732354529 0 -0.1018969053100278 -0.2961412311035882 0 -0.10899089400918111 -0.2955554998316744 0 -0.1046975246681356 -0.30104041503973628 0 -0.1046975246681356 -0.30104041503973628 0 -0.10158456862130071 -0.30442055772927412 0 -0.099246499036775404 -0.30128934732354529 0 -0.1052857456079538 -0.30483798144159913 0 -0.1046975246681356 -0.30104041503973628 0 -0.10158456862130071 -0.30442055772927412 0 -0.1018969053100278 -0.2961412311035882 0 -0.099246499036775404 -0.30128934732354529 0 -0.093579799475700512 -0.29624055479368738 0 -0.10158456862130071 -0.30442055772927412 0 -0.099246499036775404 -0.30128934732354529 0 -0.098181670292714782 -0.30597126045352391 0 -0.099246499036775404 -0.30128934732354529 0 -0.096226029131258092 -0.30335239769558558 0 -0.098181670292714782 -0.30597126045352391 0 -0.096226029131258092 -0.30335239769558558 0 -0.094152164452482145 -0.30727648303799221 0 -0.093579799475700512 -0.29624055479368738 0 -0.099246499036775404 -0.30128934732354529 0 -0.096226029131258092 -0.30335239769558558 0 -0.093579799475700512 -0.29624055479368738 0 -0.096286707423370643 -0.30613231562162407 0 -0.094705665776571191 -0.30871874451390818 0 -0.099420761099714275 -0.30843559445062563 0 -0.096226029131258092 -0.30335239769558558 0 -0.096286707423370643 -0.30613231562162407 0 -0.094152164452482145 -0.30727648303799221 0 -0.1049808524805452 -0.31260104733727578 0 -0.094705665776571191 -0.30871874451390818 0 -0.099420761099714275 -0.30843559445062563 0 -0.096226029131258092 -0.30335239769558558 0 -0.096286707423370643 -0.30613231562162407 0 -0.098181670292714782 -0.30597126045352391 0 -0.096286707423370643 -0.30613231562162407 0 -0.094152164452482145 -0.30727648303799221 0 -0.094705665776571191 -0.30871874451390818 0 -0.094152164452482145 -0.30727648303799221 0 -0.094705665776571191 -0.30871874451390818 0 -0.1028312874400335 -0.3075108730856112 0 -0.098181670292714782 -0.30597126045352391 0 -0.099420761099714275 -0.30843559445062563 0 -0.1028312874400335 -0.3075108730856112 0 -0.10158456862130071 -0.30442055772927412 0 -0.098181670292714782 -0.30597126045352391 0 -0.096286707423370643 -0.30613231562162407 0 -0.098181670292714782 -0.30597126045352391 0 -0.099420761099714275 -0.30843559445062563 0 -0.084770748604463875 -0.30814549206771941 0 -0.077727542558783738 -0.30994760288463952 0 -0.075844124810908131 -0.29238796859574478 0 -0.094152164452482145 -0.30727648303799221 0 -0.094705665776571191 -0.30871874451390818 0 -0.075844124810908131 -0.29238796859574478 0 -0.094152164452482145 -0.30727648303799221 0 -0.075844124810908131 -0.29238796859574478 0 -0.093579799475700512 -0.29624055479368738 0 -0.094705665776571191 -0.30871874451390818 0 -0.084770748604463875 -0.30814549206771941 0 -0.075844124810908131 -0.29238796859574478 0 -0.094705665776571191 -0.30871874451390818 0 -0.075844124810908131 -0.29238796859574478 0 -0.089244310412011585 -0.31503338391868752 0 -0.094705665776571191 -0.30871874451390818 0 -0.084770748604463875 -0.30814549206771941 0 -0.084459327098719963 -0.31712614237624642 0 -0.084770748604463875 -0.30814549206771941 0 -0.077727542558783738 -0.30994760288463952 0 -0.075844124810908131 -0.29238796859574478 0 -0.052651112141914883 -0.29615119430525838 0 -0.062336611832247903 -0.31208955120119669 0 -0.077727542558783738 -0.30994760288463952 0 -0.075844124810908131 -0.29238796859574478 0 -0.062336611832247903 -0.31208955120119669 0 -0.075844124810908131 -0.29238796859574478 0 -0.05698258384524546 -0.27605719267758111 0 -0.10137398237269191 -0.28587317497291992 0 -0.087430519537899196 -0.28672405617400332 0 -0.083276314858250891 -0.27279428841046682 0 -0.075844124810908131 -0.29238796859574478 0 -0.093579799475700512 -0.29624055479368738 0 -0.087430519537899196 -0.28672405617400332 0 -0.075844124810908131 -0.29238796859574478 0 -0.087430519537899196 -0.28672405617400332 0 -0.083276314858250891 -0.27279428841046682 0 -0.075844124810908131 -0.29238796859574478 0 -0.083276314858250891 -0.27279428841046682 0 -0.05698258384524546 -0.27605719267758111 0 -0.083276314858250891 -0.27279428841046682 0 -0.063197998448463549 -0.25457443183096989 0 -0.05698258384524546 -0.27605719267758111 0 -0.083276314858250891 -0.27279428841046682 0 -0.063197998448463549 -0.25457443183096989 0 -0.083370738416282147 -0.2517868905605774 0 -0.093802440156239938 -0.26200710103042618 0 -0.083276314858250891 -0.27279428841046682 0 -0.083370738416282147 -0.2517868905605774 0 -0.093802440156239938 -0.26200710103042618 0 -0.1024803928049134 -0.25248983375176598 0 -0.083370738416282147 -0.2517868905605774 0 -0.041780072468508483 -0.25363654907423799 0 -0.05698258384524546 -0.27605719267758111 0 -0.024991505512592979 -0.26370659804833729 0 -0.05698258384524546 -0.27605719267758111 0 -0.032869283626720917 -0.28996335800272022 0 -0.024991505512592979 -0.26370659804833729 0 -0.063197998448463549 -0.25457443183096989 0 -0.041780072468508483 -0.25363654907423799 0 -0.05698258384524546 -0.27605719267758111 0 -0.05698258384524546 -0.27605719267758111 0 -0.032869283626720917 -0.28996335800272022 0 -0.052651112141914883 -0.29615119430525838 0 -0.075844124810908131 -0.29238796859574478 0 -0.05698258384524546 -0.27605719267758111 0 -0.052651112141914883 -0.29615119430525838 0 -0.052651112141914883 -0.29615119430525838 0 -0.062336611832247903 -0.31208955120119669 0 -0.040747061740848849 -0.31622011795710309 0 -0.032869283626720917 -0.28996335800272022 0 -0.040747061740848849 -0.31622011795710309 0 -0.023873821366405309 -0.31960828034230432 0 -0.032869283626720917 -0.28996335800272022 0 -0.040747061740848849 -0.31622011795710309 0 -0.032869283626720917 -0.28996335800272022 0 -0.052651112141914883 -0.29615119430525838 0 -0.040747061740848849 -0.31622011795710309 0 -0.032869283626720917 -0.28996335800272022 0 -0.010380234539267411 -0.30297895412728532 0 -0.023873821366405309 -0.31960828034230432 0 -0.010380234539267411 -0.30297895412728532 0 -0.01212746403176403 -0.28233099152615038 0 0.00632714377786576 -0.28933751539522412 0 -0.032869283626720917 -0.28996335800272022 0 -0.010380234539267411 -0.30297895412728532 0 -0.01212746403176403 -0.28233099152615038 0 -0.032869283626720917 -0.28996335800272022 0 -0.024991505512592979 -0.26370659804833729 0 -0.032869283626720917 -0.28996335800272022 0 -0.01212746403176403 -0.28233099152615038 0 -0.024991505512592979 -0.26370659804833729 0 -0.01212746403176403 -0.28233099152615038 0 -0.024991505512592979 -0.26370659804833729 0 0.0038049516362545122 -0.26613471529053567 0 -0.01212746403176403 -0.28233099152615038 0 0.00632714377786576 -0.28933751539522412 0 0.0038049516362545122 -0.26613471529053567 0 -0.024991505512592979 -0.26370659804833729 0 -0.00049652130699871766 -0.2473016026161601 0 0.0038049516362545122 -0.26613471529053567 0 -0.024991505512592979 -0.26370659804833729 0 -0.01711372739846502 -0.23744983809395431 0 -0.041780072468508483 -0.25363654907423799 0 -0.024991505512592979 -0.26370659804833729 0 -0.01711372739846502 -0.23744983809395431 0 -0.037407769894206078 -0.34942639868579428 0 -0.045544406755878009 -0.36424382570552738 0 -0.027405041358677992 -0.3544360249819416 0 -0.045544406755878009 -0.36424382570552738 0 -0.027405041358677992 -0.3544360249819416 0 -0.037407769894206078 -0.34942639868579428 0 -0.045544406755878009 -0.36424382570552738 0 -0.050489604534787222 -0.35286193318020342 0 -0.037407769894206078 -0.34942639868579428 0 -0.050489604534787222 -0.35286193318020342 0 -0.050432594506339787 -0.34134194835640469 0 -0.037407769894206078 -0.34942639868579428 0 -0.027405041358677992 -0.3544360249819416 0 -0.045544406755878009 -0.36424382570552738 0 -0.03010399697818127 -0.37225062347596671 0 -0.046028014585890231 -0.37742954090083541 0 -0.045544406755878009 -0.36424382570552738 0 -0.027405041358677992 -0.3544360249819416 0 -0.03010399697818127 -0.37225062347596671 0 -0.063683772153077967 -0.37405162642911338 0 -0.045544406755878009 -0.36424382570552738 0 -0.05582280531847731 -0.3775962731015054 0 -0.063683772153077967 -0.37405162642911338 0 -0.045544406755878009 -0.36424382570552738 0 -0.059343590821338728 -0.36097016756253852 0 -0.063683772153077967 -0.37405162642911338 0 -0.045544406755878009 -0.36424382570552738 0 -0.045544406755878009 -0.36424382570552738 0 -0.046028014585890231 -0.37742954090083541 0 -0.05582280531847731 -0.3775962731015054 0 -0.064206943221684853 -0.34781599848244271 0 -0.059343590821338728 -0.36097016756253852 0 -0.050489604534787222 -0.35286193318020342 0 -0.045544406755878009 -0.36424382570552738 0 -0.059343590821338728 -0.36097016756253852 0 -0.050489604534787222 -0.35286193318020342 0 -0.064206943221684853 -0.34781599848244271 0 -0.050489604534787222 -0.35286193318020342 0 -0.050432594506339787 -0.34134194835640469 0 -0.063589434575338194 -0.33466255525704192 0 -0.064206943221684853 -0.34781599848244271 0 -0.050432594506339787 -0.34134194835640469 0 -0.064475530610396833 -0.32429323910277702 0 -0.063589434575338194 -0.33466255525704192 0 -0.050865209867125352 -0.32705524945252962 0 -0.063589434575338194 -0.33466255525704192 0 -0.050432594506339787 -0.34134194835640469 0 -0.050865209867125352 -0.32705524945252962 0 -0.062336611832247903 -0.31208955120119669 0 -0.050865209867125352 -0.32705524945252962 0 -0.040747061740848849 -0.31622011795710309 0 -0.064475530610396833 -0.32429323910277702 0 -0.062336611832247903 -0.31208955120119669 0 -0.050865209867125352 -0.32705524945252962 0 -0.050865209867125352 -0.32705524945252962 0 -0.040747061740848849 -0.31622011795710309 0 -0.03785822795627293 -0.33194380224465131 0 -0.040747061740848849 -0.31622011795710309 0 -0.03785822795627293 -0.33194380224465131 0 -0.023873821366405309 -0.31960828034230432 0 -0.037407769894206078 -0.34942639868579428 0 -0.050432594506339787 -0.34134194835640469 0 -0.03785822795627293 -0.33194380224465131 0 -0.037407769894206078 -0.34942639868579428 0 -0.03785822795627293 -0.33194380224465131 0 -0.02382291036271221 -0.33801081867377158 0 -0.050432594506339787 -0.34134194835640469 0 -0.050865209867125352 -0.32705524945252962 0 -0.03785822795627293 -0.33194380224465131 0 -0.03785822795627293 -0.33194380224465131 0 -0.02382291036271221 -0.33801081867377158 0 -0.023873821366405309 -0.31960828034230432 0 -0.02382291036271221 -0.33801081867377158 0 -0.023873821366405309 -0.31960828034230432 0 -0.007323121960877416 -0.32432635561407591 0 -0.010380234539267411 -0.30297895412728532 0 -0.023873821366405309 -0.31960828034230432 0 -0.007323121960877416 -0.32432635561407591 0 -0.010380234539267411 -0.30297895412728532 0 -0.007323121960877416 -0.32432635561407591 0 0.0088493359194770065 -0.31254031549991262 0 -0.02382291036271221 -0.33801081867377158 0 -0.007323121960877416 -0.32432635561407591 0 -0.0086474613884536759 -0.3442939608922525 0 -0.007323121960877416 -0.32432635561407591 0 -0.0086474613884536759 -0.3442939608922525 0 0.010110118581770629 -0.33415189680256352 0 -0.0086474613884536759 -0.3442939608922525 0 -0.0062147334033759091 -0.36504868167649229 0 0.0041026344107457603 -0.34763671413703978 0 -0.0086474613884536759 -0.3442939608922525 0 -0.027405041358677992 -0.3544360249819416 0 -0.0062147334033759091 -0.36504868167649229 0 -0.02382291036271221 -0.33801081867377158 0 -0.0086474613884536759 -0.3442939608922525 0 -0.027405041358677992 -0.3544360249819416 0 -0.037407769894206078 -0.34942639868579428 0 -0.02382291036271221 -0.33801081867377158 0 -0.027405041358677992 -0.3544360249819416 0 -0.0086474613884536759 -0.3442939608922525 0 -0.027405041358677992 -0.3544360249819416 0 -0.027405041358677992 -0.3544360249819416 0 -0.03010399697818127 -0.37225062347596671 0 -0.0062147334033759091 -0.36504868167649229 0 -0.027405041358677992 -0.3544360249819416 0 -0.0062147334033759091 -0.36504868167649229 0 -0.0062147334033759091 -0.36504868167649229 0 -0.003054764863230162 -0.38327110372534579 0 -0.02030995257627809 -0.3899269705726256 0 -0.003054764863230162 -0.38327110372534579 0 -0.02030995257627809 -0.3899269705726256 0 0.0043376777961855089 -0.39967183539507678 0 -0.02030995257627809 -0.3899269705726256 0 -0.0072811505478054747 -0.41683981000625953 0 0.0043376777961855089 -0.39967183539507678 0 -0.02030995257627809 -0.3899269705726256 0 -0.036792179302656013 -0.39113431467744841 0 -0.027788927220704779 -0.41378375976204951 0 -0.03010399697818127 -0.37225062347596671 0 -0.0062147334033759091 -0.36504868167649229 0 -0.02030995257627809 -0.3899269705726256 0 -0.03010399697818127 -0.37225062347596671 0 -0.02030995257627809 -0.3899269705726256 0 -0.036792179302656013 -0.39113431467744841 0 -0.046028014585890231 -0.37742954090083541 0 -0.036792179302656013 -0.39113431467744841 0 -0.048024501039917802 -0.40325687323733189 0 -0.03010399697818127 -0.37225062347596671 0 -0.046028014585890231 -0.37742954090083541 0 -0.036792179302656013 -0.39113431467744841 0 -0.036792179302656013 -0.39113431467744841 0 -0.048024501039917802 -0.40325687323733189 0 -0.027788927220704779 -0.41378375976204951 0 -0.048024501039917802 -0.40325687323733189 0 -0.060929648522520141 -0.39303857513418589 0 -0.062743394463583166 -0.41303775614753019 0 -0.046028014585890231 -0.37742954090083541 0 -0.048024501039917802 -0.40325687323733189 0 -0.060929648522520141 -0.39303857513418589 0 -0.060929648522520141 -0.39303857513418589 0 -0.05582280531847731 -0.3775962731015054 0 -0.062928184575020224 -0.37921779733786498 0 -0.046028014585890231 -0.37742954090083541 0 -0.048024501039917802 -0.40325687323733189 0 -0.063683772153077967 -0.37405162642911338 0 -0.05582280531847731 -0.3775962731015054 0 -0.062928184575020224 -0.37921779733786498 0 -0.046028014585890231 -0.37742954090083541 0 -0.060929648522520141 -0.39303857513418589 0 -0.05582280531847731 -0.3775962731015054 0 -0.050020987493945367 -0.42908420557382848 0 -0.062743394463583166 -0.41303775614753019 0 -0.069327824921961753 -0.42871009669915588 0 -0.050020987493945367 -0.42908420557382848 0 -0.067526044786475031 -0.44514553943992691 0 -0.069327824921961753 -0.42871009669915588 0 -0.048024501039917802 -0.40325687323733189 0 -0.050020987493945367 -0.42908420557382848 0 -0.062743394463583166 -0.41303775614753019 0 -0.048024501039917802 -0.40325687323733189 0 -0.050020987493945367 -0.42908420557382848 0 -0.048024501039917802 -0.40325687323733189 0 -0.050020987493945367 -0.42908420557382848 0 -0.038500534625416652 -0.42303351349818491 0 -0.048024501039917802 -0.40325687323733189 0 -0.038500534625416652 -0.42303351349818491 0 -0.027788927220704779 -0.41378375976204951 0 -0.038500534625416652 -0.42303351349818491 0 -0.02759494078112882 -0.43115801006636117 0 -0.027788927220704779 -0.41378375976204951 0 -0.050020987493945367 -0.42908420557382848 0 -0.038500534625416652 -0.42303351349818491 0 -0.039073316591386471 -0.43788471885135299 0 -0.038500534625416652 -0.42303351349818491 0 -0.02759494078112882 -0.43115801006636117 0 -0.039073316591386471 -0.43788471885135299 0 -0.02759494078112882 -0.43115801006636117 0 -0.039073316591386471 -0.43788471885135299 0 -0.032795773121560033 -0.44103683803272331 0 -0.02759494078112882 -0.43115801006636117 0 -0.027788927220704779 -0.41378375976204951 0 -0.0072811505478054747 -0.41683981000625953 0 -0.02030995257627809 -0.3899269705726256 0 -0.027788927220704779 -0.41378375976204951 0 -0.0072811505478054747 -0.41683981000625953 0 -0.02759494078112882 -0.43115801006636117 0 -0.0072811505478054747 -0.41683981000625953 0 -0.0031373934974118531 -0.4372016448190541 0 -0.023301921484060621 -0.45063997583868909 0 -0.010022809886413971 -0.47531998791934532 0 0.0093628688378709132 -0.45459560444918412 0 -0.0031373934974118531 -0.4372016448190541 0 -0.023301921484060621 -0.45063997583868909 0 0.0093628688378709132 -0.45459560444918412 0 -0.0031373934974118531 -0.4372016448190541 0 -0.023301921484060621 -0.45063997583868909 0 -0.023301921484060621 -0.45063997583868909 0 -0.010022809886413971 -0.47531998791934532 0 -0.023301921484060621 -0.45063997583868909 0 -0.010022809886413971 -0.47531998791934532 0 -0.028588796162435679 -0.46954631477412528 0 -0.030811980946986329 -0.45564493628739638 0 -0.023301921484060621 -0.45063997583868909 0 -0.028588796162435679 -0.46954631477412528 0 -0.030811980946986329 -0.45564493628739638 0 -0.023301921484060621 -0.45063997583868909 0 -0.0031373934974118531 -0.4372016448190541 0 -0.026644178688949759 -0.44442819370350972 0 -0.023301921484060621 -0.45063997583868909 0 -0.02759494078112882 -0.43115801006636117 0 -0.0031373934974118531 -0.4372016448190541 0 -0.026644178688949759 -0.44442819370350972 0 -0.030811980946986329 -0.45564493628739638 0 -0.029784360394689069 -0.44964408308371639 0 -0.023301921484060621 -0.45063997583868909 0 -0.029784360394689069 -0.44964408308371639 0 -0.026644178688949759 -0.44442819370350972 0 -0.023301921484060621 -0.45063997583868909 0 -0.026644178688949759 -0.44442819370350972 0 -0.023301921484060621 -0.45063997583868909 0 -0.02759494078112882 -0.43115801006636117 0 -0.026644178688949759 -0.44442819370350972 0 -0.032795773121560033 -0.44103683803272331 0 -0.029784360394689069 -0.44964408308371639 0 -0.026644178688949759 -0.44442819370350972 0 -0.032795773121560033 -0.44103683803272331 0 -0.010022809886413971 -0.47531998791934532 0 0.003256301711233377 -0.50000000000000111 0 -0.010022809886413971 -0.47531998791934532 0 -0.02611534519419911 -0.5 0 0.003256301711233377 -0.50000000000000111 0 -0.010022809886413971 -0.47531998791934532 0 -0.028588796162435679 -0.46954631477412528 0 -0.02611534519419911 -0.5 0 -0.02611534519419911 -0.5 0 -0.039803585313378589 -0.4780562723954907 0 -0.055486992099631538 -0.5 0 -0.028588796162435679 -0.46954631477412528 0 -0.02611534519419911 -0.5 0 -0.039803585313378589 -0.4780562723954907 0 -0.028588796162435679 -0.46954631477412528 0 -0.039803585313378589 -0.4780562723954907 0 -0.039088269560562112 -0.46383055587424182 0 -0.039803585313378589 -0.4780562723954907 0 -0.050315072388500033 -0.46940335593455701 0 -0.039088269560562112 -0.46383055587424182 0 -0.039803585313378589 -0.4780562723954907 0 -0.063367683790456097 -0.48299527729020941 0 -0.039803585313378589 -0.4780562723954907 0 -0.050315072388500033 -0.46940335593455701 0 -0.063367683790456097 -0.48299527729020941 0 -0.050315072388500033 -0.46940335593455701 0 -0.061612426253942823 -0.4710340446509893 0 -0.063367683790456097 -0.48299527729020941 0 -0.039803585313378589 -0.4780562723954907 0 -0.055486992099631538 -0.5 0 -0.063367683790456097 -0.48299527729020941 0 -0.050020987493945367 -0.42908420557382848 0 -0.044212823192734937 -0.45095705621057419 0 -0.039073316591386471 -0.43788471885135299 0 -0.044212823192734937 -0.45095705621057419 0 -0.035491334829979862 -0.44752354400919658 0 -0.037861064916830348 -0.4542976889400574 0 -0.044212823192734937 -0.45095705621057419 0 -0.039073316591386471 -0.43788471885135299 0 -0.035491334829979862 -0.44752354400919658 0 -0.039073316591386471 -0.43788471885135299 0 -0.032795773121560033 -0.44103683803272331 0 -0.035491334829979862 -0.44752354400919658 0 -0.029784360394689069 -0.44964408308371639 0 -0.032795773121560033 -0.44103683803272331 0 -0.035491334829979862 -0.44752354400919658 0 -0.029784360394689069 -0.44964408308371639 0 -0.035491334829979862 -0.44752354400919658 0 -0.037861064916830348 -0.4542976889400574 0 -0.030811980946986329 -0.45564493628739638 0 -0.029784360394689069 -0.44964408308371639 0 -0.037861064916830348 -0.4542976889400574 0 -0.030811980946986329 -0.45564493628739638 0 -0.037861064916830348 -0.4542976889400574 0 -0.039088269560562112 -0.46383055587424182 0 -0.030811980946986329 -0.45564493628739638 0 -0.028588796162435679 -0.46954631477412528 0 -0.039088269560562112 -0.46383055587424182 0 -0.050315072388500033 -0.46940335593455701 0 -0.039088269560562112 -0.46383055587424182 0 -0.045514289833599987 -0.45929623242347523 0 -0.044212823192734937 -0.45095705621057419 0 -0.037861064916830348 -0.4542976889400574 0 -0.045514289833599987 -0.45929623242347523 0 -0.037861064916830348 -0.4542976889400574 0 -0.039088269560562112 -0.46383055587424182 0 -0.045514289833599987 -0.45929623242347523 0 -0.052017473947972938 -0.45491153791032518 0 -0.052504179579060617 -0.46120775297293559 0 -0.070686340472129239 -0.46437073004333929 0 -0.044212823192734937 -0.45095705621057419 0 -0.045514289833599987 -0.45929623242347523 0 -0.052017473947972938 -0.45491153791032518 0 -0.052017473947972938 -0.45491153791032518 0 -0.070686340472129239 -0.46437073004333929 0 -0.061612426253942823 -0.4710340446509893 0 -0.052504179579060617 -0.46120775297293559 0 -0.070686340472129239 -0.46437073004333929 0 -0.045514289833599987 -0.45929623242347523 0 -0.052017473947972938 -0.45491153791032518 0 -0.052504179579060617 -0.46120775297293559 0 -0.052017473947972938 -0.45491153791032518 0 -0.052504179579060617 -0.46120775297293559 0 -0.050315072388500033 -0.46940335593455701 0 -0.045514289833599987 -0.45929623242347523 0 -0.052504179579060617 -0.46120775297293559 0 -0.050315072388500033 -0.46940335593455701 0 -0.061612426253942823 -0.4710340446509893 0 -0.052504179579060617 -0.46120775297293559 0 -0.050020987493945367 -0.42908420557382848 0 -0.052017473947972938 -0.45491153791032518 0 -0.067526044786475031 -0.44514553943992691 0 -0.050020987493945367 -0.42908420557382848 0 -0.052017473947972938 -0.45491153791032518 0 -0.050020987493945367 -0.42908420557382848 0 -0.044212823192734937 -0.45095705621057419 0 -0.052017473947972938 -0.45491153791032518 0 -0.044212823192734937 -0.45095705621057419 0 -0.052017473947972938 -0.45491153791032518 0 -0.067526044786475031 -0.44514553943992691 0 -0.08151789346304511 -0.44100924641631378 0 -0.069327824921961753 -0.42871009669915588 0 -0.067526044786475031 -0.44514553943992691 0 -0.080414484205961589 -0.45540973187285982 0 -0.08151789346304511 -0.44100924641631378 0 -0.052017473947972938 -0.45491153791032518 0 -0.067526044786475031 -0.44514553943992691 0 -0.070686340472129239 -0.46437073004333929 0 -0.067526044786475031 -0.44514553943992691 0 -0.070686340472129239 -0.46437073004333929 0 -0.080414484205961589 -0.45540973187285982 0 -0.092986935311868885 -0.4526932212883662 0 -0.089355206996286032 -0.47382992217635228 0 -0.080414484205961589 -0.45540973187285982 0 -0.092986935311868885 -0.4526932212883662 0 -0.089355206996286032 -0.47382992217635228 0 -0.070686340472129239 -0.46437073004333929 0 -0.080414484205961589 -0.45540973187285982 0 -0.089355206996286032 -0.47382992217635228 0 -0.092986935311868885 -0.4526932212883662 0 -0.08151789346304511 -0.44100924641631378 0 -0.096618663627448031 -0.4315565204003794 0 -0.080414484205961589 -0.45540973187285982 0 -0.092986935311868885 -0.4526932212883662 0 -0.08151789346304511 -0.44100924641631378 0 -0.055486992099631538 -0.5 0 -0.073803126677764133 -0.49188946757381441 0 -0.063367683790456097 -0.48299527729020941 0 -0.055486992099631538 -0.5 0 -0.073803126677764133 -0.49188946757381441 0 -0.084858639005063963 -0.499999999999998 0 -0.073803126677764133 -0.49188946757381441 0 -0.063367683790456097 -0.48299527729020941 0 -0.086931782267533536 -0.48793428218492818 0 -0.063367683790456097 -0.48299527729020941 0 -0.086931782267533536 -0.48793428218492818 0 -0.070686340472129239 -0.46437073004333929 0 -0.074101999623629081 -0.47602366031574511 0 -0.089355206996286032 -0.47382992217635228 0 -0.063367683790456097 -0.48299527729020941 0 -0.074101999623629081 -0.47602366031574511 0 -0.086931782267533536 -0.48793428218492818 0 -0.061612426253942823 -0.4710340446509893 0 -0.063367683790456097 -0.48299527729020941 0 -0.074101999623629081 -0.47602366031574511 0 -0.061612426253942823 -0.4710340446509893 0 -0.070686340472129239 -0.46437073004333929 0 -0.074101999623629081 -0.47602366031574511 0 -0.070686340472129239 -0.46437073004333929 0 -0.089355206996286032 -0.47382992217635228 0 -0.089355206996286032 -0.47382992217635228 0 -0.086931782267533536 -0.48793428218492818 0 -0.074101999623629081 -0.47602366031574511 0 -0.089355206996286032 -0.47382992217635228 0 -0.086931782267533536 -0.48793428218492818 0 -0.086931782267533536 -0.48793428218492818 0 -0.084858639005063963 -0.499999999999998 0 -0.1076520462588975 -0.49227722300962218 0 -0.086931782267533536 -0.48793428218492818 0 -0.084858639005063963 -0.499999999999998 0 -0.073803126677764133 -0.49188946757381441 0 -0.086931782267533536 -0.48793428218492818 0 -0.084858639005063963 -0.499999999999998 0 -0.089355206996286032 -0.47382992217635228 0 -0.086931782267533536 -0.48793428218492818 0 -0.1076520462588975 -0.49227722300962218 0 -0.084858639005063963 -0.499999999999998 0 -0.1076520462588975 -0.49227722300962218 0 -0.1121559362476179 -0.5 0 -0.086931782267533536 -0.48793428218492818 0 -0.1076520462588975 -0.49227722300962218 0 -0.089355206996286032 -0.47382992217635228 0 -0.1141883482570055 -0.48641244582059712 0 -0.102503431311431 -0.46781551435191682 0 -0.089355206996286032 -0.47382992217635228 0 -0.1076520462588975 -0.49227722300962218 0 -0.1141883482570055 -0.48641244582059712 0 -0.089355206996286032 -0.47382992217635228 0 -0.1141883482570055 -0.48641244582059712 0 -0.12812679042635369 -0.4736338620561753 0 -0.1142409773588887 -0.46912588869074728 0 -0.1141883482570055 -0.48641244582059712 0 -0.1142409773588887 -0.46912588869074728 0 -0.1141883482570055 -0.48641244582059712 0 -0.102503431311431 -0.46781551435191682 0 -0.1283723102502615 -0.49662016383431629 0 -0.1076520462588975 -0.49227722300962218 0 -0.1283723102502615 -0.49662016383431629 0 -0.1076520462588975 -0.49227722300962218 0 -0.1141883482570055 -0.48641244582059712 0 -0.1283723102502615 -0.49662016383431629 0 -0.1076520462588975 -0.49227722300962218 0 -0.1121559362476179 -0.5 0 -0.092986935311868885 -0.4526932212883662 0 -0.096618663627448031 -0.4315565204003794 0 -0.092986935311868885 -0.4526932212883662 0 -0.10104056135595731 -0.44320724517296528 0 -0.096618663627448031 -0.4315565204003794 0 -0.10498177350752121 -0.44972284876535878 0 -0.1073781156784173 -0.44413214086210812 0 -0.11301159247096119 -0.44767223650871002 0 -0.10498177350752121 -0.44972284876535878 0 -0.1073781156784173 -0.44413214086210812 0 -0.10104056135595731 -0.44320724517296528 0 -0.11301159247096119 -0.44767223650871002 0 -0.10559250381579049 -0.43249248838871313 0 -0.1073781156784173 -0.44413214086210812 0 -0.11301159247096119 -0.44767223650871002 0 -0.10559250381579049 -0.43249248838871313 0 -0.1073781156784173 -0.44413214086210812 0 -0.10104056135595731 -0.44320724517296528 0 -0.10559250381579049 -0.43249248838871313 0 -0.092986935311868885 -0.4526932212883662 0 -0.10498177350752121 -0.44972284876535878 0 -0.10104056135595731 -0.44320724517296528 0 -0.092986935311868885 -0.4526932212883662 0 -0.102503431311431 -0.46781551435191682 0 -0.1044206743904896 -0.45721822867494682 0 -0.092986935311868885 -0.4526932212883662 0 -0.10498177350752121 -0.44972284876535878 0 -0.1044206743904896 -0.45721822867494682 0 -0.092986935311868885 -0.4526932212883662 0 -0.089355206996286032 -0.47382992217635228 0 -0.102503431311431 -0.46781551435191682 0 -0.102503431311431 -0.46781551435191682 0 -0.1044206743904896 -0.45721822867494682 0 -0.1108844657410331 -0.46082912517593783 0 -0.1142409773588887 -0.46912588869074728 0 -0.102503431311431 -0.46781551435191682 0 -0.1108844657410331 -0.46082912517593783 0 -0.1044206743904896 -0.45721822867494682 0 -0.11183404689138331 -0.45326840560210652 0 -0.1108844657410331 -0.46082912517593783 0 -0.10498177350752121 -0.44972284876535878 0 -0.1044206743904896 -0.45721822867494682 0 -0.11183404689138331 -0.45326840560210652 0 -0.12812679042635369 -0.4736338620561753 0 -0.1169729837674148 -0.45577739940401879 0 -0.1172320913349795 -0.44827275464751171 0 -0.12812679042635369 -0.4736338620561753 0 -0.1172320913349795 -0.44827275464751171 0 -0.11183404689138331 -0.45326840560210652 0 -0.1108844657410331 -0.46082912517593783 0 -0.1169729837674148 -0.45577739940401879 0 -0.12812679042635369 -0.4736338620561753 0 -0.1142409773588887 -0.46912588869074728 0 -0.1169729837674148 -0.45577739940401879 0 -0.1142409773588887 -0.46912588869074728 0 -0.1108844657410331 -0.46082912517593783 0 -0.1169729837674148 -0.45577739940401879 0 -0.13041182069441559 -0.45014804636061112 0 -0.1172320913349795 -0.44827275464751171 0 -0.13041182069441559 -0.45014804636061112 0 -0.1144978669285472 -0.43342131424510028 0 -0.13041182069441559 -0.45014804636061112 0 -0.1172320913349795 -0.44827275464751171 0 -0.1144978669285472 -0.43342131424510028 0 -0.10498177350752121 -0.44972284876535878 0 -0.11183404689138331 -0.45326840560210652 0 -0.11301159247096119 -0.44767223650871002 0 -0.1169729837674148 -0.45577739940401879 0 -0.11301159247096119 -0.44767223650871002 0 -0.11183404689138331 -0.45326840560210652 0 -0.1169729837674148 -0.45577739940401879 0 -0.11301159247096119 -0.44767223650871002 0 -0.1169729837674148 -0.45577739940401879 0 -0.1172320913349795 -0.44827275464751171 0 -0.11301159247096119 -0.44767223650871002 0 -0.1172320913349795 -0.44827275464751171 0 -0.11301159247096119 -0.44767223650871002 0 -0.11301159247096119 -0.44767223650871002 0 -0.11183862654340029 -0.43571763598504071 0 -0.10559250381579049 -0.43249248838871313 0 -0.1172320913349795 -0.44827275464751171 0 -0.11301159247096119 -0.44767223650871002 0 -0.11183862654340029 -0.43571763598504071 0 -0.1172320913349795 -0.44827275464751171 0 -0.11183862654340029 -0.43571763598504071 0 -0.1172320913349795 -0.44827275464751171 0 -0.11183862654340029 -0.43571763598504071 0 -0.1144978669285472 -0.43342131424510028 0 -0.1144978669285472 -0.43342131424510028 0 -0.10559250381579049 -0.43249248838871313 0 -0.11183862654340029 -0.43571763598504071 0 -0.1144978669285472 -0.43342131424510028 0 -0.10559250381579049 -0.43249248838871313 0 -0.1144978669285472 -0.43342131424510028 0 -0.10559250381579049 -0.43249248838871313 0 -0.097118483149437329 -0.41515430774988082 0 -0.10559250381579049 -0.43249248838871313 0 -0.097118483149437329 -0.41515430774988082 0 -0.098465757079053987 -0.42080641510443101 0 -0.10559250381579049 -0.43249248838871313 0 -0.097118483149437329 -0.41515430774988082 0 -0.1144978669285472 -0.43342131424510028 0 -0.097118483149437329 -0.41515430774988082 0 -0.096618663627448031 -0.4315565204003794 0 -0.098465757079053987 -0.42080641510443101 0 -0.10559250381579049 -0.43249248838871313 0 -0.096618663627448031 -0.4315565204003794 0 -0.098465757079053987 -0.42080641510443101 0 -0.096618663627448031 -0.4315565204003794 0 -0.098465757079053987 -0.42080641510443101 0 -0.09131618289263338 -0.42118902075360642 0 -0.10559250381579049 -0.43249248838871313 0 -0.096618663627448031 -0.4315565204003794 0 -0.10104056135595731 -0.44320724517296528 0 -0.10559250381579049 -0.43249248838871313 0 -0.096618663627448031 -0.4315565204003794 0 -0.1087161756486279 -0.40648450735968528 0 -0.097118483149437329 -0.41515430774988082 0 -0.08947081034985839 -0.39950686745128933 0 -0.1144978669285472 -0.43342131424510028 0 -0.1087161756486279 -0.40648450735968528 0 -0.097118483149437329 -0.41515430774988082 0 -0.097118483149437329 -0.41515430774988082 0 -0.098465757079053987 -0.42080641510443101 0 -0.09131618289263338 -0.42118902075360642 0 -0.1144978669285472 -0.43342131424510028 0 -0.1087161756486279 -0.40648450735968528 0 -0.1224189277706723 -0.41116494477443788 0 -0.1224189277706723 -0.41116494477443788 0 -0.10771155447183881 -0.392039347395089 0 -0.12745274618364011 -0.39404799390194339 0 -0.1224189277706723 -0.41116494477443788 0 -0.10771155447183881 -0.392039347395089 0 -0.1087161756486279 -0.40648450735968528 0 -0.1224189277706723 -0.41116494477443788 0 -0.10771155447183881 -0.392039347395089 0 -0.11926597608187289 -0.37271568155493462 0 -0.1060820800103324 -0.36578765651885892 0 -0.10771155447183881 -0.392039347395089 0 -0.12745274618364011 -0.39404799390194339 0 -0.11926597608187289 -0.37271568155493462 0 -0.10771155447183881 -0.392039347395089 0 -0.12745274618364011 -0.39404799390194339 0 -0.11926597608187289 -0.37271568155493462 0 -0.093004181173005282 -0.37291375001574001 0 -0.10771155447183881 -0.392039347395089 0 -0.087242047055254332 -0.37828098002972549 0 -0.1060820800103324 -0.36578765651885892 0 -0.093004181173005282 -0.37291375001574001 0 -0.10771155447183881 -0.392039347395089 0 -0.093004181173005282 -0.37291375001574001 0 -0.10771155447183881 -0.392039347395089 0 -0.10771155447183881 -0.392039347395089 0 -0.08947081034985839 -0.39950686745128933 0 -0.085541473248292144 -0.38586989966653651 0 -0.1087161756486279 -0.40648450735968528 0 -0.10771155447183881 -0.392039347395089 0 -0.08947081034985839 -0.39950686745128933 0 -0.08947081034985839 -0.39950686745128933 0 -0.08182313755027848 -0.38385942715269822 0 -0.097118483149437329 -0.41515430774988082 0 -0.080023333862228777 -0.39718605254387301 0 -0.097118483149437329 -0.41515430774988082 0 -0.080023333862228777 -0.39718605254387301 0 -0.08947081034985839 -0.39950686745128933 0 -0.080023333862228777 -0.39718605254387301 0 -0.08947081034985839 -0.39950686745128933 0 -0.08182313755027848 -0.38385942715269822 0 -0.08947081034985839 -0.39950686745128933 0 -0.08182313755027848 -0.38385942715269822 0 -0.085541473248292144 -0.38586989966653651 0 -0.10771155447183881 -0.392039347395089 0 -0.087242047055254332 -0.37828098002972549 0 -0.085541473248292144 -0.38586989966653651 0 -0.08182313755027848 -0.38385942715269822 0 -0.085541473248292144 -0.38586989966653651 0 -0.08183654068279006 -0.37268954431211709 0 -0.087242047055254332 -0.37828098002972549 0 -0.08182313755027848 -0.38385942715269822 0 -0.087242047055254332 -0.37828098002972549 0 -0.08182313755027848 -0.38385942715269822 0 -0.085541473248292144 -0.38586989966653651 0 -0.063683772153077967 -0.37405162642911338 0 -0.08182313755027848 -0.38385942715269822 0 -0.062928184575020224 -0.37921779733786498 0 -0.063683772153077967 -0.37405162642911338 0 -0.08182313755027848 -0.38385942715269822 0 -0.080023333862228777 -0.39718605254387301 0 -0.08182313755027848 -0.38385942715269822 0 -0.062928184575020224 -0.37921779733786498 0 -0.080023333862228777 -0.39718605254387301 0 -0.062928184575020224 -0.37921779733786498 0 -0.060929648522520141 -0.39303857513418589 0 -0.080023333862228777 -0.39718605254387301 0 -0.062928184575020224 -0.37921779733786498 0 -0.060929648522520141 -0.39303857513418589 0 -0.070916654968999099 -0.40451638211163238 0 -0.062743394463583166 -0.41303775614753019 0 -0.060929648522520141 -0.39303857513418589 0 -0.080023333862228777 -0.39718605254387301 0 -0.070916654968999099 -0.40451638211163238 0 -0.080023333862228777 -0.39718605254387301 0 -0.070916654968999099 -0.40451638211163238 0 -0.079970243027664298 -0.41480314462094048 0 -0.070916654968999099 -0.40451638211163238 0 -0.062743394463583166 -0.41303775614753019 0 -0.079970243027664298 -0.41480314462094048 0 -0.062743394463583166 -0.41303775614753019 0 -0.069327824921961753 -0.42871009669915588 0 -0.079970243027664298 -0.41480314462094048 0 -0.069327824921961753 -0.42871009669915588 0 -0.084407767579563156 -0.42362471589239981 0 -0.079970243027664298 -0.41480314462094048 0 -0.096618663627448031 -0.4315565204003794 0 -0.069327824921961753 -0.42871009669915588 0 -0.084407767579563156 -0.42362471589239981 0 -0.096618663627448031 -0.4315565204003794 0 -0.069327824921961753 -0.42871009669915588 0 -0.08151789346304511 -0.44100924641631378 0 -0.096618663627448031 -0.4315565204003794 0 -0.069327824921961753 -0.42871009669915588 0 -0.096618663627448031 -0.4315565204003794 0 -0.084407767579563156 -0.42362471589239981 0 -0.09131618289263338 -0.42118902075360642 0 -0.097118483149437329 -0.41515430774988082 0 -0.09131618289263338 -0.42118902075360642 0 -0.079970243027664298 -0.41480314462094048 0 -0.097118483149437329 -0.41515430774988082 0 -0.08947081034985839 -0.39950686745128933 0 -0.097118483149437329 -0.41515430774988082 0 -0.080023333862228777 -0.39718605254387301 0 -0.079970243027664298 -0.41480314462094048 0 -0.084407767579563156 -0.42362471589239981 0 -0.09131618289263338 -0.42118902075360642 0 -0.079970243027664298 -0.41480314462094048 0 -0.078240114253452148 -0.083814870570574657 0 -0.084952060431875781 -0.081918205236142905 0 -0.076918039781887007 -0.074479876344429513 0 -0.078240114253452148 -0.083814870570574657 0 -0.084952060431875781 -0.081918205236142905 0 -0.088831131679795894 -0.092209968925990649 0 -0.078240114253452148 -0.083814870570574657 0 -0.088831131679795894 -0.092209968925990649 0 -0.074322129968702189 -0.097867910260506619 0 -0.084952060431875781 -0.081918205236142905 0 -0.093347101542302136 -0.082966039752135901 0 -0.087423914901941721 -0.076120270587583888 0 -0.084952060431875781 -0.081918205236142905 0 -0.088831131679795894 -0.092209968925990649 0 -0.093347101542302136 -0.082966039752135901 0 -0.093347101542302136 -0.082966039752135901 0 -0.087423914901941721 -0.076120270587583888 0 -0.09443149301990876 -0.076262422902199367 0 -0.087423914901941721 -0.076120270587583888 0 -0.084081336985305191 -0.068744388051314054 0 -0.09443149301990876 -0.076262422902199367 0 -0.087423914901941721 -0.076120270587583888 0 -0.084081336985305191 -0.068744388051314054 0 -0.076918039781887007 -0.074479876344429513 0 -0.084952060431875781 -0.081918205236142905 0 -0.087423914901941721 -0.076120270587583888 0 -0.076918039781887007 -0.074479876344429513 0 -0.087423914901941721 -0.076120270587583888 0 -0.084081336985305191 -0.068744388051314054 0 -0.065142029229774162 -0.065774241371869185 0 -0.066660028878948008 -0.071081174214890339 0 -0.057271864652240989 -0.084480758157658542 0 -0.076918039781887007 -0.074479876344429513 0 -0.069859854520757436 -0.066514111767508738 0 -0.066660028878948008 -0.071081174214890339 0 -0.078240114253452148 -0.083814870570574657 0 -0.076918039781887007 -0.074479876344429513 0 -0.066660028878948008 -0.071081174214890339 0 -0.084081336985305191 -0.068744388051314054 0 -0.076918039781887007 -0.074479876344429513 0 -0.069859854520757436 -0.066514111767508738 0 -0.084081336985305191 -0.068744388051314054 0 -0.069859854520757436 -0.066514111767508738 0 -0.077881882477406239 -0.055064393334736547 0 -0.084081336985305191 -0.068744388051314054 0 -0.069859854520757436 -0.066514111767508738 0 -0.069859854520757436 -0.066514111767508738 0 -0.065142029229774162 -0.065774241371869185 0 -0.069859854520757436 -0.066514111767508738 0 -0.065142029229774162 -0.065774241371869185 0 -0.066660028878948008 -0.071081174214890339 0 -0.069859854520757436 -0.066514111767508738 0 -0.066660028878948008 -0.071081174214890339 0 -0.065142029229774162 -0.065774241371869185 0 -0.066660028878948008 -0.071081174214890339 0 -0.066660028878948008 -0.071081174214890339 0 -0.074322129968702189 -0.097867910260506619 0 -0.057271864652240989 -0.084480758157658542 0 -0.078240114253452148 -0.083814870570574657 0 -0.066660028878948008 -0.071081174214890339 0 -0.074322129968702189 -0.097867910260506619 0 -0.074322129968702189 -0.097867910260506619 0 -0.057271864652240989 -0.084480758157658542 0 -0.059068423004080189 -0.095634756723340597 0 -0.066660028878948008 -0.071081174214890339 0 -0.074322129968702189 -0.097867910260506619 0 -0.074322129968702189 -0.097867910260506619 0 -0.057432720535391849 -0.1044541171995559 0 -0.059068423004080189 -0.095634756723340597 0 -0.074322129968702189 -0.097867910260506619 0 -0.079272267848405978 -0.1151736120803752 0 -0.068625317902254998 -0.1079204260031153 0 -0.074322129968702189 -0.097867910260506619 0 -0.057432720535391849 -0.1044541171995559 0 -0.068625317902254998 -0.1079204260031153 0 -0.074322129968702189 -0.097867910260506619 0 -0.079272267848405978 -0.1151736120803752 0 -0.074322129968702189 -0.097867910260506619 0 -0.057432720535391849 -0.1044541171995559 0 -0.06453492198304786 -0.1164467774778781 0 -0.056457006617691111 -0.1219011061966373 0 -0.068622282056706202 -0.12818128688391409 0 -0.068625317902254998 -0.1079204260031153 0 -0.06453492198304786 -0.1164467774778781 0 -0.057432720535391849 -0.1044541171995559 0 -0.068625317902254998 -0.1079204260031153 0 -0.06453492198304786 -0.1164467774778781 0 -0.079272267848405978 -0.1151736120803752 0 -0.06453492198304786 -0.1164467774778781 0 -0.079272267848405978 -0.1151736120803752 0 -0.068622282056706202 -0.12818128688391409 0 -0.079272267848405978 -0.1151736120803752 0 -0.083750381358792675 -0.1284598765970584 0 -0.068622282056706202 -0.12818128688391409 0 -0.079272267848405978 -0.1151736120803752 0 -0.090963634255588843 -0.1194276257715948 0 -0.083750381358792675 -0.1284598765970584 0 -0.079272267848405978 -0.1151736120803752 0 -0.090963634255588843 -0.1194276257715948 0 -0.093777227440389896 -0.107740146163522 0 -0.074322129968702189 -0.097867910260506619 0 -0.079272267848405978 -0.1151736120803752 0 -0.085023576440310777 -0.10221729419281581 0 -0.088831131679795894 -0.092209968925990649 0 -0.074322129968702189 -0.097867910260506619 0 -0.085023576440310777 -0.10221729419281581 0 -0.088831131679795894 -0.092209968925990649 0 -0.074322129968702189 -0.097867910260506619 0 -0.079272267848405978 -0.1151736120803752 0 -0.085023576440310777 -0.10221729419281581 0 -0.093777227440389896 -0.107740146163522 0 -0.085023576440310777 -0.10221729419281581 0 -0.098293155206129218 -0.098546029650168121 0 -0.093777227440389896 -0.107740146163522 0 -0.088831131679795894 -0.092209968925990649 0 -0.085023576440310777 -0.10221729419281581 0 -0.098293155206129218 -0.098546029650168121 0 -0.1098380154193974 -0.1105152781956011 0 -0.1101026952335291 -0.10683031654983 0 -0.1033401333908895 -0.086552027591474345 0 -0.1098380154193974 -0.1105152781956011 0 -0.1033401333908895 -0.086552027591474345 0 -0.098293155206129218 -0.098546029650168121 0 -0.1098380154193974 -0.1105152781956011 0 -0.1033401333908895 -0.086552027591474345 0 -0.098293155206129218 -0.098546029650168121 0 -0.093777227440389896 -0.107740146163522 0 -0.1009492540329095 -0.1084169934097145 0 -0.098293155206129218 -0.098546029650168121 0 -0.1009492540329095 -0.1084169934097145 0 -0.1098380154193974 -0.1105152781956011 0 -0.1013807090463807 -0.1178251212445425 0 -0.1098380154193974 -0.1105152781956011 0 -0.1163358974479053 -0.13447852879972791 0 -0.090963634255588843 -0.1194276257715948 0 -0.1013807090463807 -0.1178251212445425 0 -0.09663758558397495 -0.12793937277247569 0 -0.093777227440389896 -0.107740146163522 0 -0.1009492540329095 -0.1084169934097145 0 -0.1013807090463807 -0.1178251212445425 0 -0.090963634255588843 -0.1194276257715948 0 -0.093777227440389896 -0.107740146163522 0 -0.1013807090463807 -0.1178251212445425 0 -0.1009492540329095 -0.1084169934097145 0 -0.1013807090463807 -0.1178251212445425 0 -0.1098380154193974 -0.1105152781956011 0 -0.1098380154193974 -0.1105152781956011 0 -0.1247589529873689 -0.1193319215051903 0 -0.1163358974479053 -0.13447852879972791 0 -0.1098380154193974 -0.1105152781956011 0 -0.1163358974479053 -0.13447852879972791 0 -0.1247589529873689 -0.1193319215051903 0 -0.1101026952335291 -0.10683031654983 0 -0.1356029041876648 -0.10581244298265 0 -0.1098380154193974 -0.1105152781956011 0 -0.1247589529873689 -0.1193319215051903 0 -0.1101026952335291 -0.10683031654983 0 -0.1101026952335291 -0.10683031654983 0 -0.12838165174081231 -0.096915342677769994 0 -0.1356029041876648 -0.10581244298265 0 -0.1101026952335291 -0.10683031654983 0 -0.1210610733193667 -0.090921918861455023 0 -0.1033401333908895 -0.086552027591474345 0 -0.1101026952335291 -0.10683031654983 0 -0.1210610733193667 -0.090921918861455023 0 -0.12838165174081231 -0.096915342677769994 0 -0.1101026952335291 -0.10683031654983 0 -0.1356029041876648 -0.10581244298265 0 -0.1033401333908895 -0.086552027591474345 0 -0.13038437074479181 -0.076005836238556057 0 -0.1033401333908895 -0.086552027591474345 0 -0.10723285386504799 -0.072375112144938594 0 -0.13038437074479181 -0.076005836238556057 0 -0.1210610733193667 -0.090921918861455023 0 -0.1033401333908895 -0.086552027591474345 0 -0.13038437074479181 -0.076005836238556057 0 -0.1033401333908895 -0.086552027591474345 0 -0.1010125045826788 -0.077968068664576826 0 -0.1033401333908895 -0.086552027591474345 0 -0.1010125045826788 -0.077968068664576826 0 -0.10723285386504799 -0.072375112144938594 0 -0.093347101542302136 -0.082966039752135901 0 -0.1033401333908895 -0.086552027591474345 0 -0.1010125045826788 -0.077968068664576826 0 -0.093347101542302136 -0.082966039752135901 0 -0.09443149301990876 -0.076262422902199367 0 -0.1010125045826788 -0.077968068664576826 0 -0.088831131679795894 -0.092209968925990649 0 -0.093347101542302136 -0.082966039752135901 0 -0.1033401333908895 -0.086552027591474345 0 -0.088831131679795894 -0.092209968925990649 0 -0.098293155206129218 -0.098546029650168121 0 -0.1033401333908895 -0.086552027591474345 0 -0.088831131679795894 -0.092209968925990649 0 -0.1033401333908895 -0.086552027591474345 0 -0.084081336985305191 -0.068744388051314054 0 -0.09443149301990876 -0.076262422902199367 0 -0.10723285386504799 -0.072375112144938594 0 -0.084081336985305191 -0.068744388051314054 0 -0.10723285386504799 -0.072375112144938594 0 -0.084081336985305191 -0.068744388051314054 0 -0.10723285386504799 -0.072375112144938594 0 -0.094158237316760568 -0.056848190050645488 0 -0.09443149301990876 -0.076262422902199367 0 -0.1010125045826788 -0.077968068664576826 0 -0.10723285386504799 -0.072375112144938594 0 -0.10723285386504799 -0.072375112144938594 0 -0.1236295906840658 -0.065414749250661236 0 -0.13038437074479181 -0.076005836238556057 0 -0.10723285386504799 -0.072375112144938594 0 -0.13038437074479181 -0.076005836238556057 0 -0.10723285386504799 -0.072375112144938594 0 -0.1236295906840658 -0.065414749250661236 0 -0.1097148422084304 -0.052972350382792778 0 -0.1097148422084304 -0.052972350382792778 0 -0.1126215772566809 -0.037585222401375823 0 -0.13185584460904631 -0.053058786526185557 0 -0.1236295906840658 -0.065414749250661236 0 -0.1097148422084304 -0.052972350382792778 0 -0.13185584460904631 -0.053058786526185557 0 -0.12475164722507889 -0.033455912091534618 0 -0.1126215772566809 -0.037585222401375823 0 -0.13185584460904631 -0.053058786526185557 0 -0.12475164722507889 -0.033455912091534618 0 -0.1126215772566809 -0.037585222401375823 0 -0.11628392383191311 -0.025306093008944219 0 -0.1097148422084304 -0.052972350382792778 0 -0.1126215772566809 -0.037585222401375823 0 -0.091880271047613468 -0.035084706339442523 0 -0.10723285386504799 -0.072375112144938594 0 -0.1097148422084304 -0.052972350382792778 0 -0.094158237316760568 -0.056848190050645488 0 -0.1097148422084304 -0.052972350382792778 0 -0.094158237316760568 -0.056848190050645488 0 -0.091880271047613468 -0.035084706339442523 0 -0.11764744984111131 -0.013853037656883751 0 -0.1157952204751049 -0.0087421127031452953 0 -0.1198770481880274 0.0048746676511459506 0 -0.1058786596178206 -0.015105019344148469 0 -0.1198770481880274 0.0048746676511459506 0 -0.11764744984111131 -0.013853037656883751 0 -0.1198770481880274 0.0048746676511459506 0 -0.11764744984111131 -0.013853037656883751 0 -0.13185606356650309 -0.00067556194706120819 0 -0.1198770481880274 0.0048746676511459506 0 -0.1157952204751049 -0.0087421127031452953 0 -0.1058786596178206 -0.015105019344148469 0 -0.1198770481880274 0.0048746676511459506 0 -0.11764744984111131 -0.013853037656883751 0 -0.1157952204751049 -0.0087421127031452953 0 -0.1058786596178206 -0.015105019344148469 0 -0.11764744984111131 -0.013853037656883751 0 -0.1157952204751049 -0.0087421127031452953 0 -0.1126215772566809 -0.037585222401375823 0 -0.11628392383191311 -0.025306093008944219 0 -0.1058786596178206 -0.015105019344148469 0 -0.12475164722507889 -0.033455912091534618 0 -0.11764744984111131 -0.013853037656883751 0 -0.11628392383191311 -0.025306093008944219 0 -0.12475164722507889 -0.033455912091534618 0 -0.11764744984111131 -0.013853037656883751 0 -0.11764744984111131 -0.013853037656883751 0 -0.11628392383191311 -0.025306093008944219 0 -0.11764744984111131 -0.013853037656883751 0 -0.11628392383191311 -0.025306093008944219 0 -0.1058786596178206 -0.015105019344148469 0 -0.1126215772566809 -0.037585222401375823 0 -0.1058786596178206 -0.015105019344148469 0 -0.091880271047613468 -0.035084706339442523 0 -0.101304070511976 -0.01810902414694791 0 -0.1058786596178206 -0.015105019344148469 0 -0.091880271047613468 -0.035084706339442523 0 -0.1058786596178206 -0.015105019344148469 0 -0.091880271047613468 -0.035084706339442523 0 -0.101304070511976 -0.01810902414694791 0 -0.088528354562710077 -0.023451096732066079 0 -0.091880271047613468 -0.035084706339442523 0 -0.094619980710139079 -0.00094113599173017482 0 -0.1058786596178206 -0.015105019344148469 0 -0.1198770481880274 0.0048746676511459506 0 -0.101304070511976 -0.01810902414694791 0 -0.094619980710139079 -0.00094113599173017482 0 -0.1058786596178206 -0.015105019344148469 0 -0.094619980710139079 -0.00094113599173017482 0 -0.079819819240501522 -0.01502082105974034 0 -0.071070722981565443 0.00038426089980352529 0 -0.101304070511976 -0.01810902414694791 0 -0.094619980710139079 -0.00094113599173017482 0 -0.079819819240501522 -0.01502082105974034 0 -0.088528354562710077 -0.023451096732066079 0 -0.091880271047613468 -0.035084706339442523 0 -0.068108725223217245 -0.033498505653633957 0 -0.101304070511976 -0.01810902414694791 0 -0.079819819240501522 -0.01502082105974034 0 -0.101304070511976 -0.01810902414694791 0 -0.079819819240501522 -0.01502082105974034 0 -0.088528354562710077 -0.023451096732066079 0 -0.079819819240501522 -0.01502082105974034 0 -0.088528354562710077 -0.023451096732066079 0 -0.068108725223217245 -0.033498505653633957 0 -0.079819819240501522 -0.01502082105974034 0 -0.068108725223217245 -0.033498505653633957 0 -0.058335567969027093 -0.01193261797253198 0 -0.068108725223217245 -0.033498505653633957 0 -0.058335567969027093 -0.01193261797253198 0 -0.079819819240501522 -0.01502082105974034 0 -0.058335567969027093 -0.01193261797253198 0 -0.079819819240501522 -0.01502082105974034 0 -0.058335567969027093 -0.01193261797253198 0 -0.071070722981565443 0.00038426089980352529 0 -0.084081336985305191 -0.068744388051314054 0 -0.094158237316760568 -0.056848190050645488 0 -0.077881882477406239 -0.055064393334736547 0 -0.094158237316760568 -0.056848190050645488 0 -0.091880271047613468 -0.035084706339442523 0 -0.077881882477406239 -0.055064393334736547 0 -0.084081336985305191 -0.068744388051314054 0 -0.077881882477406239 -0.055064393334736547 0 -0.091880271047613468 -0.035084706339442523 0 -0.077881882477406239 -0.055064393334736547 0 -0.091880271047613468 -0.035084706339442523 0 -0.068108725223217245 -0.033498505653633957 0 -0.077881882477406239 -0.055064393334736547 0 -0.068108725223217245 -0.033498505653633957 0 -0.068149302153560409 -0.053888440762525261 0 -0.058276221784171772 -0.041771351090063649 0 -0.068108725223217245 -0.033498505653633957 0 -0.077881882477406239 -0.055064393334736547 0 -0.065142029229774162 -0.065774241371869185 0 -0.068149302153560409 -0.053888440762525261 0 -0.058276221784171772 -0.041771351090063649 0 -0.068108725223217245 -0.033498505653633957 0 -0.068149302153560409 -0.053888440762525261 0 -0.077881882477406239 -0.055064393334736547 0 -0.069859854520757436 -0.066514111767508738 0 -0.068149302153560409 -0.053888440762525261 0 -0.077881882477406239 -0.055064393334736547 0 -0.069859854520757436 -0.066514111767508738 0 -0.077881882477406239 -0.055064393334736547 0 -0.069859854520757436 -0.066514111767508738 0 -0.065142029229774162 -0.065774241371869185 0 -0.068149302153560409 -0.053888440762525261 0 -0.065142029229774162 -0.065774241371869185 0 -0.058276221784171772 -0.041771351090063649 0 -0.065142029229774162 -0.065774241371869185 0 -0.058276221784171772 -0.041771351090063649 0 -0.046067224163580139 -0.047473940467895187 0 -0.065142029229774162 -0.065774241371869185 0 -0.046067224163580139 -0.047473940467895187 0 -0.035482661457512138 -0.061122927087295047 0 -0.058276221784171772 -0.041771351090063649 0 -0.046067224163580139 -0.047473940467895187 0 -0.051410414338568307 -0.01776846080825829 0 -0.046067224163580139 -0.047473940467895187 0 -0.051410414338568307 -0.01776846080825829 0 -0.034695852536791923 -0.03753551971815746 0 -0.046067224163580139 -0.047473940467895187 0 -0.02714471254115159 -0.045547001243098781 0 -0.034695852536791923 -0.03753551971815746 0 -0.046067224163580139 -0.047473940467895187 0 -0.041112453185647768 -0.02923039906365469 0 -0.046067224163580139 -0.047473940467895187 0 -0.051410414338568307 -0.01776846080825829 0 -0.041112453185647768 -0.02923039906365469 0 -0.034695852536791923 -0.03753551971815746 0 -0.033747572190683577 -0.02618519295968106 0 -0.02599530337970353 -0.032274265934476437 0 -0.046067224163580139 -0.047473940467895187 0 -0.035482661457512138 -0.061122927087295047 0 -0.02714471254115159 -0.045547001243098781 0 -0.054129548608327548 -0.002651426771132242 0 -0.058335567969027093 -0.01193261797253198 0 -0.071070722981565443 0.00038426089980352529 0 -0.054129548608327548 -0.002651426771132242 0 -0.052608203043089767 -0.011109351393570071 0 -0.054129548608327548 -0.002651426771132242 0 -0.058335567969027093 -0.01193261797253198 0 -0.054129548608327548 -0.002651426771132242 0 -0.058335567969027093 -0.01193261797253198 0 -0.052608203043089767 -0.011109351393570071 0 -0.058335567969027093 -0.01193261797253198 0 -0.052608203043089767 -0.011109351393570071 0 -0.052608203043089767 -0.011109351393570071 0 -0.049372601051152383 -0.010644257407550961 0 -0.051410414338568307 -0.01776846080825829 0 -0.054129548608327548 -0.002651426771132242 0 -0.052608203043089767 -0.011109351393570071 0 -0.049372601051152383 -0.010644257407550961 0 -0.052608203043089767 -0.011109351393570071 0 -0.051410414338568307 -0.01776846080825829 0 -0.058335567969027093 -0.01193261797253198 0 -0.052608203043089767 -0.011109351393570071 0 -0.051410414338568307 -0.01776846080825829 0 -0.052608203043089767 -0.011109351393570071 0 -0.049372601051152383 -0.010644257407550961 0 -0.049372601051152383 -0.010644257407550961 0 -0.051410414338568307 -0.01776846080825829 0 -0.068108725223217245 -0.033498505653633957 0 -0.058276221784171772 -0.041771351090063649 0 -0.051410414338568307 -0.01776846080825829 0 -0.068108725223217245 -0.033498505653633957 0 -0.058335567969027093 -0.01193261797253198 0 -0.051410414338568307 -0.01776846080825829 0 -0.058276221784171772 -0.041771351090063649 0 -0.051410414338568307 -0.01776846080825829 0 -0.033747572190683577 -0.02618519295968106 0 -0.039332989870129259 -0.017369547087643489 0 -0.02322217411399689 -0.01708313159200809 0 -0.041112453185647768 -0.02923039906365469 0 -0.033747572190683577 -0.02618519295968106 0 -0.039332989870129259 -0.017369547087643489 0 -0.034695852536791923 -0.03753551971815746 0 -0.041112453185647768 -0.02923039906365469 0 -0.033747572190683577 -0.02618519295968106 0 -0.051410414338568307 -0.01776846080825829 0 -0.041112453185647768 -0.02923039906365469 0 -0.039332989870129259 -0.017369547087643489 0 -0.039332989870129259 -0.017369547087643489 0 -0.031594138203677097 -0.0080887341473911793 0 -0.02322217411399689 -0.01708313159200809 0 -0.049372601051152383 -0.010644257407550961 0 -0.031594138203677097 -0.0080887341473911793 0 -0.049372601051152383 -0.010644257407550961 0 -0.031594138203677097 -0.0080887341473911793 0 -0.042202478754792043 0.0144225188092575 0 -0.049372601051152383 -0.010644257407550961 0 -0.039332989870129259 -0.017369547087643489 0 -0.031594138203677097 -0.0080887341473911793 0 -0.049372601051152383 -0.010644257407550961 0 -0.051410414338568307 -0.01776846080825829 0 -0.039332989870129259 -0.017369547087643489 0 -0.031594138203677097 -0.0080887341473911793 0 -0.02322217411399689 -0.01708313159200809 0 -0.01381567535620187 -0.0055332108872310336 0 -0.031594138203677097 -0.0080887341473911793 0 -0.01381567535620187 -0.0055332108872310336 0 -0.02322217411399689 -0.01708313159200809 0 -0.01207603229397454 -0.011910850602099 0 -0.01381567535620187 -0.0055332108872310336 0 -0.02322217411399689 -0.01708313159200809 0 -0.01357688955797188 -0.025580422107468279 0 -0.01207603229397454 -0.011910850602099 0 -0.033747572190683577 -0.02618519295968106 0 -0.02322217411399689 -0.01708313159200809 0 -0.02599530337970353 -0.032274265934476437 0 -0.02322217411399689 -0.01708313159200809 0 -0.01357688955797188 -0.025580422107468279 0 -0.02599530337970353 -0.032274265934476437 0 -0.01357688955797188 -0.025580422107468279 0 -0.000196678936145564 -0.020618198175398689 0 -0.0029404273112356889 -0.033348019466363163 0 -0.01357688955797188 -0.025580422107468279 0 -0.000196678936145564 -0.020618198175398689 0 -0.01207603229397454 -0.011910850602099 0 -0.01207603229397454 -0.011910850602099 0 -0.01381567535620187 -0.0055332108872310336 0 9.2994626588645875e-05 -0.0066853786883017728 0 -0.01207603229397454 -0.011910850602099 0 -0.01381567535620187 -0.0055332108872310336 0 -0.000196678936145564 -0.020618198175398689 0 -0.01207603229397454 -0.011910850602099 0 9.2994626588645875e-05 -0.0066853786883017728 0 -0.01381567535620187 -0.0055332108872310336 0 -0.0039028350278822849 0.007084725468534175 0 9.2994626588645875e-05 -0.0066853786883017728 0 -0.02714471254115159 -0.045547001243098781 0 -0.01509612529506261 -0.03864426431082528 0 -0.0058232936852503636 -0.056471612802719749 0 -0.035482661457512138 -0.061122927087295047 0 -0.02714471254115159 -0.045547001243098781 0 -0.0058232936852503636 -0.056471612802719749 0 -0.035482661457512138 -0.061122927087295047 0 -0.0058232936852503636 -0.056471612802719749 0 -0.034695852536791923 -0.03753551971815746 0 -0.02714471254115159 -0.045547001243098781 0 -0.02599530337970353 -0.032274265934476437 0 -0.01357688955797188 -0.025580422107468279 0 -0.02599530337970353 -0.032274265934476437 0 -0.01509612529506261 -0.03864426431082528 0 -0.02714471254115159 -0.045547001243098781 0 -0.02599530337970353 -0.032274265934476437 0 -0.01509612529506261 -0.03864426431082528 0 -0.01509612529506261 -0.03864426431082528 0 -0.0029404273112356889 -0.033348019466363163 0 -0.0058232936852503636 -0.056471612802719749 0 -0.01357688955797188 -0.025580422107468279 0 -0.01509612529506261 -0.03864426431082528 0 -0.0029404273112356889 -0.033348019466363163 0 -0.0058232936852503636 -0.056471612802719749 0 -0.0055829579384821266 -0.089872009817903206 0 -0.027495091906489459 -0.084288343478106528 0 -0.035482661457512138 -0.061122927087295047 0 -0.0058232936852503636 -0.056471612802719749 0 -0.027495091906489459 -0.084288343478106528 0 -0.035482661457512138 -0.061122927087295047 0 -0.027495091906489459 -0.084288343478106528 0 -0.046655069534311013 -0.078709322439071264 0 -0.027495091906489459 -0.084288343478106528 0 -0.046655069534311013 -0.078709322439071264 0 -0.047883700425536267 -0.097880342100428314 0 -0.046655069534311013 -0.078709322439071264 0 -0.057271864652240989 -0.084480758157658542 0 -0.047883700425536267 -0.097880342100428314 0 -0.057271864652240989 -0.084480758157658542 0 -0.047883700425536267 -0.097880342100428314 0 -0.057271864652240989 -0.084480758157658542 0 -0.059068423004080189 -0.095634756723340597 0 -0.047883700425536267 -0.097880342100428314 0 -0.065142029229774162 -0.065774241371869185 0 -0.046655069534311013 -0.078709322439071264 0 -0.057271864652240989 -0.084480758157658542 0 -0.065142029229774162 -0.065774241371869185 0 -0.035482661457512138 -0.061122927087295047 0 -0.066660028878948008 -0.071081174214890339 0 -0.057271864652240989 -0.084480758157658542 0 -0.065142029229774162 -0.065774241371869185 0 -0.035482661457512138 -0.061122927087295047 0 -0.046655069534311013 -0.078709322439071264 0 -0.051178947470205613 -0.1144995999952141 0 -0.057432720535391849 -0.1044541171995559 0 -0.040543311102081557 -0.1110403241386054 0 -0.051178947470205613 -0.1144995999952141 0 -0.046988208991606717 -0.1248047717112615 0 -0.056457006617691111 -0.1219011061966373 0 -0.051178947470205613 -0.1144995999952141 0 -0.046988208991606717 -0.1248047717112615 0 -0.042591524654458077 -0.11814158285773529 0 -0.06453492198304786 -0.1164467774778781 0 -0.051178947470205613 -0.1144995999952141 0 -0.056457006617691111 -0.1219011061966373 0 -0.06453492198304786 -0.1164467774778781 0 -0.051178947470205613 -0.1144995999952141 0 -0.057432720535391849 -0.1044541171995559 0 -0.057432720535391849 -0.1044541171995559 0 -0.047883700425536267 -0.097880342100428314 0 -0.040543311102081557 -0.1110403241386054 0 -0.057432720535391849 -0.1044541171995559 0 -0.040543311102081557 -0.1110403241386054 0 -0.057432720535391849 -0.1044541171995559 0 -0.059068423004080189 -0.095634756723340597 0 -0.047883700425536267 -0.097880342100428314 0 -0.047883700425536267 -0.097880342100428314 0 -0.035992496864948161 -0.11485247599614699 0 -0.019564200379616679 -0.1074732252651909 0 -0.047883700425536267 -0.097880342100428314 0 -0.035992496864948161 -0.11485247599614699 0 -0.040543311102081557 -0.1110403241386054 0 -0.047883700425536267 -0.097880342100428314 0 -0.035992496864948161 -0.11485247599614699 0 -0.047883700425536267 -0.097880342100428314 0 -0.019564200379616679 -0.1074732252651909 0 -0.027495091906489459 -0.084288343478106528 0 -0.047883700425536267 -0.097880342100428314 0 -0.019564200379616679 -0.1074732252651909 0 -0.035992496864948161 -0.11485247599614699 0 -0.024101293304360751 -0.13182460989186631 0 -0.038254658843448343 -0.12551074244744831 0 -0.051178947470205613 -0.1144995999952141 0 -0.040543311102081557 -0.1110403241386054 0 -0.042591524654458077 -0.11814158285773529 0 -0.035992496864948161 -0.11485247599614699 0 -0.040543311102081557 -0.1110403241386054 0 -0.042591524654458077 -0.11814158285773529 0 -0.046988208991606717 -0.1248047717112615 0 -0.042591524654458077 -0.11814158285773529 0 -0.038254658843448343 -0.12551074244744831 0 -0.035992496864948161 -0.11485247599614699 0 -0.042591524654458077 -0.11814158285773529 0 -0.038254658843448343 -0.12551074244744831 0 -0.035992496864948161 -0.11485247599614699 0 -0.02253313057288104 -0.11949984407074909 0 -0.024101293304360751 -0.13182460989186631 0 -0.02253313057288104 -0.11949984407074909 0 -0.019564200379616679 -0.1074732252651909 0 -0.010474531742598591 -0.1238490651297921 0 -0.035992496864948161 -0.11485247599614699 0 -0.024101293304360751 -0.13182460989186631 0 -0.035992496864948161 -0.11485247599614699 0 -0.02253313057288104 -0.11949984407074909 0 -0.019564200379616679 -0.1074732252651909 0 -0.0055829579384821266 -0.089872009817903206 0 -0.027495091906489459 -0.084288343478106528 0 -0.019564200379616679 -0.1074732252651909 0 -0.0055829579384821266 -0.089872009817903206 0 -0.019564200379616679 -0.1074732252651909 0 0.008755299666303458 -0.11706610842995251 0 -0.010474531742598591 -0.1238490651297921 0 0.0016256503768235129 -0.1281843828229571 0 0.008755299666303458 -0.11706610842995251 0 -0.019564200379616679 -0.1074732252651909 0 0.008755299666303458 -0.11706610842995251 0 -0.019564200379616679 -0.1074732252651909 0 -0.010474531742598591 -0.1238490651297921 0 0.008755299666303458 -0.11706610842995251 0 -0.010474531742598591 -0.1238490651297921 0 -0.0061755514744574747 -0.13939955945566099 0 0.0016256503768235129 -0.1281843828229571 0 -0.010474531742598591 -0.1238490651297921 0 -0.0061755514744574747 -0.13939955945566099 0 -0.024101293304360751 -0.13182460989186631 0 -0.0061755514744574747 -0.13939955945566099 0 -0.024101293304360751 -0.13182460989186631 0 -0.032265036642118862 -0.1482774500291669 0 -0.02253313057288104 -0.11949984407074909 0 -0.010474531742598591 -0.1238490651297921 0 -0.024101293304360751 -0.13182460989186631 0 -0.0061755514744574747 -0.13939955945566099 0 -0.032265036642118862 -0.1482774500291669 0 -0.0061755514744574747 -0.13939955945566099 0 -0.017631658665500999 -0.16273691252173469 0 -0.032265036642118862 -0.1482774500291669 0 -0.0061755514744574747 -0.13939955945566099 0 -0.017631658665500999 -0.16273691252173469 0 0.0065196069439187616 -0.1586795582308056 0 -0.00135817117020914 -0.18493631818518841 0 -0.017631658665500999 -0.16273691252173469 0 0.0065196069439187616 -0.1586795582308056 0 -0.00135817117020914 -0.18493631818518841 0 -0.031231494468976759 -0.18056782706328869 0 -0.017631658665500999 -0.16273691252173469 0 -0.017631658665500999 -0.16273691252173469 0 -0.041279305181162559 -0.1645607621662975 0 -0.032265036642118862 -0.1482774500291669 0 -0.031231494468976759 -0.18056782706328869 0 -0.017631658665500999 -0.16273691252173469 0 -0.041279305181162559 -0.1645607621662975 0 -0.041279305181162559 -0.1645607621662975 0 -0.058354521809780249 -0.15715534060267269 0 -0.032265036642118862 -0.1482774500291669 0 -0.031231494468976759 -0.18056782706328869 0 -0.049044640124178251 -0.17566387998290109 0 -0.049711650640844221 -0.19357316099733629 0 -0.031231494468976759 -0.18056782706328869 0 -0.041279305181162559 -0.1645607621662975 0 -0.049044640124178251 -0.17566387998290109 0 -0.049044640124178251 -0.17566387998290109 0 -0.049711650640844221 -0.19357316099733629 0 -0.064646228520127469 -0.18246230908491001 0 -0.041279305181162559 -0.1645607621662975 0 -0.049044640124178251 -0.17566387998290109 0 -0.058354521809780249 -0.15715534060267269 0 -0.049044640124178251 -0.17566387998290109 0 -0.058354521809780249 -0.15715534060267269 0 -0.064646228520127469 -0.18246230908491001 0 -0.058354521809780249 -0.15715534060267269 0 -0.044727194245541578 -0.13792490225132811 0 -0.064408364707044807 -0.14201504997649891 0 -0.055561102951258851 -0.13150482878756631 0 -0.044727194245541578 -0.13792490225132811 0 -0.064408364707044807 -0.14201504997649891 0 -0.056457006617691111 -0.1219011061966373 0 -0.055561102951258851 -0.13150482878756631 0 -0.068622282056706202 -0.12818128688391409 0 -0.046988208991606717 -0.1248047717112615 0 -0.056457006617691111 -0.1219011061966373 0 -0.055561102951258851 -0.13150482878756631 0 -0.046988208991606717 -0.1248047717112615 0 -0.055561102951258851 -0.13150482878756631 0 -0.044727194245541578 -0.13792490225132811 0 -0.024101293304360751 -0.13182460989186631 0 -0.044727194245541578 -0.13792490225132811 0 -0.032265036642118862 -0.1482774500291669 0 -0.024101293304360751 -0.13182460989186631 0 -0.044727194245541578 -0.13792490225132811 0 -0.038254658843448343 -0.12551074244744831 0 -0.046988208991606717 -0.1248047717112615 0 -0.044727194245541578 -0.13792490225132811 0 -0.038254658843448343 -0.12551074244744831 0 -0.058354521809780249 -0.15715534060267269 0 -0.044727194245541578 -0.13792490225132811 0 -0.032265036642118862 -0.1482774500291669 0 -0.058354521809780249 -0.15715534060267269 0 -0.032265036642118862 -0.1482774500291669 0 -0.024991505512592979 -0.26370659804833729 0 -0.01711372739846502 -0.23744983809395431 0 -0.00049652130699871766 -0.2473016026161601 0 -0.01711372739846502 -0.23744983809395431 0 -0.00049652130699871766 -0.2473016026161601 0 0.0091491673758014591 -0.2336055957509223 0 -0.01711372739846502 -0.23744983809395431 0 -0.0092359492843370593 -0.21119307813957131 0 -0.01711372739846502 -0.23744983809395431 0 -0.0092359492843370593 -0.21119307813957131 0 0.0091491673758014591 -0.2336055957509223 0 -0.01711372739846502 -0.23744983809395431 0 -0.0092359492843370593 -0.21119307813957131 0 -0.034389638829642508 -0.21738151833063341 0 -0.0092359492843370593 -0.21119307813957131 0 -0.025440413837531019 -0.19954238369590491 0 -0.034389638829642508 -0.21738151833063341 0 -0.00135817117020914 -0.18493631818518841 0 -0.0092359492843370593 -0.21119307813957131 0 -0.025440413837531019 -0.19954238369590491 0 -0.00135817117020914 -0.18493631818518841 0 -0.0092359492843370593 -0.21119307813957131 0 -0.00135817117020914 -0.18493631818518841 0 -0.031231494468976759 -0.18056782706328869 0 -0.025440413837531019 -0.19954238369590491 0 -0.031231494468976759 -0.18056782706328869 0 -0.025440413837531019 -0.19954238369590491 0 -0.049711650640844221 -0.19357316099733629 0 -0.049711650640844221 -0.19357316099733629 0 -0.070053956969725439 -0.19825852001767891 0 -0.064646228520127469 -0.18246230908491001 0 -0.049711650640844221 -0.19357316099733629 0 -0.05891793380338059 -0.217278769950395 0 -0.070053956969725439 -0.19825852001767891 0 -0.049711650640844221 -0.19357316099733629 0 -0.05891793380338059 -0.217278769950395 0 -0.034389638829642508 -0.21738151833063341 0 -0.025440413837531019 -0.19954238369590491 0 -0.049711650640844221 -0.19357316099733629 0 -0.034389638829642508 -0.21738151833063341 0 -0.05891793380338059 -0.217278769950395 0 -0.034389638829642508 -0.21738151833063341 0 -0.046614547137775353 -0.2363946847203478 0 -0.01711372739846502 -0.23744983809395431 0 -0.034389638829642508 -0.21738151833063341 0 -0.046614547137775353 -0.2363946847203478 0 -0.05891793380338059 -0.217278769950395 0 -0.046614547137775353 -0.2363946847203478 0 -0.068394407380387184 -0.23487536875765391 0 -0.063197998448463549 -0.25457443183096989 0 -0.046614547137775353 -0.2363946847203478 0 -0.068394407380387184 -0.23487536875765391 0 -0.063197998448463549 -0.25457443183096989 0 -0.041780072468508483 -0.25363654907423799 0 -0.046614547137775353 -0.2363946847203478 0 -0.041780072468508483 -0.25363654907423799 0 -0.01711372739846502 -0.23744983809395431 0 -0.046614547137775353 -0.2363946847203478 0 -0.083370738416282147 -0.2517868905605774 0 -0.068394407380387184 -0.23487536875765391 0 -0.091595874336266328 -0.23322504066893271 0 -0.1024803928049134 -0.25248983375176598 0 -0.083370738416282147 -0.2517868905605774 0 -0.091595874336266328 -0.23322504066893271 0 -0.063197998448463549 -0.25457443183096989 0 -0.083370738416282147 -0.2517868905605774 0 -0.068394407380387184 -0.23487536875765391 0 -0.05891793380338059 -0.217278769950395 0 -0.068394407380387184 -0.23487536875765391 0 -0.079467493443516085 -0.21874619314844909 0 -0.068394407380387184 -0.23487536875765391 0 -0.091595874336266328 -0.23322504066893271 0 -0.079467493443516085 -0.21874619314844909 0 -0.091595874336266328 -0.23322504066893271 0 -0.079467493443516085 -0.21874619314844909 0 -0.095585387280427384 -0.21316117448857089 0 -0.079467493443516085 -0.21874619314844909 0 -0.070053956969725439 -0.19825852001767891 0 -0.088370645944284121 -0.1976845175827309 0 -0.079467493443516085 -0.21874619314844909 0 -0.088370645944284121 -0.1976845175827309 0 -0.095585387280427384 -0.21316117448857089 0 -0.05891793380338059 -0.217278769950395 0 -0.079467493443516085 -0.21874619314844909 0 -0.070053956969725439 -0.19825852001767891 0 -0.070053956969725439 -0.19825852001767891 0 -0.088370645944284121 -0.1976845175827309 0 -0.079209789466200275 -0.17980616934225241 0 -0.088370645944284121 -0.1976845175827309 0 -0.1104003138189916 -0.1969255828543951 0 -0.094738057006563306 -0.1829913446695248 0 -0.088370645944284121 -0.1976845175827309 0 -0.1104003138189916 -0.1969255828543951 0 -0.095585387280427384 -0.21316117448857089 0 -0.1104003138189916 -0.1969255828543951 0 -0.113799354248535 -0.2138306931932509 0 -0.13070414052114429 -0.21031281733319801 0 -0.113799354248535 -0.2138306931932509 0 -0.1226970215924227 -0.22764777181289719 0 -0.13070414052114429 -0.21031281733319801 0 -0.113799354248535 -0.2138306931932509 0 -0.095585387280427384 -0.21316117448857089 0 -0.1054327338998151 -0.2243038262406476 0 -0.1104003138189916 -0.1969255828543951 0 -0.113799354248535 -0.2138306931932509 0 -0.095585387280427384 -0.21316117448857089 0 -0.091595874336266328 -0.23322504066893271 0 -0.095585387280427384 -0.21316117448857089 0 -0.1054327338998151 -0.2243038262406476 0 -0.091595874336266328 -0.23322504066893271 0 -0.1054327338998151 -0.2243038262406476 0 -0.10970668582916381 -0.23818721836705661 0 -0.113799354248535 -0.2138306931932509 0 -0.1054327338998151 -0.2243038262406476 0 -0.1226970215924227 -0.22764777181289719 0 -0.1054327338998151 -0.2243038262406476 0 -0.1226970215924227 -0.22764777181289719 0 -0.10970668582916381 -0.23818721836705661 0 -0.1180516765755087 -0.25804632408857098 0 -0.1227181660842256 -0.2423306863943781 0 -0.1132611434474206 -0.2481528401313787 0 -0.1226970215924227 -0.22764777181289719 0 -0.10970668582916381 -0.23818721836705661 0 -0.1227181660842256 -0.2423306863943781 0 -0.10970668582916381 -0.23818721836705661 0 -0.1227181660842256 -0.2423306863943781 0 -0.1132611434474206 -0.2481528401313787 0 -0.1024803928049134 -0.25248983375176598 0 -0.10970668582916381 -0.23818721836705661 0 -0.1132611434474206 -0.2481528401313787 0 -0.1024803928049134 -0.25248983375176598 0 -0.091595874336266328 -0.23322504066893271 0 -0.10970668582916381 -0.23818721836705661 0 -0.079720317720212736 -0.15147061896928729 0 -0.096968972816658394 -0.15867012347329221 0 -0.095093150283929451 -0.14237019556209621 0 -0.079720317720212736 -0.15147061896928729 0 -0.07875868991760257 -0.14024152349695659 0 -0.095093150283929451 -0.14237019556209621 0 -0.083750381358792675 -0.1284598765970584 0 -0.07875868991760257 -0.14024152349695659 0 -0.095093150283929451 -0.14237019556209621 0 -0.083750381358792675 -0.1284598765970584 0 -0.095093150283929451 -0.14237019556209621 0 -0.09663758558397495 -0.12793937277247569 0 -0.090963634255588843 -0.1194276257715948 0 -0.083750381358792675 -0.1284598765970584 0 -0.09663758558397495 -0.12793937277247569 0 -0.07875868991760257 -0.14024152349695659 0 -0.068622282056706202 -0.12818128688391409 0 -0.064408364707044807 -0.14201504997649891 0 -0.083750381358792675 -0.1284598765970584 0 -0.07875868991760257 -0.14024152349695659 0 -0.068622282056706202 -0.12818128688391409 0 -0.055561102951258851 -0.13150482878756631 0 -0.068622282056706202 -0.12818128688391409 0 -0.064408364707044807 -0.14201504997649891 0 -0.058354521809780249 -0.15715534060267269 0 -0.079720317720212736 -0.15147061896928729 0 -0.064408364707044807 -0.14201504997649891 0 -0.079720317720212736 -0.15147061896928729 0 -0.07875868991760257 -0.14024152349695659 0 -0.064408364707044807 -0.14201504997649891 0 -0.058354521809780249 -0.15715534060267269 0 -0.079720317720212736 -0.15147061896928729 0 -0.084444006977441616 -0.1660332311761786 0 -0.058354521809780249 -0.15715534060267269 0 -0.079209789466200275 -0.17980616934225241 0 -0.084444006977441616 -0.1660332311761786 0 -0.058354521809780249 -0.15715534060267269 0 -0.084444006977441616 -0.1660332311761786 0 -0.058354521809780249 -0.15715534060267269 0 -0.064646228520127469 -0.18246230908491001 0 -0.079209789466200275 -0.17980616934225241 0 -0.070053956969725439 -0.19825852001767891 0 -0.064646228520127469 -0.18246230908491001 0 -0.079209789466200275 -0.17980616934225241 0 -0.088370645944284121 -0.1976845175827309 0 -0.079209789466200275 -0.17980616934225241 0 -0.094738057006563306 -0.1829913446695248 0 -0.079209789466200275 -0.17980616934225241 0 -0.084444006977441616 -0.1660332311761786 0 -0.094738057006563306 -0.1829913446695248 0 -0.079720317720212736 -0.15147061896928729 0 -0.084444006977441616 -0.1660332311761786 0 -0.096968972816658394 -0.15867012347329221 0 -0.084444006977441616 -0.1660332311761786 0 -0.096968972816658394 -0.15867012347329221 0 -0.1105334921451028 -0.1749111217496844 0 -0.084444006977441616 -0.1660332311761786 0 -0.1105334921451028 -0.1749111217496844 0 -0.084444006977441616 -0.1660332311761786 0 -0.094738057006563306 -0.1829913446695248 0 -0.1105334921451028 -0.1749111217496844 0 -0.1104003138189916 -0.1969255828543951 0 -0.094738057006563306 -0.1829913446695248 0 -0.1105334921451028 -0.1749111217496844 0 -0.1105334921451028 -0.1749111217496844 0 -0.12535270337507581 -0.15990724899838751 0 -0.1366229773127641 -0.1837890123231902 0 -0.1104003138189916 -0.1969255828543951 0 -0.1105334921451028 -0.1749111217496844 0 -0.1366229773127641 -0.1837890123231902 0 -0.1105334921451028 -0.1749111217496844 0 -0.1366229773127641 -0.1837890123231902 0 -0.096968972816658394 -0.15867012347329221 0 -0.1228337794764132 -0.1584417794038547 0 -0.12535270337507581 -0.15990724899838751 0 -0.096968972816658394 -0.15867012347329221 0 -0.12535270337507581 -0.15990724899838751 0 -0.096968972816658394 -0.15867012347329221 0 -0.1105334921451028 -0.1749111217496844 0 -0.12535270337507581 -0.15990724899838751 0 -0.1228337794764132 -0.1584417794038547 0 -0.1163358974479053 -0.13447852879972791 0 -0.13372020093396619 -0.14262720508792989 0 -0.1228337794764132 -0.1584417794038547 0 -0.1163358974479053 -0.13447852879972791 0 -0.096968972816658394 -0.15867012347329221 0 -0.1228337794764132 -0.1584417794038547 0 -0.10981797091451211 -0.14910854075688659 0 -0.1228337794764132 -0.1584417794038547 0 -0.10981797091451211 -0.14910854075688659 0 -0.1163358974479053 -0.13447852879972791 0 -0.10981797091451211 -0.14910854075688659 0 -0.095093150283929451 -0.14237019556209621 0 -0.1163358974479053 -0.13447852879972791 0 -0.096968972816658394 -0.15867012347329221 0 -0.10981797091451211 -0.14910854075688659 0 -0.095093150283929451 -0.14237019556209621 0 -0.1013807090463807 -0.1178251212445425 0 -0.09663758558397495 -0.12793937277247569 0 -0.1163358974479053 -0.13447852879972791 0 -0.095093150283929451 -0.14237019556209621 0 -0.09663758558397495 -0.12793937277247569 0 -0.1163358974479053 -0.13447852879972791 0 -0.1247589529873689 -0.1193319215051903 0 -0.1163358974479053 -0.13447852879972791 0 -0.13372020093396619 -0.14262720508792989 0 -0.1247589529873689 -0.1193319215051903 0 -0.14820044177604541 -0.1281571168856622 0 -0.13372020093396619 -0.14262720508792989 0 -0.14820044177604541 -0.1281571168856622 0 -0.1542604279388281 -0.14227891522890679 0 -0.13372020093396619 -0.14262720508792989 0 -0.14820044177604541 -0.1281571168856622 0 -0.1542604279388281 -0.14227891522890679 0 -0.1627185041981529 -0.13219729420462109 0 -0.1542604279388281 -0.14227891522890679 0 -0.13372020093396619 -0.14262720508792989 0 -0.15373643393349321 -0.1611443745234826 0 -0.13372020093396619 -0.14262720508792989 0 -0.12535270337507581 -0.15990724899838751 0 -0.15373643393349321 -0.1611443745234826 0 -0.1228337794764132 -0.1584417794038547 0 -0.13372020093396619 -0.14262720508792989 0 -0.12535270337507581 -0.15990724899838751 0 -0.12535270337507581 -0.15990724899838751 0 -0.15373643393349321 -0.1611443745234826 0 -0.1366229773127641 -0.1837890123231902 0 -0.15373643393349321 -0.1611443745234826 0 -0.1694506002014288 -0.18757524697757899 0 -0.12535270337507581 -0.15990724899838751 0 -0.1366229773127641 -0.1837890123231902 0 -0.15373643393349321 -0.1611443745234826 0 -0.15373643393349321 -0.1611443745234826 0 -0.1821201644919104 -0.16238150004857879 0 -0.15373643393349321 -0.1611443745234826 0 -0.1821201644919104 -0.16238150004857879 0 -0.1694506002014288 -0.18757524697757899 0 -0.1821201644919104 -0.16238150004857879 0 -0.1694506002014288 -0.18757524697757899 0 -0.19379890898413071 -0.17683459307420779 0 -0.1821201644919104 -0.16238150004857879 0 -0.1694506002014288 -0.18757524697757899 0 -0.1821201644919104 -0.16238150004857879 0 -0.17155722826922179 -0.1449761868806855 0 -0.1921146200112992 -0.14250727412609071 0 -0.1821201644919104 -0.16238150004857879 0 -0.1921146200112992 -0.14250727412609071 0 -0.17524671547322351 -0.12786749151049881 0 -0.17155722826922179 -0.1449761868806855 0 -0.1921146200112992 -0.14250727412609071 0 -0.17524671547322351 -0.12786749151049881 0 -0.1921146200112992 -0.14250727412609071 0 -0.18670902145459281 -0.1191040684327469 0 -0.1542604279388281 -0.14227891522890679 0 -0.1627185041981529 -0.13219729420462109 0 -0.17155722826922179 -0.1449761868806855 0 -0.17524671547322351 -0.12786749151049881 0 -0.1627185041981529 -0.13219729420462109 0 -0.17155722826922179 -0.1449761868806855 0 -0.17524671547322351 -0.12786749151049881 0 -0.1627185041981529 -0.13219729420462109 0 -0.16250662366085711 -0.1185952451931863 0 -0.14820044177604541 -0.1281571168856622 0 -0.1627185041981529 -0.13219729420462109 0 -0.16250662366085711 -0.1185952451931863 0 -0.1542604279388281 -0.14227891522890679 0 -0.15373643393349321 -0.1611443745234826 0 -0.17155722826922179 -0.1449761868806855 0 -0.15373643393349321 -0.1611443745234826 0 -0.1821201644919104 -0.16238150004857879 0 -0.17155722826922179 -0.1449761868806855 0 -0.15522258220679089 -0.24477908560778669 0 -0.14333946920790491 -0.2294569886672235 0 -0.16763173603513851 -0.23245613934898821 0 -0.15522258220679089 -0.24477908560778669 0 -0.14123905081936811 -0.24435887240762211 0 -0.14333946920790491 -0.2294569886672235 0 -0.14348465898741411 -0.25620536207728473 0 -0.15522258220679089 -0.24477908560778669 0 -0.14123905081936811 -0.24435887240762211 0 -0.13138631030816489 -0.25257813007746482 0 -0.14123905081936811 -0.24435887240762211 0 -0.13242069041579241 -0.23834026106624051 0 -0.13138631030816489 -0.25257813007746482 0 -0.1227181660842256 -0.2423306863943781 0 -0.13242069041579241 -0.23834026106624051 0 -0.1226970215924227 -0.22764777181289719 0 -0.1227181660842256 -0.2423306863943781 0 -0.13242069041579241 -0.23834026106624051 0 -0.14123905081936811 -0.24435887240762211 0 -0.13242069041579241 -0.23834026106624051 0 -0.14333946920790491 -0.2294569886672235 0 -0.1226970215924227 -0.22764777181289719 0 -0.13242069041579241 -0.23834026106624051 0 -0.14333946920790491 -0.2294569886672235 0 -0.1226970215924227 -0.22764777181289719 0 -0.14333946920790491 -0.2294569886672235 0 -0.13070414052114429 -0.21031281733319801 0 -0.14333946920790491 -0.2294569886672235 0 -0.15678103591094511 -0.21276899390657841 0 -0.16763173603513851 -0.23245613934898821 0 -0.1366229773127641 -0.1837890123231902 0 -0.1694506002014288 -0.18757524697757899 0 -0.15678103591094511 -0.21276899390657841 0 -0.14333946920790491 -0.2294569886672235 0 -0.13070414052114429 -0.21031281733319801 0 -0.15678103591094511 -0.21276899390657841 0 -0.1104003138189916 -0.1969255828543951 0 -0.1366229773127641 -0.1837890123231902 0 -0.13070414052114429 -0.21031281733319801 0 -0.1366229773127641 -0.1837890123231902 0 -0.13070414052114429 -0.21031281733319801 0 -0.15678103591094511 -0.21276899390657841 0 -0.1694506002014288 -0.18757524697757899 0 -0.15678103591094511 -0.21276899390657841 0 -0.1694506002014288 -0.18757524697757899 0 -0.17513217362906811 -0.2073926596223053 0 -0.15678103591094511 -0.21276899390657841 0 -0.1694506002014288 -0.18757524697757899 0 -0.17513217362906811 -0.2073926596223053 0 -0.1939131805847831 -0.19985277271361301 0 -0.1694506002014288 -0.18757524697757899 0 -0.1939131805847831 -0.19985277271361301 0 -0.19379890898413071 -0.17683459307420779 0 -0.17513217362906811 -0.2073926596223053 0 -0.1882628913527345 -0.22281259662362221 0 -0.1939131805847831 -0.19985277271361301 0 -0.17513217362906811 -0.2073926596223053 0 -0.15678103591094511 -0.21276899390657841 0 -0.16763173603513851 -0.23245613934898821 0 -0.17513217362906811 -0.2073926596223053 0 -0.16763173603513851 -0.23245613934898821 0 -0.1882628913527345 -0.22281259662362221 0 -0.19441515482194541 -0.25327847920056412 0 -0.16894990690467979 -0.25474192063892442 0 -0.16763173603513851 -0.23245613934898821 0 -0.19441515482194541 -0.25327847920056412 0 -0.16763173603513851 -0.23245613934898821 0 -0.1882628913527345 -0.22281259662362221 0 -0.16894990690467979 -0.25474192063892442 0 -0.15522258220679089 -0.24477908560778669 0 -0.16763173603513851 -0.23245613934898821 0 -0.219880402739211 -0.25181503776220382 0 -0.19441515482194541 -0.25327847920056412 0 -0.20674722185319511 -0.2345889935936484 0 -0.19441515482194541 -0.25327847920056412 0 -0.20674722185319511 -0.2345889935936484 0 -0.1882628913527345 -0.22281259662362221 0 -0.20674722185319511 -0.2345889935936484 0 -0.1882628913527345 -0.22281259662362221 0 -0.2091315935591978 -0.21662383188908929 0 -0.20674722185319511 -0.2345889935936484 0 -0.2091315935591978 -0.21662383188908929 0 -0.22362799058216651 -0.2245573636333382 0 -0.2091315935591978 -0.21662383188908929 0 -0.1939131805847831 -0.19985277271361301 0 -0.21482891535745621 -0.19991243898374619 0 -0.2091315935591978 -0.21662383188908929 0 -0.21482891535745621 -0.19991243898374619 0 -0.22593877717202199 -0.21180384354955761 0 -0.1882628913527345 -0.22281259662362221 0 -0.2091315935591978 -0.21662383188908929 0 -0.1939131805847831 -0.19985277271361301 0 -0.1939131805847831 -0.19985277271361301 0 -0.19379890898413071 -0.17683459307420779 0 -0.20680906225179341 -0.18721099781699299 0 -0.21482891535745621 -0.19991243898374619 0 -0.20680906225179341 -0.18721099781699299 0 -0.22005095318596091 -0.18388132114826231 0 -0.1939131805847831 -0.19985277271361301 0 -0.21482891535745621 -0.19991243898374619 0 -0.20680906225179341 -0.18721099781699299 0 -0.21482891535745621 -0.19991243898374619 0 -0.23206994554400109 -0.196382068865884 0 -0.22593877717202199 -0.21180384354955761 0 -0.21482891535745621 -0.19991243898374619 0 -0.23206994554400109 -0.196382068865884 0 -0.22005095318596091 -0.18388132114826231 0 -0.23206994554400109 -0.196382068865884 0 -0.24358344246471439 -0.19158045559441569 0 -0.23861870510142411 -0.17727437257379591 0 -0.24358344246471439 -0.19158045559441569 0 -0.24725779665830391 -0.20054974283342891 0 -0.25028721978338742 -0.19371089023616611 0 -0.24358344246471439 -0.19158045559441569 0 -0.2491857197856916 -0.1881539994391043 0 -0.25028721978338742 -0.19371089023616611 0 -0.23206994554400109 -0.196382068865884 0 -0.24725779665830391 -0.20054974283342891 0 -0.24112825112839739 -0.21032916605117341 0 -0.23206994554400109 -0.196382068865884 0 -0.24358344246471439 -0.19158045559441569 0 -0.24725779665830391 -0.20054974283342891 0 -0.24725779665830391 -0.20054974283342891 0 -0.24112825112839739 -0.21032916605117341 0 -0.25521199120448118 -0.20608867607345219 0 -0.24112825112839739 -0.21032916605117341 0 -0.24642641019704661 -0.22247541380929459 0 -0.25392376853803972 -0.21594652707730211 0 -0.2091315935591978 -0.21662383188908929 0 -0.22593877717202199 -0.21180384354955761 0 -0.22362799058216651 -0.2245573636333382 0 -0.24112825112839739 -0.21032916605117341 0 -0.22593877717202199 -0.21180384354955761 0 -0.23523524517534511 -0.22505702465694549 0 -0.23206994554400109 -0.196382068865884 0 -0.24112825112839739 -0.21032916605117341 0 -0.22593877717202199 -0.21180384354955761 0 -0.20674722185319511 -0.2345889935936484 0 -0.22362799058216651 -0.2245573636333382 0 -0.23124900575331131 -0.23885322501217501 0 -0.22362799058216651 -0.2245573636333382 0 -0.23523524517534511 -0.22505702465694549 0 -0.23124900575331131 -0.23885322501217501 0 -0.22593877717202199 -0.21180384354955761 0 -0.22362799058216651 -0.2245573636333382 0 -0.23523524517534511 -0.22505702465694549 0 -0.24642641019704661 -0.22247541380929459 0 -0.24552422698312379 -0.2457455520674697 0 -0.24112825112839739 -0.21032916605117341 0 -0.23523524517534511 -0.22505702465694549 0 -0.24642641019704661 -0.22247541380929459 0 -0.23523524517534511 -0.22505702465694549 0 -0.24642641019704661 -0.22247541380929459 0 -0.2417959214028399 -0.23748869097786729 0 -0.23523524517534511 -0.22505702465694549 0 -0.2417959214028399 -0.23748869097786729 0 -0.23124900575331131 -0.23885322501217501 0 -0.24642641019704661 -0.22247541380929459 0 -0.24552422698312379 -0.2457455520674697 0 -0.25745970649811001 -0.23572969511482039 0 -0.2417959214028399 -0.23748869097786729 0 -0.24552422698312379 -0.2457455520674697 0 -0.23124900575331131 -0.23885322501217501 0 -0.24642641019704661 -0.22247541380929459 0 -0.2417959214028399 -0.23748869097786729 0 -0.24552422698312379 -0.2457455520674697 0 -0.2417959214028399 -0.23748869097786729 0 -0.24552422698312379 -0.2457455520674697 0 -0.25059524740695288 -0.25004991155547401 0 -0.24754692042651941 -0.25022509335756632 0 -0.24552422698312379 -0.2457455520674697 0 -0.2453456506564767 -0.25035159632384441 0 -0.24754692042651941 -0.25022509335756632 0 -0.24552422698312379 -0.2457455520674697 0 -0.24754692042651941 -0.25022509335756632 0 -0.24552422698312379 -0.2457455520674697 0 -0.2453456506564767 -0.25035159632384441 0 -0.24552422698312379 -0.2457455520674697 0 -0.2453456506564767 -0.25035159632384441 0 -0.24552422698312379 -0.2457455520674697 0 -0.23124900575331131 -0.23885322501217501 0 -0.219880402739211 -0.25181503776220382 0 -0.2453456506564767 -0.25035159632384441 0 -0.23124900575331131 -0.23885322501217501 0 -0.219880402739211 -0.25181503776220382 0 -0.20674722185319511 -0.2345889935936484 0 -0.23124900575331131 -0.23885322501217501 0 -0.2160290277721203 -0.1395524278271662 0 -0.1921146200112992 -0.14250727412609071 0 -0.20508583101114591 -0.16338247531478869 0 -0.2160290277721203 -0.1395524278271662 0 -0.20508583101114591 -0.16338247531478869 0 -0.22805149753038129 -0.1643834505809996 0 -0.2160290277721203 -0.1395524278271662 0 -0.1921146200112992 -0.14250727412609071 0 -0.20210907553068599 -0.1226330482036016 0 -0.2160290277721203 -0.1395524278271662 0 -0.21500619943136981 -0.11666867666619091 0 -0.20210907553068599 -0.1226330482036016 0 -0.1921146200112992 -0.14250727412609071 0 -0.20210907553068599 -0.1226330482036016 0 -0.1921146200112992 -0.14250727412609071 0 -0.20210907553068599 -0.1226330482036016 0 -0.18670902145459281 -0.1191040684327469 0 -0.1821201644919104 -0.16238150004857879 0 -0.1921146200112992 -0.14250727412609071 0 -0.20508583101114591 -0.16338247531478869 0 -0.1821201644919104 -0.16238150004857879 0 -0.20508583101114591 -0.16338247531478869 0 -0.1821201644919104 -0.16238150004857879 0 -0.19379890898413071 -0.17683459307420779 0 -0.20508583101114591 -0.16338247531478869 0 -0.19379890898413071 -0.17683459307420779 0 -0.20916977005217979 -0.17540736419247949 0 -0.20508583101114591 -0.16338247531478869 0 -0.19379890898413071 -0.17683459307420779 0 -0.20680906225179341 -0.18721099781699299 0 -0.20916977005217979 -0.17540736419247949 0 -0.20916977005217979 -0.17540736419247949 0 -0.21952497029072451 -0.1684165975116568 0 -0.22005095318596091 -0.18388132114826231 0 -0.20680906225179341 -0.18721099781699299 0 -0.20916977005217979 -0.17540736419247949 0 -0.22005095318596091 -0.18388132114826231 0 -0.20508583101114591 -0.16338247531478869 0 -0.22805149753038129 -0.1643834505809996 0 -0.21952497029072451 -0.1684165975116568 0 -0.20508583101114591 -0.16338247531478869 0 -0.22805149753038129 -0.1643834505809996 0 -0.20916977005217979 -0.17540736419247949 0 -0.20508583101114591 -0.16338247531478869 0 -0.21952497029072451 -0.1684165975116568 0 -0.22805149753038129 -0.1643834505809996 0 -0.21952497029072451 -0.1684165975116568 0 -0.23861870510142411 -0.17727437257379591 0 -0.23206994554400109 -0.196382068865884 0 -0.22005095318596091 -0.18388132114826231 0 -0.23861870510142411 -0.17727437257379591 0 -0.21952497029072451 -0.1684165975116568 0 -0.23861870510142411 -0.17727437257379591 0 -0.21952497029072451 -0.1684165975116568 0 -0.22005095318596091 -0.18388132114826231 0 -0.23861870510142411 -0.17727437257379591 0 -0.23861870510142411 -0.17727437257379591 0 -0.25771243991212323 -0.18613214763593611 0 -0.2491857197856916 -0.1881539994391043 0 -0.23861870510142411 -0.17727437257379591 0 -0.25771243991212323 -0.18613214763593611 0 -0.23861870510142411 -0.17727437257379591 0 -0.25771243991212323 -0.18613214763593611 0 -0.25101716404961671 -0.16538442584721061 0 -0.24358344246471439 -0.19158045559441569 0 -0.2491857197856916 -0.1881539994391043 0 -0.23861870510142411 -0.17727437257379591 0 -0.22805149753038129 -0.1643834505809996 0 -0.25101716404961671 -0.16538442584721061 0 -0.22805149753038129 -0.1643834505809996 0 -0.24252248370888921 -0.13906060170419321 0 -0.25101716404961671 -0.16538442584721061 0 -0.22805149753038129 -0.1643834505809996 0 -0.23861870510142411 -0.17727437257379591 0 -0.25101716404961671 -0.16538442584721061 0 -0.24252248370888921 -0.13906060170419321 0 -0.25101716404961671 -0.16538442584721061 0 -0.25607245445027549 -0.15330591863931409 0 -0.24252248370888921 -0.13906060170419321 0 -0.25101716404961671 -0.16538442584721061 0 -0.2160290277721203 -0.1395524278271662 0 -0.22805149753038129 -0.1643834505809996 0 -0.24252248370888921 -0.13906060170419321 0 -0.2160290277721203 -0.1395524278271662 0 -0.22731348718107061 -0.12823146819429879 0 -0.21500619943136981 -0.11666867666619091 0 -0.2160290277721203 -0.1395524278271662 0 -0.22731348718107061 -0.12823146819429879 0 -0.24252248370888921 -0.13906060170419321 0 -0.22731348718107061 -0.12823146819429879 0 -0.24252248370888921 -0.13906060170419321 0 -0.23402780336816259 -0.11273677756117551 0 -0.24252248370888921 -0.13906060170419321 0 -0.23918338790704849 -0.1157771695894054 0 -0.2519772804193724 -0.12964821717384239 0 -0.24252248370888921 -0.13906060170419321 0 -0.23402780336816259 -0.11273677756117551 0 -0.24252248370888921 -0.13906060170419321 0 -0.25345957737028418 -0.1422243138163761 0 -0.2519772804193724 -0.12964821717384239 0 -0.24589355376940389 -0.1197343415923325 0 -0.23918338790704849 -0.1157771695894054 0 -0.2519772804193724 -0.12964821717384239 0 -0.23918338790704849 -0.1157771695894054 0 -0.2519772804193724 -0.12964821717384239 0 -0.24252248370888921 -0.13906060170419321 0 -0.23918338790704849 -0.1157771695894054 0 -0.23402780336816259 -0.11273677756117551 0 -0.24589355376940389 -0.1197343415923325 0 -0.23918338790704849 -0.1157771695894054 0 -0.24589355376940389 -0.1197343415923325 0 -0.23428392411290661 -0.1051067475620189 0 -0.23918338790704849 -0.1157771695894054 0 -0.23276245469109699 -0.10881563930539349 0 -0.23428392411290661 -0.1051067475620189 0 -0.24589355376940389 -0.1197343415923325 0 -0.23918338790704849 -0.1157771695894054 0 -0.23428392411290661 -0.1051067475620189 0 -0.23918338790704849 -0.1157771695894054 0 -0.23276245469109699 -0.10881563930539349 0 -0.23918338790704849 -0.1157771695894054 0 -0.23276245469109699 -0.10881563930539349 0 -0.23402780336816259 -0.11273677756117551 0 -0.23918338790704849 -0.1157771695894054 0 -0.23402780336816259 -0.11273677756117551 0 -0.24589355376940389 -0.1197343415923325 0 -0.2471185865220428 -0.10611116084315959 0 -0.23428392411290661 -0.1051067475620189 0 -0.2471185865220428 -0.10611116084315959 0 -0.24030469594817791 -0.09630013348455696 0 -0.25043698654984042 -0.09007265746859866 0 -0.24030469594817791 -0.09630013348455696 0 -0.23428392411290661 -0.1051067475620189 0 -0.2312333685779874 -0.09182142569442675 0 -0.2471185865220428 -0.10611116084315959 0 -0.24030469594817791 -0.09630013348455696 0 -0.23428392411290661 -0.1051067475620189 0 -0.23276245469109699 -0.10881563930539349 0 -0.2322542278381117 -0.10724071549824481 0 -0.22105695079066889 -0.096124614939958858 0 -0.23276245469109699 -0.10881563930539349 0 -0.22105695079066889 -0.096124614939958858 0 -0.2197079689344115 -0.1024552813834784 0 -0.23402780336816259 -0.11273677756117551 0 -0.21679093993952619 -0.1025717183395019 0 -0.2322542278381117 -0.10724071549824481 0 -0.23428392411290661 -0.1051067475620189 0 -0.22105695079066889 -0.096124614939958858 0 -0.23402780336816259 -0.11273677756117551 0 -0.21679093993952619 -0.1025717183395019 0 -0.23276245469109699 -0.10881563930539349 0 -0.2197079689344115 -0.1024552813834784 0 -0.23402780336816259 -0.11273677756117551 0 -0.23276245469109699 -0.10881563930539349 0 -0.2322542278381117 -0.10724071549824481 0 -0.23276245469109699 -0.10881563930539349 0 -0.2322542278381117 -0.10724071549824481 0 -0.23428392411290661 -0.1051067475620189 0 -0.23428392411290661 -0.1051067475620189 0 -0.2312333685779874 -0.09182142569442675 0 -0.22267429445640599 -0.090479153531708073 0 -0.23428392411290661 -0.1051067475620189 0 -0.22267429445640599 -0.090479153531708073 0 -0.23428392411290661 -0.1051067475620189 0 -0.22105695079066889 -0.096124614939958858 0 -0.22267429445640599 -0.090479153531708073 0 -0.22105695079066889 -0.096124614939958858 0 -0.2197079689344115 -0.1024552813834784 0 -0.21679093993952619 -0.1025717183395019 0 -0.23276245469109699 -0.10881563930539349 0 -0.22105695079066889 -0.096124614939958858 0 -0.2197079689344115 -0.1024552813834784 0 -0.23402780336816259 -0.11273677756117551 0 -0.21500619943136981 -0.11666867666619091 0 -0.21679093993952619 -0.1025717183395019 0 -0.22731348718107061 -0.12823146819429879 0 -0.23402780336816259 -0.11273677756117551 0 -0.21500619943136981 -0.11666867666619091 0 -0.23276245469109699 -0.10881563930539349 0 -0.23402780336816259 -0.11273677756117551 0 -0.2439945728241126 -0.064939689346654811 0 -0.2297380873970678 -0.067692063896601512 0 -0.2439945728241126 -0.064939689346654811 0 -0.24137888927523499 -0.078755138241854775 0 -0.2439945728241126 -0.064939689346654811 0 -0.24137888927523499 -0.078755138241854775 0 -0.25311922496262851 -0.076102733709373191 0 -0.2439945728241126 -0.064939689346654811 0 -0.24137888927523499 -0.078755138241854775 0 -0.2297380873970678 -0.067692063896601512 0 -0.24137888927523499 -0.078755138241854775 0 -0.23845061397811221 -0.088388675854580795 0 -0.23095344940492971 -0.084091073924781157 0 -0.24137888927523499 -0.078755138241854775 0 -0.25311922496262851 -0.076102733709373191 0 -0.25043698654984042 -0.09007265746859866 0 -0.24137888927523499 -0.078755138241854775 0 -0.23845061397811221 -0.088388675854580795 0 -0.25043698654984042 -0.09007265746859866 0 -0.24030469594817791 -0.09630013348455696 0 -0.23845061397811221 -0.088388675854580795 0 -0.25043698654984042 -0.09007265746859866 0 -0.24030469594817791 -0.09630013348455696 0 -0.23845061397811221 -0.088388675854580795 0 -0.2312333685779874 -0.09182142569442675 0 -0.21998363191120751 -0.087089043722152204 0 -0.2297380873970678 -0.067692063896601512 0 -0.21712915130706961 -0.083492530768668555 0 -0.21998363191120751 -0.087089043722152204 0 -0.23095344940492971 -0.084091073924781157 0 -0.2297380873970678 -0.067692063896601512 0 -0.2312333685779874 -0.09182142569442675 0 -0.22267429445640599 -0.090479153531708073 0 -0.23095344940492971 -0.084091073924781157 0 -0.2312333685779874 -0.09182142569442675 0 -0.22267429445640599 -0.090479153531708073 0 -0.23845061397811221 -0.088388675854580795 0 -0.2312333685779874 -0.09182142569442675 0 -0.23095344940492971 -0.084091073924781157 0 -0.22267429445640599 -0.090479153531708073 0 -0.21998363191120751 -0.087089043722152204 0 -0.23095344940492971 -0.084091073924781157 0 -0.22267429445640599 -0.090479153531708073 0 -0.2186001053592144 -0.089840221033505946 0 -0.22105695079066889 -0.096124614939958858 0 -0.22267429445640599 -0.090479153531708073 0 -0.2186001053592144 -0.089840221033505946 0 -0.22267429445640599 -0.090479153531708073 0 -0.21998363191120751 -0.087089043722152204 0 -0.2186001053592144 -0.089840221033505946 0 -0.21998363191120751 -0.087089043722152204 0 -0.2186001053592144 -0.089840221033505946 0 -0.22267429445640599 -0.090479153531708073 0 -0.21998363191120751 -0.087089043722152204 0 -0.21998363191120751 -0.087089043722152204 0 -0.2297380873970678 -0.067692063896601512 0 -0.24137888927523499 -0.078755138241854775 0 -0.23095344940492971 -0.084091073924781157 0 -0.2297380873970678 -0.067692063896601512 0 -0.2297380873970678 -0.067692063896601512 0 -0.2025820199117199 -0.072934847569037675 0 -0.2297380873970678 -0.067692063896601512 0 -0.2084830181433375 -0.08010491084127612 0 -0.21712915130706961 -0.083492530768668555 0 -0.2297380873970678 -0.067692063896601512 0 -0.2084830181433375 -0.08010491084127612 0 -0.2025820199117199 -0.072934847569037675 0 -0.2186001053592144 -0.089840221033505946 0 -0.20266304943732799 -0.087340900871571078 0 -0.21324825955502349 -0.1004825008863945 0 -0.21712915130706961 -0.083492530768668555 0 -0.2186001053592144 -0.089840221033505946 0 -0.20266304943732799 -0.087340900871571078 0 -0.2186001053592144 -0.089840221033505946 0 -0.20266304943732799 -0.087340900871571078 0 -0.2084830181433375 -0.08010491084127612 0 -0.21712915130706961 -0.083492530768668555 0 -0.20266304943732799 -0.087340900871571078 0 -0.21998363191120751 -0.087089043722152204 0 -0.21712915130706961 -0.083492530768668555 0 -0.21998363191120751 -0.087089043722152204 0 -0.21712915130706961 -0.083492530768668555 0 -0.2186001053592144 -0.089840221033505946 0 -0.20266304943732799 -0.087340900871571078 0 -0.19998712653523509 -0.092662040798007245 0 -0.21324825955502349 -0.1004825008863945 0 -0.20266304943732799 -0.087340900871571078 0 -0.1951760066868399 -0.080679974246598896 0 -0.18672599351544289 -0.084841580709626357 0 -0.20266304943732799 -0.087340900871571078 0 -0.18672599351544289 -0.084841580709626357 0 -0.20266304943732799 -0.087340900871571078 0 -0.19998712653523509 -0.092662040798007245 0 -0.18672599351544289 -0.084841580709626357 0 -0.19998712653523509 -0.092662040798007245 0 -0.18672599351544289 -0.084841580709626357 0 -0.2084830181433375 -0.08010491084127612 0 -0.20266304943732799 -0.087340900871571078 0 -0.1951760066868399 -0.080679974246598896 0 -0.2025820199117199 -0.072934847569037675 0 -0.17542595242637199 -0.078177631241474574 0 -0.1951760066868399 -0.080679974246598896 0 -0.2025820199117199 -0.072934847569037675 0 -0.17542595242637199 -0.078177631241474574 0 -0.2025820199117199 -0.072934847569037675 0 -0.1810019857113119 -0.059274777341667889 0 -0.1974703084310688 -0.055644633873762582 0 -0.2084830181433375 -0.08010491084127612 0 -0.1951760066868399 -0.080679974246598896 0 -0.2025820199117199 -0.072934847569037675 0 -0.2121035310500719 -0.10275882228111199 0 -0.20210907553068599 -0.1226330482036016 0 -0.21500619943136981 -0.11666867666619091 0 -0.2121035310500719 -0.10275882228111199 0 -0.20210907553068599 -0.1226330482036016 0 -0.21500619943136981 -0.11666867666619091 0 -0.21679093993952619 -0.1025717183395019 0 -0.2121035310500719 -0.10275882228111199 0 -0.2197079689344115 -0.1024552813834784 0 -0.21679093993952619 -0.1025717183395019 0 -0.21679093993952619 -0.1025717183395019 0 -0.2121035310500719 -0.10275882228111199 0 -0.21324825955502349 -0.1004825008863945 0 -0.21679093993952619 -0.1025717183395019 0 -0.2121035310500719 -0.10275882228111199 0 -0.2121035310500719 -0.10275882228111199 0 -0.21324825955502349 -0.1004825008863945 0 -0.2186001053592144 -0.089840221033505946 0 -0.21324825955502349 -0.1004825008863945 0 -0.22105695079066889 -0.096124614939958858 0 -0.2186001053592144 -0.089840221033505946 0 -0.21324825955502349 -0.1004825008863945 0 -0.22105695079066889 -0.096124614939958858 0 -0.21679093993952619 -0.1025717183395019 0 -0.21324825955502349 -0.1004825008863945 0 -0.21679093993952619 -0.1025717183395019 0 -0.21324825955502349 -0.1004825008863945 0 -0.19998712653523509 -0.092662040798007245 0 -0.2121035310500719 -0.10275882228111199 0 -0.21324825955502349 -0.1004825008863945 0 -0.19998712653523509 -0.092662040798007245 0 -0.21324825955502349 -0.1004825008863945 0 -0.2121035310500719 -0.10275882228111199 0 -0.18660332209593611 -0.10377669584829 0 -0.19998712653523509 -0.092662040798007245 0 -0.18660332209593611 -0.10377669584829 0 -0.18672599351544289 -0.084841580709626357 0 -0.19998712653523509 -0.092662040798007245 0 -0.2121035310500719 -0.10275882228111199 0 -0.18660332209593611 -0.10377669584829 0 -0.20210907553068599 -0.1226330482036016 0 -0.18670902145459281 -0.1191040684327469 0 -0.18660332209593611 -0.10377669584829 0 -0.2121035310500719 -0.10275882228111199 0 -0.20210907553068599 -0.1226330482036016 0 -0.18660332209593611 -0.10377669584829 0 -0.18670902145459281 -0.1191040684327469 0 -0.17447592483708291 -0.1146042412093445 0 -0.18660332209593611 -0.10377669584829 0 -0.17524671547322351 -0.12786749151049881 0 -0.18670902145459281 -0.1191040684327469 0 -0.17447592483708291 -0.1146042412093445 0 -0.17524671547322351 -0.12786749151049881 0 -0.17447592483708291 -0.1146042412093445 0 -0.16250662366085711 -0.1185952451931863 0 -0.17447592483708291 -0.1146042412093445 0 -0.16250662366085711 -0.1185952451931863 0 -0.16110311314180051 -0.10479456941547 0 -0.16250662366085711 -0.1185952451931863 0 -0.16110311314180051 -0.10479456941547 0 -0.14893166532055069 -0.1137621840903265 0 -0.16110311314180051 -0.10479456941547 0 -0.16148845420001881 -0.091349065989462075 0 -0.14758723569600629 -0.096865398721705756 0 -0.17116085110791349 -0.098304373287820102 0 -0.1754485149938988 -0.093297161898058381 0 -0.16148845420001881 -0.091349065989462075 0 -0.16110311314180051 -0.10479456941547 0 -0.17116085110791349 -0.098304373287820102 0 -0.16148845420001881 -0.091349065989462075 0 -0.16110311314180051 -0.10479456941547 0 -0.18660332209593611 -0.10377669584829 0 -0.16110311314180051 -0.10479456941547 0 -0.17116085110791349 -0.098304373287820102 0 -0.18660332209593611 -0.10377669584829 0 -0.17447592483708291 -0.1146042412093445 0 -0.16110311314180051 -0.10479456941547 0 -0.18660332209593611 -0.10377669584829 0 -0.17116085110791349 -0.098304373287820102 0 -0.18660332209593611 -0.10377669584829 0 -0.1754485149938988 -0.093297161898058381 0 -0.18660332209593611 -0.10377669584829 0 -0.18672599351544289 -0.084841580709626357 0 -0.1754485149938988 -0.093297161898058381 0 -0.18672599351544289 -0.084841580709626357 0 -0.16730086034246211 -0.081795244722262239 0 -0.18672599351544289 -0.084841580709626357 0 -0.1754485149938988 -0.093297161898058381 0 -0.16730086034246211 -0.081795244722262239 0 -0.18672599351544289 -0.084841580709626357 0 -0.17542595242637199 -0.078177631241474574 0 -0.16730086034246211 -0.081795244722262239 0 -0.1951760066868399 -0.080679974246598896 0 -0.18672599351544289 -0.084841580709626357 0 -0.17542595242637199 -0.078177631241474574 0 -0.18672599351544289 -0.084841580709626357 0 -0.17542595242637199 -0.078177631241474574 0 -0.17542595242637199 -0.078177631241474574 0 -0.1687133282451507 -0.079473578693202387 0 -0.1710660263694003 -0.075606461216561713 0 -0.1810019857113119 -0.059274777341667889 0 -0.17542595242637199 -0.078177631241474574 0 -0.1710660263694003 -0.075606461216561713 0 -0.1810019857113119 -0.059274777341667889 0 -0.16795871172158591 -0.065782447586673704 0 -0.1710660263694003 -0.075606461216561713 0 -0.1810019857113119 -0.059274777341667889 0 -0.2025820199117199 -0.072934847569037675 0 -0.17542595242637199 -0.078177631241474574 0 -0.1810019857113119 -0.059274777341667889 0 -0.17542595242637199 -0.078177631241474574 0 -0.1710660263694003 -0.075606461216561713 0 -0.16795871172158591 -0.065782447586673704 0 -0.1710660263694003 -0.075606461216561713 0 -0.1572559069534043 -0.067462248535222535 0 -0.1710660263694003 -0.075606461216561713 0 -0.1572559069534043 -0.067462248535222535 0 -0.17542595242637199 -0.078177631241474574 0 -0.1710660263694003 -0.075606461216561713 0 -0.1687133282451507 -0.079473578693202387 0 -0.1710660263694003 -0.075606461216561713 0 -0.1687133282451507 -0.079473578693202387 0 -0.1572559069534043 -0.067462248535222535 0 -0.1618726483907981 -0.080943968323375054 0 -0.15381040672582261 -0.073183423921576299 0 -0.1710660263694003 -0.075606461216561713 0 -0.1572559069534043 -0.067462248535222535 0 -0.1618726483907981 -0.080943968323375054 0 -0.16795871172158591 -0.065782447586673704 0 -0.1572559069534043 -0.067462248535222535 0 -0.1649445784972505 -0.05776023841684548 0 -0.16730086034246211 -0.081795244722262239 0 -0.16148845420001881 -0.091349065989462075 0 -0.15086427964278501 -0.086519556748622176 0 -0.16730086034246211 -0.081795244722262239 0 -0.1618726483907981 -0.080943968323375054 0 -0.15086427964278501 -0.086519556748622176 0 -0.1754485149938988 -0.093297161898058381 0 -0.16730086034246211 -0.081795244722262239 0 -0.16148845420001881 -0.091349065989462075 0 -0.16730086034246211 -0.081795244722262239 0 -0.16148845420001881 -0.091349065989462075 0 -0.1710660263694003 -0.075606461216561713 0 -0.1687133282451507 -0.079473578693202387 0 -0.1618726483907981 -0.080943968323375054 0 -0.17542595242637199 -0.078177631241474574 0 -0.1687133282451507 -0.079473578693202387 0 -0.16730086034246211 -0.081795244722262239 0 -0.1687133282451507 -0.079473578693202387 0 -0.16730086034246211 -0.081795244722262239 0 -0.16730086034246211 -0.081795244722262239 0 -0.1618726483907981 -0.080943968323375054 0 -0.1687133282451507 -0.079473578693202387 0 -0.1618726483907981 -0.080943968323375054 0 -0.1687133282451507 -0.079473578693202387 0 -0.16730086034246211 -0.081795244722262239 0 -0.1618726483907981 -0.080943968323375054 0 -0.16148845420001881 -0.091349065989462075 0 -0.15086427964278501 -0.086519556748622176 0 -0.14758723569600629 -0.096865398721705756 0 -0.1618726483907981 -0.080943968323375054 0 -0.15086427964278501 -0.086519556748622176 0 -0.140761781760737 -0.077633268099755876 0 -0.1618726483907981 -0.080943968323375054 0 -0.140761781760737 -0.077633268099755876 0 -0.15086427964278501 -0.086519556748622176 0 -0.14261933509966351 -0.082758883688786478 0 -0.140761781760737 -0.077633268099755876 0 -0.14261933509966351 -0.082758883688786478 0 -0.140761781760737 -0.077633268099755876 0 -0.15086427964278501 -0.086519556748622176 0 -0.14261933509966351 -0.082758883688786478 0 -0.14488103531096641 -0.089220910044464613 0 -0.14261933509966351 -0.082758883688786478 0 -0.14488103531096641 -0.089220910044464613 0 -0.13845329080541091 -0.090739801018744085 0 -0.15086427964278501 -0.086519556748622176 0 -0.14488103531096641 -0.089220910044464613 0 -0.14758723569600629 -0.096865398721705756 0 -0.14488103531096641 -0.089220910044464613 0 -0.13845329080541091 -0.090739801018744085 0 -0.14758723569600629 -0.096865398721705756 0 -0.1618726483907981 -0.080943968323375054 0 -0.14882992095385289 -0.07462467747704081 0 -0.140761781760737 -0.077633268099755876 0 -0.1572559069534043 -0.067462248535222535 0 -0.14872051312124379 -0.068855460221435197 0 -0.15381040672582261 -0.073183423921576299 0 -0.1572559069534043 -0.067462248535222535 0 -0.14872051312124379 -0.068855460221435197 0 -0.1434457875374075 -0.059318035853884878 0 -0.1572559069534043 -0.067462248535222535 0 -0.1434457875374075 -0.059318035853884878 0 -0.1618726483907981 -0.080943968323375054 0 -0.15381040672582261 -0.073183423921576299 0 -0.14882992095385289 -0.07462467747704081 0 -0.14872051312124379 -0.068855460221435197 0 -0.15381040672582261 -0.073183423921576299 0 -0.14882992095385289 -0.07462467747704081 0 -0.14882992095385289 -0.07462467747704081 0 -0.140761781760737 -0.077633268099755876 0 -0.13896004199301371 -0.072661660960836441 0 -0.14872051312124379 -0.068855460221435197 0 -0.14882992095385289 -0.07462467747704081 0 -0.13896004199301371 -0.072661660960836441 0 -0.14872051312124379 -0.068855460221435197 0 -0.13896004199301371 -0.072661660960836441 0 -0.14872051312124379 -0.068855460221435197 0 -0.14074554681517781 -0.063473485890585518 0 -0.1434457875374075 -0.059318035853884878 0 -0.14872051312124379 -0.068855460221435197 0 -0.14074554681517781 -0.063473485890585518 0 -0.13896004199301371 -0.072661660960836441 0 -0.1236295906840658 -0.065414749250661236 0 -0.13896004199301371 -0.072661660960836441 0 -0.13185584460904631 -0.053058786526185557 0 -0.13896004199301371 -0.072661660960836441 0 -0.13185584460904631 -0.053058786526185557 0 -0.14074554681517781 -0.063473485890585518 0 -0.13896004199301371 -0.072661660960836441 0 -0.13185584460904631 -0.053058786526185557 0 -0.140761781760737 -0.077633268099755876 0 -0.13038437074479181 -0.076005836238556057 0 -0.13896004199301371 -0.072661660960836441 0 -0.13038437074479181 -0.076005836238556057 0 -0.140761781760737 -0.077633268099755876 0 -0.13896004199301371 -0.072661660960836441 0 -0.13038437074479181 -0.076005836238556057 0 -0.140761781760737 -0.077633268099755876 0 -0.13896004199301371 -0.072661660960836441 0 -0.1236295906840658 -0.065414749250661236 0 -0.13896004199301371 -0.072661660960836441 0 -0.13038437074479181 -0.076005836238556057 0 -0.13845329080541091 -0.090739801018744085 0 -0.1361553754103933 -0.082314778560356572 0 -0.13115371716119459 -0.087080291232536494 0 -0.14261933509966351 -0.082758883688786478 0 -0.13845329080541091 -0.090739801018744085 0 -0.1361553754103933 -0.082314778560356572 0 -0.140761781760737 -0.077633268099755876 0 -0.13038437074479181 -0.076005836238556057 0 -0.1361553754103933 -0.082314778560356572 0 -0.14261933509966351 -0.082758883688786478 0 -0.140761781760737 -0.077633268099755876 0 -0.1361553754103933 -0.082314778560356572 0 -0.1210610733193667 -0.090921918861455023 0 -0.13038437074479181 -0.076005836238556057 0 -0.13115371716119459 -0.087080291232536494 0 -0.13038437074479181 -0.076005836238556057 0 -0.1361553754103933 -0.082314778560356572 0 -0.13115371716119459 -0.087080291232536494 0 -0.13845329080541091 -0.090739801018744085 0 -0.13115371716119459 -0.087080291232536494 0 -0.12838165174081231 -0.096915342677769994 0 -0.1210610733193667 -0.090921918861455023 0 -0.13115371716119459 -0.087080291232536494 0 -0.12838165174081231 -0.096915342677769994 0 -0.13845329080541091 -0.090739801018744085 0 -0.1356029041876648 -0.10581244298265 0 -0.14758723569600629 -0.096865398721705756 0 -0.13845329080541091 -0.090739801018744085 0 -0.12838165174081231 -0.096915342677769994 0 -0.1356029041876648 -0.10581244298265 0 -0.1247589529873689 -0.1193319215051903 0 -0.1356029041876648 -0.10581244298265 0 -0.14893166532055069 -0.1137621840903265 0 -0.1247589529873689 -0.1193319215051903 0 -0.14820044177604541 -0.1281571168856622 0 -0.14893166532055069 -0.1137621840903265 0 -0.14820044177604541 -0.1281571168856622 0 -0.16250662366085711 -0.1185952451931863 0 -0.14893166532055069 -0.1137621840903265 0 -0.16110311314180051 -0.10479456941547 0 -0.1356029041876648 -0.10581244298265 0 -0.16110311314180051 -0.10479456941547 0 -0.1356029041876648 -0.10581244298265 0 -0.14758723569600629 -0.096865398721705756 0 -0.16110311314180051 -0.10479456941547 0 -0.1356029041876648 -0.10581244298265 0 -0.14893166532055069 -0.1137621840903265 0 -0.14358266213150489 -0.02843637399512329 0 -0.15563065601751849 -0.017209070785198739 0 -0.15643813379250829 -0.034416267856934663 0 -0.14358266213150489 -0.02843637399512329 0 -0.15563065601751849 -0.017209070785198739 0 -0.1368713473976361 -0.01376384135295897 0 -0.15563065601751849 -0.017209070785198739 0 -0.1368713473976361 -0.01376384135295897 0 -0.14738187898061639 0.0050318030858907794 0 -0.15563065601751849 -0.017209070785198739 0 -0.1649960424305798 -0.0013444332500506589 0 -0.14738187898061639 0.0050318030858907794 0 -0.13185606356650309 -0.00067556194706120819 0 -0.1368713473976361 -0.01376384135295897 0 -0.14738187898061639 0.0050318030858907794 0 -0.11764744984111131 -0.013853037656883751 0 -0.13185606356650309 -0.00067556194706120819 0 -0.1368713473976361 -0.01376384135295897 0 -0.12475164722507889 -0.033455912091534618 0 -0.14358266213150489 -0.02843637399512329 0 -0.1368713473976361 -0.01376384135295897 0 -0.12475164722507889 -0.033455912091534618 0 -0.11764744984111131 -0.013853037656883751 0 -0.1368713473976361 -0.01376384135295897 0 -0.12475164722507889 -0.033455912091534618 0 -0.14358266213150489 -0.02843637399512329 0 -0.14462690005238821 -0.044139329528078197 0 -0.12475164722507889 -0.033455912091534618 0 -0.13185584460904631 -0.053058786526185557 0 -0.12475164722507889 -0.033455912091534618 0 -0.13185584460904631 -0.053058786526185557 0 -0.14462690005238821 -0.044139329528078197 0 -0.13185584460904631 -0.053058786526185557 0 -0.1434457875374075 -0.059318035853884878 0 -0.14462690005238821 -0.044139329528078197 0 -0.14074554681517781 -0.063473485890585518 0 -0.13185584460904631 -0.053058786526185557 0 -0.1434457875374075 -0.059318035853884878 0 -0.15417653881640489 -0.056417581413079447 0 -0.14462690005238821 -0.044139329528078197 0 -0.16031888698752489 -0.047005087109959223 0 -0.1434457875374075 -0.059318035853884878 0 -0.15417653881640489 -0.056417581413079447 0 -0.14462690005238821 -0.044139329528078197 0 -0.1572559069534043 -0.067462248535222535 0 -0.1434457875374075 -0.059318035853884878 0 -0.15417653881640489 -0.056417581413079447 0 -0.14462690005238821 -0.044139329528078197 0 -0.15643813379250829 -0.034416267856934663 0 -0.16031888698752489 -0.047005087109959223 0 -0.14358266213150489 -0.02843637399512329 0 -0.14462690005238821 -0.044139329528078197 0 -0.15643813379250829 -0.034416267856934663 0 -0.15643813379250829 -0.034416267856934663 0 -0.1696337454181549 -0.038002114069643739 0 -0.16031888698752489 -0.047005087109959223 0 -0.1696337454181549 -0.038002114069643739 0 -0.16031888698752489 -0.047005087109959223 0 -0.17045601678382291 -0.048277338671521529 0 -0.15643813379250829 -0.034416267856934663 0 -0.1696337454181549 -0.038002114069643739 0 -0.16826750378216279 -0.0273174898715817 0 -0.16795871172158591 -0.065782447586673704 0 -0.1649445784972505 -0.05776023841684548 0 -0.1810019857113119 -0.059274777341667889 0 -0.1572559069534043 -0.067462248535222535 0 -0.15417653881640489 -0.056417581413079447 0 -0.1649445784972505 -0.05776023841684548 0 -0.15417653881640489 -0.056417581413079447 0 -0.16031888698752489 -0.047005087109959223 0 -0.1649445784972505 -0.05776023841684548 0 -0.16031888698752489 -0.047005087109959223 0 -0.17045601678382291 -0.048277338671521529 0 -0.1649445784972505 -0.05776023841684548 0 -0.1810019857113119 -0.059274777341667889 0 -0.17945558940118561 -0.0424965762794835 0 -0.1909379450532224 -0.04294309346677333 0 -0.17045601678382291 -0.048277338671521529 0 -0.1649445784972505 -0.05776023841684548 0 -0.1810019857113119 -0.059274777341667889 0 -0.1810019857113119 -0.059274777341667889 0 -0.1909379450532224 -0.04294309346677333 0 -0.17045601678382291 -0.048277338671521529 0 -0.1810019857113119 -0.059274777341667889 0 -0.17945558940118561 -0.0424965762794835 0 -0.1696337454181549 -0.038002114069643739 0 -0.18286634176172509 -0.028499924628381839 0 -0.16826750378216279 -0.0273174898715817 0 -0.1696337454181549 -0.038002114069643739 0 -0.17945558940118561 -0.0424965762794835 0 -0.18286634176172509 -0.028499924628381839 0 -0.1696337454181549 -0.038002114069643739 0 -0.17045601678382291 -0.048277338671521529 0 -0.17945558940118561 -0.0424965762794835 0 -0.17945558940118561 -0.0424965762794835 0 -0.1909379450532224 -0.04294309346677333 0 -0.17945558940118561 -0.0424965762794835 0 -0.18286634176172509 -0.028499924628381839 0 -0.1909379450532224 -0.04294309346677333 0 -0.18286634176172509 -0.028499924628381839 0 -0.1747174137839857 -0.013989881529586501 0 -0.19159911500729959 -0.0090173167708576182 0 -0.18286634176172509 -0.028499924628381839 0 -0.16826750378216279 -0.0273174898715817 0 -0.1747174137839857 -0.013989881529586501 0 -0.15563065601751849 -0.017209070785198739 0 -0.15643813379250829 -0.034416267856934663 0 -0.16826750378216279 -0.0273174898715817 0 -0.15563065601751849 -0.017209070785198739 0 -0.16826750378216279 -0.0273174898715817 0 -0.1747174137839857 -0.013989881529586501 0 -0.15563065601751849 -0.017209070785198739 0 -0.1649960424305798 -0.0013444332500506589 0 -0.1747174137839857 -0.013989881529586501 0 -0.1649960424305798 -0.0013444332500506589 0 -0.1747174137839857 -0.013989881529586501 0 -0.18032818442133461 0.0030944576768450671 0 -0.1747174137839857 -0.013989881529586501 0 -0.19159911500729959 -0.0090173167708576182 0 -0.18032818442133461 0.0030944576768450671 0 -0.19159911500729959 -0.0090173167708576182 0 -0.20221915323356951 -0.024400231183600411 0 -0.20803845558677481 0.00032958680966351309 0 -0.18286634176172509 -0.028499924628381839 0 -0.19159911500729959 -0.0090173167708576182 0 -0.20221915323356951 -0.024400231183600411 0 -0.20221915323356951 -0.024400231183600411 0 -0.2182832628110612 -0.02409044135282308 0 -0.21606949445719531 -0.043920390207273549 0 -0.20221915323356951 -0.024400231183600411 0 -0.2182832628110612 -0.02409044135282308 0 -0.20803845558677481 0.00032958680966351309 0 -0.2182832628110612 -0.02409044135282308 0 -0.2297161767028757 -0.01276427073918516 0 -0.20803845558677481 0.00032958680966351309 0 -0.1974703084310688 -0.055644633873762582 0 -0.1909379450532224 -0.04294309346677333 0 -0.21606949445719531 -0.043920390207273549 0 -0.1810019857113119 -0.059274777341667889 0 -0.1974703084310688 -0.055644633873762582 0 -0.1909379450532224 -0.04294309346677333 0 -0.18286634176172509 -0.028499924628381839 0 -0.20221915323356951 -0.024400231183600411 0 -0.1909379450532224 -0.04294309346677333 0 -0.20221915323356951 -0.024400231183600411 0 -0.1909379450532224 -0.04294309346677333 0 -0.20221915323356951 -0.024400231183600411 0 -0.1909379450532224 -0.04294309346677333 0 -0.21606949445719531 -0.043920390207273549 0 -0.1909379450532224 -0.04294309346677333 0 -0.21606949445719531 -0.043920390207273549 0 -0.2297380873970678 -0.067692063896601512 0 -0.2025820199117199 -0.072934847569037675 0 -0.21606949445719531 -0.043920390207273549 0 -0.2025820199117199 -0.072934847569037675 0 -0.1974703084310688 -0.055644633873762582 0 -0.21606949445719531 -0.043920390207273549 0 -0.2297380873970678 -0.067692063896601512 0 -0.21606949445719531 -0.043920390207273549 0 -0.2412010438611682 -0.04489768694777669 0 -0.2182832628110612 -0.02409044135282308 0 -0.21606949445719531 -0.043920390207273549 0 -0.2347614667351636 -0.032959987100867033 0 -0.21606949445719531 -0.043920390207273549 0 -0.2412010438611682 -0.04489768694777669 0 -0.21606949445719531 -0.043920390207273549 0 -0.2347614667351636 -0.032959987100867033 0 -0.2412010438611682 -0.04489768694777669 0 -0.2440858056658213 -0.034863944644476473 0 -0.24774098130548611 -0.045152007103079442 0 -0.25139389781897659 -0.025858128288033862 0 -0.24774098130548611 -0.045152007103079442 0 -0.25139389781897659 -0.025858128288033862 0 -0.2347614667351636 -0.032959987100867033 0 -0.2440858056658213 -0.034863944644476473 0 -0.24221421249563549 -0.042882975661112668 0 -0.2440858056658213 -0.034863944644476473 0 -0.24221421249563549 -0.042882975661112668 0 -0.24774098130548611 -0.045152007103079442 0 -0.24774098130548611 -0.045152007103079442 0 -0.2412010438611682 -0.04489768694777669 0 -0.24221421249563549 -0.042882975661112668 0 -0.24774098130548611 -0.045152007103079442 0 -0.2412010438611682 -0.04489768694777669 0 -0.2347614667351636 -0.032959987100867033 0 -0.24221421249563549 -0.042882975661112668 0 -0.2412010438611682 -0.04489768694777669 0 -0.24221421249563549 -0.042882975661112668 0 -0.2412010438611682 -0.04489768694777669 0 -0.2439945728241126 -0.064939689346654811 0 -0.24774098130548611 -0.045152007103079442 0 -0.2439945728241126 -0.064939689346654811 0 -0.24774098130548611 -0.045152007103079442 0 -0.25572573773316237 -0.053227125558533442 0 -0.2439945728241126 -0.064939689346654811 0 -0.24774098130548611 -0.045152007103079442 0 -0.2412010438611682 -0.04489768694777669 0 -0.2297380873970678 -0.067692063896601512 0 -0.2412010438611682 -0.04489768694777669 0 -0.2439945728241126 -0.064939689346654811 0 -0.2297380873970678 -0.067692063896601512 0 -0.2412010438611682 -0.04489768694777669 0 -0.2297161767028757 -0.01276427073918516 0 -0.20803845558677481 0.00032958680966351309 0 -0.22774142163249911 0.0091431922092035378 0 -0.2297161767028757 -0.01276427073918516 0 -0.20803845558677481 0.00032958680966351309 0 -0.2297161767028757 -0.01276427073918516 0 -0.24204198335637811 -0.0026304284190125991 0 -0.22774142163249911 0.0091431922092035378 0 -0.2182832628110612 -0.02409044135282308 0 -0.2347614667351636 -0.032959987100867033 0 -0.2297161767028757 -0.01276427073918516 0 -0.2347614667351636 -0.032959987100867033 0 -0.2440858056658213 -0.034863944644476473 0 -0.25139389781897659 -0.025858128288033862 0 -0.2297161767028757 -0.01276427073918516 0 -0.25139389781897659 -0.025858128288033862 0 -0.2347614667351636 -0.032959987100867033 0 -0.2297161767028757 -0.01276427073918516 0 -0.25139389781897659 -0.025858128288033862 0 -0.2297161767028757 -0.01276427073918516 0 -0.24204198335637811 -0.0026304284190125991 0 -0.25139389781897659 -0.025858128288033862 0 -0.24204198335637811 -0.0026304284190125991 0 -0.25139389781897659 -0.025858128288033862 0 -0.25689548211398672 0.003199995621086429 0 -0.25139389781897659 -0.025858128288033862 0 -0.26984759387636559 -0.014041463527519501 0 -0.25689548211398672 0.003199995621086429 0 -0.25139389781897659 -0.025858128288033862 0 -0.25689548211398672 0.003199995621086429 0 -0.25139389781897659 -0.025858128288033862 0 -0.26675773112962292 -0.02552373069298047 0 -0.26727750325299909 -0.035452202582159593 0 -0.25139389781897659 -0.025858128288033862 0 -0.26727750325299909 -0.035452202582159593 0 -0.25139389781897659 -0.025858128288033862 0 -0.26675773112962292 -0.02552373069298047 0 -0.26984759387636559 -0.014041463527519501 0 -0.27851192957014997 -0.026743128374208891 0 -0.26984759387636559 -0.014041463527519501 0 -0.28864607908777817 -0.013410858519567959 0 -0.26675773112962292 -0.02552373069298047 0 -0.27851192957014997 -0.026743128374208891 0 -0.26727750325299909 -0.035452202582159593 0 -0.26675773112962292 -0.02552373069298047 0 -0.27851192957014997 -0.026743128374208891 0 -0.26984759387636559 -0.014041463527519501 0 -0.27990087635976602 -0.003018000538219144 0 -0.26984759387636559 -0.014041463527519501 0 -0.28864607908777817 -0.013410858519567959 0 -0.27990087635976602 -0.003018000538219144 0 -0.26984759387636559 -0.014041463527519501 0 -0.25689548211398672 0.003199995621086429 0 -0.28864607908777817 -0.013410858519567959 0 -0.3032781762320706 -0.0097023071216711578 0 -0.29743804133862511 0.003483344366603097 0 -0.27990087635976602 -0.003018000538219144 0 -0.28864607908777817 -0.013410858519567959 0 -0.29743804133862511 0.003483344366603097 0 -0.27851192957014997 -0.026743128374208891 0 -0.28864607908777817 -0.013410858519567959 0 -0.29885231162422943 -0.028394401401333209 0 -0.29885231162422943 -0.028394401401333209 0 -0.3032781762320706 -0.0097023071216711578 0 -0.31352446129195483 -0.018778397937512389 0 -0.29885231162422943 -0.028394401401333209 0 -0.31352446129195483 -0.018778397937512389 0 -0.31965502108147442 -0.035426996869095777 0 -0.28864607908777817 -0.013410858519567959 0 -0.29885231162422943 -0.028394401401333209 0 -0.3032781762320706 -0.0097023071216711578 0 -0.3032781762320706 -0.0097023071216711578 0 -0.31747393394203732 -0.001863909567955442 0 -0.29743804133862511 0.003483344366603097 0 -0.3032781762320706 -0.0097023071216711578 0 -0.31747393394203732 -0.001863909567955442 0 -0.31352446129195483 -0.018778397937512389 0 -0.30268311159776867 -0.051358972544276273 0 -0.29704198669421772 -0.07108551390525536 0 -0.32085389399589009 -0.060148233214039018 0 -0.29885231162422943 -0.028394401401333209 0 -0.30268311159776867 -0.051358972544276273 0 -0.31965502108147442 -0.035426996869095777 0 -0.27851192957014997 -0.026743128374208891 0 -0.29885231162422943 -0.028394401401333209 0 -0.28316110868702171 -0.045046276876285332 0 -0.29885231162422943 -0.028394401401333209 0 -0.30268311159776867 -0.051358972544276273 0 -0.28316110868702171 -0.045046276876285332 0 -0.30268311159776867 -0.051358972544276273 0 -0.28316110868702171 -0.045046276876285332 0 -0.2855689324071588 -0.060482121324474732 0 -0.30268311159776867 -0.051358972544276273 0 -0.2855689324071588 -0.060482121324474732 0 -0.29704198669421772 -0.07108551390525536 0 -0.2855689324071588 -0.060482121324474732 0 -0.27330184580748867 -0.049790191914642588 0 -0.26999151135174121 -0.059296009121439557 0 -0.28316110868702171 -0.045046276876285332 0 -0.2855689324071588 -0.060482121324474732 0 -0.27330184580748867 -0.049790191914642588 0 -0.27330184580748867 -0.049790191914642588 0 -0.26999151135174121 -0.059296009121439557 0 -0.26370898028782003 -0.05399611679630615 0 -0.27330184580748867 -0.049790191914642588 0 -0.26423017741157101 -0.045793226526082587 0 -0.26370898028782003 -0.05399611679630615 0 -0.28316110868702171 -0.045046276876285332 0 -0.27330184580748867 -0.049790191914642588 0 -0.26727750325299909 -0.035452202582159593 0 -0.28316110868702171 -0.045046276876285332 0 -0.26727750325299909 -0.035452202582159593 0 -0.27851192957014997 -0.026743128374208891 0 -0.28316110868702171 -0.045046276876285332 0 -0.26727750325299909 -0.035452202582159593 0 -0.27330184580748867 -0.049790191914642588 0 -0.26727750325299909 -0.035452202582159593 0 -0.26423017741157101 -0.045793226526082587 0 -0.24774098130548611 -0.045152007103079442 0 -0.26423017741157101 -0.045793226526082587 0 -0.25139389781897659 -0.025858128288033862 0 -0.26727750325299909 -0.035452202582159593 0 -0.25678487252697929 -0.037916338356032801 0 -0.24774098130548611 -0.045152007103079442 0 -0.26423017741157101 -0.045793226526082587 0 -0.25678487252697929 -0.037916338356032801 0 -0.24774098130548611 -0.045152007103079442 0 -0.25139389781897659 -0.025858128288033862 0 -0.25678487252697929 -0.037916338356032801 0 -0.26727750325299909 -0.035452202582159593 0 -0.26423017741157101 -0.045793226526082587 0 -0.25678487252697929 -0.037916338356032801 0 -0.24774098130548611 -0.045152007103079442 0 -0.26423017741157101 -0.045793226526082587 0 -0.25572573773316237 -0.053227125558533442 0 -0.25892856322235341 -0.062056514856587801 0 -0.26370898028782003 -0.05399611679630615 0 -0.25572573773316237 -0.053227125558533442 0 -0.26999151135174121 -0.059296009121439557 0 -0.25892856322235341 -0.062056514856587801 0 -0.26370898028782003 -0.05399611679630615 0 -0.26423017741157101 -0.045793226526082587 0 -0.26370898028782003 -0.05399611679630615 0 -0.25572573773316237 -0.053227125558533442 0 -0.2439945728241126 -0.064939689346654811 0 -0.25892856322235341 -0.062056514856587801 0 -0.25572573773316237 -0.053227125558533442 0 -0.25892856322235341 -0.062056514856587801 0 -0.25311922496262851 -0.076102733709373191 0 -0.2708571129416012 -0.084689668633171261 0 -0.2439945728241126 -0.064939689346654811 0 -0.25892856322235341 -0.062056514856587801 0 -0.25311922496262851 -0.076102733709373191 0 -0.2439945728241126 -0.064939689346654811 0 -0.25892856322235341 -0.062056514856587801 0 -0.25311922496262851 -0.076102733709373191 0 -0.25043698654984042 -0.09007265746859866 0 -0.2708571129416012 -0.084689668633171261 0 -0.25043698654984042 -0.09007265746859866 0 -0.2708571129416012 -0.084689668633171261 0 -0.25943706990829662 -0.10077879803539221 0 -0.2855689324071588 -0.060482121324474732 0 -0.26999151135174121 -0.059296009121439557 0 -0.2708571129416012 -0.084689668633171261 0 -0.26999151135174121 -0.059296009121439557 0 -0.25892856322235341 -0.062056514856587801 0 -0.2708571129416012 -0.084689668633171261 0 -0.26999151135174121 -0.059296009121439557 0 -0.2708571129416012 -0.084689668633171261 0 -0.25704994899653738 -0.1129371750871289 0 -0.27172271453146107 -0.110083328144903 0 -0.25924093494536249 -0.12760566462448369 0 -0.24589355376940389 -0.1197343415923325 0 -0.25704994899653738 -0.1129371750871289 0 -0.25924093494536249 -0.12760566462448369 0 -0.24589355376940389 -0.1197343415923325 0 -0.25924093494536249 -0.12760566462448369 0 -0.24589355376940389 -0.1197343415923325 0 -0.2471185865220428 -0.10611116084315959 0 -0.25704994899653738 -0.1129371750871289 0 -0.2471185865220428 -0.10611116084315959 0 -0.25043698654984042 -0.09007265746859866 0 -0.25943706990829662 -0.10077879803539221 0 -0.25704994899653738 -0.1129371750871289 0 -0.25943706990829662 -0.10077879803539221 0 -0.27172271453146107 -0.110083328144903 0 -0.2471185865220428 -0.10611116084315959 0 -0.25704994899653738 -0.1129371750871289 0 -0.25943706990829662 -0.10077879803539221 0 -0.2708571129416012 -0.084689668633171261 0 -0.25943706990829662 -0.10077879803539221 0 -0.27172271453146107 -0.110083328144903 0 -0.2708571129416012 -0.084689668633171261 0 -0.27172271453146107 -0.110083328144903 0 -0.2708571129416012 -0.084689668633171261 0 -0.27172271453146107 -0.110083328144903 0 -0.28672673625944589 -0.1021220064600224 0 -0.27172271453146107 -0.110083328144903 0 -0.27258831612132128 -0.13547698765663471 0 -0.27172271453146107 -0.110083328144903 0 -0.25924093494536249 -0.12760566462448369 0 -0.27258831612132128 -0.13547698765663471 0 -0.27172271453146107 -0.110083328144903 0 -0.28691958767254833 -0.1243973353974567 0 -0.27258831612132128 -0.13547698765663471 0 -0.28691958767254833 -0.1243973353974567 0 -0.28672673625944589 -0.1021220064600224 0 -0.30088212174597012 -0.1161029123977744 0 -0.27172271453146107 -0.110083328144903 0 -0.28691958767254833 -0.1243973353974567 0 -0.28672673625944589 -0.1021220064600224 0 -0.28672673625944589 -0.1021220064600224 0 -0.30088212174597012 -0.1161029123977744 0 -0.3026482693622623 -0.093063435996171007 0 -0.30088212174597012 -0.1161029123977744 0 -0.3026482693622623 -0.093063435996171007 0 -0.31697768559104722 -0.10979650810583511 0 -0.30088212174597012 -0.1161029123977744 0 -0.31697768559104722 -0.10979650810583511 0 -0.31337406678903817 -0.12870181871927189 0 -0.2855689324071588 -0.060482121324474732 0 -0.2708571129416012 -0.084689668633171261 0 -0.28856860753293723 -0.082288549263818955 0 -0.2855689324071588 -0.060482121324474732 0 -0.28856860753293723 -0.082288549263818955 0 -0.29704198669421772 -0.07108551390525536 0 -0.28672673625944589 -0.1021220064600224 0 -0.28856860753293723 -0.082288549263818955 0 -0.3026482693622623 -0.093063435996171007 0 -0.2708571129416012 -0.084689668633171261 0 -0.28672673625944589 -0.1021220064600224 0 -0.28856860753293723 -0.082288549263818955 0 -0.28856860753293723 -0.082288549263818955 0 -0.3026482693622623 -0.093063435996171007 0 -0.29704198669421772 -0.07108551390525536 0 -0.3026482693622623 -0.093063435996171007 0 -0.29704198669421772 -0.07108551390525536 0 -0.31385725052879498 -0.077435565373216539 0 -0.29704198669421772 -0.07108551390525536 0 -0.31385725052879498 -0.077435565373216539 0 -0.32085389399589009 -0.060148233214039018 0 -0.31385725052879498 -0.077435565373216539 0 -0.32952678568074212 -0.073362134767917184 0 -0.32085389399589009 -0.060148233214039018 0 -0.3026482693622623 -0.093063435996171007 0 -0.31385725052879498 -0.077435565373216539 0 -0.32328085854762778 -0.088614874437333235 0 -0.31385725052879498 -0.077435565373216539 0 -0.32328085854762778 -0.088614874437333235 0 -0.32952678568074212 -0.073362134767917184 0 -0.32328085854762778 -0.088614874437333235 0 -0.34124845310711172 -0.082541008824658355 0 -0.32952678568074212 -0.073362134767917184 0 -0.32328085854762778 -0.088614874437333235 0 -0.34124845310711172 -0.082541008824658355 0 -0.33410343398993619 -0.1070110256589776 0 -0.32952678568074212 -0.073362134767917184 0 -0.34839347222428613 -0.058070991990338737 0 -0.32085389399589009 -0.060148233214039018 0 -0.34124845310711172 -0.082541008824658355 0 -0.32952678568074212 -0.073362134767917184 0 -0.34839347222428613 -0.058070991990338737 0 -0.31697768559104722 -0.10979650810583511 0 -0.32776596992639673 -0.12871535559547581 0 -0.31337406678903817 -0.12870181871927189 0 -0.31697768559104722 -0.10979650810583511 0 -0.33410343398993619 -0.1070110256589776 0 -0.32776596992639673 -0.12871535559547581 0 -0.3026482693622623 -0.093063435996171007 0 -0.32328085854762778 -0.088614874437333235 0 -0.31697768559104722 -0.10979650810583511 0 -0.32328085854762778 -0.088614874437333235 0 -0.31697768559104722 -0.10979650810583511 0 -0.33410343398993619 -0.1070110256589776 0 -0.34124845310711172 -0.082541008824658355 0 -0.33410343398993619 -0.1070110256589776 0 -0.34124845310711172 -0.082541008824658355 0 -0.33410343398993619 -0.1070110256589776 0 -0.34672362387192951 -0.097417856408277576 0 -0.32328085854762778 -0.088614874437333235 0 -0.33410343398993619 -0.1070110256589776 0 -0.33410343398993619 -0.1070110256589776 0 -0.32776596992639673 -0.12871535559547581 0 -0.34828425737083929 -0.13111550732816921 0 -0.33410343398993619 -0.1070110256589776 0 -0.32776596992639673 -0.12871535559547581 0 -0.33410343398993619 -0.1070110256589776 0 -0.34828425737083929 -0.13111550732816921 0 -0.35474955368110678 -0.1110883552882854 0 -0.37069913304914098 -0.1193632437614618 0 -0.34828425737083929 -0.13111550732816921 0 -0.33410343398993619 -0.1070110256589776 0 -0.35474955368110678 -0.1110883552882854 0 -0.34828425737083929 -0.13111550732816921 0 -0.33410343398993619 -0.1070110256589776 0 -0.35474955368110678 -0.1110883552882854 0 -0.34672362387192951 -0.097417856408277576 0 -0.35474955368110678 -0.1110883552882854 0 -0.34672362387192951 -0.097417856408277576 0 -0.36915259797164529 -0.090060442986693245 0 -0.35474955368110678 -0.1110883552882854 0 -0.37069913304914098 -0.1193632437614618 0 -0.36915259797164529 -0.090060442986693245 0 -0.34124845310711172 -0.082541008824658355 0 -0.34839347222428613 -0.058070991990338737 0 -0.34124845310711172 -0.082541008824658355 0 -0.35668696764917701 -0.075630806224267808 0 -0.34839347222428613 -0.058070991990338737 0 -0.35668696764917701 -0.075630806224267808 0 -0.37298475090107491 -0.064843214874260341 0 -0.34839347222428613 -0.058070991990338737 0 -0.34124845310711172 -0.082541008824658355 0 -0.34672362387192951 -0.097417856408277576 0 -0.35668696764917701 -0.075630806224267808 0 -0.34672362387192951 -0.097417856408277576 0 -0.35668696764917701 -0.075630806224267808 0 -0.36915259797164529 -0.090060442986693245 0 -0.35668696764917701 -0.075630806224267808 0 -0.36915259797164529 -0.090060442986693245 0 -0.37298475090107491 -0.064843214874260341 0 -0.37298475090107491 -0.064843214874260341 0 -0.36852919634310399 -0.047257105603825837 0 -0.34839347222428613 -0.058070991990338737 0 -0.34839347222428613 -0.058070991990338737 0 -0.35553849134146043 -0.033600975156019279 0 -0.34839347222428613 -0.058070991990338737 0 -0.35553849134146043 -0.033600975156019279 0 -0.33645411096473232 -0.042906284237312048 0 -0.36852919634310399 -0.047257105603825837 0 -0.34839347222428613 -0.058070991990338737 0 -0.35553849134146043 -0.033600975156019279 0 -0.36852919634310399 -0.047257105603825837 0 -0.35553849134146043 -0.033600975156019279 0 -0.37619206704044378 -0.03054928226226088 0 -0.35553849134146043 -0.033600975156019279 0 -0.36268351045863201 -0.0091309583216990682 0 -0.37619206704044378 -0.03054928226226088 0 -0.36268351045863201 -0.0091309583216990682 0 -0.38509976353395808 -0.012849838875288179 0 -0.37619206704044378 -0.03054928226226088 0 -0.36268351045863201 -0.0091309583216990682 0 -0.38509976353395808 -0.012849838875288179 0 -0.37627368421505869 -0.0010685545029741181 0 -0.36268351045863201 -0.0091309583216990682 0 -0.38509976353395808 -0.012849838875288179 0 -0.36268351045863201 -0.0091309583216990682 0 -0.34463919580281849 -0.0061373870655722172 0 -0.36268351045863201 -0.0091309583216990682 0 -0.34463919580281849 -0.0061373870655722172 0 -0.35332273029837558 0.00088249528103173278 0 -0.36268351045863201 -0.0091309583216990682 0 -0.34463919580281849 -0.0061373870655722172 0 -0.3477260740399486 -0.018112541677388919 0 -0.36268351045863201 -0.0091309583216990682 0 -0.35332273029837558 0.00088249528103173278 0 -0.35978811967700752 0.0064522657015292717 0 -0.34463919580281849 -0.0061373870655722172 0 -0.35332273029837558 0.00088249528103173278 0 -0.34726460473325371 0.0047143686437314822 0 -0.35553849134146043 -0.033600975156019279 0 -0.36268351045863201 -0.0091309583216990682 0 -0.35553849134146043 -0.033600975156019279 0 -0.36268351045863201 -0.0091309583216990682 0 -0.3477260740399486 -0.018112541677388919 0 -0.35553849134146043 -0.033600975156019279 0 -0.3477260740399486 -0.018112541677388919 0 -0.33782967618055049 -0.02728422395706737 0 -0.3477260740399486 -0.018112541677388919 0 -0.33782967618055049 -0.02728422395706737 0 -0.3378903018471634 -0.014739590961638949 0 -0.33782967618055049 -0.02728422395706737 0 -0.3378903018471634 -0.014739590961638949 0 -0.3266449523055181 -0.016969946119117538 0 -0.34463919580281849 -0.0061373870655722172 0 -0.3326116109069811 -0.005193855989048729 0 -0.33994319695020792 0.0081901150208087414 0 -0.34463919580281849 -0.0061373870655722172 0 -0.3477260740399486 -0.018112541677388919 0 -0.3378903018471634 -0.014739590961638949 0 -0.34463919580281849 -0.0061373870655722172 0 -0.3378903018471634 -0.014739590961638949 0 -0.3326116109069811 -0.005193855989048729 0 -0.3378903018471634 -0.014739590961638949 0 -0.3326116109069811 -0.005193855989048729 0 -0.3266449523055181 -0.016969946119117538 0 -0.31747393394203732 -0.001863909567955442 0 -0.31352446129195483 -0.018778397937512389 0 -0.3266449523055181 -0.016969946119117538 0 -0.3326116109069811 -0.005193855989048729 0 -0.31747393394203732 -0.001863909567955442 0 -0.3266449523055181 -0.016969946119117538 0 -0.33782967618055049 -0.02728422395706737 0 -0.3266449523055181 -0.016969946119117538 0 -0.31965502108147442 -0.035426996869095777 0 -0.31352446129195483 -0.018778397937512389 0 -0.3266449523055181 -0.016969946119117538 0 -0.31965502108147442 -0.035426996869095777 0 -0.31965502108147442 -0.035426996869095777 0 -0.32085389399589009 -0.060148233214039018 0 -0.33645411096473232 -0.042906284237312048 0 -0.30268311159776867 -0.051358972544276273 0 -0.31965502108147442 -0.035426996869095777 0 -0.32085389399589009 -0.060148233214039018 0 -0.34839347222428613 -0.058070991990338737 0 -0.32085389399589009 -0.060148233214039018 0 -0.33645411096473232 -0.042906284237312048 0 -0.35553849134146043 -0.033600975156019279 0 -0.33782967618055049 -0.02728422395706737 0 -0.33645411096473232 -0.042906284237312048 0 -0.33782967618055049 -0.02728422395706737 0 -0.31965502108147442 -0.035426996869095777 0 -0.33645411096473232 -0.042906284237312048 0 -0.3085243477061943 -0.2292725517163873 0 -0.29369191903251463 -0.2475732242945802 0 -0.31524025484529539 -0.24633488066413101 0 -0.3085243477061943 -0.2292725517163873 0 -0.31524025484529539 -0.24633488066413101 0 -0.3085243477061943 -0.2292725517163873 0 -0.29268355817580632 -0.2303963642524004 0 -0.29369191903251463 -0.2475732242945802 0 -0.29369191903251463 -0.2475732242945802 0 -0.31524025484529539 -0.24633488066413101 0 -0.3085243477061943 -0.2292725517163873 0 -0.30180844056708989 -0.21221022276864501 0 -0.3085243477061943 -0.2292725517163873 0 -0.29716255850380452 -0.22126142711986721 0 -0.30180844056708989 -0.21221022276864501 0 -0.3085243477061943 -0.2292725517163873 0 -0.29716255850380452 -0.22126142711986721 0 -0.29268355817580632 -0.2303963642524004 0 -0.29716255850380452 -0.22126142711986721 0 -0.29268355817580632 -0.2303963642524004 0 -0.28922522440413762 -0.21489689667812911 0 -0.29268355817580632 -0.2303963642524004 0 -0.27910567481445547 -0.22392715143847061 0 -0.28922522440413762 -0.21489689667812911 0 -0.29268355817580632 -0.2303963642524004 0 -0.28148487981085663 -0.2364808600764359 0 -0.27910567481445547 -0.22392715143847061 0 -0.29268355817580632 -0.2303963642524004 0 -0.28148487981085663 -0.2364808600764359 0 -0.29369191903251463 -0.2475732242945802 0 -0.28148487981085663 -0.2364808600764359 0 -0.29369191903251463 -0.2475732242945802 0 -0.27214358321973381 -0.24881156792502829 0 -0.29369191903251463 -0.2475732242945802 0 -0.27214358321973381 -0.24881156792502829 0 -0.28148487981085663 -0.2364808600764359 0 -0.27214358321973381 -0.24881156792502829 0 -0.26979966381177273 -0.23169599247169989 0 -0.27214358321973381 -0.24881156792502829 0 -0.25745970649811001 -0.23572969511482039 0 -0.26979966381177273 -0.23169599247169989 0 -0.25059524740695288 -0.25004991155547401 0 -0.27214358321973381 -0.24881156792502829 0 -0.25745970649811001 -0.23572969511482039 0 -0.25059524740695288 -0.25004991155547401 0 -0.27214358321973381 -0.24881156792502829 0 -0.25059524740695288 -0.25004991155547401 0 -0.25745970649811001 -0.23572969511482039 0 -0.25059524740695288 -0.25004991155547401 0 -0.24552422698312379 -0.2457455520674697 0 -0.25745970649811001 -0.23572969511482039 0 -0.24642641019704661 -0.22247541380929459 0 -0.26280270753508439 -0.22041879566708961 0 -0.25392376853803972 -0.21594652707730211 0 -0.24642641019704661 -0.22247541380929459 0 -0.25745970649811001 -0.23572969511482039 0 -0.26280270753508439 -0.22041879566708961 0 -0.25745970649811001 -0.23572969511482039 0 -0.26280270753508439 -0.22041879566708961 0 -0.26979966381177273 -0.23169599247169989 0 -0.26280270753508439 -0.22041879566708961 0 -0.26979966381177273 -0.23169599247169989 0 -0.27910567481445547 -0.22392715143847061 0 -0.28148487981085663 -0.2364808600764359 0 -0.26979966381177273 -0.23169599247169989 0 -0.27910567481445547 -0.22392715143847061 0 -0.26280270753508439 -0.22041879566708961 0 -0.27910567481445547 -0.22392715143847061 0 -0.27864958990498762 -0.21186127747667721 0 -0.26280270753508439 -0.22041879566708961 0 -0.27864958990498762 -0.21186127747667721 0 -0.26963823647458091 -0.20762251640780241 0 -0.27864958990498762 -0.21186127747667721 0 -0.26963823647458091 -0.20762251640780241 0 -0.27659761642188579 -0.19489317041072141 0 -0.27864958990498762 -0.21186127747667721 0 -0.27659761642188579 -0.19489317041072141 0 -0.28498880591566472 -0.2063263844377588 0 -0.26280270753508439 -0.22041879566708961 0 -0.26963823647458091 -0.20762251640780241 0 -0.25521199120448118 -0.20608867607345219 0 -0.26963823647458091 -0.20762251640780241 0 -0.25521199120448118 -0.20608867607345219 0 -0.26291631574761742 -0.20223568956292459 0 -0.24112825112839739 -0.21032916605117341 0 -0.25521199120448118 -0.20608867607345219 0 -0.25392376853803972 -0.21594652707730211 0 -0.26280270753508439 -0.22041879566708961 0 -0.25521199120448118 -0.20608867607345219 0 -0.25392376853803972 -0.21594652707730211 0 -0.2491857197856916 -0.1881539994391043 0 -0.25501515517804491 -0.19095376764027111 0 -0.25771243991212323 -0.18613214763593611 0 -0.25501515517804491 -0.19095376764027111 0 -0.25639398483018189 -0.1973164856736104 0 -0.25920039950311308 -0.19272739351284099 0 -0.25501515517804491 -0.19095376764027111 0 -0.25920039950311308 -0.19272739351284099 0 -0.25823202173599702 -0.18774225890687229 0 -0.25501515517804491 -0.19095376764027111 0 -0.25823202173599702 -0.18774225890687229 0 -0.25771243991212323 -0.18613214763593611 0 -0.2491857197856916 -0.1881539994391043 0 -0.25501515517804491 -0.19095376764027111 0 -0.25028721978338742 -0.19371089023616611 0 -0.25501515517804491 -0.19095376764027111 0 -0.25028721978338742 -0.19371089023616611 0 -0.25639398483018189 -0.1973164856736104 0 -0.24725779665830391 -0.20054974283342891 0 -0.25028721978338742 -0.19371089023616611 0 -0.25639398483018189 -0.1973164856736104 0 -0.24725779665830391 -0.20054974283342891 0 -0.25521199120448118 -0.20608867607345219 0 -0.25639398483018189 -0.1973164856736104 0 -0.25521199120448118 -0.20608867607345219 0 -0.25639398483018189 -0.1973164856736104 0 -0.26291631574761742 -0.20223568956292459 0 -0.25639398483018189 -0.1973164856736104 0 -0.26291631574761742 -0.20223568956292459 0 -0.26415737924756189 -0.1938308763412524 0 -0.25639398483018189 -0.1973164856736104 0 -0.26415737924756189 -0.1938308763412524 0 -0.25920039950311308 -0.19272739351284099 0 -0.26415737924756189 -0.1938308763412524 0 -0.25920039950311308 -0.19272739351284099 0 -0.25823202173599702 -0.18774225890687229 0 -0.26415737924756189 -0.1938308763412524 0 -0.25823202173599702 -0.18774225890687229 0 -0.25771243991212323 -0.18613214763593611 0 -0.27659761642188579 -0.19489317041072141 0 -0.26867338761555221 -0.183528203843212 0 -0.25771243991212323 -0.18613214763593611 0 -0.27659761642188579 -0.19489317041072141 0 -0.25771243991212323 -0.18613214763593611 0 -0.26415737924756189 -0.1938308763412524 0 -0.27659761642188579 -0.19489317041072141 0 -0.25771243991212323 -0.18613214763593611 0 -0.26963823647458091 -0.20762251640780241 0 -0.26291631574761742 -0.20223568956292459 0 -0.27659761642188579 -0.19489317041072141 0 -0.26291631574761742 -0.20223568956292459 0 -0.26415737924756189 -0.1938308763412524 0 -0.27659761642188579 -0.19489317041072141 0 -0.28878582660110252 -0.18797366605675611 0 -0.29548279293164792 -0.20365419318550751 0 -0.30176291824961349 -0.18877021426840621 0 -0.27659761642188579 -0.19489317041072141 0 -0.29548279293164792 -0.20365419318550751 0 -0.27659761642188579 -0.19489317041072141 0 -0.28498880591566472 -0.2063263844377588 0 -0.29548279293164792 -0.20365419318550751 0 -0.27659761642188579 -0.19489317041072141 0 -0.28878582660110252 -0.18797366605675611 0 -0.29548279293164792 -0.20365419318550751 0 -0.27910567481445547 -0.22392715143847061 0 -0.27864958990498762 -0.21186127747667721 0 -0.28922522440413762 -0.21489689667812911 0 -0.27864958990498762 -0.21186127747667721 0 -0.28498880591566472 -0.2063263844377588 0 -0.28922522440413762 -0.21489689667812911 0 -0.29716255850380452 -0.22126142711986721 0 -0.28922522440413762 -0.21489689667812911 0 -0.30180844056708989 -0.21221022276864501 0 -0.28922522440413762 -0.21489689667812911 0 -0.29548279293164792 -0.20365419318550751 0 -0.30180844056708989 -0.21221022276864501 0 -0.28498880591566472 -0.2063263844377588 0 -0.28922522440413762 -0.21489689667812911 0 -0.29548279293164792 -0.20365419318550751 0 -0.30180844056708989 -0.21221022276864501 0 -0.30700966831135318 -0.20174849361848499 0 -0.31773218693866928 -0.21073918432407099 0 -0.29548279293164792 -0.20365419318550751 0 -0.30180844056708989 -0.21221022276864501 0 -0.30700966831135318 -0.20174849361848499 0 -0.3085243477061943 -0.2292725517163873 0 -0.30180844056708989 -0.21221022276864501 0 -0.31773218693866928 -0.21073918432407099 0 -0.30700966831135318 -0.20174849361848499 0 -0.30176291824961349 -0.18877021426840621 0 -0.31694374266810132 -0.1934805085965946 0 -0.29548279293164792 -0.20365419318550751 0 -0.30700966831135318 -0.20174849361848499 0 -0.30176291824961349 -0.18877021426840621 0 -0.30176291824961349 -0.18877021426840621 0 -0.31509104179931519 -0.1721240154684717 0 -0.31694374266810132 -0.1934805085965946 0 -0.30176291824961349 -0.18877021426840621 0 -0.29321913079893408 -0.17436233905145371 0 -0.31509104179931519 -0.1721240154684717 0 -0.30382988962468832 -0.15789455923531909 0 -0.29321913079893408 -0.17436233905145371 0 -0.31509104179931519 -0.1721240154684717 0 -0.30382988962468832 -0.15789455923531909 0 -0.29321913079893408 -0.17436233905145371 0 -0.29152014952297101 -0.1544288344440399 0 -0.29321913079893408 -0.17436233905145371 0 -0.27686667460343128 -0.1781884133676914 0 -0.27899515186531532 -0.1589408019048664 0 -0.29321913079893408 -0.17436233905145371 0 -0.27899515186531532 -0.1589408019048664 0 -0.29152014952297101 -0.1544288344440399 0 -0.29321913079893408 -0.17436233905145371 0 -0.27899515186531532 -0.1589408019048664 0 -0.28878582660110252 -0.18797366605675611 0 -0.29321913079893408 -0.17436233905145371 0 -0.27686667460343128 -0.1781884133676914 0 -0.28878582660110252 -0.18797366605675611 0 -0.30176291824961349 -0.18877021426840621 0 -0.29321913079893408 -0.17436233905145371 0 -0.27659761642188579 -0.19489317041072141 0 -0.27686667460343128 -0.1781884133676914 0 -0.26867338761555221 -0.183528203843212 0 -0.27659761642188579 -0.19489317041072141 0 -0.28878582660110252 -0.18797366605675611 0 -0.27686667460343128 -0.1781884133676914 0 -0.27686667460343128 -0.1781884133676914 0 -0.26867338761555221 -0.183528203843212 0 -0.26351681952476841 -0.1748990839584991 0 -0.27686667460343128 -0.1781884133676914 0 -0.26351681952476841 -0.1748990839584991 0 -0.26921393918814718 -0.16713817941902021 0 -0.26351681952476841 -0.1748990839584991 0 -0.25771243991212323 -0.18613214763593611 0 -0.25101716404961671 -0.16538442584721061 0 -0.26867338761555221 -0.183528203843212 0 -0.26351681952476841 -0.1748990839584991 0 -0.25771243991212323 -0.18613214763593611 0 -0.25771243991212323 -0.18613214763593611 0 -0.25101716404961671 -0.16538442584721061 0 -0.25823202173599702 -0.18774225890687229 0 -0.25771243991212323 -0.18613214763593611 0 -0.25101716404961671 -0.16538442584721061 0 -0.26061455107100417 -0.16580273493571951 0 -0.25607245445027549 -0.15330591863931409 0 -0.25101716404961671 -0.16538442584721061 0 -0.26061455107100417 -0.16580273493571951 0 -0.26351681952476841 -0.1748990839584991 0 -0.25101716404961671 -0.16538442584721061 0 -0.26061455107100417 -0.16580273493571951 0 -0.26351681952476841 -0.1748990839584991 0 -0.26061455107100417 -0.16580273493571951 0 -0.26921393918814718 -0.16713817941902021 0 -0.26061455107100417 -0.16580273493571951 0 -0.2660764988762172 -0.1578598629283248 0 -0.26921393918814718 -0.16713817941902021 0 -0.26061455107100417 -0.16580273493571951 0 -0.2660764988762172 -0.1578598629283248 0 -0.25607245445027549 -0.15330591863931409 0 -0.2660764988762172 -0.1578598629283248 0 -0.26921393918814718 -0.16713817941902021 0 -0.27899515186531532 -0.1589408019048664 0 -0.2660764988762172 -0.1578598629283248 0 -0.27899515186531532 -0.1589408019048664 0 -0.26877412714516258 -0.1535196640741652 0 -0.27686667460343128 -0.1781884133676914 0 -0.26921393918814718 -0.16713817941902021 0 -0.27899515186531532 -0.1589408019048664 0 -0.27899515186531532 -0.1589408019048664 0 -0.27292473703945441 -0.14534637600778291 0 -0.2855913858661086 -0.14314526063254729 0 -0.27292473703945441 -0.14534637600778291 0 -0.27258831612132128 -0.13547698765663471 0 -0.2855913858661086 -0.14314526063254729 0 -0.27292473703945441 -0.14534637600778291 0 -0.2678244514333542 -0.1468296076694949 0 -0.26477117293169677 -0.14351926475827911 0 -0.27292473703945441 -0.14534637600778291 0 -0.26477117293169677 -0.14351926475827911 0 -0.27258831612132128 -0.13547698765663471 0 -0.2678244514333542 -0.1468296076694949 0 -0.26477117293169677 -0.14351926475827911 0 -0.27899515186531532 -0.1589408019048664 0 -0.2678244514333542 -0.1468296076694949 0 -0.26877412714516258 -0.1535196640741652 0 -0.27899515186531532 -0.1589408019048664 0 -0.2678244514333542 -0.1468296076694949 0 -0.27899515186531532 -0.1589408019048664 0 -0.27292473703945441 -0.14534637600778291 0 -0.2678244514333542 -0.1468296076694949 0 -0.2678244514333542 -0.1468296076694949 0 -0.26877412714516258 -0.1535196640741652 0 -0.26244631507818761 -0.1502215711395094 0 -0.2660764988762172 -0.1578598629283248 0 -0.26877412714516258 -0.1535196640741652 0 -0.26244631507818761 -0.1502215711395094 0 -0.2660764988762172 -0.1578598629283248 0 -0.26244631507818761 -0.1502215711395094 0 -0.25607245445027549 -0.15330591863931409 0 -0.2678244514333542 -0.1468296076694949 0 -0.26244631507818761 -0.1502215711395094 0 -0.26477117293169677 -0.14351926475827911 0 -0.26244631507818761 -0.1502215711395094 0 -0.26477117293169677 -0.14351926475827911 0 -0.25345957737028418 -0.1422243138163761 0 -0.24252248370888921 -0.13906060170419321 0 -0.25345957737028418 -0.1422243138163761 0 -0.25607245445027549 -0.15330591863931409 0 -0.26244631507818761 -0.1502215711395094 0 -0.25345957737028418 -0.1422243138163761 0 -0.25607245445027549 -0.15330591863931409 0 -0.24589355376940389 -0.1197343415923325 0 -0.2519772804193724 -0.12964821717384239 0 -0.25533236335055048 -0.13162680317530559 0 -0.24589355376940389 -0.1197343415923325 0 -0.25533236335055048 -0.13162680317530559 0 -0.24589355376940389 -0.1197343415923325 0 -0.25533236335055048 -0.13162680317530559 0 -0.25924093494536249 -0.12760566462448369 0 -0.26477117293169677 -0.14351926475827911 0 -0.25345957737028418 -0.1422243138163761 0 -0.2519772804193724 -0.12964821717384239 0 -0.26477117293169677 -0.14351926475827911 0 -0.2519772804193724 -0.12964821717384239 0 -0.25533236335055048 -0.13162680317530559 0 -0.26477117293169677 -0.14351926475827911 0 -0.2519772804193724 -0.12964821717384239 0 -0.26477117293169677 -0.14351926475827911 0 -0.25533236335055048 -0.13162680317530559 0 -0.26477117293169677 -0.14351926475827911 0 -0.25533236335055048 -0.13162680317530559 0 -0.26300902357511358 -0.13487426756197321 0 -0.26300902357511358 -0.13487426756197321 0 -0.25924093494536249 -0.12760566462448369 0 -0.27258831612132128 -0.13547698765663471 0 -0.25533236335055048 -0.13162680317530559 0 -0.26300902357511358 -0.13487426756197321 0 -0.25924093494536249 -0.12760566462448369 0 -0.25924093494536249 -0.12760566462448369 0 -0.27258831612132128 -0.13547698765663471 0 -0.27292473703945441 -0.14534637600778291 0 -0.27258831612132128 -0.13547698765663471 0 -0.26477117293169677 -0.14351926475827911 0 -0.26300902357511358 -0.13487426756197321 0 -0.27258831612132128 -0.13547698765663471 0 -0.27258831612132128 -0.13547698765663471 0 -0.2855913858661086 -0.14314526063254729 0 -0.28691958767254833 -0.1243973353974567 0 -0.27258831612132128 -0.13547698765663471 0 -0.2855913858661086 -0.14314526063254729 0 -0.28691958767254833 -0.1243973353974567 0 -0.2855913858661086 -0.14314526063254729 0 -0.29981605081892121 -0.13847463196530049 0 -0.28691958767254833 -0.1243973353974567 0 -0.30088212174597012 -0.1161029123977744 0 -0.29981605081892121 -0.13847463196530049 0 -0.27899515186531532 -0.1589408019048664 0 -0.2855913858661086 -0.14314526063254729 0 -0.29152014952297101 -0.1544288344440399 0 -0.2855913858661086 -0.14314526063254729 0 -0.29152014952297101 -0.1544288344440399 0 -0.29981605081892121 -0.13847463196530049 0 -0.30382988962468832 -0.15789455923531909 0 -0.29981605081892121 -0.13847463196530049 0 -0.32142850586285587 -0.1504196855319738 0 -0.30382988962468832 -0.15789455923531909 0 -0.29152014952297101 -0.1544288344440399 0 -0.29981605081892121 -0.13847463196530049 0 -0.30088212174597012 -0.1161029123977744 0 -0.29981605081892121 -0.13847463196530049 0 -0.31337406678903817 -0.12870181871927189 0 -0.29981605081892121 -0.13847463196530049 0 -0.31337406678903817 -0.12870181871927189 0 -0.32142850586285587 -0.1504196855319738 0 -0.32776596992639673 -0.12871535559547581 0 -0.32142850586285587 -0.1504196855319738 0 -0.32776596992639673 -0.12871535559547581 0 -0.31337406678903817 -0.12870181871927189 0 -0.32142850586285587 -0.1504196855319738 0 -0.32776596992639673 -0.12871535559547581 0 -0.32142850586285587 -0.1504196855319738 0 -0.33971637632833412 -0.14614911380185799 0 -0.32142850586285587 -0.1504196855319738 0 -0.33971637632833412 -0.14614911380185799 0 -0.33863806772983529 -0.1652750315563106 0 -0.32776596992639673 -0.12871535559547581 0 -0.33971637632833412 -0.14614911380185799 0 -0.34828425737083929 -0.13111550732816921 0 -0.37069913304914098 -0.1193632437614618 0 -0.34828425737083929 -0.13111550732816921 0 -0.37181420420414552 -0.13907949230613811 0 -0.34828425737083929 -0.13111550732816921 0 -0.37181420420414552 -0.13907949230613811 0 -0.36246508075174338 -0.15521998899736059 0 -0.37181420420414552 -0.13907949230613811 0 -0.36246508075174338 -0.15521998899736059 0 -0.37973921558413981 -0.15610333814278929 0 -0.34828425737083929 -0.13111550732816921 0 -0.36246508075174338 -0.15521998899736059 0 -0.33971637632833412 -0.14614911380185799 0 -0.36246508075174338 -0.15521998899736059 0 -0.33863806772983529 -0.1652750315563106 0 -0.33971637632833412 -0.14614911380185799 0 -0.34828425737083929 -0.13111550732816921 0 -0.36246508075174338 -0.15521998899736059 0 -0.36246508075174338 -0.15521998899736059 0 -0.35859449454169079 -0.1739350696739469 0 -0.33863806772983529 -0.1652750315563106 0 -0.36246508075174338 -0.15521998899736059 0 -0.35859449454169079 -0.1739350696739469 0 -0.37664590413264742 -0.17932447066655191 0 -0.36246508075174338 -0.15521998899736059 0 -0.3767367244195971 -0.16916247886528729 0 -0.37973921558413981 -0.15610333814278929 0 -0.36246508075174338 -0.15521998899736059 0 -0.37664590413264742 -0.17932447066655191 0 -0.3767367244195971 -0.16916247886528729 0 -0.36246508075174338 -0.15521998899736059 0 -0.37664590413264742 -0.17932447066655191 0 -0.35859449454169079 -0.1739350696739469 0 -0.36431841656752528 -0.19204025029311059 0 -0.37664590413264742 -0.17932447066655191 0 -0.35859449454169079 -0.1739350696739469 0 -0.34616430869445369 -0.18103341540521681 0 -0.33863806772983529 -0.1652750315563106 0 -0.35859449454169079 -0.1739350696739469 0 -0.34616430869445369 -0.18103341540521681 0 -0.36431841656752528 -0.19204025029311059 0 -0.34616430869445369 -0.18103341540521681 0 -0.33052231421169548 -0.1820648578646408 0 -0.33863806772983529 -0.1652750315563106 0 -0.34616430869445369 -0.18103341540521681 0 -0.33052231421169548 -0.1820648578646408 0 -0.33577441016677179 -0.19841131829661041 0 -0.30382988962468832 -0.15789455923531909 0 -0.32142850586285587 -0.1504196855319738 0 -0.31509104179931519 -0.1721240154684717 0 -0.32142850586285587 -0.1504196855319738 0 -0.31509104179931519 -0.1721240154684717 0 -0.32142850586285587 -0.1504196855319738 0 -0.33863806772983529 -0.1652750315563106 0 -0.31509104179931519 -0.1721240154684717 0 -0.33052231421169548 -0.1820648578646408 0 -0.33863806772983529 -0.1652750315563106 0 -0.31509104179931519 -0.1721240154684717 0 -0.33052231421169548 -0.1820648578646408 0 -0.31509104179931519 -0.1721240154684717 0 -0.31694374266810132 -0.1934805085965946 0 -0.31694374266810132 -0.1934805085965946 0 -0.31773218693866928 -0.21073918432407099 0 -0.33577441016677179 -0.19841131829661041 0 -0.33052231421169548 -0.1820648578646408 0 -0.31694374266810132 -0.1934805085965946 0 -0.33577441016677179 -0.19841131829661041 0 -0.30700966831135318 -0.20174849361848499 0 -0.31694374266810132 -0.1934805085965946 0 -0.31773218693866928 -0.21073918432407099 0 -0.33259532744413378 -0.2166397526803078 0 -0.33577441016677179 -0.19841131829661041 0 -0.35865239293275869 -0.20889191329427259 0 -0.31773218693866928 -0.21073918432407099 0 -0.33259532744413378 -0.2166397526803078 0 -0.33577441016677179 -0.19841131829661041 0 -0.33577441016677179 -0.19841131829661041 0 -0.3512273820903774 -0.19509422432230261 0 -0.35865239293275869 -0.20889191329427259 0 -0.34616430869445369 -0.18103341540521681 0 -0.3512273820903774 -0.19509422432230261 0 -0.36431841656752528 -0.19204025029311059 0 -0.34616430869445369 -0.18103341540521681 0 -0.33577441016677179 -0.19841131829661041 0 -0.3512273820903774 -0.19509422432230261 0 -0.3512273820903774 -0.19509422432230261 0 -0.36431841656752528 -0.19204025029311059 0 -0.35865239293275869 -0.20889191329427259 0 -0.36431841656752528 -0.19204025029311059 0 -0.38247220718319669 -0.19540894349030219 0 -0.37664590413264742 -0.17932447066655191 0 -0.36431841656752528 -0.19204025029311059 0 -0.37485919850859029 -0.21196428797885281 0 -0.38247220718319669 -0.19540894349030219 0 -0.36431841656752528 -0.19204025029311059 0 -0.37485919850859029 -0.21196428797885281 0 -0.35865239293275869 -0.20889191329427259 0 -0.35865239293275869 -0.20889191329427259 0 -0.37629778282157778 -0.22839689301730209 0 -0.37485919850859029 -0.21196428797885281 0 -0.35865239293275869 -0.20889191329427259 0 -0.37629778282157778 -0.22839689301730209 0 -0.33259532744413378 -0.2166397526803078 0 -0.35865239293275869 -0.20889191329427259 0 -0.34735532009705572 -0.230742880243656 0 -0.35865239293275869 -0.20889191329427259 0 -0.34735532009705572 -0.230742880243656 0 -0.36287334423252537 -0.22874608457151449 0 -0.34735532009705572 -0.230742880243656 0 -0.36287334423252537 -0.22874608457151449 0 -0.36176030056738112 -0.23892828214078121 0 -0.35865239293275869 -0.20889191329427259 0 -0.36287334423252537 -0.22874608457151449 0 -0.37629778282157778 -0.22839689301730209 0 -0.36287334423252537 -0.22874608457151449 0 -0.37050008163678078 -0.23809478566740069 0 -0.37629778282157778 -0.22839689301730209 0 -0.36844635146733168 -0.24423300206222681 0 -0.37474812662003493 -0.2480042625025452 0 -0.36512292251027972 -0.2486019884582186 0 -0.36844635146733168 -0.24423300206222681 0 -0.37474812662003493 -0.2480042625025452 0 -0.37341214803636152 -0.24385494685862261 0 -0.37341214803636152 -0.24385494685862261 0 -0.37050008163678078 -0.23809478566740069 0 -0.38063811315252227 -0.24327911894002349 0 -0.36844635146733168 -0.24423300206222681 0 -0.37341214803636152 -0.24385494685862261 0 -0.37050008163678078 -0.23809478566740069 0 -0.36844635146733168 -0.24423300206222681 0 -0.37050008163678078 -0.23809478566740069 0 -0.36176030056738112 -0.23892828214078121 0 -0.36287334423252537 -0.22874608457151449 0 -0.37050008163678078 -0.23809478566740069 0 -0.36176030056738112 -0.23892828214078121 0 -0.36844635146733168 -0.24423300206222681 0 -0.36176030056738112 -0.23892828214078121 0 -0.36512292251027972 -0.2486019884582186 0 -0.36176030056738112 -0.23892828214078121 0 -0.36512292251027972 -0.2486019884582186 0 -0.35559992002597007 -0.2440154841809076 0 -0.36075725608683479 -0.25252399222535399 0 -0.36512292251027972 -0.2486019884582186 0 -0.35559992002597007 -0.2440154841809076 0 -0.35559992002597007 -0.2440154841809076 0 -0.33542008743563279 -0.2451751824225199 0 -0.34735532009705572 -0.230742880243656 0 -0.35559992002597007 -0.2440154841809076 0 -0.33542008743563279 -0.2451751824225199 0 -0.34801697513192281 -0.25390758607183572 0 -0.35559992002597007 -0.2440154841809076 0 -0.33542008743563279 -0.2451751824225199 0 -0.34735532009705572 -0.230742880243656 0 -0.36176030056738112 -0.23892828214078121 0 -0.35559992002597007 -0.2440154841809076 0 -0.33476312054528728 -0.25708724346025841 0 -0.33542008743563279 -0.2451751824225199 0 -0.31524025484529539 -0.24633488066413101 0 -0.34735532009705572 -0.230742880243656 0 -0.33542008743563279 -0.2451751824225199 0 -0.32515391445869052 -0.2317152491961039 0 -0.33259532744413378 -0.2166397526803078 0 -0.34735532009705572 -0.230742880243656 0 -0.32515391445869052 -0.2317152491961039 0 -0.3085243477061943 -0.2292725517163873 0 -0.31773218693866928 -0.21073918432407099 0 -0.32515391445869052 -0.2317152491961039 0 -0.31773218693866928 -0.21073918432407099 0 -0.33259532744413378 -0.2166397526803078 0 -0.32515391445869052 -0.2317152491961039 0 -0.3085243477061943 -0.2292725517163873 0 -0.32515391445869052 -0.2317152491961039 0 -0.31524025484529539 -0.24633488066413101 0 -0.33542008743563279 -0.2451751824225199 0 -0.32515391445869052 -0.2317152491961039 0 -0.31524025484529539 -0.24633488066413101 0 -0.33542008743563279 -0.2451751824225199 0 -0.31524025484529539 -0.24633488066413101 0 -0.43229081015205362 -0.25417199456554668 0 -0.42949906886035771 -0.2463856854453515 0 -0.44919232957202387 -0.24371303005310249 0 -0.42440311049531892 -0.25168108644196319 0 -0.42949906886035771 -0.2463856854453515 0 -0.41305431339371562 -0.24861747250264279 0 -0.42949906886035771 -0.2463856854453515 0 -0.43090836492202811 -0.2254156914142374 0 -0.41976880550626672 -0.23654170350048351 0 -0.42440311049531892 -0.25168108644196319 0 -0.42949906886035771 -0.2463856854453515 0 -0.42949906886035771 -0.2463856854453515 0 -0.43090836492202811 -0.2254156914142374 0 -0.44808406686863028 -0.22707331867833969 0 -0.43090836492202811 -0.2254156914142374 0 -0.41434245556982457 -0.22342157594547499 0 -0.41976880550626672 -0.23654170350048351 0 -0.41434245556982457 -0.22342157594547499 0 -0.41102770256108911 -0.2354723852957778 0 -0.41976880550626672 -0.23654170350048351 0 -0.41434245556982457 -0.22342157594547499 0 -0.40213925663075251 -0.2299401869925714 0 -0.40478845062749969 -0.2067341123509083 0 -0.41434245556982457 -0.22342157594547499 0 -0.41102770256108911 -0.2354723852957778 0 -0.40213925663075251 -0.2299401869925714 0 -0.41102770256108911 -0.2354723852957778 0 -0.41305431339371562 -0.24861747250264279 0 -0.40583368170488648 -0.2388409875377164 0 -0.41102770256108911 -0.2354723852957778 0 -0.40583368170488648 -0.2388409875377164 0 -0.40213925663075251 -0.2299401869925714 0 -0.42949906886035771 -0.2463856854453515 0 -0.41305431339371562 -0.24861747250264279 0 -0.42949906886035771 -0.2463856854453515 0 -0.41976880550626672 -0.23654170350048351 0 -0.41305431339371562 -0.24861747250264279 0 -0.41102770256108911 -0.2354723852957778 0 -0.41976880550626672 -0.23654170350048351 0 -0.41305431339371562 -0.24861747250264279 0 -0.41305431339371562 -0.24861747250264279 0 -0.40130283749760792 -0.2436274715046727 0 -0.40583368170488648 -0.2388409875377164 0 -0.39394317271039653 -0.2479018727403321 0 -0.38820768994679622 -0.2216554081153172 0 -0.39660955792707342 -0.25084925955993409 0 -0.41305431339371562 -0.24861747250264279 0 -0.40130283749760792 -0.2436274715046727 0 -0.40130283749760792 -0.2436274715046727 0 -0.39394317271039653 -0.2479018727403321 0 -0.40213925663075251 -0.2299401869925714 0 -0.39660955792707342 -0.25084925955993409 0 -0.41305431339371562 -0.24861747250264279 0 -0.40130283749760792 -0.2436274715046727 0 -0.40583368170488648 -0.2388409875377164 0 -0.40213925663075251 -0.2299401869925714 0 -0.39660955792707342 -0.25084925955993409 0 -0.40130283749760792 -0.2436274715046727 0 -0.39394317271039653 -0.2479018727403321 0 -0.39660955792707342 -0.25084925955993409 0 -0.3946454953443147 -0.25111581076896788 0 -0.39394317271039653 -0.2479018727403321 0 -0.39660955792707342 -0.25084925955993409 0 -0.39394317271039653 -0.2479018727403321 0 -0.3946454953443147 -0.25111581076896788 0 -0.39394317271039653 -0.2479018727403321 0 -0.3946454953443147 -0.25111581076896788 0 -0.37474812662003493 -0.2480042625025452 0 -0.38063811315252227 -0.24327911894002349 0 -0.39394317271039653 -0.2479018727403321 0 -0.38063811315252227 -0.24327911894002349 0 -0.37629778282157778 -0.22839689301730209 0 -0.3946454953443147 -0.25111581076896788 0 -0.39394317271039653 -0.2479018727403321 0 -0.38063811315252227 -0.24327911894002349 0 -0.39394317271039653 -0.2479018727403321 0 -0.37629778282157778 -0.22839689301730209 0 -0.37050008163678078 -0.23809478566740069 0 -0.38063811315252227 -0.24327911894002349 0 -0.37629778282157778 -0.22839689301730209 0 -0.37474812662003493 -0.2480042625025452 0 -0.37341214803636152 -0.24385494685862261 0 -0.38063811315252227 -0.24327911894002349 0 -0.37485919850859029 -0.21196428797885281 0 -0.38820768994679622 -0.2216554081153172 0 -0.37629778282157778 -0.22839689301730209 0 -0.39394317271039653 -0.2479018727403321 0 -0.38820768994679622 -0.2216554081153172 0 -0.37629778282157778 -0.22839689301730209 0 -0.39394317271039653 -0.2479018727403321 0 -0.38820768994679622 -0.2216554081153172 0 -0.40213925663075251 -0.2299401869925714 0 -0.38820768994679622 -0.2216554081153172 0 -0.40213925663075251 -0.2299401869925714 0 -0.40478845062749969 -0.2067341123509083 0 -0.38820768994679622 -0.2216554081153172 0 -0.40478845062749969 -0.2067341123509083 0 -0.38247220718319669 -0.19540894349030219 0 -0.38820768994679622 -0.2216554081153172 0 -0.38247220718319669 -0.19540894349030219 0 -0.37485919850859029 -0.21196428797885281 0 -0.38820768994679622 -0.2216554081153172 0 -0.38247220718319669 -0.19540894349030219 0 -0.38247220718319669 -0.19540894349030219 0 -0.39957611728302628 -0.18925461860490819 0 -0.3893584796837779 -0.1801063257933235 0 -0.40478845062749969 -0.2067341123509083 0 -0.38247220718319669 -0.19540894349030219 0 -0.39957611728302628 -0.18925461860490819 0 -0.40478845062749969 -0.2067341123509083 0 -0.39957611728302628 -0.18925461860490819 0 -0.41790782839099799 -0.18687570813132681 0 -0.40478845062749969 -0.2067341123509083 0 -0.42722285246329361 -0.20281832621352711 0 -0.41790782839099799 -0.18687570813132681 0 -0.41434245556982457 -0.22342157594547499 0 -0.42722285246329361 -0.20281832621352711 0 -0.41434245556982457 -0.22342157594547499 0 -0.40478845062749969 -0.2067341123509083 0 -0.42722285246329361 -0.20281832621352711 0 -0.43090836492202811 -0.2254156914142374 0 -0.41434245556982457 -0.22342157594547499 0 -0.42722285246329361 -0.20281832621352711 0 -0.43090836492202811 -0.2254156914142374 0 -0.42722285246329361 -0.20281832621352711 0 -0.44635649750603767 -0.20584682125085449 0 -0.42722285246329361 -0.20281832621352711 0 -0.41790782839099799 -0.18687570813132681 0 -0.44010324935676259 -0.18221507648157939 0 -0.42722285246329361 -0.20281832621352711 0 -0.44010324935676259 -0.18221507648157939 0 -0.42490960957689772 -0.16745050732956049 0 -0.41790782839099799 -0.18687570813132681 0 -0.44010324935676259 -0.18221507648157939 0 -0.42490960957689772 -0.16745050732956049 0 -0.42237231764286082 -0.154014229218493 0 -0.43594905591301342 -0.1501197039167933 0 -0.42490960957689772 -0.16745050732956049 0 -0.40898660839310408 -0.1609359868313075 0 -0.42237231764286082 -0.154014229218493 0 -0.42490960957689772 -0.16745050732956049 0 -0.40898660839310408 -0.1609359868313075 0 -0.40370314458026102 -0.1747990384150212 0 -0.39957611728302628 -0.18925461860490819 0 -0.41790782839099799 -0.18687570813132681 0 -0.40370314458026102 -0.1747990384150212 0 -0.42490960957689772 -0.16745050732956049 0 -0.41790782839099799 -0.18687570813132681 0 -0.40370314458026102 -0.1747990384150212 0 -0.40370314458026102 -0.1747990384150212 0 -0.3893584796837779 -0.1801063257933235 0 -0.3877399313372053 -0.1691080993481742 0 -0.39957611728302628 -0.18925461860490819 0 -0.40370314458026102 -0.1747990384150212 0 -0.3893584796837779 -0.1801063257933235 0 -0.38247220718319669 -0.19540894349030219 0 -0.3767367244195971 -0.16916247886528729 0 -0.38247220718319669 -0.19540894349030219 0 -0.37664590413264742 -0.17932447066655191 0 -0.3767367244195971 -0.16916247886528729 0 -0.38247220718319669 -0.19540894349030219 0 -0.3893584796837779 -0.1801063257933235 0 -0.3767367244195971 -0.16916247886528729 0 -0.3893584796837779 -0.1801063257933235 0 -0.3767367244195971 -0.16916247886528729 0 -0.3877399313372053 -0.1691080993481742 0 -0.3767367244195971 -0.16916247886528729 0 -0.3877399313372053 -0.1691080993481742 0 -0.37973921558413981 -0.15610333814278929 0 -0.3877399313372053 -0.1691080993481742 0 -0.39384892446672842 -0.15840286031217821 0 -0.37973921558413981 -0.15610333814278929 0 -0.40370314458026102 -0.1747990384150212 0 -0.3877399313372053 -0.1691080993481742 0 -0.39384892446672842 -0.15840286031217821 0 -0.40898660839310408 -0.1609359868313075 0 -0.40370314458026102 -0.1747990384150212 0 -0.39384892446672842 -0.15840286031217821 0 -0.40898660839310408 -0.1609359868313075 0 -0.39384892446672842 -0.15840286031217821 0 -0.400622329490672 -0.1434388667923569 0 -0.39384892446672842 -0.15840286031217821 0 -0.400622329490672 -0.1434388667923569 0 -0.38636790906492391 -0.1448482036133463 0 -0.39384892446672842 -0.15840286031217821 0 -0.38636790906492391 -0.1448482036133463 0 -0.37973921558413981 -0.15610333814278929 0 -0.37181420420414552 -0.13907949230613811 0 -0.38636790906492391 -0.1448482036133463 0 -0.37973921558413981 -0.15610333814278929 0 -0.37069913304914098 -0.1193632437614618 0 -0.37181420420414552 -0.13907949230613811 0 -0.38639156327270402 -0.1306946385362959 0 -0.37181420420414552 -0.13907949230613811 0 -0.38636790906492391 -0.1448482036133463 0 -0.38639156327270402 -0.1306946385362959 0 -0.400622329490672 -0.1434388667923569 0 -0.41269787721970769 -0.13456076839363251 0 -0.3996357423838563 -0.1236626326443985 0 -0.400622329490672 -0.1434388667923569 0 -0.38639156327270402 -0.1306946385362959 0 -0.3996357423838563 -0.1236626326443985 0 -0.400622329490672 -0.1434388667923569 0 -0.38636790906492391 -0.1448482036133463 0 -0.38639156327270402 -0.1306946385362959 0 -0.41269787721970769 -0.13456076839363251 0 -0.3996357423838563 -0.1236626326443985 0 -0.41405462021182021 -0.12059725103256549 0 -0.41269787721970769 -0.13456076839363251 0 -0.42450029311672888 -0.12854155882879789 0 -0.41405462021182021 -0.12059725103256549 0 -0.41269787721970769 -0.13456076839363251 0 -0.42495234269793047 -0.14141134391851251 0 -0.42450029311672888 -0.12854155882879789 0 -0.40898660839310408 -0.1609359868313075 0 -0.400622329490672 -0.1434388667923569 0 -0.41323096095516237 -0.14893515077839681 0 -0.400622329490672 -0.1434388667923569 0 -0.41269787721970769 -0.13456076839363251 0 -0.41323096095516237 -0.14893515077839681 0 -0.40898660839310408 -0.1609359868313075 0 -0.41323096095516237 -0.14893515077839681 0 -0.42237231764286082 -0.154014229218493 0 -0.41323096095516237 -0.14893515077839681 0 -0.42495234269793047 -0.14141134391851251 0 -0.42237231764286082 -0.154014229218493 0 -0.41269787721970769 -0.13456076839363251 0 -0.41323096095516237 -0.14893515077839681 0 -0.42495234269793047 -0.14141134391851251 0 -0.42495234269793047 -0.14141134391851251 0 -0.43594905591301342 -0.1501197039167933 0 -0.43904704600101191 -0.13168742571601469 0 -0.42495234269793047 -0.14141134391851251 0 -0.42237231764286082 -0.154014229218493 0 -0.43594905591301342 -0.1501197039167933 0 -0.42450029311672888 -0.12854155882879789 0 -0.43904704600101191 -0.13168742571601469 0 -0.43264031305783113 -0.12329188855949889 0 -0.42495234269793047 -0.14141134391851251 0 -0.42450029311672888 -0.12854155882879789 0 -0.43904704600101191 -0.13168742571601469 0 -0.43904704600101191 -0.13168742571601469 0 -0.44967784007147432 -0.142615649217637 0 -0.45454540904941582 -0.1286507126880625 0 -0.43904704600101191 -0.13168742571601469 0 -0.45454540904941582 -0.1286507126880625 0 -0.44322677495513219 -0.1162928483584431 0 -0.43594905591301342 -0.1501197039167933 0 -0.43904704600101191 -0.13168742571601469 0 -0.44967784007147432 -0.142615649217637 0 -0.43594905591301342 -0.1501197039167933 0 -0.44967784007147432 -0.142615649217637 0 -0.45298364625023169 -0.16161182674963159 0 -0.44967784007147432 -0.142615649217637 0 -0.46586404314369878 -0.14100857701768249 0 -0.45298364625023169 -0.16161182674963159 0 -0.46586404314369878 -0.14100857701768249 0 -0.45298364625023169 -0.16161182674963159 0 -0.46586404314369878 -0.14100857701768249 0 -0.46841228250414368 -0.1638265537426784 0 -0.45298364625023169 -0.16161182674963159 0 -0.44967784007147432 -0.142615649217637 0 -0.46586404314369878 -0.14100857701768249 0 -0.45454540904941582 -0.1286507126880625 0 -0.46586404314369878 -0.14100857701768249 0 -0.45454540904941582 -0.1286507126880625 0 -0.46586404314369878 -0.14100857701768249 0 -0.45454540904941582 -0.1286507126880625 0 -0.46949566145170768 -0.12559563250407579 0 -0.46586404314369878 -0.14100857701768249 0 -0.47447595022110539 -0.1272331263346278 0 -0.48723797511055222 -0.13761479044979291 0 -0.46586404314369878 -0.14100857701768249 0 -0.47447595022110539 -0.1272331263346278 0 -0.46949566145170768 -0.12559563250407579 0 -0.46586404314369878 -0.14100857701768249 0 -0.47447595022110539 -0.1272331263346278 0 -0.47447595022110539 -0.1272331263346278 0 -0.48723797511055222 -0.13761479044979291 0 -0.47447595022110539 -0.1272331263346278 0 -0.48723797511055222 -0.13761479044979291 0 -0.48704348572726353 -0.1238492587224552 0 -0.48723797511055222 -0.13761479044979291 0 -0.5 -0.120664021671708 0 -0.48704348572726353 -0.1238492587224552 0 -0.48723797511055222 -0.13761479044979291 0 -0.49999999999999939 -0.14799645456495741 0 -0.5 -0.120664021671708 0 -0.48723797511055222 -0.13761479044979291 0 -0.49999999999999939 -0.14799645456495741 0 -0.48293202157184828 -0.15964366673248431 0 -0.48723797511055222 -0.13761479044979291 0 -0.49999999999999939 -0.14799645456495741 0 -0.46586404314369878 -0.14100857701768249 0 -0.48293202157184828 -0.15964366673248431 0 -0.46586404314369878 -0.14100857701768249 0 -0.48293202157184828 -0.15964366673248431 0 -0.46841228250414368 -0.1638265537426784 0 -0.46586404314369878 -0.14100857701768249 0 -0.48723797511055222 -0.13761479044979291 0 -0.48293202157184828 -0.15964366673248431 0 -0.48293202157184828 -0.15964366673248431 0 -0.47717967655212201 -0.17460343078770479 0 -0.46841228250414368 -0.1638265537426784 0 -0.49999999999999939 -0.14799645456495741 0 -0.48293202157184828 -0.15964366673248431 0 -0.499999999999999 -0.17827875644728519 0 -0.48293202157184828 -0.15964366673248431 0 -0.499999999999999 -0.17827875644728519 0 -0.47717967655212201 -0.17460343078770479 0 -0.48293202157184828 -0.15964366673248431 0 -0.499999999999999 -0.17827875644728519 0 -0.499999999999999 -0.17827875644728519 0 -0.47717967655212201 -0.17460343078770479 0 -0.48525406288517642 -0.18844858514431689 0 -0.47717967655212201 -0.17460343078770479 0 -0.463102025002818 -0.18226526742588861 0 -0.48525406288517642 -0.18844858514431689 0 -0.47717967655212201 -0.17460343078770479 0 -0.463102025002818 -0.18226526742588861 0 -0.46841228250414368 -0.1638265537426784 0 -0.463102025002818 -0.18226526742588861 0 -0.46841228250414368 -0.1638265537426784 0 -0.45298364625023169 -0.16161182674963159 0 -0.42490960957689772 -0.16745050732956049 0 -0.43594905591301342 -0.1501197039167933 0 -0.45298364625023169 -0.16161182674963159 0 -0.42490960957689772 -0.16745050732956049 0 -0.45298364625023169 -0.16161182674963159 0 -0.44010324935676259 -0.18221507648157939 0 -0.463102025002818 -0.18226526742588861 0 -0.45298364625023169 -0.16161182674963159 0 -0.44010324935676259 -0.18221507648157939 0 -0.45298364625023169 -0.16161182674963159 0 -0.44010324935676259 -0.18221507648157939 0 -0.5 -0.25346781598992812 0 -0.499999999999999 -0.17827875644728519 0 -0.48525406288517642 -0.18844858514431689 0 -0.5 -0.25346781598992812 0 -0.48525406288517642 -0.18844858514431689 0 -0.47298981213985369 -0.23236270461467731 0 -0.42722285246329361 -0.20281832621352711 0 -0.44010324935676259 -0.18221507648157939 0 -0.44635649750603767 -0.20584682125085449 0 -0.463102025002818 -0.18226526742588861 0 -0.44010324935676259 -0.18221507648157939 0 -0.44635649750603767 -0.20584682125085449 0 -0.44635649750603767 -0.20584682125085449 0 -0.46666906487690341 -0.20776095191132829 0 -0.44808406686863028 -0.22707331867833969 0 -0.46666906487690341 -0.20776095191132829 0 -0.44808406686863028 -0.22707331867833969 0 -0.463102025002818 -0.18226526742588861 0 -0.44635649750603767 -0.20584682125085449 0 -0.46666906487690341 -0.20776095191132829 0 -0.463102025002818 -0.18226526742588861 0 -0.46666906487690341 -0.20776095191132829 0 -0.48525406288517642 -0.18844858514431689 0 -0.46666906487690341 -0.20776095191132829 0 -0.48525406288517642 -0.18844858514431689 0 -0.47298981213985369 -0.23236270461467731 0 -0.46666906487690341 -0.20776095191132829 0 -0.48525406288517642 -0.18844858514431689 0 -0.47206243562756728 -0.25762347179270151 0 -0.5 -0.25346781598992812 0 -0.47298981213985369 -0.23236270461467731 0 -0.47298981213985369 -0.23236270461467731 0 -0.44808406686863028 -0.22707331867833969 0 -0.44919232957202387 -0.24371303005310249 0 -0.47206243562756728 -0.25762347179270151 0 -0.47298981213985369 -0.23236270461467731 0 -0.44919232957202387 -0.24371303005310249 0 -0.46666906487690341 -0.20776095191132829 0 -0.47298981213985369 -0.23236270461467731 0 -0.44808406686863028 -0.22707331867833969 0 -0.43090836492202811 -0.2254156914142374 0 -0.44635649750603767 -0.20584682125085449 0 -0.44808406686863028 -0.22707331867833969 0 -0.42949906886035771 -0.2463856854453515 0 -0.44808406686863028 -0.22707331867833969 0 -0.42949906886035771 -0.2463856854453515 0 -0.44919232957202387 -0.24371303005310249 0 -0.42949906886035771 -0.2463856854453515 0 -0.44808406686863028 -0.22707331867833969 0 -0.44919232957202387 -0.24371303005310249 0 -0.4183285585446912 -0.050677376356490458 0 -0.41677824504145339 -0.030157427092185642 0 -0.39217805399236938 -0.048582572027588103 0 -0.4183285585446912 -0.050677376356490458 0 -0.39217805399236938 -0.048582572027588103 0 -0.41046995042736062 -0.07516546489608697 0 -0.4183285585446912 -0.050677376356490458 0 -0.43419827487196272 -0.038385605457537629 0 -0.43816022252939402 -0.062245053997655217 0 -0.4183285585446912 -0.050677376356490458 0 -0.43419827487196272 -0.038385605457537629 0 -0.41677824504145339 -0.030157427092185642 0 -0.43419827487196272 -0.038385605457537629 0 -0.42993226968461062 -0.020287599982467111 0 -0.41677824504145339 -0.030157427092185642 0 -0.42993226968461062 -0.020287599982467111 0 -0.4217292346608259 -0.0010425993288985141 0 -0.44472529084816348 -0.00053841260254529528 0 -0.42993226968461062 -0.020287599982467111 0 -0.4217292346608259 -0.0010425993288985141 0 -0.40751601660928438 -0.016568719428877641 0 -0.4217292346608259 -0.0010425993288985141 0 -0.40751601660928438 -0.016568719428877641 0 -0.39837147550330271 0.01448554233248333 0 -0.42993226968461062 -0.020287599982467111 0 -0.41677824504145339 -0.030157427092185642 0 -0.40751601660928438 -0.016568719428877641 0 -0.41677824504145339 -0.030157427092185642 0 -0.40751601660928438 -0.016568719428877641 0 -0.39555282924350182 -0.027741567937240089 0 -0.42993226968461062 -0.020287599982467111 0 -0.40751601660928438 -0.016568719428877641 0 -0.40751601660928438 -0.016568719428877641 0 -0.39555282924350182 -0.027741567937240089 0 -0.38509976353395808 -0.012849838875288179 0 -0.40751601660928438 -0.016568719428877641 0 -0.38509976353395808 -0.012849838875288179 0 -0.39837147550330271 0.01448554233248333 0 -0.40751601660928438 -0.016568719428877641 0 -0.38509976353395808 -0.012849838875288179 0 -0.39555282924350182 -0.027741567937240089 0 -0.38509976353395808 -0.012849838875288179 0 -0.37619206704044378 -0.03054928226226088 0 -0.39555282924350182 -0.027741567937240089 0 -0.37619206704044378 -0.03054928226226088 0 -0.39217805399236938 -0.048582572027588103 0 -0.36852919634310399 -0.047257105603825837 0 -0.37619206704044378 -0.03054928226226088 0 -0.39217805399236938 -0.048582572027588103 0 -0.41677824504145339 -0.030157427092185642 0 -0.39555282924350182 -0.027741567937240089 0 -0.39217805399236938 -0.048582572027588103 0 -0.37298475090107491 -0.064843214874260341 0 -0.36852919634310399 -0.047257105603825837 0 -0.39217805399236938 -0.048582572027588103 0 -0.36915259797164529 -0.090060442986693245 0 -0.37298475090107491 -0.064843214874260341 0 -0.38859594785455343 -0.076761499782944331 0 -0.37298475090107491 -0.064843214874260341 0 -0.39217805399236938 -0.048582572027588103 0 -0.38859594785455343 -0.076761499782944331 0 -0.36915259797164529 -0.090060442986693245 0 -0.38859594785455343 -0.076761499782944331 0 -0.3938439902994742 -0.098804578110610206 0 -0.38859594785455343 -0.076761499782944331 0 -0.3938439902994742 -0.098804578110610206 0 -0.41046995042736062 -0.07516546489608697 0 -0.39217805399236938 -0.048582572027588103 0 -0.38859594785455343 -0.076761499782944331 0 -0.41046995042736062 -0.07516546489608697 0 -0.37069913304914098 -0.1193632437614618 0 -0.38639156327270402 -0.1306946385362959 0 -0.38652360427607652 -0.1131334100122259 0 -0.37069913304914098 -0.1193632437614618 0 -0.36915259797164529 -0.090060442986693245 0 -0.38652360427607652 -0.1131334100122259 0 -0.36915259797164529 -0.090060442986693245 0 -0.38652360427607652 -0.1131334100122259 0 -0.3938439902994742 -0.098804578110610206 0 -0.36915259797164529 -0.090060442986693245 0 -0.3938439902994742 -0.098804578110610206 0 -0.3938439902994742 -0.098804578110610206 0 -0.418535382627303 -0.10754871323452719 0 -0.38639156327270402 -0.1306946385362959 0 -0.38652360427607652 -0.1131334100122259 0 -0.3996357423838563 -0.1236626326443985 0 -0.3938439902994742 -0.098804578110610206 0 -0.3996357423838563 -0.1236626326443985 0 -0.41405462021182021 -0.12059725103256549 0 -0.38652360427607652 -0.1131334100122259 0 -0.3938439902994742 -0.098804578110610206 0 -0.3996357423838563 -0.1236626326443985 0 -0.42450029311672888 -0.12854155882879789 0 -0.41405462021182021 -0.12059725103256549 0 -0.42579023718367398 -0.1185091003833303 0 -0.41405462021182021 -0.12059725103256549 0 -0.418535382627303 -0.10754871323452719 0 -0.42579023718367398 -0.1185091003833303 0 -0.3938439902994742 -0.098804578110610206 0 -0.41405462021182021 -0.12059725103256549 0 -0.418535382627303 -0.10754871323452719 0 -0.3938439902994742 -0.098804578110610206 0 -0.418535382627303 -0.10754871323452719 0 -0.41536644266847561 -0.092437760932901375 0 -0.418535382627303 -0.10754871323452719 0 -0.42399351775955119 -0.098995846600975587 0 -0.41536644266847561 -0.092437760932901375 0 -0.42399351775955119 -0.098995846600975587 0 -0.41536644266847561 -0.092437760932901375 0 -0.43180528369194199 -0.092521352042267274 0 -0.42399351775955119 -0.098995846600975587 0 -0.43247896384948809 -0.1045582176267144 0 -0.43180528369194199 -0.092521352042267274 0 -0.418535382627303 -0.10754871323452719 0 -0.42399351775955119 -0.098995846600975587 0 -0.43247896384948809 -0.1045582176267144 0 -0.43264031305783113 -0.12329188855949889 0 -0.42579023718367398 -0.1185091003833303 0 -0.44322677495513219 -0.1162928483584431 0 -0.418535382627303 -0.10754871323452719 0 -0.42579023718367398 -0.1185091003833303 0 -0.44322677495513219 -0.1162928483584431 0 -0.418535382627303 -0.10754871323452719 0 -0.43247896384948809 -0.1045582176267144 0 -0.44322677495513219 -0.1162928483584431 0 -0.418535382627303 -0.10754871323452719 0 -0.44322677495513219 -0.1162928483584431 0 -0.42450029311672888 -0.12854155882879789 0 -0.43264031305783113 -0.12329188855949889 0 -0.42579023718367398 -0.1185091003833303 0 -0.41046995042736062 -0.07516546489608697 0 -0.41536644266847561 -0.092437760932901375 0 -0.43180528369194199 -0.092521352042267274 0 -0.3938439902994742 -0.098804578110610206 0 -0.41046995042736062 -0.07516546489608697 0 -0.41536644266847561 -0.092437760932901375 0 -0.41046995042736062 -0.07516546489608697 0 -0.43180528369194199 -0.092521352042267274 0 -0.41046995042736062 -0.07516546489608697 0 -0.43648995813264152 -0.079906062499839059 0 -0.43180528369194199 -0.092521352042267274 0 -0.41046995042736062 -0.07516546489608697 0 -0.43648995813264152 -0.079906062499839059 0 -0.43816022252939402 -0.062245053997655217 0 -0.4183285585446912 -0.050677376356490458 0 -0.41046995042736062 -0.07516546489608697 0 -0.43816022252939402 -0.062245053997655217 0 -0.43648995813264152 -0.079906062499839059 0 -0.45247660833398079 -0.07697498198443406 0 -0.43816022252939402 -0.062245053997655217 0 -0.45247660833398079 -0.07697498198443406 0 -0.45998391148668949 -0.061033232064932247 0 -0.43816022252939402 -0.062245053997655217 0 -0.43648995813264152 -0.079906062499839059 0 -0.45247660833398079 -0.07697498198443406 0 -0.44975020751049483 -0.091684997714352082 0 -0.43648995813264152 -0.079906062499839059 0 -0.43180528369194199 -0.092521352042267274 0 -0.44975020751049483 -0.091684997714352082 0 -0.45247660833398079 -0.07697498198443406 0 -0.46240058530078892 -0.088382760712712088 0 -0.46858472143579211 -0.076345476442554461 0 -0.45247660833398079 -0.07697498198443406 0 -0.44975020751049483 -0.091684997714352082 0 -0.46240058530078892 -0.088382760712712088 0 -0.44975020751049483 -0.091684997714352082 0 -0.46240058530078892 -0.088382760712712088 0 -0.46100564658161342 -0.099222672939933351 0 -0.46240058530078892 -0.088382760712712088 0 -0.470045336610033 -0.096901324356569729 0 -0.47379119491292598 -0.086923511790485797 0 -0.46240058530078892 -0.088382760712712088 0 -0.46858472143579211 -0.076345476442554461 0 -0.47379119491292598 -0.086923511790485797 0 -0.45247660833398079 -0.07697498198443406 0 -0.46858472143579211 -0.076345476442554461 0 -0.45998391148668949 -0.061033232064932247 0 -0.43247896384948809 -0.1045582176267144 0 -0.44322677495513219 -0.1162928483584431 0 -0.45314061695652358 -0.1098772391884477 0 -0.45454540904941582 -0.1286507126880625 0 -0.44322677495513219 -0.1162928483584431 0 -0.43904704600101191 -0.13168742571601469 0 -0.43264031305783113 -0.12329188855949889 0 -0.44322677495513219 -0.1162928483584431 0 -0.43247896384948809 -0.1045582176267144 0 -0.44322677495513219 -0.1162928483584431 0 -0.43247896384948809 -0.1045582176267144 0 -0.43180528369194199 -0.092521352042267274 0 -0.45314061695652358 -0.1098772391884477 0 -0.43180528369194199 -0.092521352042267274 0 -0.45314061695652358 -0.1098772391884477 0 -0.43180528369194199 -0.092521352042267274 0 -0.44975020751049483 -0.091684997714352082 0 -0.45314061695652358 -0.1098772391884477 0 -0.44975020751049483 -0.091684997714352082 0 -0.46100564658161342 -0.099222672939933351 0 -0.45314061695652358 -0.1098772391884477 0 -0.46100564658161342 -0.099222672939933351 0 -0.45314061695652358 -0.1098772391884477 0 -0.46979043462457559 -0.1084141131205814 0 -0.46240058530078892 -0.088382760712712088 0 -0.46100564658161342 -0.099222672939933351 0 -0.470045336610033 -0.096901324356569729 0 -0.46100564658161342 -0.099222672939933351 0 -0.46979043462457559 -0.1084141131205814 0 -0.470045336610033 -0.096901324356569729 0 -0.46949566145170768 -0.12559563250407579 0 -0.44322677495513219 -0.1162928483584431 0 -0.47447595022110539 -0.1272331263346278 0 -0.45314061695652358 -0.1098772391884477 0 -0.45454540904941582 -0.1286507126880625 0 -0.46949566145170768 -0.12559563250407579 0 -0.44322677495513219 -0.1162928483584431 0 -0.46949566145170768 -0.12559563250407579 0 -0.44322677495513219 -0.1162928483584431 0 -0.45314061695652358 -0.1098772391884477 0 -0.47447595022110539 -0.1272331263346278 0 -0.45314061695652358 -0.1098772391884477 0 -0.46979043462457559 -0.1084141131205814 0 -0.47447595022110539 -0.1272331263346278 0 -0.46949566145170768 -0.12559563250407579 0 -0.45314061695652358 -0.1098772391884477 0 -0.47447595022110539 -0.1272331263346278 0 -0.48273515638216802 -0.11402184965337719 0 -0.46979043462457559 -0.1084141131205814 0 -0.47447595022110539 -0.1272331263346278 0 -0.48273515638216802 -0.11402184965337719 0 -0.47447595022110539 -0.1272331263346278 0 -0.48273515638216802 -0.11402184965337719 0 -0.48704348572726353 -0.1238492587224552 0 -0.48273515638216802 -0.11402184965337719 0 -0.4797521929583225 -0.1029696953165153 0 -0.46979043462457559 -0.1084141131205814 0 -0.4797521929583225 -0.1029696953165153 0 -0.46979043462457559 -0.1084141131205814 0 -0.470045336610033 -0.096901324356569729 0 -0.4797521929583225 -0.1029696953165153 0 -0.470045336610033 -0.096901324356569729 0 -0.48370535546809312 -0.093205556725595731 0 -0.49099436254322798 -0.1008105729721249 0 -0.48370535546809312 -0.093205556725595731 0 -0.5 -0.093331588778458707 0 -0.49099436254322798 -0.1008105729721249 0 -0.49215460093053193 -0.11053545835962481 0 -0.5 -0.093331588778458707 0 -0.49215460093053193 -0.11053545835962481 0 -0.5 -0.120664021671708 0 -0.5 -0.093331588778458707 0 -0.4797521929583225 -0.1029696953165153 0 -0.49099436254322798 -0.1008105729721249 0 -0.48370535546809312 -0.093205556725595731 0 -0.48273515638216802 -0.11402184965337719 0 -0.49099436254322798 -0.1008105729721249 0 -0.49215460093053193 -0.11053545835962481 0 -0.48273515638216802 -0.11402184965337719 0 -0.4797521929583225 -0.1029696953165153 0 -0.49099436254322798 -0.1008105729721249 0 -0.48273515638216802 -0.11402184965337719 0 -0.49099436254322798 -0.1008105729721249 0 -0.48273515638216802 -0.11402184965337719 0 -0.49215460093053193 -0.11053545835962481 0 -0.48704348572726353 -0.1238492587224552 0 -0.49215460093053193 -0.11053545835962481 0 -0.5 -0.120664021671708 0 -0.48704348572726353 -0.1238492587224552 0 -0.46858472143579211 -0.076345476442554461 0 -0.48421997574992293 -0.079782440714996974 0 -0.48044497950332582 -0.061270677695084208 0 -0.46858472143579211 -0.076345476442554461 0 -0.48044497950332582 -0.061270677695084208 0 -0.45998391148668949 -0.061033232064932247 0 -0.46858472143579211 -0.076345476442554461 0 -0.47379119491292598 -0.086923511790485797 0 -0.48421997574992293 -0.079782440714996974 0 -0.470045336610033 -0.096901324356569729 0 -0.47379119491292598 -0.086923511790485797 0 -0.48370535546809312 -0.093205556725595731 0 -0.47379119491292598 -0.086923511790485797 0 -0.48370535546809312 -0.093205556725595731 0 -0.48421997574992293 -0.079782440714996974 0 -0.48421997574992293 -0.079782440714996974 0 -0.5 -0.093331588778458707 0 -0.5 -0.065999155885209326 0 -0.48370535546809312 -0.093205556725595731 0 -0.48421997574992293 -0.079782440714996974 0 -0.5 -0.093331588778458707 0 -0.48421997574992293 -0.079782440714996974 0 -0.5 -0.065999155885209326 0 -0.48044497950332582 -0.061270677695084208 0 -0.5 -0.065999155885209326 0 -0.5 -0.038666722991960063 0 -0.48044497950332582 -0.061270677695084208 0 -0.5 -0.038666722991960063 0 -0.47046689834211608 -0.042726865572452123 0 -0.47929729555283052 -0.02334250106621874 0 -0.5 -0.038666722991960063 0 -0.47046689834211608 -0.042726865572452123 0 -0.48044497950332582 -0.061270677695084208 0 -0.47046689834211608 -0.042726865572452123 0 -0.48044497950332582 -0.061270677695084208 0 -0.45998391148668949 -0.061033232064932247 0 -0.47046689834211608 -0.042726865572452123 0 -0.45998391148668949 -0.061033232064932247 0 -0.44998252060549349 -0.045697874833013769 0 -0.47046689834211608 -0.042726865572452123 0 -0.44998252060549349 -0.045697874833013769 0 -0.45234852275993692 -0.024006480536056581 0 -0.43419827487196272 -0.038385605457537629 0 -0.44998252060549349 -0.045697874833013769 0 -0.45234852275993692 -0.024006480536056581 0 -0.45998391148668949 -0.061033232064932247 0 -0.44998252060549349 -0.045697874833013769 0 -0.43816022252939402 -0.062245053997655217 0 -0.43419827487196272 -0.038385605457537629 0 -0.44998252060549349 -0.045697874833013769 0 -0.43816022252939402 -0.062245053997655217 0 -0.42993226968461062 -0.020287599982467111 0 -0.44472529084816348 -0.00053841260254529528 0 -0.45234852275993692 -0.024006480536056581 0 -0.42993226968461062 -0.020287599982467111 0 -0.45234852275993692 -0.024006480536056581 0 -0.43419827487196272 -0.038385605457537629 0 -0.42993226968461062 -0.020287599982467111 0 -0.45234852275993692 -0.024006480536056581 0 -0.45234852275993692 -0.024006480536056581 0 -0.47929729555283052 -0.02334250106621874 0 -0.47367105666209941 2.1853868085840558e-05 0 -0.47046689834211608 -0.042726865572452123 0 -0.45234852275993692 -0.024006480536056581 0 -0.47929729555283052 -0.02334250106621874 0 -0.44472529084816348 -0.00053841260254529528 0 -0.45234852275993692 -0.024006480536056581 0 -0.47367105666209941 2.1853868085840558e-05 0 -0.47929729555283052 -0.02334250106621874 0 -0.5 -0.01133429009871079 0 -0.47367105666209941 2.1853868085840558e-05 0 -0.5 -0.038666722991960063 0 -0.47929729555283052 -0.02334250106621874 0 -0.5 -0.01133429009871079 0 -0.5 0.01599814279453832 0 -0.48015582339618701 0.02638953334019609 0 -0.47367105666209941 2.1853868085840558e-05 0 -0.5 -0.01133429009871079 0 -0.5 0.01599814279453832 0 -0.47367105666209941 2.1853868085840558e-05 0 -0.5 0.01599814279453832 0 -0.48015582339618701 0.02638953334019609 0 -0.5 0.043330575687787587 0 -0.48015582339618701 0.02638953334019609 0 -0.4705551822808961 0.038338431380050393 0 -0.45783076581423471 0.02090684374134498 0 -0.48015582339618701 0.02638953334019609 0 -0.47367105666209941 2.1853868085840558e-05 0 -0.45783076581423471 0.02090684374134498 0 -0.48777397088442292 0.055786594568543457 0 -0.5 0.043330575687787587 0 -0.48023569246263331 0.044879306598192087 0 -0.48777397088442292 0.055786594568543457 0 -0.5 0.043330575687787587 0 -0.50000000000000222 0.070663008581036801 0 -0.48015582339618701 0.02638953334019609 0 -0.5 0.043330575687787587 0 -0.48023569246263331 0.044879306598192087 0 -0.48015582339618701 0.02638953334019609 0 -0.4705551822808961 0.038338431380050393 0 -0.48023569246263331 0.044879306598192087 0 -0.4705551822808961 0.038338431380050393 0 -0.48023569246263331 0.044879306598192087 0 -0.46734974919474209 0.048081449201627102 0 -0.47367632274120369 0.056868442993367893 0 -0.46488695305614203 0.063277765304524516 0 -0.48244347652807212 0.06697038694278093 0 -0.48777397088442292 0.055786594568543457 0 -0.48023569246263331 0.044879306598192087 0 -0.47367632274120369 0.056868442993367893 0 -0.48023569246263331 0.044879306598192087 0 -0.47367632274120369 0.056868442993367893 0 -0.46734974919474209 0.048081449201627102 0 -0.47367632274120369 0.056868442993367893 0 -0.46554739673424422 0.054795265591671728 0 -0.46734974919474209 0.048081449201627102 0 -0.48777397088442292 0.055786594568543457 0 -0.47367632274120369 0.056868442993367893 0 -0.48244347652807212 0.06697038694278093 0 -0.46554739673424422 0.054795265591671728 0 -0.46468809112788489 0.061326832094208868 0 -0.45647542387314599 0.052904338077483029 0 -0.47367632274120369 0.056868442993367893 0 -0.46468809112788489 0.061326832094208868 0 -0.46488695305614203 0.063277765304524516 0 -0.46468809112788489 0.061326832094208868 0 -0.45647542387314599 0.052904338077483029 0 -0.46488695305614203 0.063277765304524516 0 -0.47367632274120369 0.056868442993367893 0 -0.46554739673424422 0.054795265591671728 0 -0.46468809112788489 0.061326832094208868 0 -0.46468809112788489 0.061326832094208868 0 -0.46488695305614203 0.063277765304524516 0 -0.46554739673424422 0.054795265591671728 0 -0.46734974919474209 0.048081449201627102 0 -0.45647542387314599 0.052904338077483029 0 -0.4705551822808961 0.038338431380050393 0 -0.45826186879969127 0.039617600366519713 0 -0.45783076581423471 0.02090684374134498 0 -0.46734974919474209 0.048081449201627102 0 -0.45647542387314599 0.052904338077483029 0 -0.45826186879969127 0.039617600366519713 0 -0.4705551822808961 0.038338431380050393 0 -0.46734974919474209 0.048081449201627102 0 -0.45826186879969127 0.039617600366519713 0 -0.45826186879969127 0.039617600366519713 0 -0.45783076581423471 0.02090684374134498 0 -0.43739894592805351 0.038013247457353128 0 -0.45647542387314599 0.052904338077483029 0 -0.45826186879969127 0.039617600366519713 0 -0.43739894592805351 0.038013247457353128 0 -0.45647542387314599 0.052904338077483029 0 -0.43739894592805351 0.038013247457353128 0 -0.43650208655572498 0.057307644146654367 0 -0.43650208655572498 0.057307644146654367 0 -0.46488695305614203 0.063277765304524516 0 -0.45647542387314599 0.052904338077483029 0 -0.43650208655572498 0.057307644146654367 0 -0.46488695305614203 0.063277765304524516 0 -0.44472529084816348 -0.00053841260254529528 0 -0.47367105666209941 2.1853868085840558e-05 0 -0.45783076581423471 0.02090684374134498 0 -0.45783076581423471 0.02090684374134498 0 -0.42810112065876871 0.017696193036914151 0 -0.43739894592805351 0.038013247457353128 0 -0.45783076581423471 0.02090684374134498 0 -0.42810112065876871 0.017696193036914151 0 -0.44472529084816348 -0.00053841260254529528 0 -0.45783076581423471 0.02090684374134498 0 -0.42810112065876871 0.017696193036914151 0 -0.4217292346608259 -0.0010425993288985141 0 -0.44472529084816348 -0.00053841260254529528 0 -0.42810112065876871 0.017696193036914151 0 -0.4217292346608259 -0.0010425993288985141 0 -0.42810112065876871 0.017696193036914151 0 -0.39837147550330271 0.01448554233248333 0 -0.42810112065876871 0.017696193036914151 0 -0.4134002208602563 0.031600176004947141 0 -0.39837147550330271 0.01448554233248333 0 -0.42810112065876871 0.017696193036914151 0 -0.39837147550330271 0.01448554233248333 0 -0.42810112065876871 0.017696193036914151 0 -0.43739894592805351 0.038013247457353128 0 -0.4134002208602563 0.031600176004947141 0 -0.43650208655572498 0.057307644146654367 0 -0.40811722005530809 0.051337522988783253 0 -0.43739894592805351 0.038013247457353128 0 -0.43650208655572498 0.057307644146654367 0 -0.40811722005530809 0.051337522988783253 0 -0.43739894592805351 0.038013247457353128 0 -0.40811722005530809 0.051337522988783253 0 -0.4134002208602563 0.031600176004947141 0 -0.40811722005530809 0.051337522988783253 0 -0.4134002208602563 0.031600176004947141 0 -0.39501234215584841 0.036468374209201841 0 -0.40811722005530809 0.051337522988783253 0 -0.38079950128593132 0.052912066790546428 0 -0.39400540130279299 0.074190555657996579 0 -0.40811722005530809 0.051337522988783253 0 -0.39501234215584841 0.036468374209201841 0 -0.38079950128593132 0.052912066790546428 0 -0.39501234215584841 0.036468374209201841 0 -0.38079950128593132 0.052912066790546428 0 -0.37472066581688562 0.032093479209295617 0 -0.38079950128593132 0.052912066790546428 0 -0.37472066581688562 0.032093479209295617 0 -0.39837147550330271 0.01448554233248333 0 -0.36864183034783748 0.011274891628045611 0 -0.37472066581688562 0.032093479209295617 0 -0.39501234215584841 0.036468374209201841 0 -0.39837147550330271 0.01448554233248333 0 -0.37472066581688562 0.032093479209295617 0 -0.37627368421505869 -0.0010685545029741181 0 -0.39837147550330271 0.01448554233248333 0 -0.36864183034783748 0.011274891628045611 0 -0.39837147550330271 0.01448554233248333 0 -0.36864183034783748 0.011274891628045611 0 -0.38509976353395808 -0.012849838875288179 0 -0.37627368421505869 -0.0010685545029741181 0 -0.39837147550330271 0.01448554233248333 0 -0.4134002208602563 0.031600176004947141 0 -0.39501234215584841 0.036468374209201841 0 -0.39837147550330271 0.01448554233248333 0 -0.39145296570996602 0.11309098128887871 0 -0.38327060378100669 0.092278173504846933 0 -0.39988103148920118 0.093276346401943072 0 -0.39145296570996602 0.11309098128887871 0 -0.39988103148920118 0.093276346401943072 0 -0.41313606586644169 0.1076957363837853 0 -0.39145296570996602 0.11309098128887871 0 -0.41313606586644169 0.1076957363837853 0 -0.39145296570996602 0.11309098128887871 0 -0.41313606586644169 0.1076957363837853 0 -0.39695529262180701 0.12708680222363061 0 -0.39145296570996602 0.11309098128887871 0 -0.39695529262180701 0.12708680222363061 0 -0.39145296570996602 0.11309098128887871 0 -0.39695529262180701 0.12708680222363061 0 -0.379669102532184 0.13122284739794199 0 -0.39145296570996602 0.11309098128887871 0 -0.36648355068506788 0.1193039355354634 0 -0.39145296570996602 0.11309098128887871 0 -0.36882563244243582 0.1020321993621809 0 -0.36648355068506788 0.1193039355354634 0 -0.39145296570996602 0.11309098128887871 0 -0.379669102532184 0.13122284739794199 0 -0.36648355068506788 0.1193039355354634 0 -0.39145296570996602 0.11309098128887871 0 -0.38327060378100669 0.092278173504846933 0 -0.36882563244243582 0.1020321993621809 0 -0.39145296570996602 0.11309098128887871 0 -0.38327060378100669 0.092278173504846933 0 -0.38327060378100669 0.092278173504846933 0 -0.37508824185204731 0.071465365720815188 0 -0.39400540130279299 0.074190555657996579 0 -0.38327060378100669 0.092278173504846933 0 -0.37508824185204731 0.071465365720815188 0 -0.38079950128593132 0.052912066790546428 0 -0.37508824185204731 0.071465365720815188 0 -0.39400540130279299 0.074190555657996579 0 -0.38327060378100669 0.092278173504846933 0 -0.39400540130279299 0.074190555657996579 0 -0.39988103148920118 0.093276346401943072 0 -0.39400540130279299 0.074190555657996579 0 -0.39988103148920118 0.093276346401943072 0 -0.41754012078579822 0.079126285174207889 0 -0.39988103148920118 0.093276346401943072 0 -0.41754012078579822 0.079126285174207889 0 -0.41313606586644169 0.1076957363837853 0 -0.43650208655572498 0.057307644146654367 0 -0.40811722005530809 0.051337522988783253 0 -0.41754012078579822 0.079126285174207889 0 -0.40811722005530809 0.051337522988783253 0 -0.39400540130279299 0.074190555657996579 0 -0.41754012078579822 0.079126285174207889 0 -0.43650208655572498 0.057307644146654367 0 -0.41754012078579822 0.079126285174207889 0 -0.43423535260663682 0.079374684146812577 0 -0.41754012078579822 0.079126285174207889 0 -0.43423535260663682 0.079374684146812577 0 -0.43481916602291709 0.1023004914786908 0 -0.43481916602291709 0.1023004914786908 0 -0.41313606586644169 0.1076957363837853 0 -0.41754012078579822 0.079126285174207889 0 -0.43481916602291709 0.1023004914786908 0 -0.41313606586644169 0.1076957363837853 0 -0.41313606586644169 0.1076957363837853 0 -0.43473565999692898 0.1223644425561199 0 -0.41644872943855782 0.13157481587043729 0 -0.41313606586644169 0.1076957363837853 0 -0.41644872943855782 0.13157481587043729 0 -0.39695529262180701 0.12708680222363061 0 -0.43481916602291709 0.1023004914786908 0 -0.41313606586644169 0.1076957363837853 0 -0.43473565999692898 0.1223644425561199 0 -0.43481916602291709 0.1023004914786908 0 -0.43473565999692898 0.1223644425561199 0 -0.44846069189659771 0.1110290616779081 0 -0.43473565999692898 0.1223644425561199 0 -0.44846069189659771 0.1110290616779081 0 -0.45206676696457071 0.12680712066595459 0 -0.43481916602291709 0.1023004914786908 0 -0.45650226617939249 0.096905246573596324 0 -0.43481916602291709 0.1023004914786908 0 -0.44846069189659771 0.1110290616779081 0 -0.45650226617939249 0.096905246573596324 0 -0.43481916602291709 0.1023004914786908 0 -0.45650226617939249 0.096905246573596324 0 -0.44397270037895448 0.089846133410492551 0 -0.45650226617939249 0.096905246573596324 0 -0.46417960031917871 0.1067680071151791 0 -0.46735854145966671 0.087525261750522831 0 -0.46417960031917871 0.1067680071151791 0 -0.46735854145966671 0.087525261750522831 0 -0.46983012986319023 0.1117727581965213 0 -0.44846069189659771 0.1110290616779081 0 -0.45650226617939249 0.096905246573596324 0 -0.46417960031917871 0.1067680071151791 0 -0.46735854145966671 0.087525261750522831 0 -0.46983012986319023 0.1117727581965213 0 -0.46417960031917871 0.1067680071151791 0 -0.46983012986319023 0.1117727581965213 0 -0.46983012986319023 0.1117727581965213 0 -0.45206676696457071 0.12680712066595459 0 -0.46983012986319023 0.1117727581965213 0 -0.45206676696457071 0.12680712066595459 0 -0.46361584169467968 0.12722256960512759 0 -0.44846069189659771 0.1110290616779081 0 -0.46417960031917871 0.1067680071151791 0 -0.45206676696457071 0.12680712066595459 0 -0.46417960031917871 0.1067680071151791 0 -0.46983012986319023 0.1117727581965213 0 -0.45206676696457071 0.12680712066595459 0 -0.46983012986319023 0.1117727581965213 0 -0.47209760362241832 0.13401778970737471 0 -0.46361584169467968 0.12722256960512759 0 -0.43650208655572498 0.057307644146654367 0 -0.44686727536217002 0.07508838298413914 0 -0.46488695305614203 0.063277765304524516 0 -0.43650208655572498 0.057307644146654367 0 -0.43423535260663682 0.079374684146812577 0 -0.44686727536217002 0.07508838298413914 0 -0.43423535260663682 0.079374684146812577 0 -0.43481916602291709 0.1023004914786908 0 -0.44397270037895448 0.089846133410492551 0 -0.44686727536217002 0.07508838298413914 0 -0.44397270037895448 0.089846133410492551 0 -0.45591754728726502 0.08252855800465525 0 -0.43423535260663682 0.079374684146812577 0 -0.44686727536217002 0.07508838298413914 0 -0.44397270037895448 0.089846133410492551 0 -0.45650226617939249 0.096905246573596324 0 -0.44397270037895448 0.089846133410492551 0 -0.45591754728726502 0.08252855800465525 0 -0.45650226617939249 0.096905246573596324 0 -0.46735854145966671 0.087525261750522831 0 -0.45591754728726502 0.08252855800465525 0 -0.46735854145966671 0.087525261750522831 0 -0.45591754728726502 0.08252855800465525 0 -0.46488695305614203 0.063277765304524516 0 -0.44686727536217002 0.07508838298413914 0 -0.45591754728726502 0.08252855800465525 0 -0.46488695305614203 0.063277765304524516 0 -0.46735854145966671 0.087525261750522831 0 -0.46488695305614203 0.063277765304524516 0 -0.46735854145966671 0.087525261750522831 0 -0.46488695305614203 0.063277765304524516 0 -0.48244347652807212 0.06697038694278093 0 -0.46488695305614203 0.063277765304524516 0 -0.48244347652807212 0.06697038694278093 0 -0.46735854145966671 0.087525261750522831 0 -0.48244347652807212 0.06697038694278093 0 -0.4824565942374478 0.086112947076896332 0 -0.4824565942374478 0.086112947076896332 0 -0.47677873614061311 0.098866870102153712 0 -0.49297858289498131 0.094855161147669717 0 -0.46735854145966671 0.087525261750522831 0 -0.4824565942374478 0.086112947076896332 0 -0.47677873614061311 0.098866870102153712 0 -0.5 0.093273546935895846 0 -0.49272363416390558 0.082347055441354455 0 -0.50000000000000222 0.070663008581036801 0 -0.48244347652807212 0.06697038694278093 0 -0.4824565942374478 0.086112947076896332 0 -0.49272363416390558 0.082347055441354455 0 -0.4824565942374478 0.086112947076896332 0 -0.49272363416390558 0.082347055441354455 0 -0.49297858289498131 0.094855161147669717 0 -0.5 0.093273546935895846 0 -0.49272363416390558 0.082347055441354455 0 -0.49297858289498131 0.094855161147669717 0 -0.48244347652807212 0.06697038694278093 0 -0.49272363416390558 0.082347055441354455 0 -0.50000000000000222 0.070663008581036801 0 -0.48777397088442292 0.055786594568543457 0 -0.48244347652807212 0.06697038694278093 0 -0.50000000000000222 0.070663008581036801 0 -0.48244347652807212 0.06697038694278093 0 -0.50000000000000222 0.070663008581036801 0 -0.46983012986319023 0.1117727581965213 0 -0.48719221879862651 0.1121428381673569 0 -0.48526343076650791 0.1254422432922058 0 -0.46983012986319023 0.1117727581965213 0 -0.48526343076650791 0.1254422432922058 0 -0.47209760362241832 0.13401778970737471 0 -0.46983012986319023 0.1117727581965213 0 -0.47209760362241832 0.13401778970737471 0 -0.46983012986319023 0.1117727581965213 0 -0.48526343076650791 0.1254422432922058 0 -0.46735854145966671 0.087525261750522831 0 -0.46983012986319023 0.1117727581965213 0 -0.47677873614061311 0.098866870102153712 0 -0.46983012986319023 0.1117727581965213 0 -0.47677873614061311 0.098866870102153712 0 -0.49297858289498131 0.094855161147669717 0 -0.46983012986319023 0.1117727581965213 0 -0.49297858289498131 0.094855161147669717 0 -0.46983012986319023 0.1117727581965213 0 -0.49297858289498131 0.094855161147669717 0 -0.48719221879862651 0.1121428381673569 0 -0.5 0.093273546935895846 0 -0.49297858289498131 0.094855161147669717 0 -0.5 0.11588408529075481 0 -0.49297858289498131 0.094855161147669717 0 -0.5 0.11588408529075481 0 -0.48719221879862651 0.1121428381673569 0 -0.5 0.11588408529075481 0 -0.48719221879862651 0.1121428381673569 0 -0.48526343076650791 0.1254422432922058 0 -0.49999999999999922 0.13849462364561391 0 -0.48526343076650791 0.1254422432922058 0 -0.5 0.11588408529075481 0 -0.49999999999999922 0.13849462364561391 0 -0.48526343076650791 0.1254422432922058 0 -0.49999999999999922 0.13849462364561391 0 -0.48526343076650791 0.1254422432922058 0 -0.48632329437955357 0.14259993890234371 0 -0.48526343076650791 0.1254422432922058 0 -0.47209760362241832 0.13401778970737471 0 -0.48632329437955357 0.14259993890234371 0 -0.47209760362241832 0.13401778970737471 0 -0.47425543750884269 0.15518720020368579 0 -0.48632329437955357 0.14259993890234371 0 -0.47209760362241832 0.13401778970737471 0 -0.47425543750884269 0.15518720020368579 0 -0.47425543750884269 0.15518720020368579 0 -0.48632329437955357 0.14259993890234371 0 -0.5 0.15985783766283809 0 -0.49999999999999922 0.13849462364561391 0 -0.48632329437955357 0.14259993890234371 0 -0.5 0.15985783766283809 0 -0.47425543750884269 0.15518720020368579 0 -0.5 0.15985783766283809 0 -0.48990795912038743 0.1705394446714503 0 -0.5 0.15985783766283809 0 -0.48990795912038743 0.1705394446714503 0 -0.49999999999999922 0.18122105168006231 0 -0.49999999999999922 0.18122105168006231 0 -0.47290614754225418 0.17927990625307069 0 -0.48497979531692648 0.1974883378356522 0 -0.49999999999999922 0.18122105168006231 0 -0.47290614754225418 0.17927990625307069 0 -0.48990795912038743 0.1705394446714503 0 -0.49999999999999922 0.18122105168006231 0 -0.47641327139526701 0.176356610699997 0 -0.49999999999999922 0.18122105168006231 0 -0.47641327139526701 0.176356610699997 0 -0.47290614754225418 0.17927990625307069 0 -0.47641327139526701 0.176356610699997 0 -0.47290614754225418 0.17927990625307069 0 -0.46545784383362432 0.16677863491631059 0 -0.47425543750884269 0.15518720020368579 0 -0.48990795912038743 0.1705394446714503 0 -0.47641327139526701 0.176356610699997 0 -0.47425543750884269 0.15518720020368579 0 -0.47641327139526701 0.176356610699997 0 -0.47425543750884269 0.15518720020368579 0 -0.47641327139526701 0.176356610699997 0 -0.46545784383362432 0.16677863491631059 0 -0.46545784383362432 0.16677863491631059 0 -0.43827301213968167 0.16031681849718851 0 -0.45635691166230602 0.14631694619423261 0 -0.47290614754225418 0.17927990625307069 0 -0.46545784383362432 0.16677863491631059 0 -0.44581229508450931 0.17733876082607899 0 -0.47290614754225418 0.17927990625307069 0 -0.44581229508450931 0.17733876082607899 0 -0.47290614754225418 0.17927990625307069 0 -0.44581229508450931 0.17733876082607899 0 -0.45614867868890657 0.19197316531283021 0 -0.44581229508450931 0.17733876082607899 0 -0.45614867868890657 0.19197316531283021 0 -0.44374144972927199 0.19241335606815421 0 -0.46545784383362432 0.16677863491631059 0 -0.44581229508450931 0.17733876082607899 0 -0.43827301213968167 0.16031681849718851 0 -0.43827301213968167 0.16031681849718851 0 -0.45635691166230602 0.14631694619423261 0 -0.43419376419314759 0.14076586212084591 0 -0.43473565999692898 0.1223644425561199 0 -0.45206676696457071 0.12680712066595459 0 -0.43419376419314759 0.14076586212084591 0 -0.45206676696457071 0.12680712066595459 0 -0.43419376419314759 0.14076586212084591 0 -0.45206676696457071 0.12680712066595459 0 -0.45635691166230602 0.14631694619423261 0 -0.43419376419314759 0.14076586212084591 0 -0.47209760362241832 0.13401778970737471 0 -0.4603592264557359 0.1352169888361178 0 -0.45635691166230602 0.14631694619423261 0 -0.45206676696457071 0.12680712066595459 0 -0.4603592264557359 0.1352169888361178 0 -0.45635691166230602 0.14631694619423261 0 -0.45206676696457071 0.12680712066595459 0 -0.4603592264557359 0.1352169888361178 0 -0.46361584169467968 0.12722256960512759 0 -0.47209760362241832 0.13401778970737471 0 -0.4603592264557359 0.1352169888361178 0 -0.46361584169467968 0.12722256960512759 0 -0.47425543750884269 0.15518720020368579 0 -0.46545784383362432 0.16677863491631059 0 -0.45635691166230602 0.14631694619423261 0 -0.47209760362241832 0.13401778970737471 0 -0.47425543750884269 0.15518720020368579 0 -0.45635691166230602 0.14631694619423261 0 -0.4842114785300824 0.2232348278184943 0 -0.46422713089612522 0.2282525573052531 0 -0.47884287989701441 0.25368825908796711 0 -0.50000000000000044 0.2372394198646382 0 -0.4842114785300824 0.2232348278184943 0 -0.47884287989701441 0.25368825908796711 0 -0.50000000000000044 0.2372394198646382 0 -0.47884287989701441 0.25368825908796711 0 -0.50000000000000044 0.2372394198646382 0 -0.4842114785300824 0.2232348278184943 0 -0.5 0.20923023577235031 0 -0.4842114785300824 0.2232348278184943 0 -0.46783613941891072 0.2035485068111971 0 -0.46422713089612522 0.2282525573052531 0 -0.4842114785300824 0.2232348278184943 0 -0.48497979531692648 0.1974883378356522 0 -0.46783613941891072 0.2035485068111971 0 -0.4842114785300824 0.2232348278184943 0 -0.5 0.20923023577235031 0 -0.48497979531692648 0.1974883378356522 0 -0.49999999999999922 0.18122105168006231 0 -0.5 0.20923023577235031 0 -0.48497979531692648 0.1974883378356522 0 -0.47290614754225418 0.17927990625307069 0 -0.48497979531692648 0.1974883378356522 0 -0.46783613941891072 0.2035485068111971 0 -0.45614867868890657 0.19197316531283021 0 -0.45171864386625221 0.20930895315798639 0 -0.46783613941891072 0.2035485068111971 0 -0.47290614754225418 0.17927990625307069 0 -0.45614867868890657 0.19197316531283021 0 -0.46783613941891072 0.2035485068111971 0 -0.45614867868890657 0.19197316531283021 0 -0.44374144972927199 0.19241335606815421 0 -0.45171864386625221 0.20930895315798639 0 -0.44374144972927199 0.19241335606815421 0 -0.43737393303937572 0.21704384845276611 0 -0.44374144972927199 0.19241335606815421 0 -0.45171864386625221 0.20930895315798639 0 -0.43737393303937572 0.21704384845276611 0 -0.45171864386625221 0.20930895315798639 0 -0.46783613941891072 0.2035485068111971 0 -0.46422713089612522 0.2282525573052531 0 -0.45171864386625221 0.20930895315798639 0 -0.46422713089612522 0.2282525573052531 0 -0.44830711687771713 0.234278546739177 0 -0.44830711687771713 0.234278546739177 0 -0.43100641634947701 0.24167434083737749 0 -0.43737393303937572 0.21704384845276611 0 -0.45171864386625221 0.20930895315798639 0 -0.44830711687771713 0.234278546739177 0 -0.43737393303937572 0.21704384845276611 0 -0.44830711687771713 0.234278546739177 0 -0.44297909837068022 0.24897218353138759 0 -0.45228251015878729 0.25175805989612871 0 -0.44830711687771713 0.234278546739177 0 -0.44297909837068022 0.24897218353138759 0 -0.43100641634947701 0.24167434083737749 0 -0.46422713089612522 0.2282525573052531 0 -0.45983336765998739 0.24496354054567571 0 -0.47884287989701441 0.25368825908796711 0 -0.44830711687771713 0.234278546739177 0 -0.45983336765998739 0.24496354054567571 0 -0.45228251015878729 0.25175805989612871 0 -0.46422713089612522 0.2282525573052531 0 -0.44830711687771713 0.234278546739177 0 -0.45983336765998739 0.24496354054567571 0 -0.43100641634947701 0.24167434083737749 0 -0.40872451834440982 0.2280926064960701 0 -0.41006073509768542 0.24458492045944921 0 -0.43100641634947701 0.24167434083737749 0 -0.40872451834440982 0.2280926064960701 0 -0.41006073509768542 0.24458492045944921 0 -0.43100641634947701 0.24167434083737749 0 -0.41990381710569591 0.25159028712561932 0 -0.44297909837068022 0.24897218353138759 0 -0.43100641634947701 0.24167434083737749 0 -0.44297909837068022 0.24897218353138759 0 -0.43100641634947701 0.24167434083737749 0 -0.43649336971806341 0.25688366259484868 0 -0.43100641634947701 0.24167434083737749 0 -0.43737393303937572 0.21704384845276611 0 -0.43100641634947701 0.24167434083737749 0 -0.4247334787167778 0.22593573626773411 0 -0.43737393303937572 0.21704384845276611 0 -0.4247334787167778 0.22593573626773411 0 -0.40872451834440982 0.2280926064960701 0 -0.42193207239344388 0.20583565537034229 0 -0.43100641634947701 0.24167434083737749 0 -0.4247334787167778 0.22593573626773411 0 -0.40872451834440982 0.2280926064960701 0 -0.40872451834440982 0.2280926064960701 0 -0.42193207239344388 0.20583565537034229 0 -0.40119160634636031 0.1977166966573897 0 -0.4247334787167778 0.22593573626773411 0 -0.42193207239344388 0.20583565537034229 0 -0.43737393303937572 0.21704384845276611 0 -0.44374144972927199 0.19241335606815421 0 -0.42193207239344388 0.20583565537034229 0 -0.43737393303937572 0.21704384845276611 0 -0.44374144972927199 0.19241335606815421 0 -0.42193207239344388 0.20583565537034229 0 -0.41871844262676422 0.1753976153990873 0 -0.42193207239344388 0.20583565537034229 0 -0.40119160634636031 0.1977166966573897 0 -0.41871844262676422 0.1753976153990873 0 -0.37970739420518168 0.18900696055198099 0 -0.38644262033934301 0.21451087215476219 0 -0.36416072233427621 0.20092913781345431 0 -0.40119160634636031 0.1977166966573897 0 -0.37970739420518168 0.18900696055198099 0 -0.38644262033934301 0.21451087215476219 0 -0.38644262033934301 0.21451087215476219 0 -0.36416072233427621 0.20092913781345431 0 -0.40872451834440982 0.2280926064960701 0 -0.40119160634636031 0.1977166966573897 0 -0.38644262033934301 0.21451087215476219 0 -0.40872451834440982 0.2280926064960701 0 -0.38644262033934301 0.21451087215476219 0 -0.40872451834440982 0.2280926064960701 0 -0.38644262033934301 0.21451087215476219 0 -0.3964311172149606 0.23682273221504069 0 -0.38644262033934301 0.21451087215476219 0 -0.38097370010591391 0.24384108033322641 0 -0.36817434966301671 0.2262795368339906 0 -0.38644262033934301 0.21451087215476219 0 -0.38097370010591391 0.24384108033322641 0 -0.3964311172149606 0.23682273221504069 0 -0.41006073509768542 0.24458492045944921 0 -0.40872451834440982 0.2280926064960701 0 -0.3964311172149606 0.23682273221504069 0 -0.41006073509768542 0.24458492045944921 0 -0.3964311172149606 0.23682273221504069 0 -0.39595401218745069 0.25308418163169571 0 -0.38097370010591391 0.24384108033322641 0 -0.3964311172149606 0.23682273221504069 0 -0.39595401218745069 0.25308418163169571 0 -0.41632076142172442 0.15472460357573731 0 -0.40240705081793682 0.15997306505504061 0 -0.40120935069159119 0.14372835320249441 0 -0.41632076142172442 0.15472460357573731 0 -0.41644872943855782 0.13157481587043729 0 -0.40120935069159119 0.14372835320249441 0 -0.43473565999692898 0.1223644425561199 0 -0.41644872943855782 0.13157481587043729 0 -0.43419376419314759 0.14076586212084591 0 -0.43827301213968167 0.16031681849718851 0 -0.41632076142172442 0.15472460357573731 0 -0.43419376419314759 0.14076586212084591 0 -0.41632076142172442 0.15472460357573731 0 -0.41644872943855782 0.13157481587043729 0 -0.43419376419314759 0.14076586212084591 0 -0.41632076142172442 0.15472460357573731 0 -0.43419376419314759 0.14076586212084591 0 -0.43827301213968167 0.16031681849718851 0 -0.41632076142172442 0.15472460357573731 0 -0.41871844262676422 0.1753976153990873 0 -0.44581229508450931 0.17733876082607899 0 -0.43827301213968167 0.16031681849718851 0 -0.41871844262676422 0.1753976153990873 0 -0.44581229508450931 0.17733876082607899 0 -0.44374144972927199 0.19241335606815421 0 -0.41871844262676422 0.1753976153990873 0 -0.44581229508450931 0.17733876082607899 0 -0.41871844262676422 0.1753976153990873 0 -0.41632076142172442 0.15472460357573731 0 -0.41871844262676422 0.1753976153990873 0 -0.40240705081793682 0.15997306505504061 0 -0.41871844262676422 0.1753976153990873 0 -0.40240705081793682 0.15997306505504061 0 -0.39162459016901918 0.1734564699720956 0 -0.40240705081793682 0.15997306505504061 0 -0.39162459016901918 0.1734564699720956 0 -0.38536741499785598 0.15004067301348381 0 -0.40119160634636031 0.1977166966573897 0 -0.41871844262676422 0.1753976153990873 0 -0.39162459016901918 0.1734564699720956 0 -0.41871844262676422 0.1753976153990873 0 -0.39162459016901918 0.1734564699720956 0 -0.40119160634636031 0.1977166966573897 0 -0.37970739420518168 0.18900696055198099 0 -0.39162459016901918 0.1734564699720956 0 -0.37970739420518168 0.18900696055198099 0 -0.39162459016901918 0.1734564699720956 0 -0.36453073771127431 0.1715153245451039 0 -0.39162459016901918 0.1734564699720956 0 -0.36453073771127431 0.1715153245451039 0 -0.39162459016901918 0.1734564699720956 0 -0.36453073771127431 0.1715153245451039 0 -0.37388007634436932 0.15886061719439831 0 -0.39162459016901918 0.1734564699720956 0 -0.38536741499785598 0.15004067301348381 0 -0.37388007634436932 0.15886061719439831 0 -0.38536741499785598 0.15004067301348381 0 -0.379669102532184 0.13122284739794199 0 -0.36928559446877668 0.145575504599851 0 -0.38536741499785598 0.15004067301348381 0 -0.36928559446877668 0.145575504599851 0 -0.37388007634436932 0.15886061719439831 0 -0.38536741499785598 0.15004067301348381 0 -0.40120935069159119 0.14372835320249441 0 -0.39080029021085949 0.13801966895938769 0 -0.40240705081793682 0.15997306505504061 0 -0.38536741499785598 0.15004067301348381 0 -0.40120935069159119 0.14372835320249441 0 -0.41644872943855782 0.13157481587043729 0 -0.40120935069159119 0.14372835320249441 0 -0.39695529262180701 0.12708680222363061 0 -0.40120935069159119 0.14372835320249441 0 -0.39080029021085949 0.13801966895938769 0 -0.39695529262180701 0.12708680222363061 0 -0.39080029021085949 0.13801966895938769 0 -0.39695529262180701 0.12708680222363061 0 -0.379669102532184 0.13122284739794199 0 -0.38536741499785598 0.15004067301348381 0 -0.39080029021085949 0.13801966895938769 0 -0.379669102532184 0.13122284739794199 0 -0.379669102532184 0.13122284739794199 0 -0.3611934238837029 0.1324529912677968 0 -0.36928559446877668 0.145575504599851 0 -0.379669102532184 0.13122284739794199 0 -0.3611934238837029 0.1324529912677968 0 -0.36648355068506788 0.1193039355354634 0 -0.3611934238837029 0.1324529912677968 0 -0.35706366321134098 0.14355221341784449 0 -0.36928559446877668 0.145575504599851 0 -0.3611934238837029 0.1324529912677968 0 -0.34972638908252618 0.1374710283842899 0 -0.34477288681553248 0.1256226861480205 0 -0.3611934238837029 0.1324529912677968 0 -0.34972638908252618 0.1374710283842899 0 -0.35706366321134098 0.14355221341784449 0 -0.34972638908252618 0.1374710283842899 0 -0.34646298257701258 0.14658055290642641 0 -0.33924902912652161 0.13750400280457889 0 -0.34972638908252618 0.1374710283842899 0 -0.34477288681553248 0.1256226861480205 0 -0.33924902912652161 0.13750400280457889 0 -0.34646298257701258 0.14658055290642641 0 -0.35864992604468632 0.15568098993085819 0 -0.34304154168103351 0.1576618555078465 0 -0.34972638908252618 0.1374710283842899 0 -0.34646298257701258 0.14658055290642641 0 -0.35706366321134098 0.14355221341784449 0 -0.34646298257701258 0.14658055290642641 0 -0.35706366321134098 0.14355221341784449 0 -0.35864992604468632 0.15568098993085819 0 -0.35706366321134098 0.14355221341784449 0 -0.35864992604468632 0.15568098993085819 0 -0.36928559446877668 0.145575504599851 0 -0.35864992604468632 0.15568098993085819 0 -0.36928559446877668 0.145575504599851 0 -0.37388007634436932 0.15886061719439831 0 -0.35864992604468632 0.15568098993085819 0 -0.36453073771127431 0.1715153245451039 0 -0.37388007634436932 0.15886061719439831 0 -0.37970739420518168 0.18900696055198099 0 -0.36453073771127431 0.1715153245451039 0 -0.36416072233427621 0.20092913781345431 0 -0.36453073771127431 0.1715153245451039 0 -0.34187882432920941 0.18734740347214629 0 -0.36416072233427621 0.20092913781345431 0 -0.36453073771127431 0.1715153245451039 0 -0.33743688525352938 0.1695741791181111 0 -0.34187882432920941 0.18734740347214629 0 -0.35864992604468632 0.15568098993085819 0 -0.36453073771127431 0.1715153245451039 0 -0.34924155587878591 0.16680067727176601 0 -0.36453073771127431 0.1715153245451039 0 -0.33743688525352938 0.1695741791181111 0 -0.36453073771127431 0.1715153245451039 0 -0.34924155587878591 0.16680067727176601 0 -0.33743688525352938 0.1695741791181111 0 -0.35864992604468632 0.15568098993085819 0 -0.34924155587878591 0.16680067727176601 0 -0.34304154168103351 0.1576618555078465 0 -0.34304154168103351 0.1576618555078465 0 -0.33743688525352938 0.1695741791181111 0 -0.33194721327431642 0.15290747255581391 0 -0.33743688525352938 0.1695741791181111 0 -0.32364541471849562 0.15962761808306231 0 -0.33194721327431642 0.15290747255581391 0 -0.33743688525352938 0.1695741791181111 0 -0.31959692632414172 0.17376566913083971 0 -0.34924155587878591 0.16680067727176601 0 -0.34304154168103351 0.1576618555078465 0 -0.33743688525352938 0.1695741791181111 0 -0.34924155587878591 0.16680067727176601 0 -0.33743688525352938 0.1695741791181111 0 -0.34187882432920941 0.18734740347214629 0 -0.31959692632414172 0.17376566913083971 0 -0.33743688525352938 0.1695741791181111 0 -0.34187882432920941 0.18734740347214629 0 -0.31959692632414172 0.17376566913083971 0 -0.34187882432920941 0.18734740347214629 0 -0.31959692632414172 0.17376566913083971 0 -0.31667547461307077 0.19594335853335301 0 -0.32364541471849562 0.15962761808306231 0 -0.31576921428751131 0.14846131991345771 0 -0.30942834605862563 0.1675675007448644 0 -0.33743688525352938 0.1695741791181111 0 -0.31959692632414172 0.17376566913083971 0 -0.30942834605862563 0.1675675007448644 0 -0.33743688525352938 0.1695741791181111 0 -0.32364541471849562 0.15962761808306231 0 -0.30942834605862563 0.1675675007448644 0 -0.33743688525352938 0.1695741791181111 0 -0.30942834605862563 0.1675675007448644 0 -0.31959692632414172 0.17376566913083971 0 -0.30942834605862563 0.1675675007448644 0 -0.32364541471849562 0.15962761808306231 0 -0.31576921428751131 0.14846131991345771 0 -0.33194721327431642 0.15290747255581391 0 -0.31576921428751131 0.14846131991345771 0 -0.32790842931263547 0.13829255145379371 0 -0.33194721327431642 0.15290747255581391 0 -0.31576921428751131 0.14846131991345771 0 -0.31715550376224289 0.1364763582138637 0 -0.32790842931263547 0.13829255145379371 0 -0.31576921428751131 0.14846131991345771 0 -0.31715550376224289 0.1364763582138637 0 -0.30613413606354761 0.13765348904817151 0 -0.31715550376224289 0.1364763582138637 0 -0.30613413606354761 0.13765348904817151 0 -0.31445151658903647 0.1243748783024395 0 -0.31715550376224289 0.1364763582138637 0 -0.3294881304138621 0.12784940930772329 0 -0.31445151658903647 0.1243748783024395 0 -0.31715550376224289 0.1364763582138637 0 -0.32790842931263547 0.13829255145379371 0 -0.3294881304138621 0.12784940930772329 0 -0.32790842931263547 0.13829255145379371 0 -0.3294881304138621 0.12784940930772329 0 -0.33924902912652161 0.13750400280457889 0 -0.34477288681553248 0.1256226861480205 0 -0.3294881304138621 0.12784940930772329 0 -0.33924902912652161 0.13750400280457889 0 -0.34646298257701258 0.14658055290642641 0 -0.33924902912652161 0.13750400280457889 0 -0.33194721327431642 0.15290747255581391 0 -0.34646298257701258 0.14658055290642641 0 -0.34304154168103351 0.1576618555078465 0 -0.33194721327431642 0.15290747255581391 0 -0.32790842931263547 0.13829255145379371 0 -0.33924902912652161 0.13750400280457889 0 -0.33194721327431642 0.15290747255581391 0 -0.34659904806411618 0.22368385912824049 0 -0.33816870206517008 0.2418705494875045 0 -0.36184882001612789 0.25120191596523961 0 -0.38097370010591391 0.24384108033322641 0 -0.36817434966301671 0.2262795368339906 0 -0.36184882001612789 0.25120191596523961 0 -0.36817434966301671 0.2262795368339906 0 -0.34659904806411618 0.22368385912824049 0 -0.36184882001612789 0.25120191596523961 0 -0.34659904806411618 0.22368385912824049 0 -0.36416072233427621 0.20092913781345431 0 -0.33317934538001798 0.2085403678040082 0 -0.38644262033934301 0.21451087215476219 0 -0.36817434966301671 0.2262795368339906 0 -0.36416072233427621 0.20092913781345431 0 -0.36817434966301671 0.2262795368339906 0 -0.34659904806411618 0.22368385912824049 0 -0.36416072233427621 0.20092913781345431 0 -0.34187882432920941 0.18734740347214629 0 -0.36416072233427621 0.20092913781345431 0 -0.33317934538001798 0.2085403678040082 0 -0.34187882432920941 0.18734740347214629 0 -0.36416072233427621 0.20092913781345431 0 -0.34187882432920941 0.18734740347214629 0 -0.31667547461307077 0.19594335853335301 0 -0.33317934538001798 0.2085403678040082 0 -0.31667547461307077 0.19594335853335301 0 -0.33317934538001798 0.2085403678040082 0 -0.3123710375436678 0.21162782865148039 0 -0.33317934538001798 0.2085403678040082 0 -0.31869288595089612 0.22815348218819509 0 -0.3123710375436678 0.21162782865148039 0 -0.34659904806411618 0.22368385912824049 0 -0.33317934538001798 0.2085403678040082 0 -0.31869288595089612 0.22815348218819509 0 -0.34659904806411618 0.22368385912824049 0 -0.31869288595089612 0.22815348218819509 0 -0.34659904806411618 0.22368385912824049 0 -0.31869288595089612 0.22815348218819509 0 -0.33816870206517008 0.2418705494875045 0 -0.31869288595089612 0.22815348218819509 0 -0.3207186543605689 0.24865522219363589 0 -0.33816870206517008 0.2418705494875045 0 -0.31869288595089612 0.22815348218819509 0 -0.3207186543605689 0.24865522219363589 0 -0.30127403803759578 0.24184846254218009 0 -0.3207186543605689 0.24865522219363589 0 -0.33816870206517008 0.2418705494875045 0 -0.34298410193414131 0.25765826796221142 0 -0.2878963225560261 0.23783253116520189 0 -0.30127403803759578 0.24184846254218009 0 -0.30140137628232772 0.25581537921343828 0 -0.28783678584541489 0.24316849743735339 0 -0.2819927719755364 0.24847261411558719 0 -0.30140137628232772 0.25581537921343828 0 -0.28783678584541489 0.24316849743735339 0 -0.2878963225560261 0.23783253116520189 0 -0.30140137628232772 0.25581537921343828 0 -0.2878963225560261 0.23783253116520189 0 -0.30140137628232772 0.25581537921343828 0 -0.2819927719755364 0.24847261411558719 0 -0.2878963225560261 0.23783253116520189 0 -0.28783678584541489 0.24316849743735339 0 -0.2819927719755364 0.24847261411558719 0 -0.2878963225560261 0.23783253116520189 0 -0.2819927719755364 0.24847261411558719 0 -0.2878963225560261 0.23783253116520189 0 -0.27857745300711062 0.24062441390563011 0 -0.28783678584541489 0.24316849743735339 0 -0.2819927719755364 0.24847261411558719 0 -0.2878963225560261 0.23783253116520189 0 -0.28471446003510442 0.23359567647482071 0 -0.27857745300711062 0.24062441390563011 0 -0.2878963225560261 0.23783253116520189 0 -0.2907867238376759 0.2326231052481485 0 -0.28471446003510442 0.23359567647482071 0 -0.2878963225560261 0.23783253116520189 0 -0.28471446003510442 0.23359567647482071 0 -0.2878963225560261 0.23783253116520189 0 -0.30127403803759578 0.24184846254218009 0 -0.2907867238376759 0.2326231052481485 0 -0.2878963225560261 0.23783253116520189 0 -0.2907867238376759 0.2326231052481485 0 -0.3207186543605689 0.24865522219363589 0 -0.30127403803759578 0.24184846254218009 0 -0.30140137628232772 0.25581537921343828 0 -0.31869288595089612 0.22815348218819509 0 -0.2907867238376759 0.2326231052481485 0 -0.31869288595089612 0.22815348218819509 0 -0.29721258455806959 0.221041652669662 0 -0.2907867238376759 0.2326231052481485 0 -0.31869288595089612 0.22815348218819509 0 -0.30127403803759578 0.24184846254218009 0 -0.2907867238376759 0.2326231052481485 0 -0.31869288595089612 0.22815348218819509 0 -0.29721258455806959 0.221041652669662 0 -0.3123710375436678 0.21162782865148039 0 -0.29721258455806959 0.221041652669662 0 -0.2907867238376759 0.2326231052481485 0 -0.28842231769837828 0.22434226086345219 0 -0.29721258455806959 0.221041652669662 0 -0.28842231769837828 0.22434226086345219 0 -0.28891411216950841 0.21567660690904891 0 -0.29721258455806959 0.221041652669662 0 -0.2907867238376759 0.2326231052481485 0 -0.2907867238376759 0.2326231052481485 0 -0.28579583719130069 0.22914878259512519 0 -0.28842231769837828 0.22434226086345219 0 -0.2907867238376759 0.2326231052481485 0 -0.28579583719130069 0.22914878259512519 0 -0.28471446003510442 0.23359567647482071 0 -0.2907867238376759 0.2326231052481485 0 -0.28471446003510442 0.23359567647482071 0 -0.28579583719130069 0.22914878259512519 0 -0.28471446003510442 0.23359567647482071 0 -0.28235458431957922 0.23045335010833209 0 -0.28471446003510442 0.23359567647482071 0 -0.28235458431957922 0.23045335010833209 0 -0.28579583719130069 0.22914878259512519 0 -0.28235458431957922 0.23045335010833209 0 -0.28290652183536641 0.22500922970511361 0 -0.28243250878847792 0.21959182376574421 0 -0.28842231769837828 0.22434226086345219 0 -0.28891411216950841 0.21567660690904891 0 -0.28290652183536641 0.22500922970511361 0 -0.28243250878847792 0.21959182376574421 0 -0.28842231769837828 0.22434226086345219 0 -0.28579583719130069 0.22914878259512519 0 -0.28290652183536641 0.22500922970511361 0 -0.28842231769837828 0.22434226086345219 0 -0.29721258455806959 0.221041652669662 0 -0.29609489721628451 0.20446028206218361 0 -0.28891411216950841 0.21567660690904891 0 -0.29609489721628451 0.20446028206218361 0 -0.28891411216950841 0.21567660690904891 0 -0.28040825258633151 0.2089470151842025 0 -0.28243250878847792 0.21959182376574421 0 -0.28891411216950841 0.21567660690904891 0 -0.28040825258633151 0.2089470151842025 0 -0.29721258455806959 0.221041652669662 0 -0.29609489721628451 0.20446028206218361 0 -0.3123710375436678 0.21162782865148039 0 -0.31667547461307077 0.19594335853335301 0 -0.29609489721628451 0.20446028206218361 0 -0.3123710375436678 0.21162782865148039 0 -0.31667547461307077 0.19594335853335301 0 -0.29609489721628451 0.20446028206218361 0 -0.29762683167750131 0.17892753260007199 0 -0.29609489721628451 0.20446028206218361 0 -0.28357031667792748 0.19521054517927849 0 -0.29762683167750131 0.17892753260007199 0 -0.29609489721628451 0.20446028206218361 0 -0.28357031667792748 0.19521054517927849 0 -0.28040825258633151 0.2089470151842025 0 -0.26806486487865983 0.19962849998063231 0 -0.25649718147556488 0.1935427170433319 0 -0.27565673703086019 0.18408939606930219 0 -0.28357031667792748 0.19521054517927849 0 -0.26806486487865983 0.19962849998063231 0 -0.27565673703086019 0.18408939606930219 0 -0.28357031667792748 0.19521054517927849 0 -0.26806486487865983 0.19962849998063231 0 -0.28040825258633151 0.2089470151842025 0 -0.25649718147556488 0.1935427170433319 0 -0.25368664238421901 0.1892512595385317 0 -0.27565673703086019 0.18408939606930219 0 -0.25649718147556488 0.1935427170433319 0 -0.25368664238421901 0.1892512595385317 0 -0.25649718147556488 0.1935427170433319 0 -0.25040908159511338 0.19002132091412399 0 -0.25368664238421901 0.1892512595385317 0 -0.25040908159511338 0.19002132091412399 0 -0.25368664238421901 0.1892512595385317 0 -0.25649718147556488 0.1935427170433319 0 -0.25040908159511338 0.19002132091412399 0 -0.25560926976635312 0.2035916052873919 0 -0.25649718147556488 0.1935427170433319 0 -0.26103248667566809 0.2006549656895783 0 -0.25560926976635312 0.2035916052873919 0 -0.26806486487865983 0.19962849998063231 0 -0.25649718147556488 0.1935427170433319 0 -0.26103248667566809 0.2006549656895783 0 -0.26806486487865983 0.19962849998063231 0 -0.26103248667566809 0.2006549656895783 0 -0.26313606797396372 0.20575608991571731 0 -0.26313606797396372 0.20575608991571731 0 -0.25560926976635312 0.2035916052873919 0 -0.26025085862406838 0.21284683740767971 0 -0.26313606797396372 0.20575608991571731 0 -0.26025085862406838 0.21284683740767971 0 -0.27072285992506878 0.21205854121330389 0 -0.26103248667566809 0.2006549656895783 0 -0.26313606797396372 0.20575608991571731 0 -0.25560926976635312 0.2035916052873919 0 -0.25560926976635312 0.2035916052873919 0 -0.25194739826678658 0.21444461515785401 0 -0.26025085862406838 0.21284683740767971 0 -0.25194739826678658 0.21444461515785401 0 -0.26025085862406838 0.21284683740767971 0 -0.2551855299144159 0.22331770328677139 0 -0.26025085862406838 0.21284683740767971 0 -0.26379945917494552 0.21942789216232239 0 -0.2551855299144159 0.22331770328677139 0 -0.26025085862406838 0.21284683740767971 0 -0.27072285992506878 0.21205854121330389 0 -0.26379945917494552 0.21942789216232239 0 -0.27072285992506878 0.21205854121330389 0 -0.2762141549422647 0.2171977857798976 0 -0.27018851440145158 0.2214425513639445 0 -0.27072285992506878 0.21205854121330389 0 -0.27018851440145158 0.2214425513639445 0 -0.26379945917494552 0.21942789216232239 0 -0.26806486487865983 0.19962849998063231 0 -0.27072285992506878 0.21205854121330389 0 -0.28040825258633151 0.2089470151842025 0 -0.26806486487865983 0.19962849998063231 0 -0.26313606797396372 0.20575608991571731 0 -0.27072285992506878 0.21205854121330389 0 -0.28243250878847792 0.21959182376574421 0 -0.28040825258633151 0.2089470151842025 0 -0.2762141549422647 0.2171977857798976 0 -0.27072285992506878 0.21205854121330389 0 -0.28040825258633151 0.2089470151842025 0 -0.2762141549422647 0.2171977857798976 0 -0.28235458431957922 0.23045335010833209 0 -0.27190528306925288 0.2277052940984525 0 -0.26660445029023933 0.23649628734503669 0 -0.28471446003510442 0.23359567647482071 0 -0.28235458431957922 0.23045335010833209 0 -0.26660445029023933 0.23649628734503669 0 -0.2762141549422647 0.2171977857798976 0 -0.27731863900999382 0.22394899737229271 0 -0.27018851440145158 0.2214425513639445 0 -0.28243250878847792 0.21959182376574421 0 -0.2762141549422647 0.2171977857798976 0 -0.27731863900999382 0.22394899737229271 0 -0.28290652183536641 0.22500922970511361 0 -0.28243250878847792 0.21959182376574421 0 -0.27731863900999382 0.22394899737229271 0 -0.28235458431957922 0.23045335010833209 0 -0.28290652183536641 0.22500922970511361 0 -0.27731863900999382 0.22394899737229271 0 -0.28235458431957922 0.23045335010833209 0 -0.27731863900999382 0.22394899737229271 0 -0.27190528306925288 0.2277052940984525 0 -0.27190528306925288 0.2277052940984525 0 -0.26306022732500117 0.2261852843026565 0 -0.26660445029023933 0.23649628734503669 0 -0.27190528306925288 0.2277052940984525 0 -0.27018851440145158 0.2214425513639445 0 -0.26306022732500117 0.2261852843026565 0 -0.27731863900999382 0.22394899737229271 0 -0.27190528306925288 0.2277052940984525 0 -0.27018851440145158 0.2214425513639445 0 -0.27018851440145158 0.2214425513639445 0 -0.26379945917494552 0.21942789216232239 0 -0.26306022732500117 0.2261852843026565 0 -0.26379945917494552 0.21942789216232239 0 -0.26306022732500117 0.2261852843026565 0 -0.2551855299144159 0.22331770328677139 0 -0.25194739826678658 0.21444461515785401 0 -0.2551855299144159 0.22331770328677139 0 -0.24648494098598731 0.22005601514351311 0 -0.2551855299144159 0.22331770328677139 0 -0.25669282748587019 0.23259828520318579 0 -0.25087712384573357 0.23287003298724779 0 -0.2551855299144159 0.22331770328677139 0 -0.25087712384573357 0.23287003298724779 0 -0.24644648607505501 0.2281382003786194 0 -0.26306022732500117 0.2261852843026565 0 -0.2551855299144159 0.22331770328677139 0 -0.25669282748587019 0.23259828520318579 0 -0.26306022732500117 0.2261852843026565 0 -0.25669282748587019 0.23259828520318579 0 -0.26660445029023933 0.23649628734503669 0 -0.26305761738569661 0.24901977672961981 0 -0.26660445029023933 0.23649628734503669 0 -0.24910725770640421 0.24333336453792839 0 -0.26660445029023933 0.23649628734503669 0 -0.24849444054537431 0.23939689821525401 0 -0.26660445029023933 0.23649628734503669 0 -0.24910725770640421 0.24333336453792839 0 -0.24849444054537431 0.23939689821525401 0 -0.25669282748587019 0.23259828520318579 0 -0.26660445029023933 0.23649628734503669 0 -0.24849444054537431 0.23939689821525401 0 -0.25669282748587019 0.23259828520318579 0 -0.25087712384573357 0.23287003298724779 0 -0.24849444054537431 0.23939689821525401 0 -0.26305761738569661 0.24901977672961981 0 -0.27170183260557451 0.24576845768534011 0 -0.27087126593366828 0.2513959023754001 0 -0.28471446003510442 0.23359567647482071 0 -0.26660445029023933 0.23649628734503669 0 -0.28471446003510442 0.23359567647482071 0 -0.26660445029023933 0.23649628734503669 0 -0.27857745300711062 0.24062441390563011 0 -0.26305761738569661 0.24901977672961981 0 -0.27170183260557451 0.24576845768534011 0 -0.26660445029023933 0.23649628734503669 0 -0.27170183260557451 0.24576845768534011 0 -0.26660445029023933 0.23649628734503669 0 -0.27857745300711062 0.24062441390563011 0 -0.2819927719755364 0.24847261411558719 0 -0.27170183260557451 0.24576845768534011 0 -0.27087126593366828 0.2513959023754001 0 -0.2819927719755364 0.24847261411558719 0 -0.27170183260557451 0.24576845768534011 0 -0.27857745300711062 0.24062441390563011 0 -0.28518277179751822 0.15278882486671649 0 -0.28766266813640529 0.13625926891107989 0 -0.30106383526101399 0.14893341760148229 0 -0.28766266813640529 0.13625926891107989 0 -0.27158793862335862 0.1232191378894497 0 -0.28657099432327149 0.1233271659253648 0 -0.28766266813640529 0.13625926891107989 0 -0.28657099432327149 0.1233271659253648 0 -0.29945736628912001 0.124267034381024 0 -0.28766266813640529 0.13625926891107989 0 -0.30613413606354761 0.13765348904817151 0 -0.29945736628912001 0.124267034381024 0 -0.30613413606354761 0.13765348904817151 0 -0.29945736628912001 0.124267034381024 0 -0.31445151658903647 0.1243748783024395 0 -0.28766266813640529 0.13625926891107989 0 -0.30613413606354761 0.13765348904817151 0 -0.30106383526101399 0.14893341760148229 0 -0.31576921428751131 0.14846131991345771 0 -0.30106383526101399 0.14893341760148229 0 -0.30942834605862563 0.1675675007448644 0 -0.31576921428751131 0.14846131991345771 0 -0.30613413606354761 0.13765348904817151 0 -0.30106383526101399 0.14893341760148229 0 -0.28518277179751822 0.15278882486671649 0 -0.30942834605862563 0.1675675007448644 0 -0.30942834605862563 0.1675675007448644 0 -0.29762683167750131 0.17892753260007199 0 -0.28496631052191529 0.16581491245971641 0 -0.30942834605862563 0.1675675007448644 0 -0.28496631052191529 0.16581491245971641 0 -0.28518277179751822 0.15278882486671649 0 -0.30106383526101399 0.14893341760148229 0 -0.30942834605862563 0.1675675007448644 0 -0.31959692632414172 0.17376566913083971 0 -0.31667547461307077 0.19594335853335301 0 -0.29762683167750131 0.17892753260007199 0 -0.31959692632414172 0.17376566913083971 0 -0.30942834605862563 0.1675675007448644 0 -0.29762683167750131 0.17892753260007199 0 -0.31959692632414172 0.17376566913083971 0 -0.29762683167750131 0.17892753260007199 0 -0.29762683167750131 0.17892753260007199 0 -0.27565673703086019 0.18408939606930219 0 -0.28357031667792748 0.19521054517927849 0 -0.29762683167750131 0.17892753260007199 0 -0.27565673703086019 0.18408939606930219 0 -0.29762683167750131 0.17892753260007199 0 -0.28496631052191529 0.16581491245971641 0 -0.27565673703086019 0.18408939606930219 0 -0.28518277179751822 0.15278882486671649 0 -0.30942834605862563 0.1675675007448644 0 -0.28496631052191529 0.16581491245971641 0 -0.28496631052191529 0.16581491245971641 0 -0.26267374514664682 0.17816660984174881 0 -0.26050427498520512 0.16406232417456759 0 -0.28518277179751822 0.15278882486671649 0 -0.28496631052191529 0.16581491245971641 0 -0.26050427498520512 0.16406232417456759 0 -0.28496631052191529 0.16581491245971641 0 -0.26050427498520512 0.16406232417456759 0 -0.28496631052191529 0.16581491245971641 0 -0.27565673703086019 0.18408939606930219 0 -0.26267374514664682 0.17816660984174881 0 -0.25368664238421901 0.1892512595385317 0 -0.27565673703086019 0.18408939606930219 0 -0.26267374514664682 0.17816660984174881 0 -0.26267374514664682 0.17816660984174881 0 -0.26050427498520512 0.16406232417456759 0 -0.24486444091635681 0.17578049771397569 0 -0.25368664238421901 0.1892512595385317 0 -0.26267374514664682 0.17816660984174881 0 -0.24486444091635681 0.17578049771397569 0 -0.25368664238421901 0.1892512595385317 0 -0.27565673703086019 0.18408939606930219 0 -0.26050427498520512 0.16406232417456759 0 -0.26093719753641031 0.1380101489885692 0 -0.24107654509340781 0.14443116564150069 0 -0.28518277179751822 0.15278882486671649 0 -0.28766266813640529 0.13625926891107989 0 -0.26093719753641031 0.1380101489885692 0 -0.28518277179751822 0.15278882486671649 0 -0.26093719753641031 0.1380101489885692 0 -0.28518277179751822 0.15278882486671649 0 -0.26050427498520512 0.16406232417456759 0 -0.26093719753641031 0.1380101489885692 0 -0.28766266813640529 0.13625926891107989 0 -0.26093719753641031 0.1380101489885692 0 -0.27158793862335862 0.1232191378894497 0 -0.26093719753641031 0.1380101489885692 0 -0.2544178763525049 0.11356856211053359 0 -0.2366916232753026 0.1232314731104219 0 -0.26093719753641031 0.1380101489885692 0 -0.2544178763525049 0.11356856211053359 0 -0.27158793862335862 0.1232191378894497 0 -0.25330340275947699 0.097640948961847704 0 -0.27264934242637939 0.1050991248953607 0 -0.25981594507570271 0.084526567999776564 0 -0.2544178763525049 0.11356856211053359 0 -0.25330340275947699 0.097640948961847704 0 -0.27264934242637939 0.1050991248953607 0 -0.27264934242637939 0.1050991248953607 0 -0.28914392796916011 0.097088267411390469 0 -0.27732285337025731 0.085859091051527503 0 -0.2544178763525049 0.11356856211053359 0 -0.27264934242637939 0.1050991248953607 0 -0.27158793862335862 0.1232191378894497 0 -0.27264934242637939 0.1050991248953607 0 -0.27158793862335862 0.1232191378894497 0 -0.28657099432327149 0.1233271659253648 0 -0.27264934242637939 0.1050991248953607 0 -0.28657099432327149 0.1233271659253648 0 -0.29288964788521482 0.1099875623263946 0 -0.28657099432327149 0.1233271659253648 0 -0.29288964788521482 0.1099875623263946 0 -0.29945736628912001 0.124267034381024 0 -0.29288964788521482 0.1099875623263946 0 -0.28914392796916011 0.097088267411390469 0 -0.30552967341059017 0.095916531967890101 0 -0.27264934242637939 0.1050991248953607 0 -0.29288964788521482 0.1099875623263946 0 -0.28914392796916011 0.097088267411390469 0 -0.30552967341059017 0.095916531967890101 0 -0.30582849486463859 0.1126967726448716 0 -0.31748883559990448 0.10793760663304031 0 -0.29288964788521482 0.1099875623263946 0 -0.30552967341059017 0.095916531967890101 0 -0.30582849486463859 0.1126967726448716 0 -0.30582849486463859 0.1126967726448716 0 -0.29945736628912001 0.124267034381024 0 -0.31445151658903647 0.1243748783024395 0 -0.29288964788521482 0.1099875623263946 0 -0.30582849486463859 0.1126967726448716 0 -0.29945736628912001 0.124267034381024 0 -0.30589916628940222 0.07606050917594244 0 -0.30792272299738588 0.058980034031233891 0 -0.31510734235460719 0.071010772432459193 0 -0.30589916628940222 0.07606050917594244 0 -0.29237918003016311 0.083423889299875431 0 -0.29322574800932538 0.064451547412265026 0 -0.30589916628940222 0.07606050917594244 0 -0.29322574800932538 0.064451547412265026 0 -0.30792272299738588 0.058980034031233891 0 -0.30552967341059017 0.095916531967890101 0 -0.30589916628940222 0.07606050917594244 0 -0.29237918003016311 0.083423889299875431 0 -0.30552967341059017 0.095916531967890101 0 -0.30589916628940222 0.07606050917594244 0 -0.31846271887825922 0.083342286020994444 0 -0.28914392796916011 0.097088267411390469 0 -0.30552967341059017 0.095916531967890101 0 -0.29237918003016311 0.083423889299875431 0 -0.28914392796916011 0.097088267411390469 0 -0.29237918003016311 0.083423889299875431 0 -0.27732285337025731 0.085859091051527503 0 -0.29237918003016311 0.083423889299875431 0 -0.28194865789219042 0.073029360435535567 0 -0.27732285337025731 0.085859091051527503 0 -0.28194865789219042 0.073029360435535567 0 -0.29322574800932538 0.064451547412265026 0 -0.27821606472516441 0.056334982979923669 0 -0.29237918003016311 0.083423889299875431 0 -0.28194865789219042 0.073029360435535567 0 -0.29322574800932538 0.064451547412265026 0 -0.28194865789219042 0.073029360435535567 0 -0.26749963726242931 0.071561805919426236 0 -0.27821606472516441 0.056334982979923669 0 -0.28194865789219042 0.073029360435535567 0 -0.26749963726242931 0.071561805919426236 0 -0.27732285337025731 0.085859091051527503 0 -0.26749963726242931 0.071561805919426236 0 -0.27732285337025731 0.085859091051527503 0 -0.25981594507570271 0.084526567999776564 0 -0.27264934242637939 0.1050991248953607 0 -0.27732285337025731 0.085859091051527503 0 -0.25981594507570271 0.084526567999776564 0 -0.25330340275947699 0.097640948961847704 0 -0.25981594507570271 0.084526567999776564 0 -0.24212914814080441 0.085811078060409302 0 -0.26749963726242931 0.071561805919426236 0 -0.25981594507570271 0.084526567999776564 0 -0.24469319669088871 0.067914101683764758 0 -0.26749963726242931 0.071561805919426236 0 -0.26011863152298398 0.059255676562700907 0 -0.24469319669088871 0.067914101683764758 0 -0.26011863152298398 0.059255676562700907 0 -0.24933364105965389 0.052640536924998073 0 -0.24469319669088871 0.067914101683764758 0 -0.26011863152298398 0.059255676562700907 0 -0.26302806369437087 0.046859293256697583 0 -0.24933364105965389 0.052640536924998073 0 -0.26620662450804328 0.032312477138676389 0 -0.24410272171733879 0.03737309415361658 0 -0.26302806369437087 0.046859293256697583 0 -0.26620662450804328 0.032312477138676389 0 -0.24410272171733879 0.03737309415361658 0 -0.26302806369437087 0.046859293256697583 0 -0.24410272171733879 0.03737309415361658 0 -0.24933364105965389 0.052640536924998073 0 -0.26302806369437087 0.046859293256697583 0 -0.26620662450804328 0.032312477138676389 0 -0.28019069863304108 0.043238991780269902 0 -0.26620662450804328 0.032312477138676389 0 -0.28019069863304108 0.043238991780269902 0 -0.28135434353481942 0.029995919267577279 0 -0.26011863152298398 0.059255676562700907 0 -0.26302806369437087 0.046859293256697583 0 -0.27821606472516441 0.056334982979923669 0 -0.26749963726242931 0.071561805919426236 0 -0.26011863152298398 0.059255676562700907 0 -0.27821606472516441 0.056334982979923669 0 -0.26302806369437087 0.046859293256697583 0 -0.28019069863304108 0.043238991780269902 0 -0.27821606472516441 0.056334982979923669 0 -0.25689548211398672 0.003199995621086429 0 -0.26357965990100207 0.01851218637870573 0 -0.24720763565175199 0.021624765903760879 0 -0.26620662450804328 0.032312477138676389 0 -0.24720763565175199 0.021624765903760879 0 -0.24410272171733879 0.03737309415361658 0 -0.26620662450804328 0.032312477138676389 0 -0.26357965990100207 0.01851218637870573 0 -0.24720763565175199 0.021624765903760879 0 -0.26357965990100207 0.01851218637870573 0 -0.28032519182805637 0.013170569081568511 0 -0.28135434353481942 0.029995919267577279 0 -0.26620662450804328 0.032312477138676389 0 -0.26357965990100207 0.01851218637870573 0 -0.28135434353481942 0.029995919267577279 0 -0.27990087635976602 -0.003018000538219144 0 -0.25689548211398672 0.003199995621086429 0 -0.28032519182805637 0.013170569081568511 0 -0.25689548211398672 0.003199995621086429 0 -0.26357965990100207 0.01851218637870573 0 -0.28032519182805637 0.013170569081568511 0 -0.28032519182805637 0.013170569081568511 0 -0.30004961895609761 0.02657049449790622 0 -0.29743804133862511 0.003483344366603097 0 -0.27990087635976602 -0.003018000538219144 0 -0.28032519182805637 0.013170569081568511 0 -0.29743804133862511 0.003483344366603097 0 -0.28032519182805637 0.013170569081568511 0 -0.28135434353481942 0.029995919267577279 0 -0.30004961895609761 0.02657049449790622 0 -0.30004961895609761 0.02657049449790622 0 -0.31189304158979342 0.0119659997261742 0 -0.32043564802057051 0.032843585271704688 0 -0.31747393394203732 -0.001863909567955442 0 -0.29743804133862511 0.003483344366603097 0 -0.31189304158979342 0.0119659997261742 0 -0.30004961895609761 0.02657049449790622 0 -0.29743804133862511 0.003483344366603097 0 -0.31189304158979342 0.0119659997261742 0 -0.29322574800932538 0.064451547412265026 0 -0.27821606472516441 0.056334982979923669 0 -0.29319200621210101 0.045762910520291543 0 -0.28019069863304108 0.043238991780269902 0 -0.27821606472516441 0.056334982979923669 0 -0.29319200621210101 0.045762910520291543 0 -0.28135434353481942 0.029995919267577279 0 -0.30004961895609761 0.02657049449790622 0 -0.29319200621210101 0.045762910520291543 0 -0.28019069863304108 0.043238991780269902 0 -0.28135434353481942 0.029995919267577279 0 -0.29319200621210101 0.045762910520291543 0 -0.30004961895609761 0.02657049449790622 0 -0.29319200621210101 0.045762910520291543 0 -0.30939173150839128 0.043758965060423011 0 -0.30004961895609761 0.02657049449790622 0 -0.30939173150839128 0.043758965060423011 0 -0.32043564802057051 0.032843585271704688 0 -0.29322574800932538 0.064451547412265026 0 -0.29319200621210101 0.045762910520291543 0 -0.30792272299738588 0.058980034031233891 0 -0.29319200621210101 0.045762910520291543 0 -0.30939173150839128 0.043758965060423011 0 -0.30792272299738588 0.058980034031233891 0 -0.30792272299738588 0.058980034031233891 0 -0.32897825445134699 0.053721170817235403 0 -0.31510734235460719 0.071010772432459193 0 -0.30939173150839128 0.043758965060423011 0 -0.30792272299738588 0.058980034031233891 0 -0.32897825445134699 0.053721170817235403 0 -0.32043564802057051 0.032843585271704688 0 -0.32897825445134699 0.053721170817235403 0 -0.33079493267916371 0.024263657414093351 0 -0.30939173150839128 0.043758965060423011 0 -0.32043564802057051 0.032843585271704688 0 -0.32897825445134699 0.053721170817235403 0 -0.32043564802057051 0.032843585271704688 0 -0.32897825445134699 0.053721170817235403 0 -0.33988209188044038 0.036822071806506228 0 -0.32897825445134699 0.053721170817235403 0 -0.34410762036403097 0.047605227336887442 0 -0.32897825445134699 0.053721170817235403 0 -0.33079493267916371 0.024263657414093351 0 -0.33988209188044038 0.036822071806506228 0 -0.32897825445134699 0.053721170817235403 0 -0.33079493267916371 0.024263657414093351 0 -0.32897825445134699 0.053721170817235403 0 -0.34736247347057009 0.060964970125011023 0 -0.34410762036403097 0.047605227336887442 0 -0.31747393394203732 -0.001863909567955442 0 -0.31189304158979342 0.0119659997261742 0 -0.33079493267916371 0.024263657414093351 0 -0.3326116109069811 -0.005193855989048729 0 -0.31747393394203732 -0.001863909567955442 0 -0.33079493267916371 0.024263657414093351 0 -0.31189304158979342 0.0119659997261742 0 -0.32043564802057051 0.032843585271704688 0 -0.31189304158979342 0.0119659997261742 0 -0.32043564802057051 0.032843585271704688 0 -0.33079493267916371 0.024263657414093351 0 -0.33079493267916371 0.024263657414093351 0 -0.34046483100669239 0.01737628220880956 0 -0.33994319695020792 0.0081901150208087414 0 -0.33988209188044038 0.036822071806506228 0 -0.33079493267916371 0.024263657414093351 0 -0.34491856651248581 0.024123999524168611 0 -0.33079493267916371 0.024263657414093351 0 -0.34046483100669239 0.01737628220880956 0 -0.34491856651248581 0.024123999524168611 0 -0.3326116109069811 -0.005193855989048729 0 -0.33079493267916371 0.024263657414093351 0 -0.3326116109069811 -0.005193855989048729 0 -0.33079493267916371 0.024263657414093351 0 -0.33994319695020792 0.0081901150208087414 0 -0.34046483100669239 0.01737628220880956 0 -0.33994319695020792 0.0081901150208087414 0 -0.3462026278849123 0.01292735687616753 0 -0.35246316822755502 0.007424380221463728 0 -0.35332273029837558 0.00088249528103173278 0 -0.35978811967700752 0.0064522657015292717 0 -0.34463919580281849 -0.0061373870655722172 0 -0.33994319695020792 0.0081901150208087414 0 -0.34726460473325371 0.0047143686437314822 0 -0.35246316822755502 0.007424380221463728 0 -0.35332273029837558 0.00088249528103173278 0 -0.34726460473325371 0.0047143686437314822 0 -0.35246316822755502 0.007424380221463728 0 -0.3462026278849123 0.01292735687616753 0 -0.35573775854422612 0.01214541460485862 0 -0.35246316822755502 0.007424380221463728 0 -0.34726460473325371 0.0047143686437314822 0 -0.3462026278849123 0.01292735687616753 0 -0.33994319695020792 0.0081901150208087414 0 -0.34726460473325371 0.0047143686437314822 0 -0.3462026278849123 0.01292735687616753 0 -0.3462026278849123 0.01292735687616753 0 -0.35573775854422612 0.01214541460485862 0 -0.35139766506630321 0.017749046711820791 0 -0.35573775854422612 0.01214541460485862 0 -0.35139766506630321 0.017749046711820791 0 -0.36085587607188419 0.015908663982150479 0 -0.35246316822755502 0.007424380221463728 0 -0.35573775854422612 0.01214541460485862 0 -0.35978811967700752 0.0064522657015292717 0 -0.35573775854422612 0.01214541460485862 0 -0.36048435366107051 0.01136043997234731 0 -0.35978811967700752 0.0064522657015292717 0 -0.35573775854422612 0.01214541460485862 0 -0.36085587607188419 0.015908663982150479 0 -0.36048435366107051 0.01136043997234731 0 -0.35656867046685292 0.02317800808744204 0 -0.35139766506630321 0.017749046711820791 0 -0.36085587607188419 0.015908663982150479 0 -0.35656867046685292 0.02317800808744204 0 -0.35139766506630321 0.017749046711820791 0 -0.34491856651248581 0.024123999524168611 0 -0.34046483100669239 0.01737628220880956 0 -0.3462026278849123 0.01292735687616753 0 -0.34491856651248581 0.024123999524168611 0 -0.3462026278849123 0.01292735687616753 0 -0.35139766506630321 0.017749046711820791 0 -0.34491856651248581 0.024123999524168611 0 -0.35656867046685292 0.02317800808744204 0 -0.34491856651248581 0.024123999524168611 0 -0.35061108539517472 0.034396303940146367 0 -0.35656867046685292 0.02317800808744204 0 -0.35061108539517472 0.034396303940146367 0 -0.36178427920393119 0.034389908446534223 0 -0.36864183034783748 0.011274891628045611 0 -0.37472066581688562 0.032093479209295617 0 -0.36594514103599401 0.020237998196823561 0 -0.36864183034783748 0.011274891628045611 0 -0.37472066581688562 0.032093479209295617 0 -0.35656867046685292 0.02317800808744204 0 -0.36594514103599401 0.020237998196823561 0 -0.36178427920393119 0.034389908446534223 0 -0.36594514103599401 0.020237998196823561 0 -0.36178427920393119 0.034389908446534223 0 -0.37472066581688562 0.032093479209295617 0 -0.35656867046685292 0.02317800808744204 0 -0.36594514103599401 0.020237998196823561 0 -0.36085587607188419 0.015908663982150479 0 -0.36594514103599401 0.020237998196823561 0 -0.36085587607188419 0.015908663982150479 0 -0.36516677451691459 0.01458184104466643 0 -0.36268351045863201 -0.0091309583216990682 0 -0.36864183034783748 0.011274891628045611 0 -0.35978811967700752 0.0064522657015292717 0 -0.36268351045863201 -0.0091309583216990682 0 -0.36864183034783748 0.011274891628045611 0 -0.36268351045863201 -0.0091309583216990682 0 -0.37627368421505869 -0.0010685545029741181 0 -0.36864183034783748 0.011274891628045611 0 -0.36522425061194269 0.01090581037164608 0 -0.36864183034783748 0.011274891628045611 0 -0.35978811967700752 0.0064522657015292717 0 -0.36594514103599401 0.020237998196823561 0 -0.36516677451691459 0.01458184104466643 0 -0.36864183034783748 0.011274891628045611 0 -0.36085587607188419 0.015908663982150479 0 -0.36048435366107051 0.01136043997234731 0 -0.36522425061194269 0.01090581037164608 0 -0.36048435366107051 0.01136043997234731 0 -0.36522425061194269 0.01090581037164608 0 -0.35978811967700752 0.0064522657015292717 0 -0.36522425061194269 0.01090581037164608 0 -0.36864183034783748 0.011274891628045611 0 -0.36522425061194269 0.01090581037164608 0 -0.36516677451691459 0.01458184104466643 0 -0.36864183034783748 0.011274891628045611 0 -0.36085587607188419 0.015908663982150479 0 -0.36522425061194269 0.01090581037164608 0 -0.36516677451691459 0.01458184104466643 0 -0.35554162323388289 0.048687639349865863 0 -0.34736247347057009 0.060964970125011023 0 -0.36247840104650259 0.064116868313832731 0 -0.35554162323388289 0.048687639349865863 0 -0.34736247347057009 0.060964970125011023 0 -0.34410762036403097 0.047605227336887442 0 -0.33988209188044038 0.036822071806506228 0 -0.34410762036403097 0.047605227336887442 0 -0.35061108539517472 0.034396303940146367 0 -0.35554162323388289 0.048687639349865863 0 -0.34410762036403097 0.047605227336887442 0 -0.35061108539517472 0.034396303940146367 0 -0.33988209188044038 0.036822071806506228 0 -0.34491856651248581 0.024123999524168611 0 -0.35061108539517472 0.034396303940146367 0 -0.35554162323388289 0.048687639349865863 0 -0.35061108539517472 0.034396303940146367 0 -0.36178427920393119 0.034389908446534223 0 -0.35554162323388289 0.048687639349865863 0 -0.36178427920393119 0.034389908446534223 0 -0.36690587992308782 0.050652557936783422 0 -0.38079950128593132 0.052912066790546428 0 -0.37472066581688562 0.032093479209295617 0 -0.36690587992308782 0.050652557936783422 0 -0.36178427920393119 0.034389908446534223 0 -0.37472066581688562 0.032093479209295617 0 -0.36690587992308782 0.050652557936783422 0 -0.37508824185204731 0.071465365720815188 0 -0.36690587992308782 0.050652557936783422 0 -0.38079950128593132 0.052912066790546428 0 -0.37508824185204731 0.071465365720815188 0 -0.36690587992308782 0.050652557936783422 0 -0.37508824185204731 0.071465365720815188 0 -0.36690587992308782 0.050652557936783422 0 -0.36247840104650259 0.064116868313832731 0 -0.35554162323388289 0.048687639349865863 0 -0.36690587992308782 0.050652557936783422 0 -0.36247840104650259 0.064116868313832731 0 -0.37508824185204731 0.071465365720815188 0 -0.35293968811381582 0.074600340005973972 0 -0.36068926710177318 0.087240413693322513 0 -0.37508824185204731 0.071465365720815188 0 -0.36247840104650259 0.064116868313832731 0 -0.35293968811381582 0.074600340005973972 0 -0.34736247347057009 0.060964970125011023 0 -0.36247840104650259 0.064116868313832731 0 -0.35293968811381582 0.074600340005973972 0 -0.34736247347057009 0.060964970125011023 0 -0.35293968811381582 0.074600340005973972 0 -0.33971664426213272 0.079965110967422301 0 -0.35293968811381582 0.074600340005973972 0 -0.36068926710177318 0.087240413693322513 0 -0.33971664426213272 0.079965110967422301 0 -0.35045503407291778 0.1062090511176096 0 -0.33971664426213272 0.079965110967422301 0 -0.36068926710177318 0.087240413693322513 0 -0.35045503407291778 0.1062090511176096 0 -0.33971664426213272 0.079965110967422301 0 -0.38327060378100669 0.092278173504846933 0 -0.37508824185204731 0.071465365720815188 0 -0.36068926710177318 0.087240413693322513 0 -0.36068926710177318 0.087240413693322513 0 -0.36882563244243582 0.1020321993621809 0 -0.35045503407291778 0.1062090511176096 0 -0.38327060378100669 0.092278173504846933 0 -0.36068926710177318 0.087240413693322513 0 -0.36882563244243582 0.1020321993621809 0 -0.36882563244243582 0.1020321993621809 0 -0.36648355068506788 0.1193039355354634 0 -0.35045503407291778 0.1062090511176096 0 -0.3611934238837029 0.1324529912677968 0 -0.36648355068506788 0.1193039355354634 0 -0.35045503407291778 0.1062090511176096 0 -0.3611934238837029 0.1324529912677968 0 -0.34477288681553248 0.1256226861480205 0 -0.35045503407291778 0.1062090511176096 0 -0.3611934238837029 0.1324529912677968 0 -0.35045503407291778 0.1062090511176096 0 -0.34477288681553248 0.1256226861480205 0 -0.35045503407291778 0.1062090511176096 0 -0.33703318514701491 0.116151022179193 0 -0.35045503407291778 0.1062090511176096 0 -0.33163233184354513 0.10610573984508299 0 -0.33479649005511292 0.094972993816952234 0 -0.33163233184354513 0.10610573984508299 0 -0.33479649005511292 0.094972993816952234 0 -0.32275951837705508 0.09631742949025715 0 -0.35045503407291778 0.1062090511176096 0 -0.33163233184354513 0.10610573984508299 0 -0.33703318514701491 0.116151022179193 0 -0.34477288681553248 0.1256226861480205 0 -0.3294881304138621 0.12784940930772329 0 -0.33703318514701491 0.116151022179193 0 -0.33163233184354513 0.10610573984508299 0 -0.33703318514701491 0.116151022179193 0 -0.32640758876675519 0.1161196544077667 0 -0.3294881304138621 0.12784940930772329 0 -0.33703318514701491 0.116151022179193 0 -0.32640758876675519 0.1161196544077667 0 -0.32640758876675519 0.1161196544077667 0 -0.31445151658903647 0.1243748783024395 0 -0.31748883559990448 0.10793760663304031 0 -0.30582849486463859 0.1126967726448716 0 -0.31445151658903647 0.1243748783024395 0 -0.31748883559990448 0.10793760663304031 0 -0.3294881304138621 0.12784940930772329 0 -0.32640758876675519 0.1161196544077667 0 -0.31445151658903647 0.1243748783024395 0 -0.33163233184354513 0.10610573984508299 0 -0.32640758876675519 0.1161196544077667 0 -0.31748883559990448 0.10793760663304031 0 -0.30552967341059017 0.095916531967890101 0 -0.32275951837705508 0.09631742949025715 0 -0.31748883559990448 0.10793760663304031 0 -0.33163233184354513 0.10610573984508299 0 -0.32275951837705508 0.09631742949025715 0 -0.31748883559990448 0.10793760663304031 0 -0.30552967341059017 0.095916531967890101 0 -0.32275951837705508 0.09631742949025715 0 -0.31846271887825922 0.083342286020994444 0 -0.32275951837705508 0.09631742949025715 0 -0.31846271887825922 0.083342286020994444 0 -0.3287012427267782 0.08557944669761558 0 -0.31846271887825922 0.083342286020994444 0 -0.32777084206133128 0.073299413192451784 0 -0.3287012427267782 0.08557944669761558 0 -0.30589916628940222 0.07606050917594244 0 -0.31846271887825922 0.083342286020994444 0 -0.31510734235460719 0.071010772432459193 0 -0.32897825445134699 0.053721170817235403 0 -0.31510734235460719 0.071010772432459193 0 -0.32777084206133128 0.073299413192451784 0 -0.31846271887825922 0.083342286020994444 0 -0.31510734235460719 0.071010772432459193 0 -0.32777084206133128 0.073299413192451784 0 -0.32897825445134699 0.053721170817235403 0 -0.34736247347057009 0.060964970125011023 0 -0.33971664426213272 0.079965110967422301 0 -0.32897825445134699 0.053721170817235403 0 -0.32777084206133128 0.073299413192451784 0 -0.32897825445134699 0.053721170817235403 0 -0.32777084206133128 0.073299413192451784 0 -0.33971664426213272 0.079965110967422301 0 -0.32897825445134699 0.053721170817235403 0 -0.33971664426213272 0.079965110967422301 0 -0.35045503407291778 0.1062090511176096 0 -0.33479649005511292 0.094972993816952234 0 -0.33971664426213272 0.079965110967422301 0 -0.33479649005511292 0.094972993816952234 0 -0.33971664426213272 0.079965110967422301 0 -0.3287012427267782 0.08557944669761558 0 -0.33479649005511292 0.094972993816952234 0 -0.32275951837705508 0.09631742949025715 0 -0.3287012427267782 0.08557944669761558 0 -0.32777084206133128 0.073299413192451784 0 -0.33971664426213272 0.079965110967422301 0 -0.3287012427267782 0.08557944669761558 0 -0.40067356616371252 0.48351111893332371 0 -0.38253549143817611 0.48438608730432547 0 -0.39695806363988451 0.46214950852748182 0 -0.40067356616371252 0.48351111893332371 0 -0.39695806363988451 0.46214950852748182 0 -0.41904752031168452 0.47101999883481133 0 -0.40067356616371252 0.48351111893332371 0 -0.39277428390472641 0.49999999999999989 0 -0.38253549143817611 0.48438608730432547 0 -0.40067356616371252 0.48351111893332371 0 -0.39277428390472641 0.49999999999999989 0 -0.41205247152409069 0.49999999999999761 0 -0.39277428390472641 0.49999999999999989 0 -0.38253549143817611 0.48438608730432547 0 -0.36402130909824609 0.5 0 -0.39277428390472641 0.49999999999999989 0 -0.38253549143817611 0.48438608730432547 0 -0.38253549143817611 0.48438608730432547 0 -0.37229669897162648 0.4687721746086505 0 -0.38253549143817611 0.48438608730432547 0 -0.39695806363988451 0.46214950852748182 0 -0.37229669897162648 0.4687721746086505 0 -0.37879172645040482 0.44364845171245471 0 -0.39695806363988451 0.46214950852748182 0 -0.37229669897162648 0.4687721746086505 0 -0.37879172645040482 0.44364845171245471 0 -0.37229669897162648 0.4687721746086505 0 -0.37879172645040482 0.44364845171245471 0 -0.39695806363988451 0.46214950852748182 0 -0.4024327882672406 0.43348095578955143 0 -0.39695806363988451 0.46214950852748182 0 -0.42604256909927868 0.44203999766962487 0 -0.41904752031168452 0.47101999883481133 0 -0.39695806363988451 0.46214950852748182 0 -0.42604256909927868 0.44203999766962487 0 -0.4024327882672406 0.43348095578955143 0 -0.42842480172933528 0.44592182297560679 0 -0.44600894537299901 0.4432307514916336 0 -0.42604256909927868 0.44203999766962487 0 -0.42842480172933528 0.44592182297560679 0 -0.41904752031168452 0.47101999883481133 0 -0.42604256909927868 0.44203999766962487 0 -0.42842480172933528 0.44592182297560679 0 -0.43952328162993609 0.42814537399803632 0 -0.42842480172933528 0.44592182297560679 0 -0.43765618428259162 0.45905454182207189 0 -0.44600894537299901 0.4432307514916336 0 -0.41904752031168452 0.47101999883481133 0 -0.44302590200759018 0.4756576523492132 0 -0.43765618428259162 0.45905454182207189 0 -0.42604256909927868 0.44203999766962487 0 -0.41904752031168452 0.47101999883481133 0 -0.42842480172933528 0.44592182297560679 0 -0.41904752031168452 0.47101999883481133 0 -0.43765618428259162 0.45905454182207189 0 -0.41205247152409069 0.49999999999999761 0 -0.43445777005926389 0.48666941279600612 0 -0.46370518639369063 0.5 0 -0.41904752031168452 0.47101999883481133 0 -0.43445777005926389 0.48666941279600612 0 -0.44302590200759018 0.4756576523492132 0 -0.41904752031168452 0.47101999883481133 0 -0.41205247152409069 0.49999999999999761 0 -0.40067356616371252 0.48351111893332371 0 -0.41904752031168452 0.47101999883481133 0 -0.41205247152409069 0.49999999999999761 0 -0.41904752031168452 0.47101999883481133 0 -0.41205247152409069 0.49999999999999761 0 -0.43445777005926389 0.48666941279600612 0 -0.43445777005926389 0.48666941279600612 0 -0.44302590200759018 0.4756576523492132 0 -0.46370518639369063 0.5 0 -0.5 0.5 0 -0.48152573983579389 0.47841675341781892 0 -0.49999999999999861 0.43496797848199992 0 -0.44302590200759018 0.4756576523492132 0 -0.46047530971867789 0.47687889850634618 0 -0.4532421275458377 0.46005482499899009 0 -0.44302590200759018 0.4756576523492132 0 -0.46047530971867789 0.47687889850634618 0 -0.46370518639369063 0.5 0 -0.46047530971867789 0.47687889850634618 0 -0.46370518639369063 0.5 0 -0.48152573983579389 0.47841675341781892 0 -0.46370518639369063 0.5 0 -0.5 0.5 0 -0.48152573983579389 0.47841675341781892 0 -0.46047530971867789 0.47687889850634618 0 -0.48152573983579389 0.47841675341781892 0 -0.47404147688173132 0.45877769711928851 0 -0.48152573983579389 0.47841675341781892 0 -0.47404147688173132 0.45877769711928851 0 -0.49999999999999861 0.43496797848199992 0 -0.47404147688173132 0.45877769711928851 0 -0.47300447268649859 0.43909936498681651 0 -0.49999999999999861 0.43496797848199992 0 -0.47300447268649859 0.43909936498681651 0 -0.44600894537299901 0.4432307514916336 0 -0.47404147688173132 0.45877769711928851 0 -0.47300447268649859 0.43909936498681651 0 -0.4532421275458377 0.46005482499899009 0 -0.47300447268649859 0.43909936498681651 0 -0.4532421275458377 0.46005482499899009 0 -0.44600894537299901 0.4432307514916336 0 -0.46047530971867789 0.47687889850634618 0 -0.4532421275458377 0.46005482499899009 0 -0.46047530971867789 0.47687889850634618 0 -0.47404147688173132 0.45877769711928851 0 -0.4532421275458377 0.46005482499899009 0 -0.44302590200759018 0.4756576523492132 0 -0.4532421275458377 0.46005482499899009 0 -0.43765618428259162 0.45905454182207189 0 -0.4532421275458377 0.46005482499899009 0 -0.43765618428259162 0.45905454182207189 0 -0.44600894537299901 0.4432307514916336 0 -0.42842480172933528 0.44592182297560679 0 -0.44600894537299901 0.4432307514916336 0 -0.43952328162993609 0.42814537399803632 0 -0.4532421275458377 0.46005482499899009 0 -0.44600894537299901 0.4432307514916336 0 -0.44600894537299901 0.4432307514916336 0 -0.43952328162993609 0.42814537399803632 0 -0.45581542413768023 0.42623856022075401 0 -0.43952328162993609 0.42814537399803632 0 -0.44654720290637773 0.41617238323721678 0 -0.45581542413768023 0.42623856022075401 0 -0.44600894537299901 0.4432307514916336 0 -0.43952328162993609 0.42814537399803632 0 -0.44654720290637773 0.41617238323721678 0 -0.44536218619284912 0.40503933037591783 0 -0.433037617886874 0.4130599965044387 0 -0.43952328162993609 0.42814537399803632 0 -0.44654720290637773 0.41617238323721678 0 -0.433037617886874 0.4130599965044387 0 -0.44654720290637773 0.41617238323721678 0 -0.4589975046845487 0.40837865508693749 0 -0.44536218619284912 0.40503933037591783 0 -0.44654720290637773 0.41617238323721678 0 -0.4589975046845487 0.40837865508693749 0 -0.45581542413768023 0.42623856022075401 0 -0.4589975046845487 0.40837865508693749 0 -0.45581542413768023 0.42623856022075401 0 -0.47079660892660619 0.41994866275354642 0 -0.47300447268649859 0.43909936498681651 0 -0.45581542413768023 0.42623856022075401 0 -0.47079660892660619 0.41994866275354642 0 -0.47300447268649859 0.43909936498681651 0 -0.44600894537299901 0.4432307514916336 0 -0.45581542413768023 0.42623856022075401 0 -0.47300447268649859 0.43909936498681651 0 -0.47079660892660619 0.41994866275354642 0 -0.48735858571426499 0.42108071737065228 0 -0.4589975046845487 0.40837865508693749 0 -0.47079660892660619 0.41994866275354642 0 -0.47880705741003848 0.40494601610257169 0 -0.47079660892660619 0.41994866275354642 0 -0.48735858571426499 0.42108071737065228 0 -0.47880705741003848 0.40494601610257169 0 -0.48735858571426499 0.42108071737065228 0 -0.5 0.40672104153666239 0 -0.49999999999999861 0.43496797848199992 0 -0.48735858571426499 0.42108071737065228 0 -0.5 0.40672104153666239 0 -0.47880705741003848 0.40494601610257169 0 -0.47300447268649859 0.43909936498681651 0 -0.48735858571426499 0.42108071737065228 0 -0.49999999999999861 0.43496797848199992 0 -0.47300447268649859 0.43909936498681651 0 -0.49999999999999861 0.43496797848199992 0 -0.48759301942355299 0.38660344682398889 0 -0.5 0.37847410459132502 0 -0.48497654676430202 0.36858712537786309 0 -0.5 0.40672104153666239 0 -0.48759301942355299 0.38660344682398889 0 -0.5 0.37847410459132502 0 -0.5 0.40672104153666239 0 -0.48759301942355299 0.38660344682398889 0 -0.47880705741003848 0.40494601610257169 0 -0.48759301942355299 0.38660344682398889 0 -0.47880705741003848 0.40494601610257169 0 -0.46509879223416778 0.38539952922257892 0 -0.48759301942355299 0.38660344682398889 0 -0.47097298633584589 0.37246782307339332 0 -0.48497654676430202 0.36858712537786309 0 -0.48759301942355299 0.38660344682398889 0 -0.46509879223416778 0.38539952922257892 0 -0.47097298633584589 0.37246782307339332 0 -0.48759301942355299 0.38660344682398889 0 -0.46509879223416778 0.38539952922257892 0 -0.46509879223416778 0.38539952922257892 0 -0.45516113638809502 0.37554365339565737 0 -0.47097298633584589 0.37246782307339332 0 -0.46509879223416778 0.38539952922257892 0 -0.45170657017234939 0.39464155691132619 0 -0.44260456504478252 0.38419561162116889 0 -0.46509879223416778 0.38539952922257892 0 -0.45516113638809502 0.37554365339565737 0 -0.44260456504478252 0.38419561162116889 0 -0.46509879223416778 0.38539952922257892 0 -0.44260456504478252 0.38419561162116889 0 -0.4589975046845487 0.40837865508693749 0 -0.46509879223416778 0.38539952922257892 0 -0.45170657017234939 0.39464155691132619 0 -0.4589975046845487 0.40837865508693749 0 -0.47880705741003848 0.40494601610257169 0 -0.46509879223416778 0.38539952922257892 0 -0.44536218619284912 0.40503933037591783 0 -0.43805625259809527 0.39226814155171741 0 -0.433037617886874 0.4130599965044387 0 -0.4589975046845487 0.40837865508693749 0 -0.44536218619284912 0.40503933037591783 0 -0.45170657017234939 0.39464155691132619 0 -0.44536218619284912 0.40503933037591783 0 -0.45170657017234939 0.39464155691132619 0 -0.43805625259809527 0.39226814155171741 0 -0.45516113638809502 0.37554365339565737 0 -0.44260456504478252 0.38419561162116889 0 -0.44379931899009001 0.37275614437304871 0 -0.45170657017234939 0.39464155691132619 0 -0.43805625259809527 0.39226814155171741 0 -0.44260456504478252 0.38419561162116889 0 -0.44260456504478252 0.38419561162116889 0 -0.4332419136325939 0.37585794920747412 0 -0.44379931899009001 0.37275614437304871 0 -0.44260456504478252 0.38419561162116889 0 -0.42011033785539731 0.38299169401975891 0 -0.44260456504478252 0.38419561162116889 0 -0.4309717540609197 0.38902388575296881 0 -0.42011033785539731 0.38299169401975891 0 -0.44260456504478252 0.38419561162116889 0 -0.4332419136325939 0.37585794920747412 0 -0.42011033785539731 0.38299169401975891 0 -0.43805625259809527 0.39226814155171741 0 -0.44260456504478252 0.38419561162116889 0 -0.4309717540609197 0.38902388575296881 0 -0.42011033785539731 0.38299169401975891 0 -0.42657397787113599 0.39802584526209861 0 -0.4309717540609197 0.38902388575296881 0 -0.42011033785539731 0.38299169401975891 0 -0.42657397787113599 0.39802584526209861 0 -0.4332419136325939 0.37585794920747412 0 -0.42011033785539731 0.38299169401975891 0 -0.42476453611520593 0.37481923681794371 0 -0.41698191574550769 0.37571511750320852 0 -0.42011033785539731 0.38299169401975891 0 -0.40994474469894909 0.3824476194700186 0 -0.42011033785539731 0.38299169401975891 0 -0.40994474469894909 0.3824476194700186 0 -0.41698191574550769 0.37571511750320852 0 -0.42011033785539731 0.38299169401975891 0 -0.42476453611520593 0.37481923681794371 0 -0.41698191574550769 0.37571511750320852 0 -0.42011033785539731 0.38299169401975891 0 -0.42011033785539731 0.38299169401975891 0 -0.40994474469894909 0.3824476194700186 0 -0.41398701511740699 0.39398381300239049 0 -0.40994474469894909 0.3824476194700186 0 -0.41398701511740699 0.39398381300239049 0 -0.40457020093533591 0.39078522019452933 0 -0.40994474469894909 0.3824476194700186 0 -0.40333648762801688 0.37943455076916022 0 -0.41120187551229548 0.37225199562280759 0 -0.41698191574550769 0.37571511750320852 0 -0.40994474469894909 0.3824476194700186 0 -0.41120187551229548 0.37225199562280759 0 -0.41398701511740699 0.39398381300239049 0 -0.4179489725523704 0.40704735461542257 0 -0.40330023522236402 0.40333372069611378 0 -0.41398701511740699 0.39398381300239049 0 -0.40457020093533591 0.39078522019452933 0 -0.40330023522236402 0.40333372069611378 0 -0.42011033785539731 0.38299169401975891 0 -0.41398701511740699 0.39398381300239049 0 -0.42657397787113599 0.39802584526209861 0 -0.41398701511740699 0.39398381300239049 0 -0.42657397787113599 0.39802584526209861 0 -0.4179489725523704 0.40704735461542257 0 -0.42657397787113599 0.39802584526209861 0 -0.433037617886874 0.4130599965044387 0 -0.4179489725523704 0.40704735461542257 0 -0.43805625259809527 0.39226814155171741 0 -0.42657397787113599 0.39802584526209861 0 -0.433037617886874 0.4130599965044387 0 -0.43805625259809527 0.39226814155171741 0 -0.433037617886874 0.4130599965044387 0 -0.43805625259809527 0.39226814155171741 0 -0.4309717540609197 0.38902388575296881 0 -0.42657397787113599 0.39802584526209861 0 -0.42657397787113599 0.39802584526209861 0 -0.433037617886874 0.4130599965044387 0 -0.433037617886874 0.4130599965044387 0 -0.41713772703953911 0.42237770124141139 0 -0.4179489725523704 0.40704735461542257 0 -0.43952328162993609 0.42814537399803632 0 -0.433037617886874 0.4130599965044387 0 -0.42604256909927868 0.44203999766962487 0 -0.43952328162993609 0.42814537399803632 0 -0.433037617886874 0.4130599965044387 0 -0.42604256909927868 0.44203999766962487 0 -0.433037617886874 0.4130599965044387 0 -0.42604256909927868 0.44203999766962487 0 -0.433037617886874 0.4130599965044387 0 -0.41713772703953911 0.42237770124141139 0 -0.42604256909927868 0.44203999766962487 0 -0.41713772703953911 0.42237770124141139 0 -0.4024327882672406 0.43348095578955143 0 -0.41713772703953911 0.42237770124141139 0 -0.40622668739193057 0.41626020162801952 0 -0.4024327882672406 0.43348095578955143 0 -0.41713772703953911 0.42237770124141139 0 -0.4179489725523704 0.40704735461542257 0 -0.40622668739193057 0.41626020162801952 0 -0.4179489725523704 0.40704735461542257 0 -0.40622668739193057 0.41626020162801952 0 -0.40330023522236402 0.40333372069611378 0 -0.40622668739193057 0.41626020162801952 0 -0.38528675392918182 0.41852472881625852 0 -0.40330023522236402 0.40333372069611378 0 -0.40622668739193057 0.41626020162801952 0 -0.4024327882672406 0.43348095578955143 0 -0.38528675392918182 0.41852472881625852 0 -0.37879172645040482 0.44364845171245471 0 -0.38528675392918182 0.41852472881625852 0 -0.36396462051856848 0.426382225859054 0 -0.37879172645040482 0.44364845171245471 0 -0.38528675392918182 0.41852472881625852 0 -0.37879172645040482 0.44364845171245471 0 -0.4024327882672406 0.43348095578955143 0 -0.38528675392918182 0.41852472881625852 0 -0.38528675392918182 0.41852472881625852 0 -0.39178178140795861 0.39340100592006239 0 -0.38528675392918182 0.41852472881625852 0 -0.39178178140795861 0.39340100592006239 0 -0.3705907680975018 0.39216637407158789 0 -0.39178178140795861 0.39340100592006239 0 -0.37735541314810322 0.37355832329676608 0 -0.3705907680975018 0.39216637407158789 0 -0.39178178140795861 0.39340100592006239 0 -0.39827680888673561 0.36827728302386642 0 -0.37735541314810322 0.37355832329676608 0 -0.40333648762801688 0.37943455076916022 0 -0.39178178140795861 0.39340100592006239 0 -0.39827680888673561 0.36827728302386642 0 -0.39178178140795861 0.39340100592006239 0 -0.39827680888673561 0.36827728302386642 0 -0.40333648762801688 0.37943455076916022 0 -0.40457020093533591 0.39078522019452933 0 -0.39178178140795861 0.39340100592006239 0 -0.40994474469894909 0.3824476194700186 0 -0.40333648762801688 0.37943455076916022 0 -0.40457020093533591 0.39078522019452933 0 -0.38528675392918182 0.41852472881625852 0 -0.40330023522236402 0.40333372069611378 0 -0.39178178140795861 0.39340100592006239 0 -0.40457020093533591 0.39078522019452933 0 -0.40330023522236402 0.40333372069611378 0 -0.39178178140795861 0.39340100592006239 0 -0.39827680888673561 0.36827728302386642 0 -0.38248166547526619 0.35205518551514609 0 -0.40477183636551339 0.34315356012767051 0 -0.39827680888673561 0.36827728302386642 0 -0.40477183636551339 0.34315356012767051 0 -0.4056318303917083 0.36846033693423041 0 -0.39827680888673561 0.36827728302386642 0 -0.40477183636551339 0.34315356012767051 0 -0.40333648762801688 0.37943455076916022 0 -0.4056318303917083 0.36846033693423041 0 -0.39827680888673561 0.36827728302386642 0 -0.39827680888673561 0.36827728302386642 0 -0.37735541314810322 0.37355832329676608 0 -0.38248166547526619 0.35205518551514609 0 -0.38248166547526619 0.35205518551514609 0 -0.38563026577647619 0.3313931589374407 0 -0.36831654614497472 0.33922749996314738 0 -0.38563026577647619 0.3313931589374407 0 -0.36648869518743882 0.319632757747211 0 -0.38563026577647619 0.3313931589374407 0 -0.39645007197498561 0.30901776319555341 0 -0.37888913402897179 0.30882046751300102 0 -0.38563026577647619 0.3313931589374407 0 -0.37888913402897179 0.30882046751300102 0 -0.36648869518743882 0.319632757747211 0 -0.38563026577647619 0.3313931589374407 0 -0.41021282969149597 0.32210699657597858 0 -0.39645007197498561 0.30901776319555341 0 -0.38563026577647619 0.3313931589374407 0 -0.40477183636551339 0.34315356012767051 0 -0.41021282969149597 0.32210699657597858 0 -0.38248166547526619 0.35205518551514609 0 -0.38563026577647619 0.3313931589374407 0 -0.40477183636551339 0.34315356012767051 0 -0.38563026577647619 0.3313931589374407 0 -0.40477183636551339 0.34315356012767051 0 -0.40477183636551339 0.34315356012767051 0 -0.41813821838802578 0.33626007791251827 0 -0.41021282969149597 0.32210699657597858 0 -0.40477183636551339 0.34315356012767051 0 -0.41021282969149597 0.32210699657597858 0 -0.40477183636551339 0.34315356012767051 0 -0.41813821838802578 0.33626007791251827 0 -0.41340155824742031 0.34845558020064699 0 -0.41813821838802578 0.33626007791251827 0 -0.41340155824742031 0.34845558020064699 0 -0.41813821838802578 0.33626007791251827 0 -0.41689602070275311 0.3186602554684026 0 -0.41813821838802578 0.33626007791251827 0 -0.41689602070275311 0.3186602554684026 0 -0.42797359809348362 0.31093687714616408 0 -0.41813821838802578 0.33626007791251827 0 -0.41021282969149597 0.32210699657597858 0 -0.41689602070275311 0.3186602554684026 0 -0.41021282969149597 0.32210699657597858 0 -0.41689602070275311 0.3186602554684026 0 -0.41565382301747938 0.30106043302428698 0 -0.41813821838802578 0.33626007791251827 0 -0.43573491087122762 0.32688718291909052 0 -0.42797359809348362 0.31093687714616408 0 -0.41813821838802578 0.33626007791251827 0 -0.42797359809348362 0.31093687714616408 0 -0.43573491087122762 0.32688718291909052 0 -0.43808794526156081 0.31425745264435428 0 -0.42797359809348362 0.31093687714616408 0 -0.41813821838802578 0.33626007791251827 0 -0.43573491087122762 0.32688718291909052 0 -0.42969251446259538 0.33986909514241681 0 -0.41813821838802578 0.33626007791251827 0 -0.42969251446259538 0.33986909514241681 0 -0.42358902273627702 0.34701337957534162 0 -0.43573491087122762 0.32688718291909052 0 -0.42969251446259538 0.33986909514241681 0 -0.43975988195290899 0.34094323140910299 0 -0.42969251446259538 0.33986909514241681 0 -0.43124053836453691 0.34824160389603021 0 -0.43975988195290899 0.34094323140910299 0 -0.43124053836453691 0.34824160389603021 0 -0.4398349538841132 0.35280219620347197 0 -0.43975988195290899 0.34094323140910299 0 -0.43052883938495973 0.35769297271248618 0 -0.43620106627449062 0.36191944848166191 0 -0.4398349538841132 0.35280219620347197 0 -0.43124053836453691 0.34824160389603021 0 -0.43052883938495973 0.35769297271248618 0 -0.4398349538841132 0.35280219620347197 0 -0.43124053836453691 0.34824160389603021 0 -0.43052883938495973 0.35769297271248618 0 -0.42618367420238951 0.35197799545256381 0 -0.43052883938495973 0.35769297271248618 0 -0.42618367420238951 0.35197799545256381 0 -0.42549522536366668 0.35719506563207071 0 -0.43052883938495973 0.35769297271248618 0 -0.42549522536366668 0.35719506563207071 0 -0.42439962717236229 0.36152118667824612 0 -0.42618367420238951 0.35197799545256381 0 -0.42385680342061949 0.35454116325657481 0 -0.42549522536366668 0.35719506563207071 0 -0.42618367420238951 0.35197799545256381 0 -0.42385680342061949 0.35454116325657481 0 -0.42105538769889622 0.35315802113004757 0 -0.42385680342061949 0.35454116325657481 0 -0.42254347040605511 0.35669123220289378 0 -0.42105538769889622 0.35315802113004757 0 -0.42549522536366668 0.35719506563207071 0 -0.42254347040605511 0.35669123220289378 0 -0.42439962717236229 0.36152118667824612 0 -0.42254347040605511 0.35669123220289378 0 -0.41973439341517838 0.35887515552910332 0 -0.42439962717236229 0.36152118667824612 0 -0.42385680342061949 0.35454116325657481 0 -0.42549522536366668 0.35719506563207071 0 -0.42254347040605511 0.35669123220289378 0 -0.42969251446259538 0.33986909514241681 0 -0.43124053836453691 0.34824160389603021 0 -0.42358902273627702 0.34701337957534162 0 -0.43124053836453691 0.34824160389603021 0 -0.42618367420238951 0.35197799545256381 0 -0.42358902273627702 0.34701337957534162 0 -0.42618367420238951 0.35197799545256381 0 -0.42358902273627702 0.34701337957534162 0 -0.42105538769889622 0.35315802113004757 0 -0.4056318303917083 0.36846033693423041 0 -0.40477183636551339 0.34315356012767051 0 -0.41340155824742031 0.34845558020064699 0 -0.41813821838802578 0.33626007791251827 0 -0.42358902273627702 0.34701337957534162 0 -0.41925270629352529 0.35205047060556688 0 -0.41813821838802578 0.33626007791251827 0 -0.41925270629352529 0.35205047060556688 0 -0.41813821838802578 0.33626007791251827 0 -0.41925270629352529 0.35205047060556688 0 -0.41340155824742031 0.34845558020064699 0 -0.4056318303917083 0.36846033693423041 0 -0.41340155824742031 0.34845558020064699 0 -0.4056318303917083 0.36846033693423041 0 -0.41340155824742031 0.34845558020064699 0 -0.41430572976780561 0.36068170798046328 0 -0.41925270629352529 0.35205047060556688 0 -0.41340155824742031 0.34845558020064699 0 -0.42358902273627702 0.34701337957534162 0 -0.42105538769889622 0.35315802113004757 0 -0.41925270629352529 0.35205047060556688 0 -0.42105538769889622 0.35315802113004757 0 -0.41925270629352529 0.35205047060556688 0 -0.41973439341517838 0.35887515552910332 0 -0.41925270629352529 0.35205047060556688 0 -0.41973439341517838 0.35887515552910332 0 -0.41667359693098233 0.3550157285789447 0 -0.41925270629352529 0.35205047060556688 0 -0.41973439341517838 0.35887515552910332 0 -0.41667359693098233 0.3550157285789447 0 -0.41340155824742031 0.34845558020064699 0 -0.41430572976780561 0.36068170798046328 0 -0.42105538769889622 0.35315802113004757 0 -0.41925270629352529 0.35205047060556688 0 -0.42254347040605511 0.35669123220289378 0 -0.42105538769889622 0.35315802113004757 0 -0.41973439341517838 0.35887515552910332 0 -0.41973439341517838 0.35887515552910332 0 -0.41667359693098233 0.3550157285789447 0 -0.41430572976780561 0.36068170798046328 0 -0.41925270629352529 0.35205047060556688 0 -0.41667359693098233 0.3550157285789447 0 -0.41340155824742031 0.34845558020064699 0 -0.40477183636551339 0.34315356012767051 0 -0.41340155824742031 0.34845558020064699 0 -0.40333648762801688 0.37943455076916022 0 -0.4056318303917083 0.36846033693423041 0 -0.41120187551229548 0.37225199562280759 0 -0.4056318303917083 0.36846033693423041 0 -0.41120187551229548 0.37225199562280759 0 -0.41371623408349251 0.36713683205729952 0 -0.4056318303917083 0.36846033693423041 0 -0.41371623408349251 0.36713683205729952 0 -0.41430572976780561 0.36068170798046328 0 -0.41371623408349251 0.36713683205729952 0 -0.41430572976780561 0.36068170798046328 0 -0.41919805439329699 0.36448469177205078 0 -0.41973439341517838 0.35887515552910332 0 -0.41430572976780561 0.36068170798046328 0 -0.41919805439329699 0.36448469177205078 0 -0.41973439341517838 0.35887515552910332 0 -0.41919805439329699 0.36448469177205078 0 -0.42439962717236229 0.36152118667824612 0 -0.41919805439329699 0.36448469177205078 0 -0.41842814973084658 0.37035723971385698 0 -0.42460419219009732 0.36833602867333592 0 -0.41371623408349251 0.36713683205729952 0 -0.41919805439329699 0.36448469177205078 0 -0.41842814973084658 0.37035723971385698 0 -0.41120187551229548 0.37225199562280759 0 -0.41371623408349251 0.36713683205729952 0 -0.41842814973084658 0.37035723971385698 0 -0.41698191574550769 0.37571511750320852 0 -0.41120187551229548 0.37225199562280759 0 -0.41842814973084658 0.37035723971385698 0 -0.41698191574550769 0.37571511750320852 0 -0.41842814973084658 0.37035723971385698 0 -0.42476453611520593 0.37481923681794371 0 -0.4332419136325939 0.37585794920747412 0 -0.42476453611520593 0.37481923681794371 0 -0.43085454109293481 0.37139703037274291 0 -0.41842814973084658 0.37035723971385698 0 -0.42476453611520593 0.37481923681794371 0 -0.42460419219009732 0.36833602867333592 0 -0.42460419219009732 0.36833602867333592 0 -0.43057684868567919 0.3652771468155363 0 -0.43085454109293481 0.37139703037274291 0 -0.42476453611520593 0.37481923681794371 0 -0.42460419219009732 0.36833602867333592 0 -0.43085454109293481 0.37139703037274291 0 -0.41919805439329699 0.36448469177205078 0 -0.42460419219009732 0.36833602867333592 0 -0.42439962717236229 0.36152118667824612 0 -0.42460419219009732 0.36833602867333592 0 -0.42439962717236229 0.36152118667824612 0 -0.43057684868567919 0.3652771468155363 0 -0.43052883938495973 0.35769297271248618 0 -0.42439962717236229 0.36152118667824612 0 -0.43057684868567919 0.3652771468155363 0 -0.43052883938495973 0.35769297271248618 0 -0.43057684868567919 0.3652771468155363 0 -0.43620106627449062 0.36191944848166191 0 -0.43057684868567919 0.3652771468155363 0 -0.43620106627449062 0.36191944848166191 0 -0.43731818269715339 0.36898797804018202 0 -0.43057684868567919 0.3652771468155363 0 -0.43085454109293481 0.37139703037274291 0 -0.43731818269715339 0.36898797804018202 0 -0.4332419136325939 0.37585794920747412 0 -0.43085454109293481 0.37139703037274291 0 -0.43731818269715339 0.36898797804018202 0 -0.43731818269715339 0.36898797804018202 0 -0.44379931899009001 0.37275614437304871 0 -0.44265618552374419 0.36116025670372259 0 -0.4332419136325939 0.37585794920747412 0 -0.43731818269715339 0.36898797804018202 0 -0.44379931899009001 0.37275614437304871 0 -0.43620106627449062 0.36191944848166191 0 -0.43731818269715339 0.36898797804018202 0 -0.44265618552374419 0.36116025670372259 0 -0.44379931899009001 0.37275614437304871 0 -0.44265618552374419 0.36116025670372259 0 -0.45029031788544371 0.36645504575150628 0 -0.44265618552374419 0.36116025670372259 0 -0.45029031788544371 0.36645504575150628 0 -0.45152020091724399 0.35679874803420908 0 -0.45516113638809502 0.37554365339565737 0 -0.44379931899009001 0.37275614437304871 0 -0.45029031788544371 0.36645504575150628 0 -0.4398349538841132 0.35280219620347197 0 -0.45455305507013283 0.34414873326753348 0 -0.43975988195290899 0.34094323140910299 0 -0.44265618552374419 0.36116025670372259 0 -0.4398349538841132 0.35280219620347197 0 -0.45152020091724399 0.35679874803420908 0 -0.43620106627449062 0.36191944848166191 0 -0.44265618552374419 0.36116025670372259 0 -0.4398349538841132 0.35280219620347197 0 -0.4398349538841132 0.35280219620347197 0 -0.45152020091724399 0.35679874803420908 0 -0.45455305507013283 0.34414873326753348 0 -0.45152020091724399 0.35679874803420908 0 -0.45455305507013283 0.34414873326753348 0 -0.47136751487766992 0.3559004803153713 0 -0.45455305507013283 0.34414873326753348 0 -0.47136751487766992 0.3559004803153713 0 -0.46827010060429758 0.34146334075454909 0 -0.45516113638809502 0.37554365339565737 0 -0.45966206836015971 0.36594139168439438 0 -0.47097298633584589 0.37246782307339332 0 -0.45152020091724399 0.35679874803420908 0 -0.45966206836015971 0.36594139168439438 0 -0.47136751487766992 0.3559004803153713 0 -0.45966206836015971 0.36594139168439438 0 -0.47097298633584589 0.37246782307339332 0 -0.47136751487766992 0.3559004803153713 0 -0.45516113638809502 0.37554365339565737 0 -0.45029031788544371 0.36645504575150628 0 -0.45966206836015971 0.36594139168439438 0 -0.45029031788544371 0.36645504575150628 0 -0.45152020091724399 0.35679874803420908 0 -0.45966206836015971 0.36594139168439438 0 -0.47097298633584589 0.37246782307339332 0 -0.47136751487766992 0.3559004803153713 0 -0.48497654676430202 0.36858712537786309 0 -0.47136751487766992 0.3559004803153713 0 -0.48247057578093139 0.33684730615825148 0 -0.46827010060429758 0.34146334075454909 0 -0.47136751487766992 0.3559004803153713 0 -0.5 0.35022716764598749 0 -0.48247057578093139 0.33684730615825148 0 -0.47136751487766992 0.3559004803153713 0 -0.5 0.35022716764598749 0 -0.48497654676430202 0.36858712537786309 0 -0.5 0.37847410459132502 0 -0.5 0.35022716764598749 0 -0.48497654676430202 0.36858712537786309 0 -0.5 0.32198023070065002 0 -0.48247057578093139 0.33684730615825148 0 -0.47936474650191702 0.31456155803709152 0 -0.5 0.35022716764598749 0 -0.5 0.32198023070065002 0 -0.48247057578093139 0.33684730615825148 0 -0.48247057578093139 0.33684730615825148 0 -0.46827010060429758 0.34146334075454909 0 -0.46327443309614369 0.32841806490852388 0 -0.48247057578093139 0.33684730615825148 0 -0.47936474650191702 0.31456155803709152 0 -0.46327443309614369 0.32841806490852388 0 -0.47936474650191702 0.31456155803709152 0 -0.46327608079231353 0.31352750182929501 0 -0.46327443309614369 0.32841806490852388 0 -0.46327443309614369 0.32841806490852388 0 -0.44873552068661737 0.33240310975860088 0 -0.44864605222647702 0.31351333773164852 0 -0.46327608079231353 0.31352750182929501 0 -0.46327443309614369 0.32841806490852388 0 -0.44864605222647702 0.31351333773164852 0 -0.45455305507013283 0.34414873326753348 0 -0.46327443309614369 0.32841806490852388 0 -0.44873552068661737 0.33240310975860088 0 -0.45455305507013283 0.34414873326753348 0 -0.46827010060429758 0.34146334075454909 0 -0.46327443309614369 0.32841806490852388 0 -0.45455305507013283 0.34414873326753348 0 -0.44873552068661737 0.33240310975860088 0 -0.43975988195290899 0.34094323140910299 0 -0.43573491087122762 0.32688718291909052 0 -0.44873552068661737 0.33240310975860088 0 -0.43975988195290899 0.34094323140910299 0 -0.43573491087122762 0.32688718291909052 0 -0.44873552068661737 0.33240310975860088 0 -0.44864605222647702 0.31351333773164852 0 -0.43573491087122762 0.32688718291909052 0 -0.44864605222647702 0.31351333773164852 0 -0.43808794526156081 0.31425745264435428 0 -0.44864605222647702 0.31351333773164852 0 -0.43808794526156081 0.31425745264435428 0 -0.44080567390058989 0.30452695217572601 0 -0.44864605222647702 0.31351333773164852 0 -0.44080567390058989 0.30452695217572601 0 -0.45151179612248588 0.29831341697665331 0 -0.45151179612248588 0.29831341697665331 0 -0.4378089777989419 0.28561367637981011 0 -0.45489093769062222 0.28632024649794913 0 -0.44080567390058989 0.30452695217572601 0 -0.45151179612248588 0.29831341697665331 0 -0.4378089777989419 0.28561367637981011 0 -0.45489093769062222 0.28632024649794913 0 -0.46503821843502058 0.29860857676631353 0 -0.47025313536858621 0.28020931326609821 0 -0.45151179612248588 0.29831341697665331 0 -0.45489093769062222 0.28632024649794913 0 -0.46503821843502058 0.29860857676631353 0 -0.46327608079231353 0.31352750182929501 0 -0.44864605222647702 0.31351333773164852 0 -0.45151179612248588 0.29831341697665331 0 -0.46327608079231353 0.31352750182929501 0 -0.45151179612248588 0.29831341697665331 0 -0.46503821843502058 0.29860857676631353 0 -0.47936474650191702 0.31456155803709152 0 -0.46327608079231353 0.31352750182929501 0 -0.46503821843502058 0.29860857676631353 0 -0.47936474650191702 0.31456155803709152 0 -0.46503821843502058 0.29860857676631353 0 -0.47978171178701229 0.29434232664216209 0 -0.47978171178701229 0.29434232664216209 0 -0.48527930460781921 0.2781593722909021 0 -0.47025313536858621 0.28020931326609821 0 -0.46503821843502058 0.29860857676631353 0 -0.47978171178701229 0.29434232664216209 0 -0.47025313536858621 0.28020931326609821 0 -0.47978171178701229 0.29434232664216209 0 -0.5 0.29373329375531271 0 -0.48527930460781921 0.2781593722909021 0 -0.5 0.32198023070065002 0 -0.47936474650191702 0.31456155803709152 0 -0.5 0.29373329375531271 0 -0.47936474650191702 0.31456155803709152 0 -0.47978171178701229 0.29434232664216209 0 -0.5 0.29373329375531271 0 -0.50000000000000044 0.2372394198646382 0 -0.5 0.26548635680997551 0 -0.47884287989701441 0.25368825908796711 0 -0.5 0.29373329375531271 0 -0.5 0.26548635680997551 0 -0.48527930460781921 0.2781593722909021 0 -0.5 0.26548635680997551 0 -0.48527930460781921 0.2781593722909021 0 -0.47884287989701441 0.25368825908796711 0 -0.48527930460781921 0.2781593722909021 0 -0.47025313536858621 0.28020931326609821 0 -0.47884287989701441 0.25368825908796711 0 -0.47025313536858621 0.28020931326609821 0 -0.47884287989701441 0.25368825908796711 0 -0.45768575979402831 0.27013709831129579 0 -0.47884287989701441 0.25368825908796711 0 -0.45925777500284348 0.25616748669090472 0 -0.45768575979402831 0.27013709831129579 0 -0.45983336765998739 0.24496354054567571 0 -0.47884287989701441 0.25368825908796711 0 -0.45925777500284348 0.25616748669090472 0 -0.47884287989701441 0.25368825908796711 0 -0.45768575979402831 0.27013709831129579 0 -0.45925777500284348 0.25616748669090472 0 -0.45768575979402831 0.27013709831129579 0 -0.44764435750440029 0.26029047561345597 0 -0.45983336765998739 0.24496354054567571 0 -0.45925777500284348 0.25616748669090472 0 -0.45228251015878729 0.25175805989612871 0 -0.45489093769062222 0.28632024649794913 0 -0.47025313536858621 0.28020931326609821 0 -0.45768575979402831 0.27013709831129579 0 -0.4378089777989419 0.28561367637981011 0 -0.45768575979402831 0.27013709831129579 0 -0.44764435750440029 0.26029047561345597 0 -0.4378089777989419 0.28561367637981011 0 -0.45489093769062222 0.28632024649794913 0 -0.45768575979402831 0.27013709831129579 0 -0.4378089777989419 0.28561367637981011 0 -0.44764435750440029 0.26029047561345597 0 -0.43407187523460827 0.26993511494778011 0 -0.4378089777989419 0.28561367637981011 0 -0.44764435750440029 0.26029047561345597 0 -0.44297909837068022 0.24897218353138759 0 -0.45228251015878729 0.25175805989612871 0 -0.44764435750440029 0.26029047561345597 0 -0.45925777500284348 0.25616748669090472 0 -0.45228251015878729 0.25175805989612871 0 -0.44764435750440029 0.26029047561345597 0 -0.44764435750440029 0.26029047561345597 0 -0.43649336971806341 0.25688366259484868 0 -0.43407187523460827 0.26993511494778011 0 -0.44297909837068022 0.24897218353138759 0 -0.44764435750440029 0.26029047561345597 0 -0.43649336971806341 0.25688366259484868 0 -0.43100641634947701 0.24167434083737749 0 -0.43649336971806341 0.25688366259484868 0 -0.42588888523881269 0.26146970489968108 0 -0.43100641634947701 0.24167434083737749 0 -0.42588888523881269 0.26146970489968108 0 -0.41990381710569591 0.25159028712561932 0 -0.43100641634947701 0.24167434083737749 0 -0.42588888523881269 0.26146970489968108 0 -0.43649336971806341 0.25688366259484868 0 -0.42588888523881269 0.26146970489968108 0 -0.43407187523460827 0.26993511494778011 0 -0.42588888523881269 0.26146970489968108 0 -0.41990381710569591 0.25159028712561932 0 -0.4126592317368088 0.25863218230596863 0 -0.41006073509768542 0.24458492045944921 0 -0.41990381710569591 0.25159028712561932 0 -0.4126592317368088 0.25863218230596863 0 -0.4126592317368088 0.25863218230596863 0 -0.40214819026000093 0.26240218607919452 0 -0.40480584153975258 0.27070836109974722 0 -0.4126592317368088 0.25863218230596863 0 -0.41415652737714409 0.27984630766512791 0 -0.40480584153975258 0.27070836109974722 0 -0.4126592317368088 0.25863218230596863 0 -0.41415652737714409 0.27984630766512791 0 -0.42588888523881269 0.26146970489968108 0 -0.4126592317368088 0.25863218230596863 0 -0.41415652737714409 0.27984630766512791 0 -0.42588888523881269 0.26146970489968108 0 -0.41415652737714409 0.27984630766512791 0 -0.42077135412814609 0.28126506896198411 0 -0.41415652737714409 0.27984630766512791 0 -0.40054515752516928 0.28304380033632598 0 -0.40480584153975258 0.27070836109974722 0 -0.42588888523881269 0.26146970489968108 0 -0.42077135412814609 0.28126506896198411 0 -0.42588888523881269 0.26146970489968108 0 -0.43407187523460827 0.26993511494778011 0 -0.42077135412814609 0.28126506896198411 0 -0.4378089777989419 0.28561367637981011 0 -0.43407187523460827 0.26993511494778011 0 -0.42077135412814609 0.28126506896198411 0 -0.4378089777989419 0.28561367637981011 0 -0.42555193825951282 0.29471901387806132 0 -0.42077135412814609 0.28126506896198411 0 -0.4378089777989419 0.28561367637981011 0 -0.42555193825951282 0.29471901387806132 0 -0.42797359809348362 0.31093687714616408 0 -0.44080567390058989 0.30452695217572601 0 -0.4378089777989419 0.28561367637981011 0 -0.42797359809348362 0.31093687714616408 0 -0.42555193825951282 0.29471901387806132 0 -0.42797359809348362 0.31093687714616408 0 -0.41565382301747938 0.30106043302428698 0 -0.4378089777989419 0.28561367637981011 0 -0.42797359809348362 0.31093687714616408 0 -0.43808794526156081 0.31425745264435428 0 -0.44080567390058989 0.30452695217572601 0 -0.42797359809348362 0.31093687714616408 0 -0.41021282969149597 0.32210699657597858 0 -0.41565382301747938 0.30106043302428698 0 -0.39645007197498561 0.30901776319555341 0 -0.41021282969149597 0.32210699657597858 0 -0.41565382301747938 0.30106043302428698 0 -0.41689602070275311 0.3186602554684026 0 -0.42797359809348362 0.31093687714616408 0 -0.41565382301747938 0.30106043302428698 0 -0.41689602070275311 0.3186602554684026 0 -0.41565382301747938 0.30106043302428698 0 -0.41565382301747938 0.30106043302428698 0 -0.42077135412814609 0.28126506896198411 0 -0.41415652737714409 0.27984630766512791 0 -0.41565382301747938 0.30106043302428698 0 -0.42077135412814609 0.28126506896198411 0 -0.41415652737714409 0.27984630766512791 0 -0.41565382301747938 0.30106043302428698 0 -0.40824015049685258 0.2900282837297265 0 -0.42555193825951282 0.29471901387806132 0 -0.41565382301747938 0.30106043302428698 0 -0.42077135412814609 0.28126506896198411 0 -0.41415652737714409 0.27984630766512791 0 -0.41565382301747938 0.30106043302428698 0 -0.41565382301747938 0.30106043302428698 0 -0.40824015049685258 0.2900282837297265 0 -0.40260509406761741 0.29616259389316513 0 -0.41415652737714409 0.27984630766512791 0 -0.40824015049685258 0.2900282837297265 0 -0.40054515752516928 0.28304380033632598 0 -0.40824015049685258 0.2900282837297265 0 -0.40054515752516928 0.28304380033632598 0 -0.40260509406761741 0.29616259389316513 0 -0.40054515752516928 0.28304380033632598 0 -0.40260509406761741 0.29616259389316513 0 -0.38722126892495312 0.29566695789377329 0 -0.41565382301747938 0.30106043302428698 0 -0.40260509406761741 0.29616259389316513 0 -0.39645007197498561 0.30901776319555341 0 -0.40260509406761741 0.29616259389316513 0 -0.39645007197498561 0.30901776319555341 0 -0.38722126892495312 0.29566695789377329 0 -0.39645007197498561 0.30901776319555341 0 -0.37888913402897179 0.30882046751300102 0 -0.38722126892495312 0.29566695789377329 0 -0.37888913402897179 0.30882046751300102 0 -0.38722126892495312 0.29566695789377329 0 -0.36731795597254913 0.2948988268655951 0 -0.38722126892495312 0.29566695789377329 0 -0.38350766283175891 0.27974301010140118 0 -0.36731795597254913 0.2948988268655951 0 -0.40054515752516928 0.28304380033632598 0 -0.38722126892495312 0.29566695789377329 0 -0.38350766283175891 0.27974301010140118 0 -0.38350766283175891 0.27974301010140118 0 -0.38215157852943832 0.26052960854459489 0 -0.37045715575636762 0.27229609101379082 0 -0.38350766283175891 0.27974301010140118 0 -0.38215157852943832 0.26052960854459489 0 -0.39445705337947939 0.26985205957136771 0 -0.38097370010591391 0.24384108033322641 0 -0.38215157852943832 0.26052960854459489 0 -0.39595401218745069 0.25308418163169571 0 -0.38215157852943832 0.26052960854459489 0 -0.39595401218745069 0.25308418163169571 0 -0.39445705337947939 0.26985205957136771 0 -0.39595401218745069 0.25308418163169571 0 -0.40214819026000093 0.26240218607919452 0 -0.39445705337947939 0.26985205957136771 0 -0.41006073509768542 0.24458492045944921 0 -0.4126592317368088 0.25863218230596863 0 -0.39595401218745069 0.25308418163169571 0 -0.4126592317368088 0.25863218230596863 0 -0.39595401218745069 0.25308418163169571 0 -0.40214819026000093 0.26240218607919452 0 -0.40214819026000093 0.26240218607919452 0 -0.40480584153975258 0.27070836109974722 0 -0.39445705337947939 0.26985205957136771 0 -0.40054515752516928 0.28304380033632598 0 -0.38350766283175891 0.27974301010140118 0 -0.39445705337947939 0.26985205957136771 0 -0.40054515752516928 0.28304380033632598 0 -0.40480584153975258 0.27070836109974722 0 -0.39445705337947939 0.26985205957136771 0 -0.35664097757162078 0.26597687880548521 0 -0.34957274239822811 0.28046876386523811 0 -0.34298410193414131 0.25765826796221142 0 -0.35664097757162078 0.26597687880548521 0 -0.34957274239822811 0.28046876386523811 0 -0.37045715575636762 0.27229609101379082 0 -0.35664097757162078 0.26597687880548521 0 -0.36184882001612789 0.25120191596523961 0 -0.34298410193414131 0.25765826796221142 0 -0.33816870206517008 0.2418705494875045 0 -0.36184882001612789 0.25120191596523961 0 -0.34298410193414131 0.25765826796221142 0 -0.38215157852943832 0.26052960854459489 0 -0.36184882001612789 0.25120191596523961 0 -0.37045715575636762 0.27229609101379082 0 -0.35664097757162078 0.26597687880548521 0 -0.36184882001612789 0.25120191596523961 0 -0.37045715575636762 0.27229609101379082 0 -0.38097370010591391 0.24384108033322641 0 -0.38215157852943832 0.26052960854459489 0 -0.36184882001612789 0.25120191596523961 0 -0.38350766283175891 0.27974301010140118 0 -0.37045715575636762 0.27229609101379082 0 -0.36731795597254913 0.2948988268655951 0 -0.34957274239822811 0.28046876386523811 0 -0.37045715575636762 0.27229609101379082 0 -0.36731795597254913 0.2948988268655951 0 -0.37888913402897179 0.30882046751300102 0 -0.36731795597254913 0.2948988268655951 0 -0.36648869518743882 0.319632757747211 0 -0.36731795597254913 0.2948988268655951 0 -0.34734712459840128 0.30787235655698142 0 -0.36648869518743882 0.319632757747211 0 -0.34957274239822811 0.28046876386523811 0 -0.36731795597254913 0.2948988268655951 0 -0.34734712459840128 0.30787235655698142 0 -0.32841148373493029 0.29178107530991132 0 -0.31490643000862889 0.2737982272616748 0 -0.30665365494612579 0.3053325213699854 0 -0.32841148373493029 0.29178107530991132 0 -0.30665365494612579 0.3053325213699854 0 -0.32424347818983662 0.32428338992552769 0 -0.34734712459840128 0.30787235655698142 0 -0.32841148373493029 0.29178107530991132 0 -0.32424347818983662 0.32428338992552769 0 -0.34957274239822811 0.28046876386523811 0 -0.34734712459840128 0.30787235655698142 0 -0.32841148373493029 0.29178107530991132 0 -0.32841148373493029 0.29178107530991132 0 -0.31490643000862889 0.2737982272616748 0 -0.32841148373493029 0.29178107530991132 0 -0.31490643000862889 0.2737982272616748 0 -0.33240494457099151 0.27113728792867298 0 -0.34957274239822811 0.28046876386523811 0 -0.33240494457099151 0.27113728792867298 0 -0.34298410193414131 0.25765826796221142 0 -0.34957274239822811 0.28046876386523811 0 -0.32841148373493029 0.29178107530991132 0 -0.33240494457099151 0.27113728792867298 0 -0.3207186543605689 0.24865522219363589 0 -0.33240494457099151 0.27113728792867298 0 -0.34298410193414131 0.25765826796221142 0 -0.3207186543605689 0.24865522219363589 0 -0.31490643000862889 0.2737982272616748 0 -0.33240494457099151 0.27113728792867298 0 -0.31490643000862889 0.2737982272616748 0 -0.30140137628232772 0.25581537921343828 0 -0.3207186543605689 0.24865522219363589 0 -0.31490643000862889 0.2737982272616748 0 -0.30140137628232772 0.25581537921343828 0 -0.31490643000862889 0.2737982272616748 0 -0.29826768631164657 0.27007613452148871 0 -0.28906383170241512 0.28638165281444322 0 -0.31490643000862889 0.2737982272616748 0 -0.30140137628232772 0.25581537921343828 0 -0.29826768631164657 0.27007613452148871 0 -0.29826768631164657 0.27007613452148871 0 -0.28769910725321468 0.26430927879639832 0 -0.28906383170241512 0.28638165281444322 0 -0.28769910725321468 0.26430927879639832 0 -0.27147400845870401 0.26743078425890138 0 -0.28906383170241512 0.28638165281444322 0 -0.2819927719755364 0.24847261411558719 0 -0.30140137628232772 0.25581537921343828 0 -0.28769910725321468 0.26430927879639832 0 -0.30140137628232772 0.25581537921343828 0 -0.29826768631164657 0.27007613452148871 0 -0.28769910725321468 0.26430927879639832 0 -0.2819927719755364 0.24847261411558719 0 -0.28769910725321468 0.26430927879639832 0 -0.27147400845870401 0.26743078425890138 0 -0.2819927719755364 0.24847261411558719 0 -0.26673284176786372 0.26232276097105561 0 -0.27147400845870401 0.26743078425890138 0 -0.2819927719755364 0.24847261411558719 0 -0.27147400845870401 0.26743078425890138 0 -0.2819927719755364 0.24847261411558719 0 -0.26673284176786372 0.26232276097105561 0 -0.26305761738569661 0.24901977672961981 0 -0.27087126593366828 0.2513959023754001 0 -0.26673284176786372 0.26232276097105561 0 -0.2819927719755364 0.24847261411558719 0 -0.27087126593366828 0.2513959023754001 0 -0.26673284176786372 0.26232276097105561 0 -0.26673284176786372 0.26232276097105561 0 -0.27147400845870401 0.26743078425890138 0 -0.27147400845870401 0.26743078425890138 0 -0.27384995914705029 0.28772299094850651 0 -0.28906383170241512 0.28638165281444322 0 -0.27147400845870401 0.26743078425890138 0 -0.28906383170241512 0.28638165281444322 0 -0.27147400845870401 0.26743078425890138 0 -0.2577691295514532 0.29213135155480158 0 -0.24641767816760121 0.28076111523790659 0 -0.26673284176786372 0.26232276097105561 0 -0.27147400845870401 0.26743078425890138 0 -0.24641767816760121 0.28076111523790659 0 -0.27147400845870401 0.26743078425890138 0 -0.2577691295514532 0.29213135155480158 0 -0.26673284176786372 0.26232276097105561 0 -0.24641767816760121 0.28076111523790659 0 -0.26673284176786372 0.26232276097105561 0 -0.25432553353194348 0.26385770201985209 0 -0.24641767816760121 0.28076111523790659 0 -0.25432553353194348 0.26385770201985209 0 -0.25189002896290491 0.25449239892481551 0 -0.24739154241544459 0.26250245805921452 0 -0.26673284176786372 0.26232276097105561 0 -0.24910725770640421 0.24333336453792839 0 -0.26305761738569661 0.24901977672961981 0 -0.26673284176786372 0.26232276097105561 0 -0.24910725770640421 0.24333336453792839 0 -0.26673284176786372 0.26232276097105561 0 -0.25189002896290491 0.25449239892481551 0 -0.24910725770640421 0.24333336453792839 0 -0.26673284176786372 0.26232276097105561 0 -0.25432553353194348 0.26385770201985209 0 -0.25189002896290491 0.25449239892481551 0 -0.26025347529761189 0.30833635846033691 0 -0.2474845913036233 0.31861885933040518 0 -0.2476054777775257 0.29980943081764161 0 -0.26025347529761189 0.30833635846033691 0 -0.2577691295514532 0.29213135155480158 0 -0.2476054777775257 0.29980943081764161 0 -0.26025347529761189 0.30833635846033691 0 -0.2577691295514532 0.29213135155480158 0 -0.2770928668756294 0.3049481751658798 0 -0.2577691295514532 0.29213135155480158 0 -0.2476054777775257 0.29980943081764161 0 -0.24641767816760121 0.28076111523790659 0 -0.27384995914705029 0.28772299094850651 0 -0.2770928668756294 0.3049481751658798 0 -0.28906383170241512 0.28638165281444322 0 -0.27147400845870401 0.26743078425890138 0 -0.2577691295514532 0.29213135155480158 0 -0.27384995914705029 0.28772299094850651 0 -0.2577691295514532 0.29213135155480158 0 -0.27384995914705029 0.28772299094850651 0 -0.2770928668756294 0.3049481751658798 0 -0.2770928668756294 0.3049481751658798 0 -0.30665365494612579 0.3053325213699854 0 -0.29573619118454608 0.32704356339758789 0 -0.31490643000862889 0.2737982272616748 0 -0.28906383170241512 0.28638165281444322 0 -0.30665365494612579 0.3053325213699854 0 -0.2770928668756294 0.3049481751658798 0 -0.28906383170241512 0.28638165281444322 0 -0.30665365494612579 0.3053325213699854 0 -0.28906383170241512 0.28638165281444322 0 -0.30665365494612579 0.3053325213699854 0 -0.30665365494612579 0.3053325213699854 0 -0.29573619118454608 0.32704356339758789 0 -0.32424347818983662 0.32428338992552769 0 -0.31137527589909297 0.34130405556528448 0 -0.29573619118454608 0.32704356339758789 0 -0.32424347818983662 0.32428338992552769 0 -0.31137527589909297 0.34130405556528448 0 -0.29573619118454608 0.32704356339758789 0 -0.29390108869993609 0.3492127352265384 0 -0.29573619118454608 0.32704356339758789 0 -0.27514800456924271 0.34480206363462912 0 -0.29390108869993609 0.3492127352265384 0 -0.26025347529761189 0.30833635846033691 0 -0.2770928668756294 0.3049481751658798 0 -0.27067316357892951 0.32517853376558797 0 -0.2770928668756294 0.3049481751658798 0 -0.29573619118454608 0.32704356339758789 0 -0.27067316357892951 0.32517853376558797 0 -0.27067316357892951 0.32517853376558797 0 -0.25411148794662869 0.34053150761902601 0 -0.27514800456924271 0.34480206363462912 0 -0.29573619118454608 0.32704356339758789 0 -0.27067316357892951 0.32517853376558797 0 -0.27514800456924271 0.34480206363462912 0 -0.26025347529761189 0.30833635846033691 0 -0.27067316357892951 0.32517853376558797 0 -0.2474845913036233 0.31861885933040518 0 -0.27067316357892951 0.32517853376558797 0 -0.25411148794662869 0.34053150761902601 0 -0.2474845913036233 0.31861885933040518 0 -0.25603590710798729 0.37305638900933402 0 -0.26687867341608801 0.35948450620500177 0 -0.24766031851708539 0.35885006558086252 0 -0.25411148794662869 0.34053150761902601 0 -0.26687867341608801 0.35948450620500177 0 -0.24766031851708539 0.35885006558086252 0 -0.25411148794662869 0.34053150761902601 0 -0.27514800456924271 0.34480206363462912 0 -0.26687867341608801 0.35948450620500177 0 -0.27514800456924271 0.34480206363462912 0 -0.26687867341608801 0.35948450620500177 0 -0.28363872999075079 0.36179349279583811 0 -0.26687867341608801 0.35948450620500177 0 -0.28363872999075079 0.36179349279583811 0 -0.27619646508053303 0.37812041123877238 0 -0.25603590710798729 0.37305638900933402 0 -0.26687867341608801 0.35948450620500177 0 -0.27619646508053303 0.37812041123877238 0 -0.28363872999075079 0.36179349279583811 0 -0.30750285598447252 0.37357749987930849 0 -0.27619646508053303 0.37812041123877238 0 -0.31137527589909297 0.34130405556528448 0 -0.29390108869993609 0.3492127352265384 0 -0.30750285598447252 0.37357749987930849 0 -0.28363872999075079 0.36179349279583811 0 -0.29390108869993609 0.3492127352265384 0 -0.30750285598447252 0.37357749987930849 0 -0.27514800456924271 0.34480206363462912 0 -0.28363872999075079 0.36179349279583811 0 -0.29390108869993609 0.3492127352265384 0 -0.30750285598447252 0.37357749987930849 0 -0.3278264572968515 0.35191620365504728 0 -0.30750285598447252 0.37357749987930849 0 -0.3278264572968515 0.35191620365504728 0 -0.32494574219010353 0.38476642951700452 0 -0.34287435709736841 0.37357678416617901 0 -0.3278264572968515 0.35191620365504728 0 -0.32494574219010353 0.38476642951700452 0 -0.31137527589909297 0.34130405556528448 0 -0.30750285598447252 0.37357749987930849 0 -0.3278264572968515 0.35191620365504728 0 -0.31137527589909297 0.34130405556528448 0 -0.3278264572968515 0.35191620365504728 0 -0.32424347818983662 0.32428338992552769 0 -0.30665365494612579 0.3053325213699854 0 -0.32424347818983662 0.32428338992552769 0 -0.34734712459840128 0.30787235655698142 0 -0.32424347818983662 0.32428338992552769 0 -0.34858101156742421 0.33575809805576051 0 -0.3278264572968515 0.35191620365504728 0 -0.32424347818983662 0.32428338992552769 0 -0.34858101156742421 0.33575809805576051 0 -0.34734712459840128 0.30787235655698142 0 -0.36648869518743882 0.319632757747211 0 -0.34734712459840128 0.30787235655698142 0 -0.34858101156742421 0.33575809805576051 0 -0.36648869518743882 0.319632757747211 0 -0.34858101156742421 0.33575809805576051 0 -0.36648869518743882 0.319632757747211 0 -0.36831654614497472 0.33922749996314738 0 -0.38563026577647619 0.3313931589374407 0 -0.36648869518743882 0.319632757747211 0 -0.36831654614497472 0.33922749996314738 0 -0.34858101156742421 0.33575809805576051 0 -0.36831654614497472 0.33922749996314738 0 -0.36133159075318749 0.35786573637866592 0 -0.34287435709736841 0.37357678416617901 0 -0.3278264572968515 0.35191620365504728 0 -0.36133159075318749 0.35786573637866592 0 -0.38248166547526619 0.35205518551514609 0 -0.36831654614497472 0.33922749996314738 0 -0.36133159075318749 0.35786573637866592 0 -0.3278264572968515 0.35191620365504728 0 -0.34858101156742421 0.33575809805576051 0 -0.36133159075318749 0.35786573637866592 0 -0.37735541314810322 0.37355832329676608 0 -0.36133159075318749 0.35786573637866592 0 -0.35958967878116049 0.37797977590378112 0 -0.37735541314810322 0.37355832329676608 0 -0.38248166547526619 0.35205518551514609 0 -0.36133159075318749 0.35786573637866592 0 -0.34287435709736841 0.37357678416617901 0 -0.36133159075318749 0.35786573637866592 0 -0.35958967878116049 0.37797977590378112 0 -0.344656989413055 0.39834980363564859 0 -0.3705907680975018 0.39216637407158789 0 -0.36075531476205741 0.40892232906522741 0 -0.344656989413055 0.39834980363564859 0 -0.3705907680975018 0.39216637407158789 0 -0.34287435709736841 0.37357678416617901 0 -0.344656989413055 0.39834980363564859 0 -0.35958967878116049 0.37797977590378112 0 -0.344656989413055 0.39834980363564859 0 -0.35958967878116049 0.37797977590378112 0 -0.3705907680975018 0.39216637407158789 0 -0.37735541314810322 0.37355832329676608 0 -0.35958967878116049 0.37797977590378112 0 -0.3705907680975018 0.39216637407158789 0 -0.38528675392918182 0.41852472881625852 0 -0.3705907680975018 0.39216637407158789 0 -0.36075531476205741 0.40892232906522741 0 -0.38528675392918182 0.41852472881625852 0 -0.36075531476205741 0.40892232906522741 0 -0.36396462051856848 0.426382225859054 0 -0.36396462051856848 0.426382225859054 0 -0.34208099476743509 0.42349446288123138 0 -0.35787936464341402 0.44678608589355318 0 -0.344656989413055 0.39834980363564859 0 -0.36075531476205741 0.40892232906522741 0 -0.34208099476743509 0.42349446288123138 0 -0.36075531476205741 0.40892232906522741 0 -0.36396462051856848 0.426382225859054 0 -0.34208099476743509 0.42349446288123138 0 -0.34208099476743509 0.42349446288123138 0 -0.32490495155579618 0.43104093205947408 0 -0.3187232107286081 0.40453323319970919 0 -0.344656989413055 0.39834980363564859 0 -0.34208099476743509 0.42349446288123138 0 -0.3187232107286081 0.40453323319970919 0 -0.34208099476743509 0.42349446288123138 0 -0.32490495155579618 0.43104093205947408 0 -0.33766624559627711 0.44585438502440111 0 -0.32490495155579618 0.43104093205947408 0 -0.30861843000121492 0.4275684324193989 0 -0.32025633733125858 0.44917601012113001 0 -0.32490495155579618 0.43104093205947408 0 -0.3187232107286081 0.40453323319970919 0 -0.30861843000121492 0.4275684324193989 0 -0.3187232107286081 0.40453323319970919 0 -0.32494574219010353 0.38476642951700452 0 -0.30622809912388771 0.39376652429267239 0 -0.344656989413055 0.39834980363564859 0 -0.3187232107286081 0.40453323319970919 0 -0.344656989413055 0.39834980363564859 0 -0.3187232107286081 0.40453323319970919 0 -0.32494574219010353 0.38476642951700452 0 -0.34287435709736841 0.37357678416617901 0 -0.344656989413055 0.39834980363564859 0 -0.32494574219010353 0.38476642951700452 0 -0.30750285598447252 0.37357749987930849 0 -0.32494574219010353 0.38476642951700452 0 -0.30622809912388771 0.39376652429267239 0 -0.30750285598447252 0.37357749987930849 0 -0.28717925467209338 0.39523879610356971 0 -0.27619646508053303 0.37812041123877238 0 -0.30750285598447252 0.37357749987930849 0 -0.28717925467209338 0.39523879610356971 0 -0.30750285598447252 0.37357749987930849 0 -0.30622809912388771 0.39376652429267239 0 -0.28717925467209338 0.39523879610356971 0 -0.3187232107286081 0.40453323319970919 0 -0.30622809912388771 0.39376652429267239 0 -0.29278943204416119 0.41071666276376989 0 -0.30622809912388771 0.39376652429267239 0 -0.28717925467209338 0.39523879610356971 0 -0.29278943204416119 0.41071666276376989 0 -0.27619646508053303 0.37812041123877238 0 -0.27237725663709722 0.39370545346873698 0 -0.25945176674183212 0.38958852722716247 0 -0.28717925467209338 0.39523879610356971 0 -0.27619646508053303 0.37812041123877238 0 -0.27237725663709722 0.39370545346873698 0 -0.28717925467209338 0.39523879610356971 0 -0.2668556533597144 0.41690009232783071 0 -0.28717925467209338 0.39523879610356971 0 -0.27237725663709722 0.39370545346873698 0 -0.26682886638103409 0.40702136218459167 0 -0.27237725663709722 0.39370545346873698 0 -0.26238475457985239 0.39980741464863301 0 -0.26682886638103409 0.40702136218459167 0 -0.27237725663709722 0.39370545346873698 0 -0.26238475457985239 0.39980741464863301 0 -0.25945176674183212 0.38958852722716247 0 -0.26238475457985239 0.39980741464863301 0 -0.25544095751842583 0.3990828612310845 0 -0.25945176674183212 0.38958852722716247 0 -0.26238475457985239 0.39980741464863301 0 -0.25811305719074251 0.4075177426720682 0 -0.26682886638103409 0.40702136218459167 0 -0.26238475457985239 0.39980741464863301 0 -0.25544095751842583 0.3990828612310845 0 -0.25811305719074251 0.4075177426720682 0 -0.25544095751842583 0.3990828612310845 0 -0.24728759806371159 0.39461320975121428 0 -0.24996761101599069 0.40388741185634452 0 -0.25544095751842583 0.3990828612310845 0 -0.25811305719074251 0.4075177426720682 0 -0.24996761101599069 0.40388741185634452 0 -0.25544095751842583 0.3990828612310845 0 -0.25945176674183212 0.38958852722716247 0 -0.24728759806371159 0.39461320975121428 0 -0.25945176674183212 0.38958852722716247 0 -0.24736677536366869 0.38332155873877438 0 -0.24728759806371159 0.39461320975121428 0 -0.25603590710798729 0.37305638900933402 0 -0.25945176674183212 0.38958852722716247 0 -0.24736677536366869 0.38332155873877438 0 -0.25603590710798729 0.37305638900933402 0 -0.27619646508053303 0.37812041123877238 0 -0.25945176674183212 0.38958852722716247 0 -0.25162714099927308 0.43313094198012242 0 -0.26516771327521332 0.41730255040183001 0 -0.2668556533597144 0.41690009232783071 0 -0.25162714099927308 0.43313094198012242 0 -0.2668556533597144 0.41690009232783071 0 -0.25162714099927308 0.43313094198012242 0 -0.2668556533597144 0.41690009232783071 0 -0.26903950997900872 0.43420854679031179 0 -0.25162714099927308 0.43313094198012242 0 -0.25552926770382778 0.42125497322787692 0 -0.26516771327521332 0.41730255040183001 0 -0.25162714099927308 0.43313094198012242 0 -0.25552926770382778 0.42125497322787692 0 -0.24736710289600669 0.4223094275503243 0 -0.25552926770382778 0.42125497322787692 0 -0.25015397653610649 0.41360124968575279 0 -0.24736710289600669 0.4223094275503243 0 -0.25769237476815943 0.41443611510736889 0 -0.25552926770382778 0.42125497322787692 0 -0.25015397653610649 0.41360124968575279 0 -0.25769237476815943 0.41443611510736889 0 -0.25015397653610649 0.41360124968575279 0 -0.25811305719074251 0.4075177426720682 0 -0.25015397653610649 0.41360124968575279 0 -0.25811305719074251 0.4075177426720682 0 -0.24996761101599069 0.40388741185634452 0 -0.25811305719074251 0.4075177426720682 0 -0.26201877747646413 0.411671337890537 0 -0.26682886638103409 0.40702136218459167 0 -0.25769237476815943 0.41443611510736889 0 -0.26201877747646413 0.411671337890537 0 -0.26101613453252848 0.41591838526476088 0 -0.25769237476815943 0.41443611510736889 0 -0.25811305719074251 0.4075177426720682 0 -0.26201877747646413 0.411671337890537 0 -0.26201877747646413 0.411671337890537 0 -0.26465809341301522 0.41389186087957258 0 -0.26682886638103409 0.40702136218459167 0 -0.26201877747646413 0.411671337890537 0 -0.26465809341301522 0.41389186087957258 0 -0.26101613453252848 0.41591838526476088 0 -0.25552926770382778 0.42125497322787692 0 -0.26101613453252848 0.41591838526476088 0 -0.26516771327521332 0.41730255040183001 0 -0.25769237476815943 0.41443611510736889 0 -0.25552926770382778 0.42125497322787692 0 -0.26101613453252848 0.41591838526476088 0 -0.26465809341301522 0.41389186087957258 0 -0.26101613453252848 0.41591838526476088 0 -0.26516771327521332 0.41730255040183001 0 -0.26465809341301522 0.41389186087957258 0 -0.26516771327521332 0.41730255040183001 0 -0.2668556533597144 0.41690009232783071 0 -0.28717925467209338 0.39523879610356971 0 -0.2668556533597144 0.41690009232783071 0 -0.26682886638103409 0.40702136218459167 0 -0.2668556533597144 0.41690009232783071 0 -0.28216729923377049 0.42298468612274021 0 -0.29278943204416119 0.41071666276376989 0 -0.2668556533597144 0.41690009232783071 0 -0.29278943204416119 0.41071666276376989 0 -0.26516771327521332 0.41730255040183001 0 -0.2668556533597144 0.41690009232783071 0 -0.26465809341301522 0.41389186087957258 0 -0.2668556533597144 0.41690009232783071 0 -0.26682886638103409 0.40702136218459167 0 -0.2668556533597144 0.41690009232783071 0 -0.27416026217943412 0.42647048038595647 0 -0.28216729923377049 0.42298468612274021 0 -0.2668556533597144 0.41690009232783071 0 -0.26903950997900872 0.43420854679031179 0 -0.27416026217943412 0.42647048038595647 0 -0.27416026217943412 0.42647048038595647 0 -0.28531052824988551 0.43746733211922018 0 -0.28216729923377049 0.42298468612274021 0 -0.26903950997900872 0.43420854679031179 0 -0.27416026217943412 0.42647048038595647 0 -0.28531052824988551 0.43746733211922018 0 -0.28531052824988551 0.43746733211922018 0 -0.29396979543201113 0.42849206708430132 0 -0.30117665700608132 0.44183583249311181 0 -0.28531052824988551 0.43746733211922018 0 -0.28216729923377049 0.42298468612274021 0 -0.29396979543201113 0.42849206708430132 0 -0.28216729923377049 0.42298468612274021 0 -0.29396979543201113 0.42849206708430132 0 -0.29278943204416119 0.41071666276376989 0 -0.28717925467209338 0.39523879610356971 0 -0.2668556533597144 0.41690009232783071 0 -0.29278943204416119 0.41071666276376989 0 -0.3187232107286081 0.40453323319970919 0 -0.29278943204416119 0.41071666276376989 0 -0.30861843000121492 0.4275684324193989 0 -0.3187232107286081 0.40453323319970919 0 -0.29278943204416119 0.41071666276376989 0 -0.29396979543201113 0.42849206708430132 0 -0.29278943204416119 0.41071666276376989 0 -0.30861843000121492 0.4275684324193989 0 -0.29396979543201113 0.42849206708430132 0 -0.30861843000121492 0.4275684324193989 0 -0.30117665700608132 0.44183583249311181 0 -0.30117665700608132 0.44183583249311181 0 -0.29875236701631458 0.45741585110583449 0 -0.32025633733125858 0.44917601012113001 0 -0.30861843000121492 0.4275684324193989 0 -0.30117665700608132 0.44183583249311181 0 -0.32025633733125858 0.44917601012113001 0 -0.29875236701631458 0.45741585110583449 0 -0.28147893504566751 0.46774744049975719 0 -0.27402677104993262 0.44858413500633382 0 -0.28531052824988551 0.43746733211922018 0 -0.29875236701631458 0.45741585110583449 0 -0.27402677104993262 0.44858413500633382 0 -0.28531052824988551 0.43746733211922018 0 -0.30117665700608132 0.44183583249311181 0 -0.29875236701631458 0.45741585110583449 0 -0.26903950997900872 0.43420854679031179 0 -0.28531052824988551 0.43746733211922018 0 -0.27402677104993262 0.44858413500633382 0 -0.26903950997900872 0.43420854679031179 0 -0.27402677104993262 0.44858413500633382 0 -0.25983221871567602 0.45406546637528622 0 -0.28147893504566751 0.46774744049975719 0 -0.25983221871567602 0.45406546637528622 0 -0.26538539509673231 0.47714445785281961 0 -0.28147893504566751 0.46774744049975719 0 -0.27402677104993262 0.44858413500633382 0 -0.25983221871567602 0.45406546637528622 0 -0.28147893504566751 0.46774744049975719 0 -0.25983221871567602 0.45406546637528622 0 -0.25983221871567602 0.45406546637528622 0 -0.26538539509673231 0.47714445785281961 0 -0.24973180031732389 0.46352068888914938 0 -0.25162714099927308 0.43313094198012242 0 -0.26903950997900872 0.43420854679031179 0 -0.25983221871567602 0.45406546637528622 0 -0.26538539509673231 0.47714445785281961 0 -0.27634494053915287 0.49221742461179752 0 -0.24974264262107879 0.4872741300196356 0 -0.26218357898232331 0.49437500411430541 0 -0.27634494053915287 0.49221742461179752 0 -0.24974264262107879 0.4872741300196356 0 -0.27634494053915287 0.49221742461179752 0 -0.24974264262107879 0.4872741300196356 0 -0.26218357898232331 0.49437500411430541 0 -0.27776238467880549 0.5 0 -0.24900940987232539 0.5 0 -0.26218357898232331 0.49437500411430541 0 -0.24974264262107879 0.4872741300196356 0 -0.24900940987232539 0.5 0 -0.26538539509673231 0.47714445785281961 0 -0.25225366216692757 0.47603039887722431 0 -0.24973180031732389 0.46352068888914938 0 -0.26538539509673231 0.47714445785281961 0 -0.25225366216692757 0.47603039887722431 0 -0.24974264262107879 0.4872741300196356 0 -0.26538539509673231 0.47714445785281961 0 -0.27634494053915287 0.49221742461179752 0 -0.28321994737953848 0.48190464693468987 0 -0.28147893504566751 0.46774744049975719 0 -0.26538539509673231 0.47714445785281961 0 -0.28321994737953848 0.48190464693468987 0 -0.26218357898232331 0.49437500411430541 0 -0.27634494053915287 0.49221742461179752 0 -0.27776238467880549 0.5 0 -0.289764814840481 0.49098449708484698 0 -0.28321994737953848 0.48190464693468987 0 -0.30312565137565878 0.48142941462422839 0 -0.27776238467880549 0.5 0 -0.289764814840481 0.49098449708484698 0 -0.30651535948528569 0.5 0 -0.27634494053915287 0.49221742461179752 0 -0.27776238467880549 0.5 0 -0.289764814840481 0.49098449708484698 0 -0.27634494053915287 0.49221742461179752 0 -0.289764814840481 0.49098449708484698 0 -0.28321994737953848 0.48190464693468987 0 -0.29875236701631458 0.45741585110583449 0 -0.28147893504566751 0.46774744049975719 0 -0.30312565137565878 0.48142941462422839 0 -0.28147893504566751 0.46774744049975719 0 -0.30312565137565878 0.48142941462422839 0 -0.28147893504566751 0.46774744049975719 0 -0.28321994737953848 0.48190464693468987 0 -0.30312565137565878 0.48142941462422839 0 -0.29875236701631458 0.45741585110583449 0 -0.30312565137565878 0.48142941462422839 0 -0.32610505843077592 0.47378340337379482 0 -0.289764814840481 0.49098449708484698 0 -0.30312565137565878 0.48142941462422839 0 -0.30651535948528569 0.5 0 -0.30312565137565878 0.48142941462422839 0 -0.30651535948528569 0.5 0 -0.31867016172473639 0.48818671525875318 0 -0.30651535948528569 0.5 0 -0.31867016172473639 0.48818671525875318 0 -0.33526833429176589 0.5 0 -0.31867016172473639 0.48818671525875318 0 -0.33526833429176589 0.5 0 -0.32610505843077592 0.47378340337379482 0 -0.33526833429176589 0.5 0 -0.32610505843077592 0.47378340337379482 0 -0.35058502927755819 0.48471158174014828 0 -0.32610505843077592 0.47378340337379482 0 -0.34512903209738383 0.46546589871991267 0 -0.35058502927755819 0.48471158174014828 0 -0.30312565137565878 0.48142941462422839 0 -0.31867016172473639 0.48818671525875318 0 -0.32610505843077592 0.47378340337379482 0 -0.29875236701631458 0.45741585110583449 0 -0.32610505843077592 0.47378340337379482 0 -0.32025633733125858 0.44917601012113001 0 -0.32610505843077592 0.47378340337379482 0 -0.32025633733125858 0.44917601012113001 0 -0.33325450001756379 0.45932240607520702 0 -0.32490495155579618 0.43104093205947408 0 -0.32025633733125858 0.44917601012113001 0 -0.33766624559627711 0.44585438502440111 0 -0.32025633733125858 0.44917601012113001 0 -0.33766624559627711 0.44585438502440111 0 -0.33325450001756379 0.45932240607520702 0 -0.33766624559627711 0.44585438502440111 0 -0.33325450001756379 0.45932240607520702 0 -0.34512903209738383 0.46546589871991267 0 -0.32610505843077592 0.47378340337379482 0 -0.33325450001756379 0.45932240607520702 0 -0.34512903209738383 0.46546589871991267 0 -0.34512903209738383 0.46546589871991267 0 -0.35787936464341402 0.44678608589355318 0 -0.35893455593530849 0.46962015128503332 0 -0.33766624559627711 0.44585438502440111 0 -0.34512903209738383 0.46546589871991267 0 -0.35787936464341402 0.44678608589355318 0 -0.34208099476743509 0.42349446288123138 0 -0.33766624559627711 0.44585438502440111 0 -0.35787936464341402 0.44678608589355318 0 -0.37879172645040482 0.44364845171245471 0 -0.36396462051856848 0.426382225859054 0 -0.35787936464341402 0.44678608589355318 0 -0.37879172645040482 0.44364845171245471 0 -0.35787936464341402 0.44678608589355318 0 -0.37229669897162648 0.4687721746086505 0 -0.35787936464341402 0.44678608589355318 0 -0.37229669897162648 0.4687721746086505 0 -0.35893455593530849 0.46962015128503332 0 -0.35787936464341402 0.44678608589355318 0 -0.37229669897162648 0.4687721746086505 0 -0.37229669897162648 0.4687721746086505 0 -0.36878265468656041 0.48236501546290123 0 -0.36878265468656041 0.48236501546290123 0 -0.35058502927755819 0.48471158174014828 0 -0.35893455593530849 0.46962015128503332 0 -0.37229669897162648 0.4687721746086505 0 -0.36878265468656041 0.48236501546290123 0 -0.35893455593530849 0.46962015128503332 0 -0.38253549143817611 0.48438608730432547 0 -0.37229669897162648 0.4687721746086505 0 -0.36878265468656041 0.48236501546290123 0 -0.36878265468656041 0.48236501546290123 0 -0.36402130909824609 0.5 0 -0.35058502927755819 0.48471158174014828 0 -0.38253549143817611 0.48438608730432547 0 -0.36878265468656041 0.48236501546290123 0 -0.36402130909824609 0.5 0 -0.33526833429176589 0.5 0 -0.36402130909824609 0.5 0 -0.35058502927755819 0.48471158174014828 0 -0.34512903209738383 0.46546589871991267 0 -0.35058502927755819 0.48471158174014828 0 -0.35893455593530849 0.46962015128503332 0 -0.14807688072685751 0.47947349251630139 0 -0.1449031746491653 0.47114953353165789 0 -0.13298722322834031 0.47728340512472189 0 -0.14807688072685751 0.47947349251630139 0 -0.1449031746491653 0.47114953353165789 0 -0.15270516116541211 0.46684956727063598 0 -0.14807688072685751 0.47947349251630139 0 -0.13297312164065109 0.499999999999997 0 -0.1627504854528852 0.49999999999999961 0 -0.14807688072685751 0.47947349251630139 0 -0.13297312164065109 0.499999999999997 0 -0.1276316110634213 0.48932083876329607 0 -0.14807688072685751 0.47947349251630139 0 -0.1276316110634213 0.48932083876329607 0 -0.13297312164065109 0.499999999999997 0 -0.1276316110634213 0.48932083876329607 0 -0.1276316110634213 0.48932083876329607 0 -0.13298722322834031 0.47728340512472189 0 -0.1199335769996305 0.47393033344009028 0 -0.14807688072685751 0.47947349251630139 0 -0.1276316110634213 0.48932083876329607 0 -0.13298722322834031 0.47728340512472189 0 -0.1449031746491653 0.47114953353165789 0 -0.13298722322834031 0.47728340512472189 0 -0.13513601027615291 0.46842494278327468 0 -0.13298722322834031 0.47728340512472189 0 -0.13513601027615291 0.46842494278327468 0 -0.1199335769996305 0.47393033344009028 0 -0.1271705947214293 0.45485077653965988 0 -0.13513601027615291 0.46842494278327468 0 -0.15292405211001839 0.46405277265753447 0 -0.1271705947214293 0.45485077653965988 0 -0.15292405211001839 0.46405277265753447 0 -0.1271705947214293 0.45485077653965988 0 -0.13513601027615291 0.46842494278327468 0 -0.1199335769996305 0.47393033344009028 0 -0.1271705947214293 0.45485077653965988 0 -0.1387583029552025 0.43670156837406171 0 -0.1203882308634798 0.43633692869159008 0 -0.1271705947214293 0.45485077653965988 0 -0.15416612135790611 0.44818271193928838 0 -0.1387583029552025 0.43670156837406171 0 -0.15416612135790611 0.44818271193928838 0 -0.15567339304536021 0.42892412934459351 0 -0.1387583029552025 0.43670156837406171 0 -0.15416612135790611 0.44818271193928838 0 -0.15567339304536021 0.42892412934459351 0 -0.1271705947214293 0.45485077653965988 0 -0.15416612135790611 0.44818271193928838 0 -0.1271705947214293 0.45485077653965988 0 -0.15416612135790611 0.44818271193928838 0 -0.15292405211001839 0.46405277265753447 0 -0.15416612135790611 0.44818271193928838 0 -0.15292405211001839 0.46405277265753447 0 -0.1449031746491653 0.47114953353165789 0 -0.13513601027615291 0.46842494278327468 0 -0.15292405211001839 0.46405277265753447 0 -0.1449031746491653 0.47114953353165789 0 -0.15292405211001839 0.46405277265753447 0 -0.15270516116541211 0.46684956727063598 0 -0.15292405211001839 0.46405277265753447 0 -0.15270516116541211 0.46684956727063598 0 -0.15416612135790611 0.44818271193928838 0 -0.15292405211001839 0.46405277265753447 0 -0.17078632046734629 0.45663165130832062 0 -0.15292405211001839 0.46405277265753447 0 -0.16852215039029239 0.46962614626930421 0 -0.15292405211001839 0.46405277265753447 0 -0.17078632046734629 0.45663165130832062 0 -0.16852215039029239 0.46962614626930421 0 -0.15292405211001839 0.46405277265753447 0 -0.15270516116541211 0.46684956727063598 0 -0.16852215039029239 0.46962614626930421 0 -0.15416612135790611 0.44818271193928838 0 -0.17078632046734629 0.45663165130832062 0 -0.17914767152504801 0.44201211217380781 0 -0.15416612135790611 0.44818271193928838 0 -0.17914767152504801 0.44201211217380781 0 -0.15416612135790611 0.44818271193928838 0 -0.17914767152504801 0.44201211217380781 0 -0.16728667621743029 0.43291446567770703 0 -0.17078632046734629 0.45663165130832062 0 -0.17914767152504801 0.44201211217380781 0 -0.18750313500962471 0.45322271881058451 0 -0.17914767152504801 0.44201211217380781 0 -0.18750313500962471 0.45322271881058451 0 -0.19381626646914471 0.43178512195899288 0 -0.17078632046734629 0.45663165130832062 0 -0.1807613848145202 0.46373118957968201 0 -0.18750313500962471 0.45322271881058451 0 -0.1807613848145202 0.46373118957968201 0 -0.16852215039029239 0.46962614626930421 0 -0.17078632046734629 0.45663165130832062 0 -0.1807613848145202 0.46373118957968201 0 -0.16852215039029239 0.46962614626930421 0 -0.1807613848145202 0.46373118957968201 0 -0.18750313500962471 0.45322271881058451 0 -0.1888244645561897 0.46726779201889462 0 -0.185064519553402 0.47553691834633532 0 -0.17683457512210879 0.48056765551261732 0 -0.16852215039029239 0.46962614626930421 0 -0.1807613848145202 0.46373118957968201 0 -0.185064519553402 0.47553691834633532 0 -0.1888244645561897 0.46726779201889462 0 -0.1807613848145202 0.46373118957968201 0 -0.185064519553402 0.47553691834633532 0 -0.16852215039029239 0.46962614626930421 0 -0.185064519553402 0.47553691834633532 0 -0.16852215039029239 0.46962614626930421 0 -0.185064519553402 0.47553691834633532 0 -0.17683457512210879 0.48056765551261732 0 -0.19004123358867511 0.47731515349905218 0 -0.17683457512210879 0.48056765551261732 0 -0.18484172694490761 0.48510232966131261 0 -0.19004123358867511 0.47731515349905218 0 -0.17683457512210879 0.48056765551261732 0 -0.1669425702058801 0.48360312835117208 0 -0.17484995925240801 0.48867667840018542 0 -0.14807688072685751 0.47947349251630139 0 -0.16852215039029239 0.46962614626930421 0 -0.14807688072685751 0.47947349251630139 0 -0.15270516116541211 0.46684956727063598 0 -0.16852215039029239 0.46962614626930421 0 -0.14807688072685751 0.47947349251630139 0 -0.16852215039029239 0.46962614626930421 0 -0.1669425702058801 0.48360312835117208 0 -0.17683457512210879 0.48056765551261732 0 -0.16852215039029239 0.46962614626930421 0 -0.1669425702058801 0.48360312835117208 0 -0.1669425702058801 0.48360312835117208 0 -0.1627504854528852 0.49999999999999961 0 -0.17484995925240801 0.48867667840018542 0 -0.14807688072685751 0.47947349251630139 0 -0.1669425702058801 0.48360312835117208 0 -0.1627504854528852 0.49999999999999961 0 -0.1627504854528852 0.49999999999999961 0 -0.18288043853625829 0.49411027847582478 0 -0.1627504854528852 0.49999999999999961 0 -0.17484995925240801 0.48867667840018542 0 -0.18288043853625829 0.49411027847582478 0 -0.1627504854528852 0.49999999999999961 0 -0.18288043853625829 0.49411027847582478 0 -0.19150346025936529 0.5 0 -0.17683457512210879 0.48056765551261732 0 -0.17484995925240801 0.48867667840018542 0 -0.18484172694490761 0.48510232966131261 0 -0.18484172694490761 0.48510232966131261 0 -0.18288043853625829 0.49411027847582478 0 -0.1913315810410455 0.48600827469168728 0 -0.17484995925240801 0.48867667840018542 0 -0.18484172694490761 0.48510232966131261 0 -0.18288043853625829 0.49411027847582478 0 -0.18288043853625829 0.49411027847582478 0 -0.20301039161963161 0.48822055695165051 0 -0.18288043853625829 0.49411027847582478 0 -0.1913315810410455 0.48600827469168728 0 -0.20301039161963161 0.48822055695165051 0 -0.18288043853625829 0.49411027847582478 0 -0.19150346025936529 0.5 0 -0.20301039161963161 0.48822055695165051 0 -0.185064519553402 0.47553691834633532 0 -0.20414957770848621 0.47880193141797339 0 -0.185064519553402 0.47553691834633532 0 -0.1958945293915231 0.47097100025090177 0 -0.20414957770848621 0.47880193141797339 0 -0.185064519553402 0.47553691834633532 0 -0.19004123358867511 0.47731515349905218 0 -0.20414957770848621 0.47880193141797339 0 -0.19004123358867511 0.47731515349905218 0 -0.2117529692095293 0.48566261023440122 0 -0.20301039161963161 0.48822055695165051 0 -0.19004123358867511 0.47731515349905218 0 -0.2117529692095293 0.48566261023440122 0 -0.19004123358867511 0.47731515349905218 0 -0.20414957770848621 0.47880193141797339 0 -0.2117529692095293 0.48566261023440122 0 -0.185064519553402 0.47553691834633532 0 -0.1958945293915231 0.47097100025090177 0 -0.1888244645561897 0.46726779201889462 0 -0.185064519553402 0.47553691834633532 0 -0.19004123358867511 0.47731515349905218 0 -0.1913315810410455 0.48600827469168728 0 -0.20301039161963161 0.48822055695165051 0 -0.19004123358867511 0.47731515349905218 0 -0.18484172694490761 0.48510232966131261 0 -0.1913315810410455 0.48600827469168728 0 -0.19004123358867511 0.47731515349905218 0 -0.1958945293915231 0.47097100025090177 0 -0.2040031131447777 0.46920934458907798 0 -0.20414957770848621 0.47880193141797339 0 -0.20414957770848621 0.47880193141797339 0 -0.22314034470300451 0.48233083542747479 0 -0.20414957770848621 0.47880193141797339 0 -0.2144100740489786 0.47003149160489721 0 -0.22314034470300451 0.48233083542747479 0 -0.20414957770848621 0.47880193141797339 0 -0.2117529692095293 0.48566261023440122 0 -0.22314034470300451 0.48233083542747479 0 -0.2040031131447777 0.46920934458907798 0 -0.20414957770848621 0.47880193141797339 0 -0.2144100740489786 0.47003149160489721 0 -0.2117529692095293 0.48566261023440122 0 -0.22314034470300451 0.48233083542747479 0 -0.20301039161963161 0.48822055695165051 0 -0.2117529692095293 0.48566261023440122 0 -0.2202564350658455 0.5 0 -0.2117529692095293 0.48566261023440122 0 -0.2202564350658455 0.5 0 -0.22314034470300451 0.48233083542747479 0 -0.19150346025936529 0.5 0 -0.20301039161963161 0.48822055695165051 0 -0.2202564350658455 0.5 0 -0.20301039161963161 0.48822055695165051 0 -0.2117529692095293 0.48566261023440122 0 -0.2202564350658455 0.5 0 -0.22314034470300451 0.48233083542747479 0 -0.2355372080655635 0.4924012413617776 0 -0.22314034470300451 0.48233083542747479 0 -0.24415481063257569 0.47618231874729311 0 -0.22314034470300451 0.48233083542747479 0 -0.22899168016783969 0.47016270923010511 0 -0.24415481063257569 0.47618231874729311 0 -0.2144100740489786 0.47003149160489721 0 -0.22314034470300451 0.48233083542747479 0 -0.22899168016783969 0.47016270923010511 0 -0.22314034470300451 0.48233083542747479 0 -0.24415481063257569 0.47618231874729311 0 -0.24974264262107879 0.4872741300196356 0 -0.22899168016783969 0.47016270923010511 0 -0.24415481063257569 0.47618231874729311 0 -0.23988025581223121 0.46722588797679793 0 -0.24415481063257569 0.47618231874729311 0 -0.24973180031732389 0.46352068888914938 0 -0.23988025581223121 0.46722588797679793 0 -0.25225366216692757 0.47603039887722431 0 -0.24415481063257569 0.47618231874729311 0 -0.24973180031732389 0.46352068888914938 0 -0.25225366216692757 0.47603039887722431 0 -0.24415481063257569 0.47618231874729311 0 -0.24974264262107879 0.4872741300196356 0 -0.22314034470300451 0.48233083542747479 0 -0.24974264262107879 0.4872741300196356 0 -0.22314034470300451 0.48233083542747479 0 -0.24974264262107879 0.4872741300196356 0 -0.2355372080655635 0.4924012413617776 0 -0.2202564350658455 0.5 0 -0.24900940987232539 0.5 0 -0.2355372080655635 0.4924012413617776 0 -0.24974264262107879 0.4872741300196356 0 -0.24900940987232539 0.5 0 -0.2355372080655635 0.4924012413617776 0 -0.25983221871567602 0.45406546637528622 0 -0.2381855023856847 0.44038349225081519 0 -0.25162714099927308 0.43313094198012242 0 -0.25983221871567602 0.45406546637528622 0 -0.2381855023856847 0.44038349225081519 0 -0.25983221871567602 0.45406546637528622 0 -0.2381855023856847 0.44038349225081519 0 -0.24973180031732389 0.46352068888914938 0 -0.2381855023856847 0.44038349225081519 0 -0.24973180031732389 0.46352068888914938 0 -0.23664273213118581 0.45903783504064399 0 -0.22899168016783969 0.47016270923010511 0 -0.23988025581223121 0.46722588797679793 0 -0.23664273213118581 0.45903783504064399 0 -0.24973180031732389 0.46352068888914938 0 -0.23988025581223121 0.46722588797679793 0 -0.23664273213118581 0.45903783504064399 0 -0.22899168016783969 0.47016270923010511 0 -0.23664273213118581 0.45903783504064399 0 -0.22788094279175 0.45344564289647982 0 -0.22899168016783969 0.47016270923010511 0 -0.22788094279175 0.45344564289647982 0 -0.21805477149307831 0.45683502676601417 0 -0.2144100740489786 0.47003149160489721 0 -0.22899168016783969 0.47016270923010511 0 -0.21805477149307831 0.45683502676601417 0 -0.2381855023856847 0.44038349225081519 0 -0.23664273213118581 0.45903783504064399 0 -0.22788094279175 0.45344564289647982 0 -0.22788094279175 0.45344564289647982 0 -0.22414550221029539 0.44374574346049078 0 -0.21805477149307831 0.45683502676601417 0 -0.2381855023856847 0.44038349225081519 0 -0.22788094279175 0.45344564289647982 0 -0.22414550221029539 0.44374574346049078 0 -0.2381855023856847 0.44038349225081519 0 -0.22414550221029539 0.44374574346049078 0 -0.22829381963932999 0.43315874053998449 0 -0.22414550221029539 0.44374574346049078 0 -0.213625154132904 0.44681211164378321 0 -0.2175273822316153 0.43359730136944008 0 -0.213625154132904 0.44681211164378321 0 -0.20530116546611649 0.43594882638892779 0 -0.2175273822316153 0.43359730136944008 0 -0.22414550221029539 0.44374574346049078 0 -0.213625154132904 0.44681211164378321 0 -0.21805477149307831 0.45683502676601417 0 -0.213625154132904 0.44681211164378321 0 -0.20821364344324311 0.45912655978809069 0 -0.20185206700552599 0.44756847830468288 0 -0.213625154132904 0.44681211164378321 0 -0.20185206700552599 0.44756847830468288 0 -0.20530116546611649 0.43594882638892779 0 -0.2144100740489786 0.47003149160489721 0 -0.21805477149307831 0.45683502676601417 0 -0.20821364344324311 0.45912655978809069 0 -0.213625154132904 0.44681211164378321 0 -0.21805477149307831 0.45683502676601417 0 -0.20821364344324311 0.45912655978809069 0 -0.2040031131447777 0.46920934458907798 0 -0.20821364344324311 0.45912655978809069 0 -0.19733377022959861 0.46356268632971059 0 -0.2040031131447777 0.46920934458907798 0 -0.2144100740489786 0.47003149160489721 0 -0.20821364344324311 0.45912655978809069 0 -0.19733377022959861 0.46356268632971059 0 -0.18750313500962471 0.45322271881058451 0 -0.20185206700552599 0.44756847830468288 0 -0.20821364344324311 0.45912655978809069 0 -0.19733377022959861 0.46356268632971059 0 -0.20185206700552599 0.44756847830468288 0 -0.1958945293915231 0.47097100025090177 0 -0.2040031131447777 0.46920934458907798 0 -0.19733377022959861 0.46356268632971059 0 -0.1958945293915231 0.47097100025090177 0 -0.19733377022959861 0.46356268632971059 0 -0.1888244645561897 0.46726779201889462 0 -0.19733377022959861 0.46356268632971059 0 -0.18750313500962471 0.45322271881058451 0 -0.1888244645561897 0.46726779201889462 0 -0.18750313500962471 0.45322271881058451 0 -0.20185206700552599 0.44756847830468288 0 -0.19381626646914471 0.43178512195899288 0 -0.20185206700552599 0.44756847830468288 0 -0.19381626646914471 0.43178512195899288 0 -0.20530116546611649 0.43594882638892779 0 -0.19381626646914471 0.43178512195899288 0 -0.19726033340213539 0.41283384163233872 0 -0.2084851022910918 0.42426364808126121 0 -0.19381626646914471 0.43178512195899288 0 -0.19726033340213539 0.41283384163233872 0 -0.17953344721115591 0.42233992952084481 0 -0.19381626646914471 0.43178512195899288 0 -0.20530116546611649 0.43594882638892779 0 -0.2084851022910918 0.42426364808126121 0 -0.19726033340213539 0.41283384163233872 0 -0.2151098326628002 0.40946325634109132 0 -0.2084851022910918 0.42426364808126121 0 -0.19726033340213539 0.41283384163233872 0 -0.2151098326628002 0.40946325634109132 0 -0.2051206920519669 0.40137257985042268 0 -0.2151098326628002 0.40946325634109132 0 -0.2084851022910918 0.42426364808126121 0 -0.22290482443213569 0.42244465655520791 0 -0.20530116546611649 0.43594882638892779 0 -0.2084851022910918 0.42426364808126121 0 -0.2175273822316153 0.43359730136944008 0 -0.2084851022910918 0.42426364808126121 0 -0.2175273822316153 0.43359730136944008 0 -0.22290482443213569 0.42244465655520791 0 -0.2175273822316153 0.43359730136944008 0 -0.22829381963932999 0.43315874053998449 0 -0.22290482443213569 0.42244465655520791 0 -0.22414550221029539 0.44374574346049078 0 -0.2175273822316153 0.43359730136944008 0 -0.22829381963932999 0.43315874053998449 0 -0.22829381963932999 0.43315874053998449 0 -0.22290482443213569 0.42244465655520791 0 -0.23731366459728331 0.42598014284537578 0 -0.2151098326628002 0.40946325634109132 0 -0.22290482443213569 0.42244465655520791 0 -0.22986549373675241 0.41331747390699192 0 -0.2151098326628002 0.40946325634109132 0 -0.22986549373675241 0.41331747390699192 0 -0.22577084424675131 0.40113668062901991 0 -0.22986549373675241 0.41331747390699192 0 -0.2390989833788395 0.40685193226120769 0 -0.22577084424675131 0.40113668062901991 0 -0.22290482443213569 0.42244465655520791 0 -0.22986549373675241 0.41331747390699192 0 -0.23731366459728331 0.42598014284537578 0 -0.24146376637850719 0.41647703918263768 0 -0.24736710289600669 0.4223094275503243 0 -0.23731366459728331 0.42598014284537578 0 -0.22986549373675241 0.41331747390699192 0 -0.24146376637850719 0.41647703918263768 0 -0.23731366459728331 0.42598014284537578 0 -0.22986549373675241 0.41331747390699192 0 -0.24146376637850719 0.41647703918263768 0 -0.2390989833788395 0.40685193226120769 0 -0.25015397653610649 0.41360124968575279 0 -0.24146376637850719 0.41647703918263768 0 -0.2390989833788395 0.40685193226120769 0 -0.25015397653610649 0.41360124968575279 0 -0.2390989833788395 0.40685193226120769 0 -0.24996761101599069 0.40388741185634452 0 -0.25015397653610649 0.41360124968575279 0 -0.24146376637850719 0.41647703918263768 0 -0.24736710289600669 0.4223094275503243 0 -0.25162714099927308 0.43313094198012242 0 -0.24736710289600669 0.4223094275503243 0 -0.23731366459728331 0.42598014284537578 0 -0.25162714099927308 0.43313094198012242 0 -0.2381855023856847 0.44038349225081519 0 -0.23731366459728331 0.42598014284537578 0 -0.2381855023856847 0.44038349225081519 0 -0.22829381963932999 0.43315874053998449 0 -0.23731366459728331 0.42598014284537578 0 -0.2352837567006657 0.38939990339278657 0 -0.24736677536366869 0.38332155873877438 0 -0.24023151385980299 0.37366827368057831 0 -0.25603590710798729 0.37305638900933402 0 -0.24736677536366869 0.38332155873877438 0 -0.24023151385980299 0.37366827368057831 0 -0.2352837567006657 0.38939990339278657 0 -0.24736677536366869 0.38332155873877438 0 -0.24728759806371159 0.39461320975121428 0 -0.2390989833788395 0.40685193226120769 0 -0.2352837567006657 0.38939990339278657 0 -0.24728759806371159 0.39461320975121428 0 -0.2390989833788395 0.40685193226120769 0 -0.24728759806371159 0.39461320975121428 0 -0.24996761101599069 0.40388741185634452 0 -0.2390989833788395 0.40685193226120769 0 -0.2352837567006657 0.38939990339278657 0 -0.22577084424675131 0.40113668062901991 0 -0.2352837567006657 0.38939990339278657 0 -0.22577084424675131 0.40113668062901991 0 -0.22126551632750011 0.38931942786076817 0 -0.22577084424675131 0.40113668062901991 0 -0.22126551632750011 0.38931942786076817 0 -0.2149115378542826 0.39841288740056191 0 -0.2352837567006657 0.38939990339278657 0 -0.22722229138628661 0.37601898593369398 0 -0.24023151385980299 0.37366827368057831 0 -0.2352837567006657 0.38939990339278657 0 -0.22126551632750011 0.38931942786076817 0 -0.22722229138628661 0.37601898593369398 0 -0.22126551632750011 0.38931942786076817 0 -0.22722229138628661 0.37601898593369398 0 -0.21294061143102069 0.37752938087720322 0 -0.22126551632750011 0.38931942786076817 0 -0.21294061143102069 0.37752938087720322 0 -0.20570032944347491 0.38989169809616059 0 -0.21294061143102069 0.37752938087720322 0 -0.20570032944347491 0.38989169809616059 0 -0.19958728981380711 0.37773036496356061 0 -0.2151098326628002 0.40946325634109132 0 -0.22577084424675131 0.40113668062901991 0 -0.2149115378542826 0.39841288740056191 0 -0.2151098326628002 0.40946325634109132 0 -0.2149115378542826 0.39841288740056191 0 -0.2051206920519669 0.40137257985042268 0 -0.22126551632750011 0.38931942786076817 0 -0.20570032944347491 0.38989169809616059 0 -0.2149115378542826 0.39841288740056191 0 -0.20570032944347491 0.38989169809616059 0 -0.2149115378542826 0.39841288740056191 0 -0.2051206920519669 0.40137257985042268 0 -0.19417661485771179 0.39976102513947448 0 -0.18768350879825721 0.38801929709545568 0 -0.18240018693966481 0.40588328750748459 0 -0.20570032944347491 0.38989169809616059 0 -0.19417661485771179 0.39976102513947448 0 -0.18768350879825721 0.38801929709545568 0 -0.19726033340213539 0.41283384163233872 0 -0.2051206920519669 0.40137257985042268 0 -0.19417661485771179 0.39976102513947448 0 -0.20570032944347491 0.38989169809616059 0 -0.2051206920519669 0.40137257985042268 0 -0.19417661485771179 0.39976102513947448 0 -0.19726033340213539 0.41283384163233872 0 -0.19417661485771179 0.39976102513947448 0 -0.18240018693966481 0.40588328750748459 0 -0.19958728981380711 0.37773036496356061 0 -0.18768350879825721 0.38801929709545568 0 -0.18417900128138401 0.36852583523541682 0 -0.20570032944347491 0.38989169809616059 0 -0.19958728981380711 0.37773036496356061 0 -0.18768350879825721 0.38801929709545568 0 -0.18768350879825721 0.38801929709545568 0 -0.17300353561448839 0.3807401998027613 0 -0.18417900128138401 0.36852583523541682 0 -0.18768350879825721 0.38801929709545568 0 -0.17300353561448839 0.3807401998027613 0 -0.17359673725256289 0.39422873006977988 0 -0.15891303182435049 0.38753089445435102 0 -0.16064539891588761 0.36539624215880318 0 -0.17300353561448839 0.3807401998027613 0 -0.15891303182435049 0.38753089445435102 0 -0.16064539891588761 0.36539624215880318 0 -0.17300353561448839 0.3807401998027613 0 -0.15891303182435049 0.38753089445435102 0 -0.17359673725256289 0.39422873006977988 0 -0.15891303182435049 0.38753089445435102 0 -0.15718066473281209 0.40966554674989852 0 -0.15891303182435049 0.38753089445435102 0 -0.17359673725256289 0.39422873006977988 0 -0.16585643081078649 0.40819486622669332 0 -0.15891303182435049 0.38753089445435102 0 -0.16585643081078649 0.40819486622669332 0 -0.15718066473281209 0.40966554674989852 0 -0.18768350879825721 0.38801929709545568 0 -0.17359673725256289 0.39422873006977988 0 -0.18240018693966481 0.40588328750748459 0 -0.17359673725256289 0.39422873006977988 0 -0.18240018693966481 0.40588328750748459 0 -0.16585643081078649 0.40819486622669332 0 -0.18240018693966481 0.40588328750748459 0 -0.17497057039015201 0.41306706500518992 0 -0.17953344721115591 0.42233992952084481 0 -0.18240018693966481 0.40588328750748459 0 -0.17497057039015201 0.41306706500518992 0 -0.16585643081078649 0.40819486622669332 0 -0.19726033340213539 0.41283384163233872 0 -0.18240018693966481 0.40588328750748459 0 -0.17953344721115591 0.42233992952084481 0 -0.17497057039015201 0.41306706500518992 0 -0.17953344721115591 0.42233992952084481 0 -0.1668396240586982 0.41948657311229642 0 -0.17914767152504801 0.44201211217380781 0 -0.17953344721115591 0.42233992952084481 0 -0.16728667621743029 0.43291446567770703 0 -0.17914767152504801 0.44201211217380781 0 -0.19381626646914471 0.43178512195899288 0 -0.17953344721115591 0.42233992952084481 0 -0.15416612135790611 0.44818271193928838 0 -0.16728667621743029 0.43291446567770703 0 -0.15567339304536021 0.42892412934459351 0 -0.17953344721115591 0.42233992952084481 0 -0.16728667621743029 0.43291446567770703 0 -0.1668396240586982 0.41948657311229642 0 -0.16728667621743029 0.43291446567770703 0 -0.1668396240586982 0.41948657311229642 0 -0.15567339304536021 0.42892412934459351 0 -0.1668396240586982 0.41948657311229642 0 -0.15718066473281209 0.40966554674989852 0 -0.15567339304536021 0.42892412934459351 0 -0.15718066473281209 0.40966554674989852 0 -0.15567339304536021 0.42892412934459351 0 -0.17497057039015201 0.41306706500518992 0 -0.16585643081078649 0.40819486622669332 0 -0.1668396240586982 0.41948657311229642 0 -0.16585643081078649 0.40819486622669332 0 -0.1668396240586982 0.41948657311229642 0 -0.15718066473281209 0.40966554674989852 0 -0.16585643081078649 0.40819486622669332 0 -0.15718066473281209 0.40966554674989852 0 -0.15718066473281209 0.40966554674989852 0 -0.1329627898010563 0.41377086225233162 0 -0.1448966717939866 0.39792441111683519 0 -0.15718066473281209 0.40966554674989852 0 -0.15567339304536021 0.42892412934459351 0 -0.1329627898010563 0.41377086225233162 0 -0.15718066473281209 0.40966554674989852 0 -0.1329627898010563 0.41377086225233162 0 -0.15567339304536021 0.42892412934459351 0 -0.1387583029552025 0.43670156837406171 0 -0.1329627898010563 0.41377086225233162 0 -0.1387583029552025 0.43670156837406171 0 -0.1329627898010563 0.41377086225233162 0 -0.1203882308634798 0.43633692869159008 0 -0.1329627898010563 0.41377086225233162 0 -0.13094926167676699 0.39478334172728408 0 -0.1448966717939866 0.39792441111683519 0 -0.1329627898010563 0.41377086225233162 0 -0.13094926167676699 0.39478334172728408 0 -0.1193851387197131 0.39849800689121151 0 -0.13094926167676699 0.39478334172728408 0 -0.1408357907688387 0.38540513936188131 0 -0.1448966717939866 0.39792441111683519 0 -0.12602955525595369 0.37680376999551191 0 -0.1408357907688387 0.38540513936188131 0 -0.1433904332931358 0.3699832795154242 0 -0.13094926167676699 0.39478334172728408 0 -0.12602955525595369 0.37680376999551191 0 -0.1408357907688387 0.38540513936188131 0 -0.15891303182435049 0.38753089445435102 0 -0.1408357907688387 0.38540513936188131 0 -0.1433904332931358 0.3699832795154242 0 -0.15891303182435049 0.38753089445435102 0 -0.1408357907688387 0.38540513936188131 0 -0.1448966717939866 0.39792441111683519 0 -0.15891303182435049 0.38753089445435102 0 -0.15718066473281209 0.40966554674989852 0 -0.1448966717939866 0.39792441111683519 0 -0.14604381628922719 0.35245234702349482 0 -0.1433904332931358 0.3699832795154242 0 -0.16064539891588761 0.36539624215880318 0 -0.15891303182435049 0.38753089445435102 0 -0.1433904332931358 0.3699832795154242 0 -0.16064539891588761 0.36539624215880318 0 -0.14604381628922719 0.35245234702349482 0 -0.1433904332931358 0.3699832795154242 0 -0.1278801081378303 0.35799638876066958 0 -0.12602955525595369 0.37680376999551191 0 -0.1433904332931358 0.3699832795154242 0 -0.1278801081378303 0.35799638876066958 0 -0.1278801081378303 0.35799638876066958 0 -0.1332764167575646 0.34008422556405582 0 -0.1191358251029557 0.34509040958496617 0 -0.14604381628922719 0.35245234702349482 0 -0.1278801081378303 0.35799638876066958 0 -0.1332764167575646 0.34008422556405582 0 -0.1332764167575646 0.34008422556405582 0 -0.13414491179038621 0.3221688422441279 0 -0.149097402247829 0.33199455609819362 0 -0.1332764167575646 0.34008422556405582 0 -0.13414491179038621 0.3221688422441279 0 -0.1209462960797151 0.33049831654010609 0 -0.13414491179038621 0.3221688422441279 0 -0.14903711053068841 0.3129659749123318 0 -0.1312441600897393 0.30442200943926179 0 -0.13414491179038621 0.3221688422441279 0 -0.1312441600897393 0.30442200943926179 0 -0.12039393490326571 0.31543344305833698 0 -0.13414491179038621 0.3221688422441279 0 -0.12039393490326571 0.31543344305833698 0 -0.1209462960797151 0.33049831654010609 0 -0.14903711053068841 0.3129659749123318 0 -0.149097402247829 0.33199455609819362 0 -0.16970439211168289 0.32103435698189631 0 -0.13414491179038621 0.3221688422441279 0 -0.14903711053068841 0.3129659749123318 0 -0.149097402247829 0.33199455609819362 0 -0.14604381628922719 0.35245234702349482 0 -0.149097402247829 0.33199455609819362 0 -0.16237776600742471 0.3432615898632555 0 -0.14604381628922719 0.35245234702349482 0 -0.1332764167575646 0.34008422556405582 0 -0.149097402247829 0.33199455609819362 0 -0.149097402247829 0.33199455609819362 0 -0.16237776600742471 0.3432615898632555 0 -0.16970439211168289 0.32103435698189631 0 -0.16970439211168289 0.32103435698189631 0 -0.1840332998067031 0.33767801969545108 0 -0.1935325581598441 0.32115059057925233 0 -0.16970439211168289 0.32103435698189631 0 -0.1935325581598441 0.32115059057925233 0 -0.1862025567418 0.29943612281466803 0 -0.16237776600742471 0.3432615898632555 0 -0.16970439211168289 0.32103435698189631 0 -0.1840332998067031 0.33767801969545108 0 -0.16237776600742471 0.3432615898632555 0 -0.1840332998067031 0.33767801969545108 0 -0.17650089764242879 0.35241468022081718 0 -0.17650089764242879 0.35241468022081718 0 -0.18417900128138401 0.36852583523541682 0 -0.19628913354291369 0.35211581094441408 0 -0.1840332998067031 0.33767801969545108 0 -0.17650089764242879 0.35241468022081718 0 -0.19628913354291369 0.35211581094441408 0 -0.16237776600742471 0.3432615898632555 0 -0.17650089764242879 0.35241468022081718 0 -0.16064539891588761 0.36539624215880318 0 -0.16237776600742471 0.3432615898632555 0 -0.16064539891588761 0.36539624215880318 0 -0.14604381628922719 0.35245234702349482 0 -0.16237776600742471 0.3432615898632555 0 -0.16064539891588761 0.36539624215880318 0 -0.17650089764242879 0.35241468022081718 0 -0.16064539891588761 0.36539624215880318 0 -0.18417900128138401 0.36852583523541682 0 -0.17300353561448839 0.3807401998027613 0 -0.16064539891588761 0.36539624215880318 0 -0.18417900128138401 0.36852583523541682 0 -0.18417900128138401 0.36852583523541682 0 -0.19628913354291369 0.35211581094441408 0 -0.20484751868458539 0.36497065947662771 0 -0.19958728981380711 0.37773036496356061 0 -0.18417900128138401 0.36852583523541682 0 -0.20484751868458539 0.36497065947662771 0 -0.19628913354291369 0.35211581094441408 0 -0.21700779554990349 0.347434176127279 0 -0.20082311092677091 0.33644836961762348 0 -0.19628913354291369 0.35211581094441408 0 -0.21700779554990349 0.347434176127279 0 -0.20484751868458539 0.36497065947662771 0 -0.21700779554990349 0.347434176127279 0 -0.20484751868458539 0.36497065947662771 0 -0.21908128048848341 0.36648838871189238 0 -0.21294061143102069 0.37752938087720322 0 -0.19958728981380711 0.37773036496356061 0 -0.20484751868458539 0.36497065947662771 0 -0.21294061143102069 0.37752938087720322 0 -0.20484751868458539 0.36497065947662771 0 -0.21908128048848341 0.36648838871189238 0 -0.22722229138628661 0.37601898593369398 0 -0.21294061143102069 0.37752938087720322 0 -0.21908128048848341 0.36648838871189238 0 -0.22722229138628661 0.37601898593369398 0 -0.2311049069376685 0.35999782571952299 0 -0.24023151385980299 0.37366827368057831 0 -0.22722229138628661 0.37601898593369398 0 -0.2311049069376685 0.35999782571952299 0 -0.21908128048848341 0.36648838871189238 0 -0.21700779554990349 0.347434176127279 0 -0.2311049069376685 0.35999782571952299 0 -0.23782904778635369 0.34729541058485669 0 -0.21700779554990349 0.347434176127279 0 -0.2311049069376685 0.35999782571952299 0 -0.21908128048848341 0.36648838871189238 0 -0.25411148794662869 0.34053150761902601 0 -0.24766031851708539 0.35885006558086252 0 -0.23782904778635369 0.34729541058485669 0 -0.2311049069376685 0.35999782571952299 0 -0.24766031851708539 0.35885006558086252 0 -0.23782904778635369 0.34729541058485669 0 -0.25603590710798729 0.37305638900933402 0 -0.24766031851708539 0.35885006558086252 0 -0.24023151385980299 0.37366827368057831 0 -0.2311049069376685 0.35999782571952299 0 -0.24766031851708539 0.35885006558086252 0 -0.24023151385980299 0.37366827368057831 0 -0.2474845913036233 0.31861885933040518 0 -0.23258854463823039 0.32928636820757923 0 -0.22610251456733871 0.29919946950475762 0 -0.25411148794662869 0.34053150761902601 0 -0.23782904778635369 0.34729541058485669 0 -0.23258854463823039 0.32928636820757923 0 -0.25411148794662869 0.34053150761902601 0 -0.2474845913036233 0.31861885933040518 0 -0.23258854463823039 0.32928636820757923 0 -0.21700779554990349 0.347434176127279 0 -0.23258854463823039 0.32928636820757923 0 -0.2129958306755344 0.32263878607915042 0 -0.21700779554990349 0.347434176127279 0 -0.23782904778635369 0.34729541058485669 0 -0.23258854463823039 0.32928636820757923 0 -0.23258854463823039 0.32928636820757923 0 -0.2129958306755344 0.32263878607915042 0 -0.22610251456733871 0.29919946950475762 0 -0.2129958306755344 0.32263878607915042 0 -0.1935325581598441 0.32115059057925233 0 -0.20488749033937509 0.30089524562449321 0 -0.21700779554990349 0.347434176127279 0 -0.2129958306755344 0.32263878607915042 0 -0.20082311092677091 0.33644836961762348 0 -0.1840332998067031 0.33767801969545108 0 -0.19628913354291369 0.35211581094441408 0 -0.20082311092677091 0.33644836961762348 0 -0.1840332998067031 0.33767801969545108 0 -0.20082311092677091 0.33644836961762348 0 -0.1935325581598441 0.32115059057925233 0 -0.2129958306755344 0.32263878607915042 0 -0.20082311092677091 0.33644836961762348 0 -0.1935325581598441 0.32115059057925233 0 -0.1935325581598441 0.32115059057925233 0 -0.20488749033937509 0.30089524562449321 0 -0.1862025567418 0.29943612281466803 0 -0.20488749033937509 0.30089524562449321 0 -0.19669891299047751 0.28014248750320359 0 -0.1862025567418 0.29943612281466803 0 -0.213792568901256 0.28280401726592741 0 -0.20488749033937509 0.30089524562449321 0 -0.19669891299047751 0.28014248750320359 0 -0.213792568901256 0.28280401726592741 0 -0.20488749033937509 0.30089524562449321 0 -0.22610251456733871 0.29919946950475762 0 -0.2129958306755344 0.32263878607915042 0 -0.20488749033937509 0.30089524562449321 0 -0.22610251456733871 0.29919946950475762 0 -0.22610251456733871 0.29919946950475762 0 -0.24641767816760121 0.28076111523790659 0 -0.22958460858223939 0.27254113672421421 0 -0.213792568901256 0.28280401726592741 0 -0.22610251456733871 0.29919946950475762 0 -0.22958460858223939 0.27254113672421421 0 -0.22610251456733871 0.29919946950475762 0 -0.24641767816760121 0.28076111523790659 0 -0.22610251456733871 0.29919946950475762 0 -0.2476054777775257 0.29980943081764161 0 -0.24641767816760121 0.28076111523790659 0 -0.2474845913036233 0.31861885933040518 0 -0.22610251456733871 0.29919946950475762 0 -0.2476054777775257 0.29980943081764161 0 -0.23831975441867309 0.26251664814473158 0 -0.24739154241544459 0.26250245805921452 0 -0.24042839589598961 0.26958033954151672 0 -0.23831975441867309 0.26251664814473158 0 -0.2421275510198525 0.25237273480976591 0 -0.2301111411242979 0.25415493550153279 0 -0.25189002896290491 0.25449239892481551 0 -0.2421275510198525 0.25237273480976591 0 -0.24739154241544459 0.26250245805921452 0 -0.25189002896290491 0.25449239892481551 0 -0.2421275510198525 0.25237273480976591 0 -0.24647525832179051 0.24874251272968301 0 -0.23831975441867309 0.26251664814473158 0 -0.2421275510198525 0.25237273480976591 0 -0.24739154241544459 0.26250245805921452 0 -0.24641767816760121 0.28076111523790659 0 -0.24042839589598961 0.26958033954151672 0 -0.22958460858223939 0.27254113672421421 0 -0.25432553353194348 0.26385770201985209 0 -0.24739154241544459 0.26250245805921452 0 -0.24641767816760121 0.28076111523790659 0 -0.24739154241544459 0.26250245805921452 0 -0.24641767816760121 0.28076111523790659 0 -0.24042839589598961 0.26958033954151672 0 -0.23831975441867309 0.26251664814473158 0 -0.24042839589598961 0.26958033954151672 0 -0.22958460858223939 0.27254113672421421 0 -0.2301111411242979 0.25415493550153279 0 -0.21119725768121819 0.26093741649149621 0 -0.2211268732449827 0.23855303841785169 0 -0.22958460858223939 0.27254113672421421 0 -0.2301111411242979 0.25415493550153279 0 -0.21119725768121819 0.26093741649149621 0 -0.23831975441867309 0.26251664814473158 0 -0.22958460858223939 0.27254113672421421 0 -0.2301111411242979 0.25415493550153279 0 -0.213792568901256 0.28280401726592741 0 -0.21119725768121819 0.26093741649149621 0 -0.19669891299047751 0.28014248750320359 0 -0.213792568901256 0.28280401726592741 0 -0.22958460858223939 0.27254113672421421 0 -0.21119725768121819 0.26093741649149621 0 -0.21119725768121819 0.26093741649149621 0 -0.19669891299047751 0.28014248750320359 0 -0.1851657792507185 0.25669063751337651 0 -0.21119725768121819 0.26093741649149621 0 -0.1851657792507185 0.25669063751337651 0 -0.20129010394299149 0.24443847017185061 0 -0.16508023407272601 0.2503971719826491 0 -0.16497351800655671 0.27048237190323782 0 -0.1463982144264159 0.25542208648772902 0 -0.1851657792507185 0.25669063751337651 0 -0.16508023407272601 0.2503971719826491 0 -0.16497351800655671 0.27048237190323782 0 -0.19669891299047751 0.28014248750320359 0 -0.1851657792507185 0.25669063751337651 0 -0.1785336448831126 0.28118970112568997 0 -0.1851657792507185 0.25669063751337651 0 -0.16497351800655671 0.27048237190323782 0 -0.1785336448831126 0.28118970112568997 0 -0.1785336448831126 0.28118970112568997 0 -0.1862025567418 0.29943612281466803 0 -0.1670682161741659 0.29661865599902898 0 -0.19669891299047751 0.28014248750320359 0 -0.1785336448831126 0.28118970112568997 0 -0.1862025567418 0.29943612281466803 0 -0.16970439211168289 0.32103435698189631 0 -0.1862025567418 0.29943612281466803 0 -0.1670682161741659 0.29661865599902898 0 -0.14903711053068841 0.3129659749123318 0 -0.16970439211168289 0.32103435698189631 0 -0.1670682161741659 0.29661865599902898 0 -0.16497351800655671 0.27048237190323782 0 -0.1785336448831126 0.28118970112568997 0 -0.1670682161741659 0.29661865599902898 0 -0.16497351800655671 0.27048237190323782 0 -0.1670682161741659 0.29661865599902898 0 -0.14908104489959589 0.29118630183640343 0 -0.14908104489959589 0.29118630183640343 0 -0.13301461501949449 0.28445719444771922 0 -0.1450622376265491 0.27391868512351242 0 -0.14903711053068841 0.3129659749123318 0 -0.1670682161741659 0.29661865599902898 0 -0.14908104489959589 0.29118630183640343 0 -0.14903711053068841 0.3129659749123318 0 -0.14908104489959589 0.29118630183640343 0 -0.1312441600897393 0.30442200943926179 0 -0.14908104489959589 0.29118630183640343 0 -0.1312441600897393 0.30442200943926179 0 -0.13301461501949449 0.28445719444771922 0 -0.1312441600897393 0.30442200943926179 0 -0.13301461501949449 0.28445719444771922 0 -0.1213785856987941 0.29313728666284122 0 -0.13301461501949449 0.28445719444771922 0 -0.13204106992365919 0.26838285043895482 0 -0.11450201459557589 0.27632777785735069 0 -0.13301461501949449 0.28445719444771922 0 -0.13204106992365919 0.26838285043895482 0 -0.1450622376265491 0.27391868512351242 0 -0.13204106992365919 0.26838285043895482 0 -0.1463982144264159 0.25542208648772902 0 -0.1229484984770164 0.25473045748778822 0 -0.16497351800655671 0.27048237190323782 0 -0.14908104489959589 0.29118630183640343 0 -0.1450622376265491 0.27391868512351242 0 -0.16497351800655671 0.27048237190323782 0 -0.1463982144264159 0.25542208648772902 0 -0.1450622376265491 0.27391868512351242 0 -0.13204106992365919 0.26838285043895482 0 -0.1463982144264159 0.25542208648772902 0 -0.1450622376265491 0.27391868512351242 0 -0.097506140953614345 0.27357735958971208 0 -0.11450201459557589 0.27632777785735069 0 -0.1005958202823611 0.28523198992827592 0 -0.097506140953614345 0.27357735958971208 0 -0.099646555744896198 0.25564887823787741 0 -0.11450201459557589 0.27632777785735069 0 -0.099646555744896198 0.25564887823787741 0 -0.1229484984770164 0.25473045748778822 0 -0.11450201459557589 0.27632777785735069 0 -0.13204106992365919 0.26838285043895482 0 -0.1229484984770164 0.25473045748778822 0 -0.11450201459557589 0.27632777785735069 0 -0.13301461501949449 0.28445719444771922 0 -0.11450201459557589 0.27632777785735069 0 -0.1213785856987941 0.29313728666284122 0 -0.11450201459557589 0.27632777785735069 0 -0.1213785856987941 0.29313728666284122 0 -0.1089316332599535 0.29466597401633449 0 -0.1312441600897393 0.30442200943926179 0 -0.11820539787815321 0.30404355150868811 0 -0.12039393490326571 0.31543344305833698 0 -0.1312441600897393 0.30442200943926179 0 -0.1213785856987941 0.29313728666284122 0 -0.11820539787815321 0.30404355150868811 0 -0.1213785856987941 0.29313728666284122 0 -0.11820539787815321 0.30404355150868811 0 -0.1089316332599535 0.29466597401633449 0 -0.11820539787815321 0.30404355150868811 0 -0.1070884601369058 0.30901919227696262 0 -0.1089316332599535 0.29466597401633449 0 -0.11820539787815321 0.30404355150868811 0 -0.1070884601369058 0.30901919227696262 0 -0.12039393490326571 0.31543344305833698 0 -0.1070884601369058 0.30901919227696262 0 -0.097959971888745778 0.29814614799193651 0 -0.1089316332599535 0.29466597401633449 0 -0.1070884601369058 0.30901919227696262 0 -0.097959971888745778 0.29814614799193651 0 -0.094407296445989219 0.31061545818147662 0 -0.11450201459557589 0.27632777785735069 0 -0.1089316332599535 0.29466597401633449 0 -0.1005958202823611 0.28523198992827592 0 -0.097959971888745778 0.29814614799193651 0 -0.1089316332599535 0.29466597401633449 0 -0.1005958202823611 0.28523198992827592 0 -0.097959971888745778 0.29814614799193651 0 -0.1005958202823611 0.28523198992827592 0 -0.091138696253227222 0.28755167415197158 0 -0.097506140953614345 0.27357735958971208 0 -0.1005958202823611 0.28523198992827592 0 -0.091138696253227222 0.28755167415197158 0 -0.085091117115928344 0.30297092681191518 0 -0.075687235297425118 0.29161501572410392 0 -0.076185800972680198 0.27687930596318261 0 -0.091138696253227222 0.28755167415197158 0 -0.085091117115928344 0.30297092681191518 0 -0.076185800972680198 0.27687930596318261 0 -0.085091117115928344 0.30297092681191518 0 -0.076185800972680198 0.27687930596318261 0 -0.097959971888745778 0.29814614799193651 0 -0.091138696253227222 0.28755167415197158 0 -0.085091117115928344 0.30297092681191518 0 -0.094407296445989219 0.31061545818147662 0 -0.085091117115928344 0.30297092681191518 0 -0.082391381917863715 0.31197418606063448 0 -0.097959971888745778 0.29814614799193651 0 -0.094407296445989219 0.31061545818147662 0 -0.085091117115928344 0.30297092681191518 0 -0.085091117115928344 0.30297092681191518 0 -0.075012876351560814 0.30473059711732697 0 -0.075564419789306309 0.2995049384650989 0 -0.085091117115928344 0.30297092681191518 0 -0.075564419789306309 0.2995049384650989 0 -0.075687235297425118 0.29161501572410392 0 -0.085091117115928344 0.30297092681191518 0 -0.082391381917863715 0.31197418606063448 0 -0.075012876351560814 0.30473059711732697 0 -0.082391381917863715 0.31197418606063448 0 -0.075012876351560814 0.30473059711732697 0 -0.066623612710285759 0.30828946155969872 0 -0.075012876351560814 0.30473059711732697 0 -0.075564419789306309 0.2995049384650989 0 -0.066466450392310999 0.29870321420704948 0 -0.075012876351560814 0.30473059711732697 0 -0.066466450392310999 0.29870321420704948 0 -0.066623612710285759 0.30828946155969872 0 -0.075687235297425118 0.29161501572410392 0 -0.065540326975263935 0.28717931263297752 0 -0.076185800972680198 0.27687930596318261 0 -0.075564419789306309 0.2995049384650989 0 -0.066466450392310999 0.29870321420704948 0 -0.075687235297425118 0.29161501572410392 0 -0.066466450392310999 0.29870321420704948 0 -0.075687235297425118 0.29161501572410392 0 -0.065540326975263935 0.28717931263297752 0 -0.076185800972680198 0.27687930596318261 0 -0.06728048482943233 0.25078768511444982 0 -0.062144651919816857 0.27663869588969409 0 -0.065540326975263935 0.28717931263297752 0 -0.076185800972680198 0.27687930596318261 0 -0.062144651919816857 0.27663869588969409 0 -0.097506140953614345 0.27357735958971208 0 -0.076185800972680198 0.27687930596318261 0 -0.082393312891523449 0.26218252235208078 0 -0.097506140953614345 0.27357735958971208 0 -0.091138696253227222 0.28755167415197158 0 -0.076185800972680198 0.27687930596318261 0 -0.097506140953614345 0.27357735958971208 0 -0.082393312891523449 0.26218252235208078 0 -0.097506140953614345 0.27357735958971208 0 -0.099646555744896198 0.25564887823787741 0 -0.082393312891523449 0.26218252235208078 0 -0.099646555744896198 0.25564887823787741 0 -0.082393312891523449 0.26218252235208078 0 -0.079604061573677359 0.25020061160159762 0 -0.062144651919816857 0.27663869588969409 0 -0.063201019833232619 0.2477118319744985 0 -0.06728048482943233 0.25078768511444982 0 -0.062144651919816857 0.27663869588969409 0 -0.063201019833232619 0.2477118319744985 0 -0.076185800972680198 0.27687930596318261 0 -0.06728048482943233 0.25078768511444982 0 -0.082393312891523449 0.26218252235208078 0 -0.06728048482943233 0.25078768511444982 0 -0.082393312891523449 0.26218252235208078 0 -0.079604061573677359 0.25020061160159762 0 -0.06728048482943233 0.25078768511444982 0 -0.076185800972680198 0.27687930596318261 0 -0.082393312891523449 0.26218252235208078 0 -0.06728048482943233 0.25078768511444982 0 -0.052670894119925198 0.2621338954628199 0 -0.046174889000908118 0.25024759087299597 0 -0.063201019833232619 0.2477118319744985 0 -0.052670894119925198 0.2621338954628199 0 -0.062144651919816857 0.27663869588969409 0 -0.063201019833232619 0.2477118319744985 0 -0.050636800000998787 0.27336074496108898 0 -0.042290773846081701 0.2803352869404378 0 -0.052037363173394198 0.28938650457885068 0 -0.062144651919816857 0.27663869588969409 0 -0.050636800000998787 0.27336074496108898 0 -0.052037363173394198 0.28938650457885068 0 -0.052670894119925198 0.2621338954628199 0 -0.062144651919816857 0.27663869588969409 0 -0.050636800000998787 0.27336074496108898 0 -0.052670894119925198 0.2621338954628199 0 -0.050636800000998787 0.27336074496108898 0 -0.038663690321401843 0.2647885192072118 0 -0.050636800000998787 0.27336074496108898 0 -0.042290773846081701 0.2803352869404378 0 -0.038663690321401843 0.2647885192072118 0 -0.042290773846081701 0.2803352869404378 0 -0.038663690321401843 0.2647885192072118 0 -0.030343510299921609 0.2770225127625589 0 -0.046174889000908118 0.25024759087299597 0 -0.038663690321401843 0.2647885192072118 0 -0.02691154068192704 0.2457704794931268 0 -0.052670894119925198 0.2621338954628199 0 -0.046174889000908118 0.25024759087299597 0 -0.038663690321401843 0.2647885192072118 0 -0.020204103131508739 0.26759377154468461 0 -0.0013581205314274699 0.25585075003031849 0 -0.02691154068192704 0.2457704794931268 0 -0.038663690321401843 0.2647885192072118 0 -0.020204103131508739 0.26759377154468461 0 -0.02691154068192704 0.2457704794931268 0 -0.020204103131508739 0.26759377154468461 0 -0.030343510299921609 0.2770225127625589 0 -0.0197649152644182 0.2856210321304512 0 -0.038663690321401843 0.2647885192072118 0 -0.020204103131508739 0.26759377154468461 0 -0.030343510299921609 0.2770225127625589 0 -0.020204103131508739 0.26759377154468461 0 -0.0041828416899563313 0.27650933564444069 0 -0.0013581205314274699 0.25585075003031849 0 -0.020204103131508739 0.26759377154468461 0 -0.0041828416899563313 0.27650933564444069 0 -0.0197649152644182 0.2856210321304512 0 -0.0047650251177795587 0.29780240569285532 0 -0.0019245325289174609 0.31603531092320553 0 -0.013064777442417901 0.31398139259097563 0 -0.0047650251177795587 0.29780240569285532 0 -0.02628724335858041 0.30484070601801461 0 -0.013064777442417901 0.31398139259097563 0 -0.0041828416899563313 0.27650933564444069 0 -0.0047650251177795587 0.29780240569285532 0 -0.0197649152644182 0.2856210321304512 0 -0.0041828416899563313 0.27650933564444069 0 -0.0047650251177795587 0.29780240569285532 0 0.0074937284318593164 0.28700854176367141 0 -0.0197649152644182 0.2856210321304512 0 -0.02628724335858041 0.30484070601801461 0 -0.03458620034715007 0.29039950694007161 0 -0.0047650251177795587 0.29780240569285532 0 -0.0197649152644182 0.2856210321304512 0 -0.02628724335858041 0.30484070601801461 0 -0.030343510299921609 0.2770225127625589 0 -0.0197649152644182 0.2856210321304512 0 -0.03458620034715007 0.29039950694007161 0 -0.02628724335858041 0.30484070601801461 0 -0.041487782834895862 0.3017320504465606 0 -0.04135706227185703 0.31202505730698171 0 -0.02628724335858041 0.30484070601801461 0 -0.041487782834895862 0.3017320504465606 0 -0.03458620034715007 0.29039950694007161 0 -0.041487782834895862 0.3017320504465606 0 -0.04135706227185703 0.31202505730698171 0 -0.053170198792703627 0.30629560755473989 0 -0.042290773846081701 0.2803352869404378 0 -0.03458620034715007 0.29039950694007161 0 -0.052037363173394198 0.28938650457885068 0 -0.041487782834895862 0.3017320504465606 0 -0.03458620034715007 0.29039950694007161 0 -0.052037363173394198 0.28938650457885068 0 -0.042290773846081701 0.2803352869404378 0 -0.030343510299921609 0.2770225127625589 0 -0.03458620034715007 0.29039950694007161 0 -0.066466450392310999 0.29870321420704948 0 -0.065540326975263935 0.28717931263297752 0 -0.052037363173394198 0.28938650457885068 0 -0.065540326975263935 0.28717931263297752 0 -0.062144651919816857 0.27663869588969409 0 -0.052037363173394198 0.28938650457885068 0 -0.066466450392310999 0.29870321420704948 0 -0.052037363173394198 0.28938650457885068 0 -0.053170198792703627 0.30629560755473989 0 -0.041487782834895862 0.3017320504465606 0 -0.052037363173394198 0.28938650457885068 0 -0.053170198792703627 0.30629560755473989 0 -0.066466450392310999 0.29870321420704948 0 -0.066623612710285759 0.30828946155969872 0 -0.053170198792703627 0.30629560755473989 0 -0.066623612710285759 0.30828946155969872 0 -0.053170198792703627 0.30629560755473989 0 -0.056077156096989621 0.3197437028587426 0 -0.056077156096989621 0.3197437028587426 0 -0.059729247639768987 0.33055763215683892 0 -0.066963522222955513 0.3231996821449617 0 -0.04135706227185703 0.31202505730698171 0 -0.053170198792703627 0.30629560755473989 0 -0.056077156096989621 0.3197437028587426 0 -0.059729247639768987 0.33055763215683892 0 -0.055926789985129462 0.34705318753610459 0 -0.065225769655604754 0.3447694682662672 0 -0.059729247639768987 0.33055763215683892 0 -0.055926789985129462 0.34705318753610459 0 -0.056077156096989621 0.3197437028587426 0 -0.059729247639768987 0.33055763215683892 0 -0.044075580276336693 0.33563527922769132 0 -0.059729247639768987 0.33055763215683892 0 -0.044075580276336693 0.33563527922769132 0 -0.055926789985129462 0.34705318753610459 0 -0.044075580276336693 0.33563527922769132 0 -0.02976293027611562 0.3275132196568506 0 -0.02778651839286576 0.34941573968516459 0 -0.056077156096989621 0.3197437028587426 0 -0.044075580276336693 0.33563527922769132 0 -0.02976293027611562 0.3275132196568506 0 -0.056077156096989621 0.3197437028587426 0 -0.02976293027611562 0.3275132196568506 0 -0.04135706227185703 0.31202505730698171 0 -0.056077156096989621 0.3197437028587426 0 -0.02976293027611562 0.3275132196568506 0 -0.02628724335858041 0.30484070601801461 0 -0.04135706227185703 0.31202505730698171 0 -0.02976293027611562 0.3275132196568506 0 -0.02976293027611562 0.3275132196568506 0 -0.0069815985525329702 0.32549611739668738 0 -0.013064777442417901 0.31398139259097563 0 -0.02628724335858041 0.30484070601801461 0 -0.02976293027611562 0.3275132196568506 0 -0.013064777442417901 0.31398139259097563 0 -0.02976293027611562 0.3275132196568506 0 -0.003448704455241456 0.33528273645495882 0 -0.02778651839286576 0.34941573968516459 0 -0.02976293027611562 0.3275132196568506 0 -0.003448704455241456 0.33528273645495882 0 -0.003448704455241456 0.33528273645495882 0 -0.02778651839286576 0.34941573968516459 0 -0.003448704455241456 0.33528273645495882 0 -0.001494834127354011 0.33585963461024471 0 -0.013221042063291839 0.35857098833758122 0 -0.02976293027611562 0.3275132196568506 0 -0.003448704455241456 0.33528273645495882 0 -0.0069815985525329702 0.32549611739668738 0 -0.003448704455241456 0.33528273645495882 0 -0.00023275053750003791 0.33341522743281798 0 -0.0069815985525329702 0.32549611739668738 0 -0.003448704455241456 0.33528273645495882 0 -0.001494834127354011 0.33585963461024471 0 -0.003448704455241456 0.33528273645495882 0 -0.00023275053750003791 0.33341522743281798 0 -0.001494834127354011 0.33585963461024471 0 -0.00023275053750003791 0.33341522743281798 0 -0.003448704455241456 0.33528273645495882 0 -0.001494834127354011 0.33585963461024471 0 -0.00023275053750003791 0.33341522743281798 0 -0.00023275053750003791 0.33341522743281798 0 -0.0069815985525329702 0.32549611739668738 0 -0.0019245325289174609 0.31603531092320553 0 -0.0069815985525329702 0.32549611739668738 0 -0.0019245325289174609 0.31603531092320553 0 -0.013064777442417901 0.31398139259097563 0 -0.0012915132074347089 0.36652510761091239 0 -0.013221042063291839 0.35857098833758122 0 -0.024947249999229031 0.3812823420649179 0 -0.0012915132074347089 0.36652510761091239 0 -0.013221042063291839 0.35857098833758122 0 0.0059313923409791804 0.35407678938915937 0 -0.003448704455241456 0.33528273645495882 0 -0.013221042063291839 0.35857098833758122 0 -0.02778651839286576 0.34941573968516459 0 -0.001494834127354011 0.33585963461024471 0 -0.013221042063291839 0.35857098833758122 0 0.0059313923409791804 0.35407678938915937 0 -0.001494834127354011 0.33585963461024471 0 -0.013221042063291839 0.35857098833758122 0 -0.013221042063291839 0.35857098833758122 0 -0.02778651839286576 0.34941573968516459 0 -0.033860659237465812 0.3667946383354056 0 -0.013221042063291839 0.35857098833758122 0 -0.033860659237465812 0.3667946383354056 0 -0.024947249999229031 0.3812823420649179 0 -0.013221042063291839 0.35857098833758122 0 -0.024947249999229031 0.3812823420649179 0 -0.02778651839286576 0.34941573968516459 0 -0.033860659237465812 0.3667946383354056 0 -0.05212433233049002 0.36354874291537043 0 -0.033860659237465812 0.3667946383354056 0 -0.05212433233049002 0.36354874291537043 0 -0.046597117989434958 0.38752651690706719 0 -0.02778651839286576 0.34941573968516459 0 -0.05212433233049002 0.36354874291537043 0 -0.02778651839286576 0.34941573968516459 0 -0.044978305246205483 0.34891323734108282 0 -0.05212433233049002 0.36354874291537043 0 -0.044075580276336693 0.33563527922769132 0 -0.02778651839286576 0.34941573968516459 0 -0.044978305246205483 0.34891323734108282 0 -0.055926789985129462 0.34705318753610459 0 -0.05212433233049002 0.36354874291537043 0 -0.044978305246205483 0.34891323734108282 0 -0.055926789985129462 0.34705318753610459 0 -0.05212433233049002 0.36354874291537043 0 -0.062025794295453761 0.35815661373732322 0 -0.055926789985129462 0.34705318753610459 0 -0.05212433233049002 0.36354874291537043 0 -0.044075580276336693 0.33563527922769132 0 -0.044978305246205483 0.34891323734108282 0 -0.055926789985129462 0.34705318753610459 0 -0.062025794295453761 0.35815661373732322 0 -0.055926789985129462 0.34705318753610459 0 -0.065225769655604754 0.3447694682662672 0 -0.062025794295453761 0.35815661373732322 0 -0.05212433233049002 0.36354874291537043 0 -0.068610387930261807 0.37312221889156388 0 -0.05212433233049002 0.36354874291537043 0 -0.068610387930261807 0.37312221889156388 0 -0.05845407793649602 0.3780147395893434 0 -0.05212433233049002 0.36354874291537043 0 -0.068610387930261807 0.37312221889156388 0 -0.062025794295453761 0.35815661373732322 0 -0.068610387930261807 0.37312221889156388 0 -0.072421621171135361 0.37894075518739551 0 -0.062025794295453761 0.35815661373732322 0 -0.073764051181587159 0.36578581781650771 0 -0.072421621171135361 0.37894075518739551 0 -0.062025794295453761 0.35815661373732322 0 -0.072421621171135361 0.37894075518739551 0 -0.062025794295453761 0.35815661373732322 0 -0.073764051181587159 0.36578581781650771 0 -0.071664612621772719 0.35642206867668641 0 -0.073764051181587159 0.36578581781650771 0 -0.084257614734243813 0.36010707374992368 0 -0.071664612621772719 0.35642206867668641 0 -0.073764051181587159 0.36578581781650771 0 -0.079248693987463148 0.37333765007022218 0 -0.072421621171135361 0.37894075518739551 0 -0.073764051181587159 0.36578581781650771 0 -0.079248693987463148 0.37333765007022218 0 -0.083100684515001716 0.36782694369441932 0 -0.079248693987463148 0.37333765007022218 0 -0.083100684515001716 0.36782694369441932 0 -0.087095098248418101 0.37484103249908413 0 -0.084257614734243813 0.36010707374992368 0 -0.092970032978188399 0.36766192810357867 0 -0.10083344411740611 0.35909289021782281 0 -0.073764051181587159 0.36578581781650771 0 -0.083100684515001716 0.36782694369441932 0 -0.084257614734243813 0.36010707374992368 0 -0.083100684515001716 0.36782694369441932 0 -0.084257614734243813 0.36010707374992368 0 -0.092970032978188399 0.36766192810357867 0 -0.092970032978188399 0.36766192810357867 0 -0.087095098248418101 0.37484103249908413 0 -0.098335812096802866 0.37605223254572018 0 -0.083100684515001716 0.36782694369441932 0 -0.092970032978188399 0.36766192810357867 0 -0.087095098248418101 0.37484103249908413 0 -0.084257614734243813 0.36010707374992368 0 -0.092213497407263492 0.34888617576895148 0 -0.10083344411740611 0.35909289021782281 0 -0.092213497407263492 0.34888617576895148 0 -0.082321215684666993 0.35096521279102949 0 -0.083402660234667997 0.33955061809103509 0 -0.084257614734243813 0.36010707374992368 0 -0.092213497407263492 0.34888617576895148 0 -0.082321215684666993 0.35096521279102949 0 -0.084257614734243813 0.36010707374992368 0 -0.082321215684666993 0.35096521279102949 0 -0.071664612621772719 0.35642206867668641 0 -0.082321215684666993 0.35096521279102949 0 -0.074147294426801333 0.34787716455871998 0 -0.083402660234667997 0.33955061809103509 0 -0.074147294426801333 0.34787716455871998 0 -0.071664612621772719 0.35642206867668641 0 -0.065225769655604754 0.3447694682662672 0 -0.082321215684666993 0.35096521279102949 0 -0.074147294426801333 0.34787716455871998 0 -0.071664612621772719 0.35642206867668641 0 -0.062025794295453761 0.35815661373732322 0 -0.071664612621772719 0.35642206867668641 0 -0.065225769655604754 0.3447694682662672 0 -0.074147294426801333 0.34787716455871998 0 -0.065225769655604754 0.3447694682662672 0 -0.070679380424207877 0.33624261551679341 0 -0.059729247639768987 0.33055763215683892 0 -0.065225769655604754 0.3447694682662672 0 -0.070679380424207877 0.33624261551679341 0 -0.059729247639768987 0.33055763215683892 0 -0.070679380424207877 0.33624261551679341 0 -0.066963522222955513 0.3231996821449617 0 -0.070679380424207877 0.33624261551679341 0 -0.066963522222955513 0.3231996821449617 0 -0.074819007119805922 0.3259152251718469 0 -0.070679380424207877 0.33624261551679341 0 -0.083402660234667997 0.33955061809103509 0 -0.079626419039122598 0.33168489565450071 0 -0.070679380424207877 0.33624261551679341 0 -0.074819007119805922 0.3259152251718469 0 -0.079626419039122598 0.33168489565450071 0 -0.074147294426801333 0.34787716455871998 0 -0.070679380424207877 0.33624261551679341 0 -0.083402660234667997 0.33955061809103509 0 -0.082391381917863715 0.31197418606063448 0 -0.066623612710285759 0.30828946155969872 0 -0.056077156096989621 0.3197437028587426 0 -0.082391381917863715 0.31197418606063448 0 -0.056077156096989621 0.3197437028587426 0 -0.082391381917863715 0.31197418606063448 0 -0.056077156096989621 0.3197437028587426 0 -0.066963522222955513 0.3231996821449617 0 -0.066963522222955513 0.3231996821449617 0 -0.074819007119805922 0.3259152251718469 0 -0.079600010999884618 0.32034356960950688 0 -0.082391381917863715 0.31197418606063448 0 -0.066963522222955513 0.3231996821449617 0 -0.079600010999884618 0.32034356960950688 0 -0.082391381917863715 0.31197418606063448 0 -0.079600010999884618 0.32034356960950688 0 -0.088390554208926525 0.31707450632996498 0 -0.084622330378217009 0.32449126642693721 0 -0.079600010999884618 0.32034356960950688 0 -0.088390554208926525 0.31707450632996498 0 -0.074819007119805922 0.3259152251718469 0 -0.084622330378217009 0.32449126642693721 0 -0.079600010999884618 0.32034356960950688 0 -0.074819007119805922 0.3259152251718469 0 -0.084622330378217009 0.32449126642693721 0 -0.079626419039122598 0.33168489565450071 0 -0.084622330378217009 0.32449126642693721 0 -0.089572399036651665 0.33097115946744149 0 -0.097028107374737022 0.32244573818796168 0 -0.084622330378217009 0.32449126642693721 0 -0.088390554208926525 0.31707450632996498 0 -0.097028107374737022 0.32244573818796168 0 -0.094407296445989219 0.31061545818147662 0 -0.082391381917863715 0.31197418606063448 0 -0.088390554208926525 0.31707450632996498 0 -0.094407296445989219 0.31061545818147662 0 -0.088390554208926525 0.31707450632996498 0 -0.097028107374737022 0.32244573818796168 0 -0.083402660234667997 0.33955061809103509 0 -0.079626419039122598 0.33168489565450071 0 -0.089572399036651665 0.33097115946744149 0 -0.084622330378217009 0.32449126642693721 0 -0.079626419039122598 0.33168489565450071 0 -0.089572399036651665 0.33097115946744149 0 -0.083402660234667997 0.33955061809103509 0 -0.089572399036651665 0.33097115946744149 0 -0.097144569707708822 0.33626261654485712 0 -0.092213497407263492 0.34888617576895148 0 -0.083402660234667997 0.33955061809103509 0 -0.097144569707708822 0.33626261654485712 0 -0.089572399036651665 0.33097115946744149 0 -0.097144569707708822 0.33626261654485712 0 -0.097028107374737022 0.32244573818796168 0 -0.097144569707708822 0.33626261654485712 0 -0.1088393388736841 0.3249899697028818 0 -0.1104346650397722 0.33628051160906652 0 -0.097144569707708822 0.33626261654485712 0 -0.1104346650397722 0.33628051160906652 0 -0.1052454620262661 0.34695626100005977 0 -0.1070884601369058 0.30901919227696262 0 -0.097028107374737022 0.32244573818796168 0 -0.1088393388736841 0.3249899697028818 0 -0.1070884601369058 0.30901919227696262 0 -0.094407296445989219 0.31061545818147662 0 -0.097028107374737022 0.32244573818796168 0 -0.097144569707708822 0.33626261654485712 0 -0.097028107374737022 0.32244573818796168 0 -0.1088393388736841 0.3249899697028818 0 -0.1070884601369058 0.30901919227696262 0 -0.1088393388736841 0.3249899697028818 0 -0.12039393490326571 0.31543344305833698 0 -0.1088393388736841 0.3249899697028818 0 -0.12039393490326571 0.31543344305833698 0 -0.1209462960797151 0.33049831654010609 0 -0.1104346650397722 0.33628051160906652 0 -0.1191358251029557 0.34509040958496617 0 -0.1052454620262661 0.34695626100005977 0 -0.1104346650397722 0.33628051160906652 0 -0.1209462960797151 0.33049831654010609 0 -0.1191358251029557 0.34509040958496617 0 -0.1088393388736841 0.3249899697028818 0 -0.1104346650397722 0.33628051160906652 0 -0.1209462960797151 0.33049831654010609 0 -0.1332764167575646 0.34008422556405582 0 -0.1209462960797151 0.33049831654010609 0 -0.1191358251029557 0.34509040958496617 0 -0.1191358251029557 0.34509040958496617 0 -0.113931051666154 0.35492302143148119 0 -0.1052454620262661 0.34695626100005977 0 -0.1278801081378303 0.35799638876066958 0 -0.113931051666154 0.35492302143148119 0 -0.1130588292176835 0.36517389599749639 0 -0.1278801081378303 0.35799638876066958 0 -0.1191358251029557 0.34509040958496617 0 -0.113931051666154 0.35492302143148119 0 -0.12602955525595369 0.37680376999551191 0 -0.1278801081378303 0.35799638876066958 0 -0.1130588292176835 0.36517389599749639 0 -0.12602955525595369 0.37680376999551191 0 -0.1130588292176835 0.36517389599749639 0 -0.1110989337988916 0.37665361374022799 0 -0.1130588292176835 0.36517389599749639 0 -0.1039058502774186 0.36876326987364072 0 -0.10083344411740611 0.35909289021782281 0 -0.113931051666154 0.35492302143148119 0 -0.1130588292176835 0.36517389599749639 0 -0.10083344411740611 0.35909289021782281 0 -0.1130588292176835 0.36517389599749639 0 -0.1039058502774186 0.36876326987364072 0 -0.1110989337988916 0.37665361374022799 0 -0.1039058502774186 0.36876326987364072 0 -0.098335812096802866 0.37605223254572018 0 -0.1110989337988916 0.37665361374022799 0 -0.092970032978188399 0.36766192810357867 0 -0.1039058502774186 0.36876326987364072 0 -0.098335812096802866 0.37605223254572018 0 -0.092970032978188399 0.36766192810357867 0 -0.1039058502774186 0.36876326987364072 0 -0.10083344411740611 0.35909289021782281 0 -0.092213497407263492 0.34888617576895148 0 -0.10083344411740611 0.35909289021782281 0 -0.1052454620262661 0.34695626100005977 0 -0.092213497407263492 0.34888617576895148 0 -0.097144569707708822 0.33626261654485712 0 -0.1052454620262661 0.34695626100005977 0 -0.113931051666154 0.35492302143148119 0 -0.10083344411740611 0.35909289021782281 0 -0.1052454620262661 0.34695626100005977 0 -0.1075466510078934 0.39618850661063681 0 -0.096102036039362237 0.39396253580812268 0 -0.10389855535612461 0.38527383682108568 0 -0.1075466510078934 0.39618850661063681 0 -0.099571489656212042 0.40570015249908681 0 -0.1097878940533452 0.40594250632769502 0 -0.1075466510078934 0.39618850661063681 0 -0.099571489656212042 0.40570015249908681 0 -0.096102036039362237 0.39396253580812268 0 -0.096102036039362237 0.39396253580812268 0 -0.10389855535612461 0.38527383682108568 0 -0.091954935519808989 0.38505324910776939 0 -0.098335812096802866 0.37605223254572018 0 -0.10389855535612461 0.38527383682108568 0 -0.091954935519808989 0.38505324910776939 0 -0.098335812096802866 0.37605223254572018 0 -0.10389855535612461 0.38527383682108568 0 -0.1110989337988916 0.37665361374022799 0 -0.1075466510078934 0.39618850661063681 0 -0.10389855535612461 0.38527383682108568 0 -0.1165347922226032 0.38775400131661952 0 -0.13094926167676699 0.39478334172728408 0 -0.12602955525595369 0.37680376999551191 0 -0.1165347922226032 0.38775400131661952 0 -0.10389855535612461 0.38527383682108568 0 -0.1165347922226032 0.38775400131661952 0 -0.1110989337988916 0.37665361374022799 0 -0.12602955525595369 0.37680376999551191 0 -0.1165347922226032 0.38775400131661952 0 -0.1110989337988916 0.37665361374022799 0 -0.1329627898010563 0.41377086225233162 0 -0.1097878940533452 0.40594250632769502 0 -0.1193851387197131 0.39849800689121151 0 -0.13094926167676699 0.39478334172728408 0 -0.1165347922226032 0.38775400131661952 0 -0.1193851387197131 0.39849800689121151 0 -0.1075466510078934 0.39618850661063681 0 -0.1165347922226032 0.38775400131661952 0 -0.1193851387197131 0.39849800689121151 0 -0.1075466510078934 0.39618850661063681 0 -0.1097878940533452 0.40594250632769502 0 -0.1193851387197131 0.39849800689121151 0 -0.1329627898010563 0.41377086225233162 0 -0.1097878940533452 0.40594250632769502 0 -0.1087449148693012 0.41787617775476882 0 -0.1329627898010563 0.41377086225233162 0 -0.1087449148693012 0.41787617775476882 0 -0.1329627898010563 0.41377086225233162 0 -0.1203882308634798 0.43633692869159008 0 -0.1087449148693012 0.41787617775476882 0 -0.1203882308634798 0.43633692869159008 0 -0.1087449148693012 0.41787617775476882 0 -0.10623881761836849 0.44655071087532028 0 -0.1087449148693012 0.41787617775476882 0 -0.10623881761836849 0.44655071087532028 0 -0.093213274922497869 0.42050903808754042 0 -0.10623881761836849 0.44655071087532028 0 -0.1087449148693012 0.41787617775476882 0 -0.093213274922497869 0.42050903808754042 0 -0.10623881761836849 0.44655071087532028 0 -0.099571489656212042 0.40570015249908681 0 -0.1097878940533452 0.40594250632769502 0 -0.1087449148693012 0.41787617775476882 0 -0.1097878940533452 0.40594250632769502 0 -0.1087449148693012 0.41787617775476882 0 -0.1087449148693012 0.41787617775476882 0 -0.093213274922497869 0.42050903808754042 0 -0.099571489656212042 0.40570015249908681 0 -0.1087449148693012 0.41787617775476882 0 -0.093213274922497869 0.42050903808754042 0 -0.093213274922497869 0.42050903808754042 0 -0.076166078848011715 0.42339880932118368 0 -0.082817448046816983 0.39972489663746769 0 -0.099571489656212042 0.40570015249908681 0 -0.093213274922497869 0.42050903808754042 0 -0.082817448046816983 0.39972489663746769 0 -0.093213274922497869 0.42050903808754042 0 -0.082817448046816983 0.39972489663746769 0 -0.093213274922497869 0.42050903808754042 0 -0.081386156052715264 0.43849148852129127 0 -0.10623881761836849 0.44655071087532028 0 -0.093213274922497869 0.42050903808754042 0 -0.076166078848011715 0.42339880932118368 0 -0.093213274922497869 0.42050903808754042 0 -0.076166078848011715 0.42339880932118368 0 -0.081386156052715264 0.43849148852129127 0 -0.067554301161950242 0.42501504601732393 0 -0.056603067688703199 0.42963621602433821 0 -0.081386156052715264 0.43849148852129127 0 -0.056603067688703199 0.42963621602433821 0 -0.065969674918634091 0.44209763497951371 0 -0.081386156052715264 0.43849148852129127 0 -0.056603067688703199 0.42963621602433821 0 -0.081386156052715264 0.43849148852129127 0 -0.076166078848011715 0.42339880932118368 0 -0.067554301161950242 0.42501504601732393 0 -0.081386156052715264 0.43849148852129127 0 -0.076166078848011715 0.42339880932118368 0 -0.066653377497597532 0.41049382162657477 0 -0.082817448046816983 0.39972489663746769 0 -0.067554301161950242 0.42501504601732393 0 -0.066653377497597532 0.41049382162657477 0 -0.059145372353128993 0.41955783118227202 0 -0.076166078848011715 0.42339880932118368 0 -0.067554301161950242 0.42501504601732393 0 -0.066653377497597532 0.41049382162657477 0 -0.066653377497597532 0.41049382162657477 0 -0.068026177717106409 0.39216039148898219 0 -0.082817448046816983 0.39972489663746769 0 -0.066653377497597532 0.41049382162657477 0 -0.068026177717106409 0.39216039148898219 0 -0.057844372008863228 0.39977886658104977 0 -0.099571489656212042 0.40570015249908681 0 -0.096102036039362237 0.39396253580812268 0 -0.082817448046816983 0.39972489663746769 0 -0.096102036039362237 0.39396253580812268 0 -0.082817448046816983 0.39972489663746769 0 -0.091954935519808989 0.38505324910776939 0 -0.082817448046816983 0.39972489663746769 0 -0.082396724809108007 0.38213928198966601 0 -0.072421621171135361 0.37894075518739551 0 -0.082817448046816983 0.39972489663746769 0 -0.091954935519808989 0.38505324910776939 0 -0.082396724809108007 0.38213928198966601 0 -0.087095098248418101 0.37484103249908413 0 -0.098335812096802866 0.37605223254572018 0 -0.091954935519808989 0.38505324910776939 0 -0.087095098248418101 0.37484103249908413 0 -0.091954935519808989 0.38505324910776939 0 -0.082396724809108007 0.38213928198966601 0 -0.079248693987463148 0.37333765007022218 0 -0.087095098248418101 0.37484103249908413 0 -0.082396724809108007 0.38213928198966601 0 -0.068026177717106409 0.39216039148898219 0 -0.082817448046816983 0.39972489663746769 0 -0.072421621171135361 0.37894075518739551 0 -0.082817448046816983 0.39972489663746769 0 -0.072421621171135361 0.37894075518739551 0 -0.079248693987463148 0.37333765007022218 0 -0.082396724809108007 0.38213928198966601 0 -0.072421621171135361 0.37894075518739551 0 -0.068026177717106409 0.39216039148898219 0 -0.072421621171135361 0.37894075518739551 0 -0.065410512901781445 0.38174612566571059 0 -0.068026177717106409 0.39216039148898219 0 -0.065410512901781445 0.38174612566571059 0 -0.059540299753907622 0.38649252317126809 0 -0.068610387930261807 0.37312221889156388 0 -0.065410512901781445 0.38174612566571059 0 -0.05845407793649602 0.3780147395893434 0 -0.068610387930261807 0.37312221889156388 0 -0.072421621171135361 0.37894075518739551 0 -0.065410512901781445 0.38174612566571059 0 -0.05212433233049002 0.36354874291537043 0 -0.046597117989434958 0.38752651690706719 0 -0.05212433233049002 0.36354874291537043 0 -0.05845407793649602 0.3780147395893434 0 -0.046597117989434958 0.38752651690706719 0 -0.065410512901781445 0.38174612566571059 0 -0.05845407793649602 0.3780147395893434 0 -0.059540299753907622 0.38649252317126809 0 -0.05845407793649602 0.3780147395893434 0 -0.059540299753907622 0.38649252317126809 0 -0.046597117989434958 0.38752651690706719 0 -0.057844372008863228 0.39977886658104977 0 -0.050480287906873159 0.40528779408509302 0 -0.046597117989434958 0.38752651690706719 0 -0.057844372008863228 0.39977886658104977 0 -0.050480287906873159 0.40528779408509302 0 -0.056732088759522632 0.41068856970940548 0 -0.068026177717106409 0.39216039148898219 0 -0.059540299753907622 0.38649252317126809 0 -0.057844372008863228 0.39977886658104977 0 -0.059540299753907622 0.38649252317126809 0 -0.057844372008863228 0.39977886658104977 0 -0.046597117989434958 0.38752651690706719 0 -0.036673457935166152 0.40399369579225453 0 -0.046597117989434958 0.38752651690706719 0 -0.024947249999229031 0.3812823420649179 0 -0.046597117989434958 0.38752651690706719 0 -0.040660443569204147 0.41171570119546091 0 -0.036673457935166152 0.40399369579225453 0 -0.046597117989434958 0.38752651690706719 0 -0.040660443569204147 0.41171570119546091 0 -0.050480287906873159 0.40528779408509302 0 -0.046597117989434958 0.38752651690706719 0 -0.040660443569204147 0.41171570119546091 0 -0.033860659237465812 0.3667946383354056 0 -0.046597117989434958 0.38752651690706719 0 -0.024947249999229031 0.3812823420649179 0 -0.024947249999229031 0.3812823420649179 0 -0.018462138895467349 0.40033882515985908 0 -0.0041601498909107099 0.39486415160942412 0 -0.036673457935166152 0.40399369579225453 0 -0.018462138895467349 0.40033882515985908 0 -0.022591029290931361 0.40863831255846628 0 -0.036673457935166152 0.40399369579225453 0 -0.024947249999229031 0.3812823420649179 0 -0.036673457935166152 0.40399369579225453 0 -0.024947249999229031 0.3812823420649179 0 -0.018462138895467349 0.40033882515985908 0 -0.0041601498909107099 0.39486415160942412 0 -0.0096881018905816407 0.41168354254352257 0 0.011034103982847401 0.40727448451550369 0 -0.018462138895467349 0.40033882515985908 0 -0.0041601498909107099 0.39486415160942412 0 -0.0096881018905816407 0.41168354254352257 0 -0.0012915132074347089 0.36652510761091239 0 -0.024947249999229031 0.3812823420649179 0 0.0022634058800765338 0.37998431242390279 0 -0.024947249999229031 0.3812823420649179 0 -0.0041601498909107099 0.39486415160942412 0 0.0022634058800765338 0.37998431242390279 0 -0.01111497266538608 0.42671142370513843 0 -0.02798860266805624 0.43705881919417228 0 -0.00069522750787146328 0.44046125278118642 0 -0.01111497266538608 0.42671142370513843 0 -0.00069522750787146328 0.44046125278118642 0 0.0075383504917777792 0.42465595175508147 0 -0.01111497266538608 0.42671142370513843 0 -0.0096881018905816407 0.41168354254352257 0 -0.025540418442510319 0.41853718673822932 0 -0.01111497266538608 0.42671142370513843 0 -0.0096881018905816407 0.41168354254352257 0 0.0075383504917777792 0.42465595175508147 0 -0.0096881018905816407 0.41168354254352257 0 -0.022591029290931361 0.40863831255846628 0 -0.025540418442510319 0.41853718673822932 0 -0.018462138895467349 0.40033882515985908 0 -0.0096881018905816407 0.41168354254352257 0 -0.022591029290931361 0.40863831255846628 0 -0.036673457935166152 0.40399369579225453 0 -0.022591029290931361 0.40863831255846628 0 -0.025540418442510319 0.41853718673822932 0 -0.01111497266538608 0.42671142370513843 0 -0.025540418442510319 0.41853718673822932 0 -0.02798860266805624 0.43705881919417228 0 -0.025540418442510319 0.41853718673822932 0 -0.02798860266805624 0.43705881919417228 0 -0.041814513434106568 0.43747381572216998 0 -0.025540418442510319 0.41853718673822932 0 -0.04839966587110512 0.4267050495195901 0 -0.025540418442510319 0.41853718673822932 0 -0.041814513434106568 0.43747381572216998 0 -0.04839966587110512 0.4267050495195901 0 -0.025540418442510319 0.41853718673822932 0 -0.040660443569204147 0.41171570119546091 0 -0.04839966587110512 0.4267050495195901 0 -0.036673457935166152 0.40399369579225453 0 -0.025540418442510319 0.41853718673822932 0 -0.040660443569204147 0.41171570119546091 0 -0.036673457935166152 0.40399369579225453 0 -0.040660443569204147 0.41171570119546091 0 -0.040660443569204147 0.41171570119546091 0 -0.04839966587110512 0.4267050495195901 0 -0.040660443569204147 0.41171570119546091 0 -0.050778880225179727 0.41555691758631907 0 -0.04839966587110512 0.4267050495195901 0 -0.050480287906873159 0.40528779408509302 0 -0.040660443569204147 0.41171570119546091 0 -0.050778880225179727 0.41555691758631907 0 -0.050480287906873159 0.40528779408509302 0 -0.050778880225179727 0.41555691758631907 0 -0.056732088759522632 0.41068856970940548 0 -0.050778880225179727 0.41555691758631907 0 -0.059145372353128993 0.41955783118227202 0 -0.04839966587110512 0.4267050495195901 0 -0.050778880225179727 0.41555691758631907 0 -0.059145372353128993 0.41955783118227202 0 -0.056732088759522632 0.41068856970940548 0 -0.066653377497597532 0.41049382162657477 0 -0.059145372353128993 0.41955783118227202 0 -0.056732088759522632 0.41068856970940548 0 -0.066653377497597532 0.41049382162657477 0 -0.057844372008863228 0.39977886658104977 0 -0.056732088759522632 0.41068856970940548 0 -0.04839966587110512 0.4267050495195901 0 -0.056603067688703199 0.42963621602433821 0 -0.054407330763398973 0.43834071240307731 0 -0.04839966587110512 0.4267050495195901 0 -0.054407330763398973 0.43834071240307731 0 -0.041814513434106568 0.43747381572216998 0 -0.04839966587110512 0.4267050495195901 0 -0.054407330763398973 0.43834071240307731 0 -0.04839966587110512 0.4267050495195901 0 -0.056603067688703199 0.42963621602433821 0 -0.067554301161950242 0.42501504601732393 0 -0.059145372353128993 0.41955783118227202 0 -0.056603067688703199 0.42963621602433821 0 -0.059145372353128993 0.41955783118227202 0 -0.056603067688703199 0.42963621602433821 0 -0.059145372353128993 0.41955783118227202 0 -0.04839966587110512 0.4267050495195901 0 -0.056603067688703199 0.42963621602433821 0 -0.056603067688703199 0.42963621602433821 0 -0.054407330763398973 0.43834071240307731 0 -0.056603067688703199 0.42963621602433821 0 -0.054407330763398973 0.43834071240307731 0 -0.065969674918634091 0.44209763497951371 0 -0.061406648736320762 0.45189701186506798 0 -0.054407330763398973 0.43834071240307731 0 -0.047206987013957341 0.46688482685067761 0 -0.054407330763398973 0.43834071240307731 0 -0.047206987013957341 0.46688482685067761 0 -0.061406648736320762 0.45189701186506798 0 -0.054407330763398973 0.43834071240307731 0 -0.065969674918634091 0.44209763497951371 0 -0.061406648736320762 0.45189701186506798 0 -0.054407330763398973 0.43834071240307731 0 -0.061406648736320762 0.45189701186506798 0 -0.047206987013957341 0.46688482685067761 0 -0.068405966709242705 0.46545331132705869 0 -0.047206987013957341 0.46688482685067761 0 -0.031468687847708607 0.46355162875185418 0 -0.038809384738874929 0.4497324259642565 0 -0.054407330763398973 0.43834071240307731 0 -0.047206987013957341 0.46688482685067761 0 -0.038809384738874929 0.4497324259642565 0 -0.041814513434106568 0.43747381572216998 0 -0.054407330763398973 0.43834071240307731 0 -0.038809384738874929 0.4497324259642565 0 -0.02798860266805624 0.43705881919417228 0 -0.041814513434106568 0.43747381572216998 0 -0.038809384738874929 0.4497324259642565 0 -0.02798860266805624 0.43705881919417228 0 -0.023401487672922869 0.4525238415315635 0 -0.00069522750787146328 0.44046125278118642 0 -0.02798860266805624 0.43705881919417228 0 -0.038809384738874929 0.4497324259642565 0 -0.023401487672922869 0.4525238415315635 0 -0.031468687847708607 0.46355162875185418 0 -0.038809384738874929 0.4497324259642565 0 -0.023401487672922869 0.4525238415315635 0 -0.031468687847708607 0.46355162875185418 0 -0.023401487672922869 0.4525238415315635 0 -0.01537937392693136 0.46876132417640543 0 -0.00069522750787146328 0.44046125278118642 0 -0.01537937392693136 0.46876132417640543 0 0.0085473494867990066 0.46459041614164148 0 -0.023401487672922869 0.4525238415315635 0 -0.00069522750787146328 0.44046125278118642 0 -0.01537937392693136 0.46876132417640543 0 -0.02798860266805624 0.43705881919417228 0 -0.00069522750787146328 0.44046125278118642 0 -0.0092351114354999823 0.48349087954534847 0 -0.02175615444842172 0.5 0 0.0061448972125648371 0.5 0 -0.0092351114354999823 0.48349087954534847 0 -0.01537937392693136 0.46876132417640543 0 0.0085473494867990066 0.46459041614164148 0 -0.0092351114354999823 0.48349087954534847 0 -0.01537937392693136 0.46876132417640543 0 -0.02878690700144601 0.47865122638149082 0 -0.031468687847708607 0.46355162875185418 0 -0.01537937392693136 0.46876132417640543 0 -0.02878690700144601 0.47865122638149082 0 -0.0092351114354999823 0.48349087954534847 0 -0.02878690700144601 0.47865122638149082 0 -0.0260971377111733 0.48959507007757658 0 -0.02175615444842172 0.5 0 -0.0260971377111733 0.48959507007757658 0 -0.040006643264515432 0.49542894129827791 0 -0.0092351114354999823 0.48349087954534847 0 -0.02175615444842172 0.5 0 -0.0260971377111733 0.48959507007757658 0 -0.02175615444842172 0.5 0 -0.040006643264515432 0.49542894129827791 0 -0.049657206109408158 0.5 0 -0.02878690700144601 0.47865122638149082 0 -0.0260971377111733 0.48959507007757658 0 -0.040006643264515432 0.49542894129827791 0 -0.040006643264515432 0.49542894129827791 0 -0.049657206109408158 0.5 0 -0.049420050995564221 0.4864143847016496 0 -0.047206987013957341 0.46688482685067761 0 -0.040006643264515432 0.49542894129827791 0 -0.047206987013957341 0.46688482685067761 0 -0.031468687847708607 0.46355162875185418 0 -0.02878690700144601 0.47865122638149082 0 -0.047206987013957341 0.46688482685067761 0 -0.02878690700144601 0.47865122638149082 0 -0.040006643264515432 0.49542894129827791 0 -0.047206987013957341 0.46688482685067761 0 -0.040006643264515432 0.49542894129827791 0 -0.049420050995564221 0.4864143847016496 0 -0.047206987013957341 0.46688482685067761 0 -0.060809367594375982 0.48334377065764311 0 -0.068405966709242705 0.46545331132705869 0 -0.047206987013957341 0.46688482685067761 0 -0.060809367594375982 0.48334377065764311 0 -0.049420050995564221 0.4864143847016496 0 -0.060809367594375982 0.48334377065764311 0 -0.049657206109408158 0.5 0 -0.049420050995564221 0.4864143847016496 0 -0.060809367594375982 0.48334377065764311 0 -0.049657206109408158 0.5 0 -0.077558257770394712 0.5 0 -0.060809367594375982 0.48334377065764311 0 -0.077558257770394712 0.5 0 -0.07685039213099043 0.47962490972583433 0 -0.077558257770394712 0.5 0 -0.090155753678711717 0.48463398886001169 0 -0.07685039213099043 0.47962490972583433 0 -0.077558257770394712 0.5 0 -0.090155753678711717 0.48463398886001169 0 -0.1054593094313812 0.49999999999999978 0 -0.090155753678711717 0.48463398886001169 0 -0.087322614902226994 0.46469347778445808 0 -0.09520462022081147 0.47482971126609591 0 -0.090155753678711717 0.48463398886001169 0 -0.07685039213099043 0.47962490972583433 0 -0.087322614902226994 0.46469347778445808 0 -0.060809367594375982 0.48334377065764311 0 -0.07685039213099043 0.47962490972583433 0 -0.068405966709242705 0.46545331132705869 0 -0.07685039213099043 0.47962490972583433 0 -0.068405966709242705 0.46545331132705869 0 -0.087322614902226994 0.46469347778445808 0 -0.068405966709242705 0.46545331132705869 0 -0.076045171352032606 0.4521227460837936 0 -0.087322614902226994 0.46469347778445808 0 -0.061406648736320762 0.45189701186506798 0 -0.068405966709242705 0.46545331132705869 0 -0.061406648736320762 0.45189701186506798 0 -0.068405966709242705 0.46545331132705869 0 -0.076045171352032606 0.4521227460837936 0 -0.061406648736320762 0.45189701186506798 0 -0.065969674918634091 0.44209763497951371 0 -0.076045171352032606 0.4521227460837936 0 -0.065969674918634091 0.44209763497951371 0 -0.076045171352032606 0.4521227460837936 0 -0.081386156052715264 0.43849148852129127 0 -0.081386156052715264 0.43849148852129127 0 -0.091191749420117971 0.4525945484859511 0 -0.10623881761836849 0.44655071087532028 0 -0.076045171352032606 0.4521227460837936 0 -0.081386156052715264 0.43849148852129127 0 -0.091191749420117971 0.4525945484859511 0 -0.076045171352032606 0.4521227460837936 0 -0.091191749420117971 0.4525945484859511 0 -0.087322614902226994 0.46469347778445808 0 -0.091191749420117971 0.4525945484859511 0 -0.087322614902226994 0.46469347778445808 0 -0.1050355603768891 0.46031826902196632 0 -0.087322614902226994 0.46469347778445808 0 -0.1050355603768891 0.46031826902196632 0 -0.09520462022081147 0.47482971126609591 0 -0.087322614902226994 0.46469347778445808 0 -0.1050355603768891 0.46031826902196632 0 -0.091191749420117971 0.4525945484859511 0 -0.1050355603768891 0.46031826902196632 0 -0.10623881761836849 0.44655071087532028 0 -0.1050355603768891 0.46031826902196632 0 -0.10623881761836849 0.44655071087532028 0 -0.11223554293584009 0.45853982811688432 0 -0.1050355603768891 0.46031826902196632 0 -0.10623881761836849 0.44655071087532028 0 -0.1050355603768891 0.46031826902196632 0 -0.11223554293584009 0.45853982811688432 0 -0.1050355603768891 0.46031826902196632 0 -0.11223554293584009 0.45853982811688432 0 -0.1107799877875963 0.47340423983154212 0 -0.081386156052715264 0.43849148852129127 0 -0.10623881761836849 0.44655071087532028 0 -0.10623881761836849 0.44655071087532028 0 -0.11223554293584009 0.45853982811688432 0 -0.1271705947214293 0.45485077653965988 0 -0.1203882308634798 0.43633692869159008 0 -0.10623881761836849 0.44655071087532028 0 -0.1271705947214293 0.45485077653965988 0 -0.10623881761836849 0.44655071087532028 0 -0.1271705947214293 0.45485077653965988 0 -0.11223554293584009 0.45853982811688432 0 -0.1199335769996305 0.47393033344009028 0 -0.1271705947214293 0.45485077653965988 0 -0.10623881761836849 0.44655071087532028 0 -0.11223554293584009 0.45853982811688432 0 -0.11223554293584009 0.45853982811688432 0 -0.1199335769996305 0.47393033344009028 0 -0.11223554293584009 0.45853982811688432 0 -0.1199335769996305 0.47393033344009028 0 -0.1107799877875963 0.47340423983154212 0 -0.1271705947214293 0.45485077653965988 0 -0.11223554293584009 0.45853982811688432 0 -0.1199335769996305 0.47393033344009028 0 -0.1107799877875963 0.47340423983154212 0 -0.1141791340579227 0.48508734788549629 0 -0.1276316110634213 0.48932083876329607 0 -0.1199335769996305 0.47393033344009028 0 -0.1276316110634213 0.48932083876329607 0 -0.1199335769996305 0.47393033344009028 0 -0.1141791340579227 0.48508734788549629 0 -0.1276316110634213 0.48932083876329607 0 -0.1054593094313812 0.49999999999999978 0 -0.1276316110634213 0.48932083876329607 0 -0.1141791340579227 0.48508734788549629 0 -0.1054593094313812 0.49999999999999978 0 -0.13297312164065109 0.499999999999997 0 -0.1276316110634213 0.48932083876329607 0 -0.1054593094313812 0.49999999999999978 0 -0.1141791340579227 0.48508734788549629 0 -0.10251612456770021 0.48914542069327288 0 -0.1054593094313812 0.49999999999999978 0 -0.090155753678711717 0.48463398886001169 0 -0.10251612456770021 0.48914542069327288 0 -0.1054593094313812 0.49999999999999978 0 -0.1050355603768891 0.46031826902196632 0 -0.10251612456770021 0.48914542069327288 0 -0.09520462022081147 0.47482971126609591 0 -0.1050355603768891 0.46031826902196632 0 -0.10251612456770021 0.48914542069327288 0 -0.090155753678711717 0.48463398886001169 0 -0.10251612456770021 0.48914542069327288 0 -0.09520462022081147 0.47482971126609591 0 -0.1107799877875963 0.47340423983154212 0 -0.1141791340579227 0.48508734788549629 0 -0.10251612456770021 0.48914542069327288 0 -0.1050355603768891 0.46031826902196632 0 -0.1107799877875963 0.47340423983154212 0 -0.10251612456770021 0.48914542069327288 0 -0.16032664250474041 0.088649314778320429 0 -0.1776295210243192 0.091014586046016893 0 -0.16032664250474041 0.088649314778320429 0 -0.1776295210243192 0.091014586046016893 0 -0.16336381957050361 0.1002423243847964 0 -0.16032664250474041 0.088649314778320429 0 -0.17149730225684029 0.077292088459833777 0 -0.1776295210243192 0.091014586046016893 0 -0.16032664250474041 0.088649314778320429 0 -0.15627249243182259 0.076864792695766349 0 -0.17149730225684029 0.077292088459833777 0 -0.15627249243182259 0.076864792695766349 0 -0.1629377817967585 0.066334597483444016 0 -0.17149730225684029 0.077292088459833777 0 -0.1629377817967585 0.066334597483444016 0 -0.17149730225684029 0.077292088459833777 0 -0.17636794898810559 0.061295532447953063 0 -0.17149730225684029 0.077292088459833777 0 -0.18377250220644609 0.070940385137827466 0 -0.17636794898810559 0.061295532447953063 0 -0.18377250220644609 0.070940385137827466 0 -0.17636794898810559 0.061295532447953063 0 -0.19158118680766961 0.060331759271752453 0 -0.17149730225684029 0.077292088459833777 0 -0.18377250220644609 0.070940385137827466 0 -0.18693637196140761 0.082016321396729111 0 -0.18693637196140761 0.082016321396729111 0 -0.1776295210243192 0.091014586046016893 0 -0.19493239954389799 0.093379857313713524 0 -0.1776295210243192 0.091014586046016893 0 -0.19493239954389799 0.093379857313713524 0 -0.17149730225684029 0.077292088459833777 0 -0.18693637196140761 0.082016321396729111 0 -0.1776295210243192 0.091014586046016893 0 -0.1776295210243192 0.091014586046016893 0 -0.18336666747645439 0.1028473276981569 0 -0.19493239954389799 0.093379857313713524 0 -0.1776295210243192 0.091014586046016893 0 -0.18336666747645439 0.1028473276981569 0 -0.1733475182994943 0.10820659723769489 0 -0.18336666747645439 0.1028473276981569 0 -0.1733475182994943 0.10820659723769489 0 -0.18755723103810629 0.1187882701952022 0 -0.1733475182994943 0.10820659723769489 0 -0.1722804927875963 0.1236711358984869 0 -0.18755723103810629 0.1187882701952022 0 -0.1722804927875963 0.1236711358984869 0 -0.15862771313235341 0.1135322229064419 0 -0.16168793893571501 0.13363190607640579 0 -0.1733475182994943 0.10820659723769489 0 -0.1722804927875963 0.1236711358984869 0 -0.15862771313235341 0.1135322229064419 0 -0.1776295210243192 0.091014586046016893 0 -0.1733475182994943 0.10820659723769489 0 -0.16336381957050361 0.1002423243847964 0 -0.15862771313235341 0.1135322229064419 0 -0.16336381957050361 0.1002423243847964 0 -0.14688770289161079 0.099808900955507832 0 -0.16032664250474041 0.088649314778320429 0 -0.16336381957050361 0.1002423243847964 0 -0.14688770289161079 0.099808900955507832 0 -0.1733475182994943 0.10820659723769489 0 -0.15862771313235341 0.1135322229064419 0 -0.16336381957050361 0.1002423243847964 0 -0.14688770289161079 0.099808900955507832 0 -0.1447548866879228 0.118053399692452 0 -0.13235754695007221 0.10970570290738681 0 -0.15862771313235341 0.1135322229064419 0 -0.1447548866879228 0.118053399692452 0 -0.16168793893571501 0.13363190607640579 0 -0.15862771313235341 0.1135322229064419 0 -0.14688770289161079 0.099808900955507832 0 -0.1447548866879228 0.118053399692452 0 -0.1447548866879228 0.118053399692452 0 -0.13236593884934869 0.1227556925435045 0 -0.14228202619971811 0.1321705647724411 0 -0.1447548866879228 0.118053399692452 0 -0.13235754695007221 0.10970570290738681 0 -0.13236593884934869 0.1227556925435045 0 -0.13235754695007221 0.10970570290738681 0 -0.13236593884934869 0.1227556925435045 0 -0.12271063477338461 0.11656434709622369 0 -0.13236593884934869 0.1227556925435045 0 -0.1226897624986597 0.12539343477150269 0 -0.12271063477338461 0.11656434709622369 0 -0.14688770289161079 0.099808900955507832 0 -0.13235754695007221 0.10970570290738681 0 -0.12942077957145351 0.085038069788139284 0 -0.13235754695007221 0.10970570290738681 0 -0.12942077957145351 0.085038069788139284 0 -0.13235754695007221 0.10970570290738681 0 -0.12942077957145351 0.085038069788139284 0 -0.11838686230135841 0.0991027021444911 0 -0.12942077957145351 0.085038069788139284 0 -0.14690304262703141 0.08354868876614692 0 -0.14438675543477519 0.068171704045393508 0 -0.16032664250474041 0.088649314778320429 0 -0.14688770289161079 0.099808900955507832 0 -0.14690304262703141 0.08354868876614692 0 -0.14688770289161079 0.099808900955507832 0 -0.12942077957145351 0.085038069788139284 0 -0.14690304262703141 0.08354868876614692 0 -0.16032664250474041 0.088649314778320429 0 -0.15627249243182259 0.076864792695766349 0 -0.14690304262703141 0.08354868876614692 0 -0.15627249243182259 0.076864792695766349 0 -0.1629377817967585 0.066334597483444016 0 -0.14438675543477519 0.068171704045393508 0 -0.15627249243182259 0.076864792695766349 0 -0.14690304262703141 0.08354868876614692 0 -0.14438675543477519 0.068171704045393508 0 -0.12942077957145351 0.085038069788139284 0 -0.1264840121928352 0.060370436668891858 0 -0.12942077957145351 0.085038069788139284 0 -0.14438675543477519 0.068171704045393508 0 -0.1264840121928352 0.060370436668891858 0 -0.1264840121928352 0.060370436668891858 0 -0.15151936413408479 0.050037263705516068 0 -0.1264840121928352 0.060370436668891858 0 -0.13540550209822269 0.044494089299669581 0 -0.15151936413408479 0.050037263705516068 0 -0.13540550209822269 0.044494089299669581 0 -0.13569820616105571 0.0274559656783314 0 -0.1231805301904309 0.032622552160018997 0 -0.1264840121928352 0.060370436668891858 0 -0.13540550209822269 0.044494089299669581 0 -0.1231805301904309 0.032622552160018997 0 -0.13540550209822269 0.044494089299669581 0 -0.15151936413408479 0.050037263705516068 0 -0.13569820616105571 0.0274559656783314 0 -0.15151936413408479 0.050037263705516068 0 -0.13569820616105571 0.0274559656783314 0 -0.1505008671867567 0.037566841317044401 0 -0.15151936413408479 0.050037263705516068 0 -0.13569820616105571 0.0274559656783314 0 -0.14438675543477519 0.068171704045393508 0 -0.1264840121928352 0.060370436668891858 0 -0.15151936413408479 0.050037263705516068 0 -0.1629377817967585 0.066334597483444016 0 -0.14438675543477519 0.068171704045393508 0 -0.15151936413408479 0.050037263705516068 0 -0.13185606356650309 -0.00067556194706120819 0 -0.13569820616105571 0.0274559656783314 0 -0.14738187898061639 0.0050318030858907794 0 -0.13185606356650309 -0.00067556194706120819 0 -0.13569820616105571 0.0274559656783314 0 -0.1198770481880274 0.0048746676511459506 0 -0.13569820616105571 0.0274559656783314 0 -0.1198770481880274 0.0048746676511459506 0 -0.1231805301904309 0.032622552160018997 0 -0.13569820616105571 0.0274559656783314 0 -0.1198770481880274 0.0048746676511459506 0 -0.13569820616105571 0.0274559656783314 0 -0.15060995855614631 0.02241728574641896 0 -0.14738187898061639 0.0050318030858907794 0 -0.1505008671867567 0.037566841317044401 0 -0.13569820616105571 0.0274559656783314 0 -0.15060995855614631 0.02241728574641896 0 -0.1505008671867567 0.037566841317044401 0 -0.15060995855614631 0.02241728574641896 0 -0.1638471209340927 0.030256811103577721 0 -0.15060995855614631 0.02241728574641896 0 -0.14738187898061639 0.0050318030858907794 0 -0.16692207894944389 0.0163505253017961 0 -0.1649960424305798 -0.0013444332500506589 0 -0.14738187898061639 0.0050318030858907794 0 -0.16692207894944389 0.0163505253017961 0 -0.1649960424305798 -0.0013444332500506589 0 -0.16692207894944389 0.0163505253017961 0 -0.18032818442133461 0.0030944576768450671 0 -0.15060995855614631 0.02241728574641896 0 -0.16692207894944389 0.0163505253017961 0 -0.1638471209340927 0.030256811103577721 0 -0.16692207894944389 0.0163505253017961 0 -0.1638471209340927 0.030256811103577721 0 -0.17133230510764541 0.02782522840723407 0 -0.1638471209340927 0.030256811103577721 0 -0.17133230510764541 0.02782522840723407 0 -0.1725124119151103 0.034341561794899438 0 -0.16692207894944389 0.0163505253017961 0 -0.1800316899237793 0.02487108689794371 0 -0.18560512429292289 0.01495081800690214 0 -0.17133230510764541 0.02782522840723407 0 -0.1800316899237793 0.02487108689794371 0 -0.17843245883904699 0.032281890290157773 0 -0.1800316899237793 0.02487108689794371 0 -0.1860725478741154 0.033891601434492762 0 -0.1914646236177267 0.023856466445805261 0 -0.1800316899237793 0.02487108689794371 0 -0.17843245883904699 0.032281890290157773 0 -0.1860725478741154 0.033891601434492762 0 -0.1800316899237793 0.02487108689794371 0 -0.18560512429292289 0.01495081800690214 0 -0.1914646236177267 0.023856466445805261 0 -0.16692207894944389 0.0163505253017961 0 -0.17133230510764541 0.02782522840723407 0 -0.1800316899237793 0.02487108689794371 0 -0.16692207894944389 0.0163505253017961 0 -0.18032818442133461 0.0030944576768450671 0 -0.18560512429292289 0.01495081800690214 0 -0.18032818442133461 0.0030944576768450671 0 -0.18560512429292289 0.01495081800690214 0 -0.19646002443729199 0.010368874809047199 0 -0.1629377817967585 0.066334597483444016 0 -0.15151936413408479 0.050037263705516068 0 -0.15151936413408479 0.050037263705516068 0 -0.16927064434858219 0.052689924220596332 0 -0.17150493470249731 0.041788354006137278 0 -0.1629377817967585 0.066334597483444016 0 -0.15151936413408479 0.050037263705516068 0 -0.16927064434858219 0.052689924220596332 0 -0.1629377817967585 0.066334597483444016 0 -0.16927064434858219 0.052689924220596332 0 -0.17636794898810559 0.061295532447953063 0 -0.1505008671867567 0.037566841317044401 0 -0.1638471209340927 0.030256811103577721 0 -0.17150493470249731 0.041788354006137278 0 -0.15151936413408479 0.050037263705516068 0 -0.17150493470249731 0.041788354006137278 0 -0.1505008671867567 0.037566841317044401 0 -0.15151936413408479 0.050037263705516068 0 -0.17150493470249731 0.041788354006137278 0 -0.1505008671867567 0.037566841317044401 0 -0.17150493470249731 0.041788354006137278 0 -0.1638471209340927 0.030256811103577721 0 -0.17150493470249731 0.041788354006137278 0 -0.1725124119151103 0.034341561794899438 0 -0.16927064434858219 0.052689924220596332 0 -0.17150493470249731 0.041788354006137278 0 -0.18820165302404959 0.045144152029916437 0 -0.17150493470249731 0.041788354006137278 0 -0.1770842391304949 0.039485533666116228 0 -0.18820165302404959 0.045144152029916437 0 -0.17150493470249731 0.041788354006137278 0 -0.18820165302404959 0.045144152029916437 0 -0.17150493470249731 0.041788354006137278 0 -0.1770842391304949 0.039485533666116228 0 -0.17133230510764541 0.02782522840723407 0 -0.1725124119151103 0.034341561794899438 0 -0.17843245883904699 0.032281890290157773 0 -0.17150493470249731 0.041788354006137278 0 -0.1770842391304949 0.039485533666116228 0 -0.1725124119151103 0.034341561794899438 0 -0.1770842391304949 0.039485533666116228 0 -0.1725124119151103 0.034341561794899438 0 -0.17843245883904699 0.032281890290157773 0 -0.1770842391304949 0.039485533666116228 0 -0.17843245883904699 0.032281890290157773 0 -0.1860725478741154 0.033891601434492762 0 -0.1770842391304949 0.039485533666116228 0 -0.1860725478741154 0.033891601434492762 0 -0.18820165302404959 0.045144152029916437 0 -0.16927064434858219 0.052689924220596332 0 -0.18820165302404959 0.045144152029916437 0 -0.16927064434858219 0.052689924220596332 0 -0.18190622793906039 0.051612780134154899 0 -0.18820165302404959 0.045144152029916437 0 -0.16927064434858219 0.052689924220596332 0 -0.18190622793906039 0.051612780134154899 0 -0.17636794898810559 0.061295532447953063 0 -0.18190622793906039 0.051612780134154899 0 -0.17636794898810559 0.061295532447953063 0 -0.19158118680766961 0.060331759271752453 0 -0.18190622793906039 0.051612780134154899 0 -0.19989491613592991 0.047494328183497789 0 -0.18190622793906039 0.051612780134154899 0 -0.19158118680766961 0.060331759271752453 0 -0.19989491613592991 0.047494328183497789 0 -0.18190622793906039 0.051612780134154899 0 -0.19989491613592991 0.047494328183497789 0 -0.18820165302404959 0.045144152029916437 0 -0.19158118680766961 0.060331759271752453 0 -0.19989491613592991 0.047494328183497789 0 -0.20633729726509351 0.058888717189835252 0 -0.19989491613592991 0.047494328183497789 0 -0.18820165302404959 0.045144152029916437 0 -0.18820165302404959 0.045144152029916437 0 -0.2078703138999502 0.037304356654530788 0 -0.19989491613592991 0.047494328183497789 0 -0.18820165302404959 0.045144152029916437 0 -0.2078703138999502 0.037304356654530788 0 -0.18820165302404959 0.045144152029916437 0 -0.19520452841866601 0.032883603010058889 0 -0.2078703138999502 0.037304356654530788 0 -0.1860725478741154 0.033891601434492762 0 -0.18820165302404959 0.045144152029916437 0 -0.19520452841866601 0.032883603010058889 0 -0.19520452841866601 0.032883603010058889 0 -0.2078703138999502 0.037304356654530788 0 -0.20147853181091219 0.024439912660298681 0 -0.19989491613592991 0.047494328183497789 0 -0.2078703138999502 0.037304356654530788 0 -0.2219988189266342 0.042433711168556758 0 -0.2078703138999502 0.037304356654530788 0 -0.22753897477585111 0.029464561279145832 0 -0.19989491613592991 0.047494328183497789 0 -0.2219988189266342 0.042433711168556758 0 -0.19989491613592991 0.047494328183497789 0 -0.2166817837017537 0.050868244896827883 0 -0.20633729726509351 0.058888717189835252 0 -0.19989491613592991 0.047494328183497789 0 -0.2166817837017537 0.050868244896827883 0 -0.19989491613592991 0.047494328183497789 0 -0.2166817837017537 0.050868244896827883 0 -0.2219988189266342 0.042433711168556758 0 -0.2166817837017537 0.050868244896827883 0 -0.20633729726509351 0.058888717189835252 0 -0.2210810660443078 0.064842746793794315 0 -0.19159911500729959 -0.0090173167708576182 0 -0.18032818442133461 0.0030944576768450671 0 -0.19646002443729199 0.010368874809047199 0 -0.19159911500729959 -0.0090173167708576182 0 -0.19646002443729199 0.010368874809047199 0 -0.20803845558677481 0.00032958680966351309 0 -0.19646002443729199 0.010368874809047199 0 -0.1914646236177267 0.023856466445805261 0 -0.20147853181091219 0.024439912660298681 0 -0.18560512429292289 0.01495081800690214 0 -0.19646002443729199 0.010368874809047199 0 -0.1914646236177267 0.023856466445805261 0 -0.1860725478741154 0.033891601434492762 0 -0.19520452841866601 0.032883603010058889 0 -0.1914646236177267 0.023856466445805261 0 -0.19520452841866601 0.032883603010058889 0 -0.1914646236177267 0.023856466445805261 0 -0.20147853181091219 0.024439912660298681 0 -0.2078703138999502 0.037304356654530788 0 -0.20147853181091219 0.024439912660298681 0 -0.21190530372136321 0.018834938420848778 0 -0.2078703138999502 0.037304356654530788 0 -0.21190530372136321 0.018834938420848778 0 -0.22753897477585111 0.029464561279145832 0 -0.19646002443729199 0.010368874809047199 0 -0.20147853181091219 0.024439912660298681 0 -0.21190530372136321 0.018834938420848778 0 -0.21190530372136321 0.018834938420848778 0 -0.20803845558677481 0.00032958680966351309 0 -0.22774142163249911 0.0091431922092035378 0 -0.19646002443729199 0.010368874809047199 0 -0.21190530372136321 0.018834938420848778 0 -0.20803845558677481 0.00032958680966351309 0 -0.21190530372136321 0.018834938420848778 0 -0.22774142163249911 0.0091431922092035378 0 -0.22753897477585111 0.029464561279145832 0 -0.22774142163249911 0.0091431922092035378 0 -0.22753897477585111 0.029464561279145832 0 -0.24720763565175199 0.021624765903760879 0 -0.22753897477585111 0.029464561279145832 0 -0.24720763565175199 0.021624765903760879 0 -0.24410272171733879 0.03737309415361658 0 -0.22753897477585111 0.029464561279145832 0 -0.24720763565175199 0.021624765903760879 0 -0.24204198335637811 -0.0026304284190125991 0 -0.25689548211398672 0.003199995621086429 0 -0.24720763565175199 0.021624765903760879 0 -0.24204198335637811 -0.0026304284190125991 0 -0.22774142163249911 0.0091431922092035378 0 -0.24720763565175199 0.021624765903760879 0 -0.2166817837017537 0.050868244896827883 0 -0.2334686512675776 0.05424216161015722 0 -0.2219988189266342 0.042433711168556758 0 -0.2166817837017537 0.050868244896827883 0 -0.2334686512675776 0.05424216161015722 0 -0.2210810660443078 0.064842746793794315 0 -0.2166817837017537 0.050868244896827883 0 -0.2334686512675776 0.05424216161015722 0 -0.2334686512675776 0.05424216161015722 0 -0.2325081494656662 0.065724113807827778 0 -0.2210810660443078 0.064842746793794315 0 -0.2078703138999502 0.037304356654530788 0 -0.22753897477585111 0.029464561279145832 0 -0.2219988189266342 0.042433711168556758 0 -0.2219988189266342 0.042433711168556758 0 -0.24410272171733879 0.03737309415361658 0 -0.2334686512675776 0.05424216161015722 0 -0.2219988189266342 0.042433711168556758 0 -0.24410272171733879 0.03737309415361658 0 -0.22753897477585111 0.029464561279145832 0 -0.2219988189266342 0.042433711168556758 0 -0.24410272171733879 0.03737309415361658 0 -0.2334686512675776 0.05424216161015722 0 -0.24410272171733879 0.03737309415361658 0 -0.24933364105965389 0.052640536924998073 0 -0.2334686512675776 0.05424216161015722 0 -0.24933364105965389 0.052640536924998073 0 -0.24469319669088871 0.067914101683764758 0 -0.24469319669088871 0.067914101683764758 0 -0.24212914814080441 0.085811078060409302 0 -0.23078968385989071 0.075897445143594824 0 -0.24469319669088871 0.067914101683764758 0 -0.2325081494656662 0.065724113807827778 0 -0.23078968385989071 0.075897445143594824 0 -0.2334686512675776 0.05424216161015722 0 -0.24469319669088871 0.067914101683764758 0 -0.2325081494656662 0.065724113807827778 0 -0.25981594507570271 0.084526567999776564 0 -0.24469319669088871 0.067914101683764758 0 -0.24212914814080441 0.085811078060409302 0 -0.24212914814080441 0.085811078060409302 0 -0.22817923825549449 0.087566289575200476 0 -0.2375047018019936 0.099199411743158342 0 -0.22817923825549449 0.087566289575200476 0 -0.23078968385989071 0.075897445143594824 0 -0.2142541068018384 0.080633878400404035 0 -0.22817923825549449 0.087566289575200476 0 -0.2142541068018384 0.080633878400404035 0 -0.21621855067294579 0.096289634528435863 0 -0.24212914814080441 0.085811078060409302 0 -0.22817923825549449 0.087566289575200476 0 -0.23078968385989071 0.075897445143594824 0 -0.23078968385989071 0.075897445143594824 0 -0.2210810660443078 0.064842746793794315 0 -0.2142541068018384 0.080633878400404035 0 -0.2325081494656662 0.065724113807827778 0 -0.23078968385989071 0.075897445143594824 0 -0.2210810660443078 0.064842746793794315 0 -0.20633729726509351 0.058888717189835252 0 -0.2210810660443078 0.064842746793794315 0 -0.2012082283113823 0.071758812537246225 0 -0.2210810660443078 0.064842746793794315 0 -0.2142541068018384 0.080633878400404035 0 -0.2012082283113823 0.071758812537246225 0 -0.2142541068018384 0.080633878400404035 0 -0.19493239954389799 0.093379857313713524 0 -0.2012082283113823 0.071758812537246225 0 -0.2142541068018384 0.080633878400404035 0 -0.19493239954389799 0.093379857313713524 0 -0.21621855067294579 0.096289634528435863 0 -0.19493239954389799 0.093379857313713524 0 -0.2012082283113823 0.071758812537246225 0 -0.18693637196140761 0.082016321396729111 0 -0.19493239954389799 0.093379857313713524 0 -0.2012082283113823 0.071758812537246225 0 -0.18377250220644609 0.070940385137827466 0 -0.18693637196140761 0.082016321396729111 0 -0.2012082283113823 0.071758812537246225 0 -0.18377250220644609 0.070940385137827466 0 -0.19158118680766961 0.060331759271752453 0 -0.2012082283113823 0.071758812537246225 0 -0.19158118680766961 0.060331759271752453 0 -0.20633729726509351 0.058888717189835252 0 -0.2012082283113823 0.071758812537246225 0 -0.18755723103810629 0.1187882701952022 0 -0.20221666213834971 0.10522263983782271 0 -0.2053188066678405 0.1153976304553541 0 -0.18755723103810629 0.1187882701952022 0 -0.2053188066678405 0.1153976304553541 0 -0.20178291573934709 0.12557363762638049 0 -0.19493239954389799 0.093379857313713524 0 -0.18755723103810629 0.1187882701952022 0 -0.20221666213834971 0.10522263983782271 0 -0.18336666747645439 0.1028473276981569 0 -0.19493239954389799 0.093379857313713524 0 -0.18755723103810629 0.1187882701952022 0 -0.19493239954389799 0.093379857313713524 0 -0.18755723103810629 0.1187882701952022 0 -0.19493239954389799 0.093379857313713524 0 -0.20221666213834971 0.10522263983782271 0 -0.21621855067294579 0.096289634528435863 0 -0.20221666213834971 0.10522263983782271 0 -0.21621855067294579 0.096289634528435863 0 -0.2124460490141947 0.10845279723227449 0 -0.19493239954389799 0.093379857313713524 0 -0.21621855067294579 0.096289634528435863 0 -0.21621855067294579 0.096289634528435863 0 -0.2124460490141947 0.10845279723227449 0 -0.22574527832726859 0.1059110419362423 0 -0.2124460490141947 0.10845279723227449 0 -0.2053188066678405 0.1153976304553541 0 -0.2164334215382579 0.1196510783122933 0 -0.20221666213834971 0.10522263983782271 0 -0.2124460490141947 0.10845279723227449 0 -0.2053188066678405 0.1153976304553541 0 -0.2053188066678405 0.1153976304553541 0 -0.20178291573934709 0.12557363762638049 0 -0.21385529765979369 0.1284321363424509 0 -0.2053188066678405 0.1153976304553541 0 -0.21385529765979369 0.1284321363424509 0 -0.2164334215382579 0.1196510783122933 0 -0.21385529765979369 0.1284321363424509 0 -0.2176947166159848 0.12663466427485551 0 -0.2053188066678405 0.1153976304553541 0 -0.2164334215382579 0.1196510783122933 0 -0.21385529765979369 0.1284321363424509 0 -0.2124460490141947 0.10845279723227449 0 -0.2164334215382579 0.1196510783122933 0 -0.2366916232753026 0.1232314731104219 0 -0.22574527832726859 0.1059110419362423 0 -0.2375047018019936 0.099199411743158342 0 -0.2366916232753026 0.1232314731104219 0 -0.2124460490141947 0.10845279723227449 0 -0.22574527832726859 0.1059110419362423 0 -0.2366916232753026 0.1232314731104219 0 -0.2164334215382579 0.1196510783122933 0 -0.2366916232753026 0.1232314731104219 0 -0.2176947166159848 0.12663466427485551 0 -0.2124460490141947 0.10845279723227449 0 -0.2366916232753026 0.1232314731104219 0 -0.21621855067294579 0.096289634528435863 0 -0.2375047018019936 0.099199411743158342 0 -0.22817923825549449 0.087566289575200476 0 -0.21621855067294579 0.096289634528435863 0 -0.2375047018019936 0.099199411743158342 0 -0.21621855067294579 0.096289634528435863 0 -0.22574527832726859 0.1059110419362423 0 -0.2375047018019936 0.099199411743158342 0 -0.2544178763525049 0.11356856211053359 0 -0.25330340275947699 0.097640948961847704 0 -0.2375047018019936 0.099199411743158342 0 -0.25330340275947699 0.097640948961847704 0 -0.24212914814080441 0.085811078060409302 0 -0.2375047018019936 0.099199411743158342 0 -0.2544178763525049 0.11356856211053359 0 -0.2375047018019936 0.099199411743158342 0 -0.2366916232753026 0.1232314731104219 0 -0.26093719753641031 0.1380101489885692 0 -0.2366916232753026 0.1232314731104219 0 -0.2366916232753026 0.1232314731104219 0 -0.22733516676089191 0.13360237557008869 0 -0.24107654509340781 0.14443116564150069 0 -0.26093719753641031 0.1380101489885692 0 -0.2366916232753026 0.1232314731104219 0 -0.24107654509340781 0.14443116564150069 0 -0.22733516676089191 0.13360237557008869 0 -0.2249487685541425 0.14537093611593649 0 -0.21385529765979369 0.1284321363424509 0 -0.2366916232753026 0.1232314731104219 0 -0.22733516676089191 0.13360237557008869 0 -0.2176947166159848 0.12663466427485551 0 -0.2249487685541425 0.14537093611593649 0 -0.21385529765979369 0.1284321363424509 0 -0.22733516676089191 0.13360237557008869 0 -0.21385529765979369 0.1284321363424509 0 -0.2176947166159848 0.12663466427485551 0 -0.2249487685541425 0.14537093611593649 0 -0.23604223944849481 0.1623097358894198 0 -0.21390541875519839 0.16072373816820359 0 -0.2249487685541425 0.14537093611593649 0 -0.23604223944849481 0.1623097358894198 0 -0.22733516676089191 0.13360237557008869 0 -0.2249487685541425 0.14537093611593649 0 -0.24107654509340781 0.14443116564150069 0 -0.2249487685541425 0.14537093611593649 0 -0.24107654509340781 0.14443116564150069 0 -0.23604223944849481 0.1623097358894198 0 -0.26050427498520512 0.16406232417456759 0 -0.23604223944849481 0.1623097358894198 0 -0.24486444091635681 0.17578049771397569 0 -0.26050427498520512 0.16406232417456759 0 -0.24107654509340781 0.14443116564150069 0 -0.23604223944849481 0.1623097358894198 0 -0.26050427498520512 0.16406232417456759 0 -0.23604223944849481 0.1623097358894198 0 -0.23604223944849481 0.1623097358894198 0 -0.24486444091635681 0.17578049771397569 0 -0.24486444091635681 0.17578049771397569 0 -0.23753750070102669 0.18567915983292901 0 -0.22548960956100689 0.17884508565070029 0 -0.23604223944849481 0.1623097358894198 0 -0.24486444091635681 0.17578049771397569 0 -0.22548960956100689 0.17884508565070029 0 -0.25040908159511338 0.19002132091412399 0 -0.25368664238421901 0.1892512595385317 0 -0.24486444091635681 0.17578049771397569 0 -0.25040908159511338 0.19002132091412399 0 -0.24486444091635681 0.17578049771397569 0 -0.23753750070102669 0.18567915983292901 0 -0.25368664238421901 0.1892512595385317 0 -0.24486444091635681 0.17578049771397569 0 -0.23604223944849481 0.1623097358894198 0 -0.21390541875519839 0.16072373816820359 0 -0.23604223944849481 0.1623097358894198 0 -0.22548960956100689 0.17884508565070029 0 -0.21390541875519839 0.16072373816820359 0 -0.22548960956100689 0.17884508565070029 0 -0.21390541875519839 0.16072373816820359 0 -0.2091040012156499 0.17603166184079819 0 -0.21390541875519839 0.16072373816820359 0 -0.2091040012156499 0.17603166184079819 0 -0.19385650484948749 0.17200995872584879 0 -0.22548960956100689 0.17884508565070029 0 -0.2091040012156499 0.17603166184079819 0 -0.2031644716969071 0.19254786481844019 0 -0.2091040012156499 0.17603166184079819 0 -0.19385650484948749 0.17200995872584879 0 -0.2031644716969071 0.19254786481844019 0 -0.19385650484948749 0.17200995872584879 0 -0.2031644716969071 0.19254786481844019 0 -0.17694207266218409 0.18702599458396441 0 -0.19385650484948749 0.17200995872584879 0 -0.19585397011672151 0.15389655117828871 0 -0.18574706332191321 0.15967831511863309 0 -0.21390541875519839 0.16072373816820359 0 -0.19385650484948749 0.17200995872584879 0 -0.19585397011672151 0.15389655117828871 0 -0.19585397011672151 0.15389655117828871 0 -0.197018680096053 0.13631440970957021 0 -0.20911642703638181 0.1449475543028898 0 -0.19585397011672151 0.15389655117828871 0 -0.197018680096053 0.13631440970957021 0 -0.18018206253231289 0.1441966830766904 0 -0.197018680096053 0.13631440970957021 0 -0.18018206253231289 0.1441966830766904 0 -0.18755723103810629 0.1187882701952022 0 -0.197018680096053 0.13631440970957021 0 -0.20178291573934709 0.12557363762638049 0 -0.18755723103810629 0.1187882701952022 0 -0.197018680096053 0.13631440970957021 0 -0.18018206253231289 0.1441966830766904 0 -0.197018680096053 0.13631440970957021 0 -0.21385529765979369 0.1284321363424509 0 -0.20911642703638181 0.1449475543028898 0 -0.2249487685541425 0.14537093611593649 0 -0.21385529765979369 0.1284321363424509 0 -0.20911642703638181 0.1449475543028898 0 -0.197018680096053 0.13631440970957021 0 -0.20178291573934709 0.12557363762638049 0 -0.21385529765979369 0.1284321363424509 0 -0.197018680096053 0.13631440970957021 0 -0.21385529765979369 0.1284321363424509 0 -0.21385529765979369 0.1284321363424509 0 -0.2176947166159848 0.12663466427485551 0 -0.2249487685541425 0.14537093611593649 0 -0.21390541875519839 0.16072373816820359 0 -0.20911642703638181 0.1449475543028898 0 -0.21390541875519839 0.16072373816820359 0 -0.19585397011672151 0.15389655117828871 0 -0.20911642703638181 0.1449475543028898 0 -0.2301111411242979 0.25415493550153279 0 -0.2211268732449827 0.23855303841785169 0 -0.23724109263810569 0.2413784172703988 0 -0.2211268732449827 0.23855303841785169 0 -0.23724109263810569 0.2413784172703988 0 -0.23148167364494229 0.2243439681048032 0 -0.2421275510198525 0.25237273480976591 0 -0.2301111411242979 0.25415493550153279 0 -0.23724109263810569 0.2413784172703988 0 -0.24910725770640421 0.24333336453792839 0 -0.24849444054537431 0.23939689821525401 0 -0.23148167364494229 0.2243439681048032 0 -0.24910725770640421 0.24333336453792839 0 -0.23724109263810569 0.2413784172703988 0 -0.23148167364494229 0.2243439681048032 0 -0.2421275510198525 0.25237273480976591 0 -0.2437377899215383 0.24645675733694411 0 -0.23724109263810569 0.2413784172703988 0 -0.25189002896290491 0.25449239892481551 0 -0.24910725770640421 0.24333336453792839 0 -0.24647525832179051 0.24874251272968301 0 -0.2421275510198525 0.25237273480976591 0 -0.2437377899215383 0.24645675733694411 0 -0.24647525832179051 0.24874251272968301 0 -0.2437377899215383 0.24645675733694411 0 -0.24910725770640421 0.24333336453792839 0 -0.23724109263810569 0.2413784172703988 0 -0.2437377899215383 0.24645675733694411 0 -0.24910725770640421 0.24333336453792839 0 -0.24647525832179051 0.24874251272968301 0 -0.24910725770640421 0.24333336453792839 0 -0.23148167364494229 0.2243439681048032 0 -0.24849444054537431 0.23939689821525401 0 -0.24644648607505501 0.2281382003786194 0 -0.23148167364494229 0.2243439681048032 0 -0.25087712384573357 0.23287003298724779 0 -0.24849444054537431 0.23939689821525401 0 -0.24644648607505501 0.2281382003786194 0 -0.2551855299144159 0.22331770328677139 0 -0.24644648607505501 0.2281382003786194 0 -0.24648494098598731 0.22005601514351311 0 -0.24644648607505501 0.2281382003786194 0 -0.24648494098598731 0.22005601514351311 0 -0.23148167364494229 0.2243439681048032 0 -0.24648494098598731 0.22005601514351311 0 -0.23148167364494229 0.2243439681048032 0 -0.24220639204310829 0.21241091466391429 0 -0.2211268732449827 0.23855303841785169 0 -0.23148167364494229 0.2243439681048032 0 -0.2096890598852971 0.22645567209992271 0 -0.23148167364494229 0.2243439681048032 0 -0.24220639204310829 0.21241091466391429 0 -0.22938687073163011 0.19806973505291611 0 -0.23148167364494229 0.2243439681048032 0 -0.22938687073163011 0.19806973505291611 0 -0.21385608958348051 0.205354571671678 0 -0.23148167364494229 0.2243439681048032 0 -0.21385608958348051 0.205354571671678 0 -0.25560926976635312 0.2035916052873919 0 -0.24220639204310829 0.21241091466391429 0 -0.22938687073163011 0.19806973505291611 0 -0.25194739826678658 0.21444461515785401 0 -0.24648494098598731 0.22005601514351311 0 -0.24220639204310829 0.21241091466391429 0 -0.25560926976635312 0.2035916052873919 0 -0.25194739826678658 0.21444461515785401 0 -0.24220639204310829 0.21241091466391429 0 -0.25560926976635312 0.2035916052873919 0 -0.22938687073163011 0.19806973505291611 0 -0.25040908159511338 0.19002132091412399 0 -0.25560926976635312 0.2035916052873919 0 -0.22938687073163011 0.19806973505291611 0 -0.25040908159511338 0.19002132091412399 0 -0.23753750070102669 0.18567915983292901 0 -0.22938687073163011 0.19806973505291611 0 -0.22548960956100689 0.17884508565070029 0 -0.22938687073163011 0.19806973505291611 0 -0.2031644716969071 0.19254786481844019 0 -0.23753750070102669 0.18567915983292901 0 -0.22548960956100689 0.17884508565070029 0 -0.22938687073163011 0.19806973505291611 0 -0.22938687073163011 0.19806973505291611 0 -0.2031644716969071 0.19254786481844019 0 -0.22938687073163011 0.19806973505291611 0 -0.2031644716969071 0.19254786481844019 0 -0.21385608958348051 0.205354571671678 0 -0.2031644716969071 0.19254786481844019 0 -0.18840077067227279 0.21060566949577519 0 -0.18006453853965479 0.20072848008268049 0 -0.2031644716969071 0.19254786481844019 0 -0.17694207266218409 0.18702599458396441 0 -0.2031644716969071 0.19254786481844019 0 -0.18840077067227279 0.21060566949577519 0 -0.2015521814153737 0.21423496883757689 0 -0.18840077067227279 0.21060566949577519 0 -0.2015521814153737 0.21423496883757689 0 -0.18992993224098259 0.22972679055160791 0 -0.2015521814153737 0.21423496883757689 0 -0.21385608958348051 0.205354571671678 0 -0.2096890598852971 0.22645567209992271 0 -0.2031644716969071 0.19254786481844019 0 -0.2015521814153737 0.21423496883757689 0 -0.21385608958348051 0.205354571671678 0 -0.23148167364494229 0.2243439681048032 0 -0.21385608958348051 0.205354571671678 0 -0.2096890598852971 0.22645567209992271 0 -0.2015521814153737 0.21423496883757689 0 -0.2096890598852971 0.22645567209992271 0 -0.18992993224098259 0.22972679055160791 0 -0.2096890598852971 0.22645567209992271 0 -0.18992993224098259 0.22972679055160791 0 -0.20129010394299149 0.24443847017185061 0 -0.1851657792507185 0.25669063751337651 0 -0.18992993224098259 0.22972679055160791 0 -0.20129010394299149 0.24443847017185061 0 -0.2211268732449827 0.23855303841785169 0 -0.2096890598852971 0.22645567209992271 0 -0.20129010394299149 0.24443847017185061 0 -0.21119725768121819 0.26093741649149621 0 -0.2211268732449827 0.23855303841785169 0 -0.20129010394299149 0.24443847017185061 0 -0.16508023407272601 0.2503971719826491 0 -0.17279815632456749 0.23631497207366761 0 -0.1567165694290184 0.23384928764448071 0 -0.1851657792507185 0.25669063751337651 0 -0.16508023407272601 0.2503971719826491 0 -0.17279815632456749 0.23631497207366761 0 -0.1851657792507185 0.25669063751337651 0 -0.18992993224098259 0.22972679055160791 0 -0.17279815632456749 0.23631497207366761 0 -0.18840077067227279 0.21060566949577519 0 -0.18992993224098259 0.22972679055160791 0 -0.17277557151159259 0.2176558552608501 0 -0.18992993224098259 0.22972679055160791 0 -0.17279815632456749 0.23631497207366761 0 -0.17277557151159259 0.2176558552608501 0 -0.17279815632456749 0.23631497207366761 0 -0.1567165694290184 0.23384928764448071 0 -0.17277557151159259 0.2176558552608501 0 -0.1567165694290184 0.23384928764448071 0 -0.17277557151159259 0.2176558552608501 0 -0.15521239238782769 0.21264255673032839 0 -0.17277557151159259 0.2176558552608501 0 -0.16593946754401381 0.20091814484858159 0 -0.15521239238782769 0.21264255673032839 0 -0.16593946754401381 0.20091814484858159 0 -0.15086180338488411 0.197017249721395 0 -0.15521239238782769 0.21264255673032839 0 -0.18840077067227279 0.21060566949577519 0 -0.17277557151159259 0.2176558552608501 0 -0.18006453853965479 0.20072848008268049 0 -0.17277557151159259 0.2176558552608501 0 -0.18006453853965479 0.20072848008268049 0 -0.16593946754401381 0.20091814484858159 0 -0.18006453853965479 0.20072848008268049 0 -0.16593946754401381 0.20091814484858159 0 -0.17694207266218409 0.18702599458396441 0 -0.2031644716969071 0.19254786481844019 0 -0.18006453853965479 0.20072848008268049 0 -0.17694207266218409 0.18702599458396441 0 -0.16593946754401381 0.20091814484858159 0 -0.17694207266218409 0.18702599458396441 0 -0.15071967362746111 0.18150412434948859 0 -0.16593946754401381 0.20091814484858159 0 -0.14797985587835569 0.18429935568846501 0 -0.16593946754401381 0.20091814484858159 0 -0.15071967362746111 0.18150412434948859 0 -0.14797985587835569 0.18429935568846501 0 -0.16593946754401381 0.20091814484858159 0 -0.15086180338488411 0.197017249721395 0 -0.14797985587835569 0.18429935568846501 0 -0.15086180338488411 0.197017249721395 0 -0.14095724251835079 0.19506066561827909 0 -0.14358266883931489 0.20598332813153819 0 -0.15086180338488411 0.197017249721395 0 -0.1444653831257941 0.1908007686240322 0 -0.14797985587835569 0.18429935568846501 0 -0.1444653831257941 0.1908007686240322 0 -0.14095724251835079 0.19506066561827909 0 -0.138062630721586 0.1868258034679898 0 -0.15086180338488411 0.197017249721395 0 -0.1444653831257941 0.1908007686240322 0 -0.14095724251835079 0.19506066561827909 0 -0.1321566566813264 0.19194401940894201 0 -0.138062630721586 0.1868258034679898 0 -0.1307034668706763 0.18407484815258299 0 -0.14095724251835079 0.19506066561827909 0 -0.1321566566813264 0.19194401940894201 0 -0.138062630721586 0.1868258034679898 0 -0.1256413879108996 0.18801686022701089 0 -0.1321566566813264 0.19194401940894201 0 -0.1307034668706763 0.18407484815258299 0 -0.1256413879108996 0.18801686022701089 0 -0.1321566566813264 0.19194401940894201 0 -0.12438280521313259 0.19722518639459599 0 -0.1321566566813264 0.19194401940894201 0 -0.13449915591114101 0.2001302349884008 0 -0.12438280521313259 0.19722518639459599 0 -0.13449915591114101 0.2001302349884008 0 -0.13141640630358059 0.21043797538864861 0 -0.12438280521313259 0.19722518639459599 0 -0.14095724251835079 0.19506066561827909 0 -0.13449915591114101 0.2001302349884008 0 -0.14358266883931489 0.20598332813153819 0 -0.14095724251835079 0.19506066561827909 0 -0.1321566566813264 0.19194401940894201 0 -0.13449915591114101 0.2001302349884008 0 -0.13141640630358059 0.21043797538864861 0 -0.14139827361814231 0.22043147477512451 0 -0.1247431951047857 0.22181007279510051 0 -0.13449915591114101 0.2001302349884008 0 -0.13141640630358059 0.21043797538864861 0 -0.14358266883931489 0.20598332813153819 0 -0.13141640630358059 0.21043797538864861 0 -0.1197300091643143 0.20799343972127399 0 -0.12438280521313259 0.19722518639459599 0 -0.13141640630358059 0.21043797538864861 0 -0.1247431951047857 0.22181007279510051 0 -0.1197300091643143 0.20799343972127399 0 -0.13141640630358059 0.21043797538864861 0 -0.14358266883931489 0.20598332813153819 0 -0.14139827361814231 0.22043147477512451 0 -0.15086180338488411 0.197017249721395 0 -0.14358266883931489 0.20598332813153819 0 -0.15521239238782769 0.21264255673032839 0 -0.14358266883931489 0.20598332813153819 0 -0.15521239238782769 0.21264255673032839 0 -0.14139827361814231 0.22043147477512451 0 -0.1567165694290184 0.23384928764448071 0 -0.15521239238782769 0.21264255673032839 0 -0.14139827361814231 0.22043147477512451 0 -0.1567165694290184 0.23384928764448071 0 -0.14139827361814231 0.22043147477512451 0 -0.1342627396718909 0.23722222839544871 0 -0.14139827361814231 0.22043147477512451 0 -0.1342627396718909 0.23722222839544871 0 -0.1247431951047857 0.22181007279510051 0 -0.1463982144264159 0.25542208648772902 0 -0.1229484984770164 0.25473045748778822 0 -0.1342627396718909 0.23722222839544871 0 -0.16508023407272601 0.2503971719826491 0 -0.1463982144264159 0.25542208648772902 0 -0.1567165694290184 0.23384928764448071 0 -0.1463982144264159 0.25542208648772902 0 -0.1567165694290184 0.23384928764448071 0 -0.1342627396718909 0.23722222839544871 0 -0.16168793893571501 0.13363190607640579 0 -0.18018206253231289 0.1441966830766904 0 -0.15510115337250571 0.15593862480251811 0 -0.18018206253231289 0.1441966830766904 0 -0.15510115337250571 0.15593862480251811 0 -0.18018206253231289 0.1441966830766904 0 -0.1730957157891311 0.16861006749370491 0 -0.15510115337250571 0.15593862480251811 0 -0.1722804927875963 0.1236711358984869 0 -0.16168793893571501 0.13363190607640579 0 -0.18018206253231289 0.1441966830766904 0 -0.18755723103810629 0.1187882701952022 0 -0.18018206253231289 0.1441966830766904 0 -0.1722804927875963 0.1236711358984869 0 -0.18755723103810629 0.1187882701952022 0 -0.18018206253231289 0.1441966830766904 0 -0.19585397011672151 0.15389655117828871 0 -0.18018206253231289 0.1441966830766904 0 -0.18574706332191321 0.15967831511863309 0 -0.18018206253231289 0.1441966830766904 0 -0.1730957157891311 0.16861006749370491 0 -0.19385650484948749 0.17200995872584879 0 -0.18574706332191321 0.15967831511863309 0 -0.1730957157891311 0.16861006749370491 0 -0.18018206253231289 0.1441966830766904 0 -0.18574706332191321 0.15967831511863309 0 -0.1730957157891311 0.16861006749370491 0 -0.19385650484948749 0.17200995872584879 0 -0.1730957157891311 0.16861006749370491 0 -0.17694207266218409 0.18702599458396441 0 -0.1730957157891311 0.16861006749370491 0 -0.17694207266218409 0.18702599458396441 0 -0.16469702239284059 0.17698887626648879 0 -0.17694207266218409 0.18702599458396441 0 -0.15071967362746111 0.18150412434948859 0 -0.17694207266218409 0.18702599458396441 0 -0.16469702239284059 0.17698887626648879 0 -0.15071967362746111 0.18150412434948859 0 -0.1730957157891311 0.16861006749370491 0 -0.16469702239284059 0.17698887626648879 0 -0.15803062749258609 0.17081531863879729 0 -0.16469702239284059 0.17698887626648879 0 -0.15803062749258609 0.17081531863879729 0 -0.15071967362746111 0.18150412434948859 0 -0.1730957157891311 0.16861006749370491 0 -0.15803062749258609 0.17081531863879729 0 -0.15510115337250571 0.15593862480251811 0 -0.14837031091672129 0.1720475980015235 0 -0.130020244212699 0.16768056652834701 0 -0.15510115337250571 0.15593862480251811 0 -0.130020244212699 0.16768056652834701 0 -0.15510115337250571 0.15593862480251811 0 -0.15803062749258609 0.17081531863879729 0 -0.14837031091672129 0.1720475980015235 0 -0.15510115337250571 0.15593862480251811 0 -0.14837031091672129 0.1720475980015235 0 -0.14797985587835569 0.18429935568846501 0 -0.130020244212699 0.16768056652834701 0 -0.15071967362746111 0.18150412434948859 0 -0.14837031091672129 0.1720475980015235 0 -0.14797985587835569 0.18429935568846501 0 -0.15803062749258609 0.17081531863879729 0 -0.15071967362746111 0.18150412434948859 0 -0.14837031091672129 0.1720475980015235 0 -0.1444653831257941 0.1908007686240322 0 -0.14797985587835569 0.18429935568846501 0 -0.138062630721586 0.1868258034679898 0 -0.14797985587835569 0.18429935568846501 0 -0.138062630721586 0.1868258034679898 0 -0.13224720832892789 0.1789980723507133 0 -0.14797985587835569 0.18429935568846501 0 -0.130020244212699 0.16768056652834701 0 -0.14797985587835569 0.18429935568846501 0 -0.13224720832892789 0.1789980723507133 0 -0.130020244212699 0.16768056652834701 0 -0.138062630721586 0.1868258034679898 0 -0.13224720832892789 0.1789980723507133 0 -0.1307034668706763 0.18407484815258299 0 -0.13224720832892789 0.1789980723507133 0 -0.130020244212699 0.16768056652834701 0 -0.1227869846444497 0.1710669075814959 0 -0.13224720832892789 0.1789980723507133 0 -0.1227869846444497 0.1710669075814959 0 -0.1239300676458021 0.18004095268539769 0 -0.1256413879108996 0.18801686022701089 0 -0.1307034668706763 0.18407484815258299 0 -0.1239300676458021 0.18004095268539769 0 -0.13224720832892789 0.1789980723507133 0 -0.1307034668706763 0.18407484815258299 0 -0.1239300676458021 0.18004095268539769 0 -0.130020244212699 0.16768056652834701 0 -0.13242994380218259 0.15373774299016249 0 -0.11549525018138231 0.1542399745015198 0 -0.130020244212699 0.16768056652834701 0 -0.13242994380218259 0.15373774299016249 0 -0.15510115337250571 0.15593862480251811 0 -0.130020244212699 0.16768056652834701 0 -0.1227869846444497 0.1710669075814959 0 -0.13242994380218259 0.15373774299016249 0 -0.13845814135160239 0.14420053671679939 0 -0.1230749298927247 0.14662901240162679 0 -0.13845814135160239 0.14420053671679939 0 -0.1289933577416332 0.1338530598272632 0 -0.1230749298927247 0.14662901240162679 0 -0.16168793893571501 0.13363190607640579 0 -0.15510115337250571 0.15593862480251811 0 -0.1499877289596408 0.14109527061909519 0 -0.13845814135160239 0.14420053671679939 0 -0.15510115337250571 0.15593862480251811 0 -0.1499877289596408 0.14109527061909519 0 -0.13242994380218259 0.15373774299016249 0 -0.13845814135160239 0.14420053671679939 0 -0.15510115337250571 0.15593862480251811 0 -0.1447548866879228 0.118053399692452 0 -0.16168793893571501 0.13363190607640579 0 -0.14228202619971811 0.1321705647724411 0 -0.16168793893571501 0.13363190607640579 0 -0.1499877289596408 0.14109527061909519 0 -0.14228202619971811 0.1321705647724411 0 -0.13845814135160239 0.14420053671679939 0 -0.1499877289596408 0.14109527061909519 0 -0.14228202619971811 0.1321705647724411 0 -0.13236593884934869 0.1227556925435045 0 -0.14228202619971811 0.1321705647724411 0 -0.1289933577416332 0.1338530598272632 0 -0.13845814135160239 0.14420053671679939 0 -0.14228202619971811 0.1321705647724411 0 -0.1289933577416332 0.1338530598272632 0 -0.13236593884934869 0.1227556925435045 0 -0.1289933577416332 0.1338530598272632 0 -0.1226897624986597 0.12539343477150269 0 -0.1226897624986597 0.12539343477150269 0 -0.1152536090092534 0.13206572188154569 0 -0.1136571652217252 0.1239512688879001 0 -0.1289933577416332 0.1338530598272632 0 -0.1226897624986597 0.12539343477150269 0 -0.1152536090092534 0.13206572188154569 0 -0.1152536090092534 0.13206572188154569 0 -0.1009702561500668 0.14079938247469129 0 -0.1230749298927247 0.14662901240162679 0 -0.1289933577416332 0.1338530598272632 0 -0.1152536090092534 0.13206572188154569 0 -0.1230749298927247 0.14662901240162679 0 -0.1152536090092534 0.13206572188154569 0 -0.10338777755055879 0.12891511785121579 0 -0.1136571652217252 0.1239512688879001 0 -0.1152536090092534 0.13206572188154569 0 -0.10338777755055879 0.12891511785121579 0 -0.1009702561500668 0.14079938247469129 0 -0.10338777755055879 0.12891511785121579 0 -0.1009702561500668 0.14079938247469129 0 -0.088350901227011294 0.12912215900755139 0 -0.1009702561500668 0.14079938247469129 0 -0.088350901227011294 0.12912215900755139 0 -0.1009702561500668 0.14079938247469129 0 -0.11549525018138231 0.1542399745015198 0 -0.1025608812977882 0.1572093897729204 0 -0.1009702561500668 0.14079938247469129 0 -0.1025608812977882 0.1572093897729204 0 -0.093380768344670129 0.15193623913744531 0 -0.1009702561500668 0.14079938247469129 0 -0.11549525018138231 0.1542399745015198 0 -0.1009702561500668 0.14079938247469129 0 -0.11549525018138231 0.1542399745015198 0 -0.1230749298927247 0.14662901240162679 0 -0.1009702561500668 0.14079938247469129 0 -0.1230749298927247 0.14662901240162679 0 -0.13242994380218259 0.15373774299016249 0 -0.11549525018138231 0.1542399745015198 0 -0.1230749298927247 0.14662901240162679 0 -0.130020244212699 0.16768056652834701 0 -0.11549525018138231 0.1542399745015198 0 -0.1149673232880363 0.16612553299397451 0 -0.130020244212699 0.16768056652834701 0 -0.11549525018138231 0.1542399745015198 0 -0.130020244212699 0.16768056652834701 0 -0.1227869846444497 0.1710669075814959 0 -0.1149673232880363 0.16612553299397451 0 -0.1227869846444497 0.1710669075814959 0 -0.1149673232880363 0.16612553299397451 0 -0.1143979092761236 0.1761448962677882 0 -0.1149673232880363 0.16612553299397451 0 -0.1143979092761236 0.1761448962677882 0 -0.1045426701157767 0.1704114633117747 0 -0.11549525018138231 0.1542399745015198 0 -0.1149673232880363 0.16612553299397451 0 -0.1025608812977882 0.1572093897729204 0 -0.1256413879108996 0.18801686022701089 0 -0.1239300676458021 0.18004095268539769 0 -0.1171851880269027 0.18697700193394309 0 -0.1239300676458021 0.18004095268539769 0 -0.1143979092761236 0.1761448962677882 0 -0.1171851880269027 0.18697700193394309 0 -0.1227869846444497 0.1710669075814959 0 -0.1239300676458021 0.18004095268539769 0 -0.1143979092761236 0.1761448962677882 0 -0.1143979092761236 0.1761448962677882 0 -0.1171851880269027 0.18697700193394309 0 -0.1033469778200914 0.18518873627911081 0 -0.1033469778200914 0.18518873627911081 0 -0.094953850768773371 0.175944516791499 0 -0.086584677036272428 0.18724973312333379 0 -0.1143979092761236 0.1761448962677882 0 -0.1033469778200914 0.18518873627911081 0 -0.1045426701157767 0.1704114633117747 0 -0.1033469778200914 0.18518873627911081 0 -0.094953850768773371 0.175944516791499 0 -0.1045426701157767 0.1704114633117747 0 -0.1149673232880363 0.16612553299397451 0 -0.1025608812977882 0.1572093897729204 0 -0.1045426701157767 0.1704114633117747 0 -0.094953850768773371 0.175944516791499 0 -0.1045426701157767 0.1704114633117747 0 -0.092579719344545897 0.1630625406642113 0 -0.1025608812977882 0.1572093897729204 0 -0.1045426701157767 0.1704114633117747 0 -0.092579719344545897 0.1630625406642113 0 -0.1025608812977882 0.1572093897729204 0 -0.092579719344545897 0.1630625406642113 0 -0.093380768344670129 0.15193623913744531 0 -0.092579719344545897 0.1630625406642113 0 -0.093380768344670129 0.15193623913744531 0 -0.0842753749488976 0.15388503430764691 0 -0.094953850768773371 0.175944516791499 0 -0.092579719344545897 0.1630625406642113 0 -0.081647858788768526 0.17362272492369191 0 -0.092579719344545897 0.1630625406642113 0 -0.079444554502352382 0.16287948183407289 0 -0.081647858788768526 0.17362272492369191 0 -0.079444554502352382 0.16287948183407289 0 -0.073617748207498418 0.15344055641859769 0 -0.0842753749488976 0.15388503430764691 0 -0.092579719344545897 0.1630625406642113 0 -0.079444554502352382 0.16287948183407289 0 -0.0842753749488976 0.15388503430764691 0 -0.094953850768773371 0.175944516791499 0 -0.086584677036272428 0.18724973312333379 0 -0.081647858788768526 0.17362272492369191 0 -0.086584677036272428 0.18724973312333379 0 -0.081647858788768526 0.17362272492369191 0 -0.072383842375982055 0.18433851894818901 0 -0.072383842375982055 0.18433851894818901 0 -0.066172409846778357 0.17006442652514361 0 -0.058423781123243847 0.18760160827679159 0 -0.081647858788768526 0.17362272492369191 0 -0.072383842375982055 0.18433851894818901 0 -0.066172409846778357 0.17006442652514361 0 -0.066172409846778357 0.17006442652514361 0 -0.073617748207498418 0.15344055641859769 0 -0.06196064398319158 0.149965887783337 0 -0.079444554502352382 0.16287948183407289 0 -0.066172409846778357 0.17006442652514361 0 -0.073617748207498418 0.15344055641859769 0 -0.079444554502352382 0.16287948183407289 0 -0.081647858788768526 0.17362272492369191 0 -0.066172409846778357 0.17006442652514361 0 -0.073617748207498418 0.15344055641859769 0 -0.073677981966104811 0.1444999338094288 0 -0.06196064398319158 0.149965887783337 0 -0.073617748207498418 0.15344055641859769 0 -0.073677981966104811 0.1444999338094288 0 -0.079499992516227538 0.1477365728628873 0 -0.073677981966104811 0.1444999338094288 0 -0.079499992516227538 0.1477365728628873 0 -0.080032976524560956 0.14135874802710191 0 -0.073677981966104811 0.1444999338094288 0 -0.066647537532865619 0.13982830447334749 0 -0.06196064398319158 0.149965887783337 0 -0.078884679737439539 0.13497478905578231 0 -0.075731546303957176 0.11744493554040999 0 -0.066647537532865619 0.13982830447334749 0 -0.078884679737439539 0.13497478905578231 0 -0.049835746967114507 0.12731376090422539 0 -0.078884679737439539 0.13497478905578231 0 -0.049835746967114507 0.12731376090422539 0 -0.075731546303957176 0.11744493554040999 0 -0.078884679737439539 0.13497478905578231 0 -0.049835746967114507 0.12731376090422539 0 -0.073677981966104811 0.1444999338094288 0 -0.066647537532865619 0.13982830447334749 0 -0.078884679737439539 0.13497478905578231 0 -0.073677981966104811 0.1444999338094288 0 -0.078884679737439539 0.13497478905578231 0 -0.080032976524560956 0.14135874802710191 0 -0.078884679737439539 0.13497478905578231 0 -0.080032976524560956 0.14135874802710191 0 -0.1009702561500668 0.14079938247469129 0 -0.078884679737439539 0.13497478905578231 0 -0.078884679737439539 0.13497478905578231 0 -0.088350901227011294 0.12912215900755139 0 -0.075731546303957176 0.11744493554040999 0 -0.1009702561500668 0.14079938247469129 0 -0.078884679737439539 0.13497478905578231 0 -0.088350901227011294 0.12912215900755139 0 -0.1009702561500668 0.14079938247469129 0 -0.078884679737439539 0.13497478905578231 0 -0.086517609982052018 0.14472484846775649 0 -0.078884679737439539 0.13497478905578231 0 -0.086517609982052018 0.14472484846775649 0 -0.080032976524560956 0.14135874802710191 0 -0.1009702561500668 0.14079938247469129 0 -0.086517609982052018 0.14472484846775649 0 -0.093380768344670129 0.15193623913744531 0 -0.086517609982052018 0.14472484846775649 0 -0.093380768344670129 0.15193623913744531 0 -0.0842753749488976 0.15388503430764691 0 -0.086517609982052018 0.14472484846775649 0 -0.0842753749488976 0.15388503430764691 0 -0.079499992516227538 0.1477365728628873 0 -0.073617748207498418 0.15344055641859769 0 -0.0842753749488976 0.15388503430764691 0 -0.079499992516227538 0.1477365728628873 0 -0.086517609982052018 0.14472484846775649 0 -0.079499992516227538 0.1477365728628873 0 -0.080032976524560956 0.14135874802710191 0 -0.099646555744896198 0.25564887823787741 0 -0.1103912165899647 0.23508889061443691 0 -0.089800741290963951 0.23837093591206529 0 -0.1229484984770164 0.25473045748778822 0 -0.1342627396718909 0.23722222839544871 0 -0.1103912165899647 0.23508889061443691 0 -0.099646555744896198 0.25564887823787741 0 -0.1229484984770164 0.25473045748778822 0 -0.1103912165899647 0.23508889061443691 0 -0.1342627396718909 0.23722222839544871 0 -0.1103912165899647 0.23508889061443691 0 -0.1247431951047857 0.22181007279510051 0 -0.1103912165899647 0.23508889061443691 0 -0.1247431951047857 0.22181007279510051 0 -0.10654412843109889 0.2124129981583367 0 -0.1103912165899647 0.23508889061443691 0 -0.10654412843109889 0.2124129981583367 0 -0.092245081658107075 0.22190386767475981 0 -0.1103912165899647 0.23508889061443691 0 -0.092245081658107075 0.22190386767475981 0 -0.089800741290963951 0.23837093591206529 0 -0.10654412843109889 0.2124129981583367 0 -0.087230585174399439 0.20491522111974159 0 -0.092245081658107075 0.22190386767475981 0 -0.10654412843109889 0.2124129981583367 0 -0.099053975846167139 0.19756953091004231 0 -0.087230585174399439 0.20491522111974159 0 -0.1247431951047857 0.22181007279510051 0 -0.10654412843109889 0.2124129981583367 0 -0.1197300091643143 0.20799343972127399 0 -0.10654412843109889 0.2124129981583367 0 -0.1197300091643143 0.20799343972127399 0 -0.1115635107689735 0.1980809658696884 0 -0.1197300091643143 0.20799343972127399 0 -0.1115635107689735 0.1980809658696884 0 -0.12438280521313259 0.19722518639459599 0 -0.1171851880269027 0.18697700193394309 0 -0.1115635107689735 0.1980809658696884 0 -0.12438280521313259 0.19722518639459599 0 -0.1256413879108996 0.18801686022701089 0 -0.1171851880269027 0.18697700193394309 0 -0.12438280521313259 0.19722518639459599 0 -0.1171851880269027 0.18697700193394309 0 -0.1033469778200914 0.18518873627911081 0 -0.1115635107689735 0.1980809658696884 0 -0.1033469778200914 0.18518873627911081 0 -0.086584677036272428 0.18724973312333379 0 -0.099053975846167139 0.19756953091004231 0 -0.1033469778200914 0.18518873627911081 0 -0.1115635107689735 0.1980809658696884 0 -0.099053975846167139 0.19756953091004231 0 -0.10654412843109889 0.2124129981583367 0 -0.1115635107689735 0.1980809658696884 0 -0.099053975846167139 0.19756953091004231 0 -0.086584677036272428 0.18724973312333379 0 -0.076174848938558914 0.19563928181333809 0 -0.087230585174399439 0.20491522111974159 0 -0.086584677036272428 0.18724973312333379 0 -0.099053975846167139 0.19756953091004231 0 -0.087230585174399439 0.20491522111974159 0 -0.086584677036272428 0.18724973312333379 0 -0.072383842375982055 0.18433851894818901 0 -0.076174848938558914 0.19563928181333809 0 -0.072383842375982055 0.18433851894818901 0 -0.065139537173665302 0.19462878525212721 0 -0.076174848938558914 0.19563928181333809 0 -0.076174848938558914 0.19563928181333809 0 -0.064801522217270369 0.20388475802520309 0 -0.087230585174399439 0.20491522111974159 0 -0.072383842375982055 0.18433851894818901 0 -0.065139537173665302 0.19462878525212721 0 -0.058423781123243847 0.18760160827679159 0 -0.065139537173665302 0.19462878525212721 0 -0.064801522217270369 0.20388475802520309 0 -0.065139537173665302 0.19462878525212721 0 -0.076174848938558914 0.19563928181333809 0 -0.064801522217270369 0.20388475802520309 0 -0.064801522217270369 0.20388475802520309 0 -0.087230585174399439 0.20491522111974159 0 -0.064801522217270369 0.20388475802520309 0 -0.075846685561794872 0.21419987014727529 0 -0.087230585174399439 0.20491522111974159 0 -0.064801522217270369 0.20388475802520309 0 -0.06414768474890141 0.22178900069477789 0 -0.064801522217270369 0.20388475802520309 0 -0.075846685561794872 0.21419987014727529 0 -0.06414768474890141 0.22178900069477789 0 -0.075846685561794872 0.21419987014727529 0 -0.087230585174399439 0.20491522111974159 0 -0.092245081658107075 0.22190386767475981 0 -0.075846685561794872 0.21419987014727529 0 -0.092245081658107075 0.22190386767475981 0 -0.078601843222653858 0.22762957432541281 0 -0.092245081658107075 0.22190386767475981 0 -0.078601843222653858 0.22762957432541281 0 -0.089800741290963951 0.23837093591206529 0 -0.06414768474890141 0.22178900069477789 0 -0.070889246774834699 0.234327977948696 0 -0.06349384728053234 0.23969324336435269 0 -0.06414768474890141 0.22178900069477789 0 -0.06349384728053234 0.23969324336435269 0 -0.075846685561794872 0.21419987014727529 0 -0.078601843222653858 0.22762957432541281 0 -0.06414768474890141 0.22178900069477789 0 -0.078601843222653858 0.22762957432541281 0 -0.06414768474890141 0.22178900069477789 0 -0.070889246774834699 0.234327977948696 0 -0.078601843222653858 0.22762957432541281 0 -0.070889246774834699 0.234327977948696 0 -0.077441398369764561 0.23915127223081961 0 -0.070889246774834699 0.234327977948696 0 -0.077441398369764561 0.23915127223081961 0 -0.07076146025232137 0.24337679912811699 0 -0.070889246774834699 0.234327977948696 0 -0.06349384728053234 0.23969324336435269 0 -0.07076146025232137 0.24337679912811699 0 -0.06349384728053234 0.23969324336435269 0 -0.063201019833232619 0.2477118319744985 0 -0.06728048482943233 0.25078768511444982 0 -0.06349384728053234 0.23969324336435269 0 -0.063201019833232619 0.2477118319744985 0 -0.06728048482943233 0.25078768511444982 0 -0.06349384728053234 0.23969324336435269 0 -0.06728048482943233 0.25078768511444982 0 -0.06349384728053234 0.23969324336435269 0 -0.07076146025232137 0.24337679912811699 0 -0.06728048482943233 0.25078768511444982 0 -0.063201019833232619 0.2477118319744985 0 -0.079604061573677359 0.25020061160159762 0 -0.077441398369764561 0.23915127223081961 0 -0.07076146025232137 0.24337679912811699 0 -0.079604061573677359 0.25020061160159762 0 -0.06728048482943233 0.25078768511444982 0 -0.07076146025232137 0.24337679912811699 0 -0.079604061573677359 0.25020061160159762 0 -0.077441398369764561 0.23915127223081961 0 -0.089800741290963951 0.23837093591206529 0 -0.099646555744896198 0.25564887823787741 0 -0.079604061573677359 0.25020061160159762 0 -0.089800741290963951 0.23837093591206529 0 -0.078601843222653858 0.22762957432541281 0 -0.077441398369764561 0.23915127223081961 0 -0.089800741290963951 0.23837093591206529 0 -0.046174889000908118 0.25024759087299597 0 -0.04511730596553451 0.23407699305965701 0 -0.02691154068192704 0.2457704794931268 0 -0.06349384728053234 0.23969324336435269 0 -0.063201019833232619 0.2477118319744985 0 -0.04511730596553451 0.23407699305965701 0 -0.046174889000908118 0.25024759087299597 0 -0.063201019833232619 0.2477118319744985 0 -0.04511730596553451 0.23407699305965701 0 -0.063201019833232619 0.2477118319744985 0 -0.04511730596553451 0.23407699305965701 0 -0.06414768474890141 0.22178900069477789 0 -0.06349384728053234 0.23969324336435269 0 -0.05727519399115745 0.2214732564255274 0 -0.06349384728053234 0.23969324336435269 0 -0.05727519399115745 0.2214732564255274 0 -0.06349384728053234 0.23969324336435269 0 -0.05727519399115745 0.2214732564255274 0 -0.04511730596553451 0.23407699305965701 0 -0.05727519399115745 0.2214732564255274 0 -0.04511730596553451 0.23407699305965701 0 -0.041097026529113137 0.21578282075593769 0 -0.04511730596553451 0.23407699305965701 0 -0.027033592097836651 0.22044215414481511 0 -0.04511730596553451 0.23407699305965701 0 -0.041097026529113137 0.21578282075593769 0 -0.027033592097836651 0.22044215414481511 0 -0.04511730596553451 0.23407699305965701 0 -0.027033592097836651 0.22044215414481511 0 -0.02691154068192704 0.2457704794931268 0 -0.041097026529113137 0.21578282075593769 0 -0.051056540701783067 0.203253269486702 0 -0.033991708178227213 0.20246925634430629 0 -0.041097026529113137 0.21578282075593769 0 -0.033991708178227213 0.20246925634430629 0 -0.02559981613799741 0.20943735793538881 0 -0.05727519399115745 0.2214732564255274 0 -0.041097026529113137 0.21578282075593769 0 -0.051056540701783067 0.203253269486702 0 -0.064801522217270369 0.20388475802520309 0 -0.06414768474890141 0.22178900069477789 0 -0.05727519399115745 0.2214732564255274 0 -0.05727519399115745 0.2214732564255274 0 -0.051056540701783067 0.203253269486702 0 -0.064801522217270369 0.20388475802520309 0 -0.05727519399115745 0.2214732564255274 0 -0.051056540701783067 0.203253269486702 0 -0.064801522217270369 0.20388475802520309 0 -0.051056540701783067 0.203253269486702 0 -0.051056540701783067 0.203253269486702 0 -0.048044952895079013 0.1944296403261862 0 -0.051056540701783067 0.203253269486702 0 -0.057252301697233457 0.19627344374557551 0 -0.048044952895079013 0.1944296403261862 0 -0.058423781123243847 0.18760160827679159 0 -0.048044952895079013 0.1944296403261862 0 -0.041549642750724897 0.18587483486352829 0 -0.064801522217270369 0.20388475802520309 0 -0.051056540701783067 0.203253269486702 0 -0.057252301697233457 0.19627344374557551 0 -0.065139537173665302 0.19462878525212721 0 -0.064801522217270369 0.20388475802520309 0 -0.057252301697233457 0.19627344374557551 0 -0.065139537173665302 0.19462878525212721 0 -0.057252301697233457 0.19627344374557551 0 -0.058423781123243847 0.18760160827679159 0 -0.057252301697233457 0.19627344374557551 0 -0.058423781123243847 0.18760160827679159 0 -0.048044952895079013 0.1944296403261862 0 -0.051056540701783067 0.203253269486702 0 -0.033991708178227213 0.20246925634430629 0 -0.03865681607058595 0.19571374773575129 0 -0.048044952895079013 0.1944296403261862 0 -0.03865681607058595 0.19571374773575129 0 -0.041549642750724897 0.18587483486352829 0 -0.051056540701783067 0.203253269486702 0 -0.033991708178227213 0.20246925634430629 0 -0.03865681607058595 0.19571374773575129 0 -0.016926875654671221 0.2016852432019125 0 -0.041549642750724897 0.18587483486352829 0 -0.051056540701783067 0.203253269486702 0 -0.048044952895079013 0.1944296403261862 0 -0.03865681607058595 0.19571374773575129 0 -0.016926875654671221 0.2016852432019125 0 -0.041549642750724897 0.18587483486352829 0 -0.016926875654671221 0.2016852432019125 0 -0.041549642750724897 0.18587483486352829 0 -0.021855578615008989 0.1840542650912031 0 -0.016926875654671221 0.2016852432019125 0 -0.01007641489388551 0.19068279228920931 0 -0.021855578615008989 0.1840542650912031 0 -0.033991708178227213 0.20246925634430629 0 -0.016926875654671221 0.2016852432019125 0 -0.033991708178227213 0.20246925634430629 0 -0.03865681607058595 0.19571374773575129 0 -0.016926875654671221 0.2016852432019125 0 -0.016926875654671221 0.2016852432019125 0 -0.001198125073508286 0.20096261394949769 0 -0.016926875654671221 0.2016852432019125 0 -0.01007641489388551 0.19068279228920931 0 -0.001198125073508286 0.20096261394949769 0 -0.01007641489388551 0.19068279228920931 0 -0.001198125073508286 0.20096261394949769 0 -0.000617891155602524 0.18583592233474339 0 -0.016926875654671221 0.2016852432019125 0 -0.001198125073508286 0.20096261394949769 0 -0.0089498782301390065 0.20680731522997281 0 -0.016926875654671221 0.2016852432019125 0 -0.0089498782301390065 0.20680731522997281 0 -0.001198125073508286 0.20096261394949769 0 -0.0089498782301390065 0.20680731522997281 0 -0.033991708178227213 0.20246925634430629 0 -0.016926875654671221 0.2016852432019125 0 -0.02559981613799741 0.20943735793538881 0 -0.0089498782301390065 0.20680731522997281 0 -0.027033592097836651 0.22044215414481511 0 -0.0089498782301390065 0.20680731522997281 0 -0.02559981613799741 0.20943735793538881 0 -0.027033592097836651 0.22044215414481511 0 -0.016926875654671221 0.2016852432019125 0 -0.0089498782301390065 0.20680731522997281 0 -0.02559981613799741 0.20943735793538881 0 -0.041097026529113137 0.21578282075593769 0 -0.02559981613799741 0.20943735793538881 0 -0.027033592097836651 0.22044215414481511 0 -0.027033592097836651 0.22044215414481511 0 -0.0070972438617433386 0.2318192067591931 0 -0.02691154068192704 0.2457704794931268 0 -0.0089498782301390065 0.20680731522997281 0 -0.027033592097836651 0.22044215414481511 0 -0.0070972438617433386 0.2318192067591931 0 -0.0089498782301390065 0.20680731522997281 0 -0.0070972438617433386 0.2318192067591931 0 0.01475444484588343 0.2220279858294584 0 -0.0013581205314274699 0.25585075003031849 0 -0.0070972438617433386 0.2318192067591931 0 -0.02691154068192704 0.2457704794931268 0 -0.0013581205314274699 0.25585075003031849 0 -0.0070972438617433386 0.2318192067591931 0 0.0069152235249865081 0.24001655582746689 0 -0.045411150689990701 0.1444862759397488 0 -0.02922104577188174 0.14982380530350811 0 -0.022569701692132019 0.1363237345135567 0 -0.045411150689990701 0.1444862759397488 0 -0.037523067722002347 0.15891363151747201 0 -0.02922104577188174 0.14982380530350811 0 -0.045411150689990701 0.1444862759397488 0 -0.050930010595055593 0.15884923054687261 0 -0.037523067722002347 0.15891363151747201 0 -0.045411150689990701 0.1444862759397488 0 -0.049835746967114507 0.12731376090422539 0 -0.022569701692132019 0.1363237345135567 0 -0.066647537532865619 0.13982830447334749 0 -0.049835746967114507 0.12731376090422539 0 -0.055963769793290603 0.1403985572751647 0 -0.045411150689990701 0.1444862759397488 0 -0.049835746967114507 0.12731376090422539 0 -0.055963769793290603 0.1403985572751647 0 -0.045411150689990701 0.1444862759397488 0 -0.055963769793290603 0.1403985572751647 0 -0.06196064398319158 0.149965887783337 0 -0.066647537532865619 0.13982830447334749 0 -0.055963769793290603 0.1403985572751647 0 -0.06196064398319158 0.149965887783337 0 -0.045411150689990701 0.1444862759397488 0 -0.06196064398319158 0.149965887783337 0 -0.050930010595055593 0.15884923054687261 0 -0.066172409846778357 0.17006442652514361 0 -0.050930010595055593 0.15884923054687261 0 -0.043582780733314931 0.17081593096866141 0 -0.066172409846778357 0.17006442652514361 0 -0.06196064398319158 0.149965887783337 0 -0.050930010595055593 0.15884923054687261 0 -0.066172409846778357 0.17006442652514361 0 -0.041549642750724897 0.18587483486352829 0 -0.066172409846778357 0.17006442652514361 0 -0.058423781123243847 0.18760160827679159 0 -0.041549642750724897 0.18587483486352829 0 -0.066172409846778357 0.17006442652514361 0 -0.041549642750724897 0.18587483486352829 0 -0.043582780733314931 0.17081593096866141 0 -0.041549642750724897 0.18587483486352829 0 -0.032203888239403261 0.17747828208525021 0 -0.021855578615008989 0.1840542650912031 0 -0.041549642750724897 0.18587483486352829 0 -0.032203888239403261 0.17747828208525021 0 -0.043582780733314931 0.17081593096866141 0 -0.032203888239403261 0.17747828208525021 0 -0.043582780733314931 0.17081593096866141 0 -0.029489143498372981 0.1688073304033153 0 -0.050930010595055593 0.15884923054687261 0 -0.043582780733314931 0.17081593096866141 0 -0.037523067722002347 0.15891363151747201 0 -0.043582780733314931 0.17081593096866141 0 -0.037523067722002347 0.15891363151747201 0 -0.029489143498372981 0.1688073304033153 0 -0.037523067722002347 0.15891363151747201 0 -0.029489143498372981 0.1688073304033153 0 -0.022037756028283669 0.16138044514460981 0 -0.037523067722002347 0.15891363151747201 0 -0.022037756028283669 0.16138044514460981 0 -0.02922104577188174 0.14982380530350811 0 -0.029489143498372981 0.1688073304033153 0 -0.020645000911132281 0.16902311338251541 0 -0.022037756028283669 0.16138044514460981 0 -0.029489143498372981 0.1688073304033153 0 -0.020645000911132281 0.16902311338251541 0 -0.02388074124879189 0.17491779681048719 0 -0.020645000911132281 0.16902311338251541 0 -0.015992095753029741 0.1746976632615875 0 -0.013868896111497451 0.16610434547144659 0 -0.020645000911132281 0.16902311338251541 0 -0.022037756028283669 0.16138044514460981 0 -0.013868896111497451 0.16610434547144659 0 -0.022037756028283669 0.16138044514460981 0 -0.01267414555222824 0.15839383874738011 0 -0.01769134053482764 0.14984620207894961 0 -0.022037756028283669 0.16138044514460981 0 -0.01267414555222824 0.15839383874738011 0 -0.013868896111497451 0.16610434547144659 0 -0.032203888239403261 0.17747828208525021 0 -0.029489143498372981 0.1688073304033153 0 -0.02388074124879189 0.17491779681048719 0 -0.032203888239403261 0.17747828208525021 0 -0.02388074124879189 0.17491779681048719 0 -0.021855578615008989 0.1840542650912031 0 -0.020645000911132281 0.16902311338251541 0 -0.02388074124879189 0.17491779681048719 0 -0.015992095753029741 0.1746976632615875 0 -0.02388074124879189 0.17491779681048719 0 -0.015992095753029741 0.1746976632615875 0 -0.021855578615008989 0.1840542650912031 0 -0.015992095753029741 0.1746976632615875 0 -0.021855578615008989 0.1840542650912031 0 -0.0097836039706364446 0.18087591686869081 0 -0.01007641489388551 0.19068279228920931 0 -0.021855578615008989 0.1840542650912031 0 -0.0097836039706364446 0.18087591686869081 0 -0.015992095753029741 0.1746976632615875 0 -0.0097836039706364446 0.18087591686869081 0 -0.0088506118535440215 0.17165723354110679 0 -0.0097836039706364446 0.18087591686869081 0 -0.0033948347462645538 0.17676762032388441 0 -0.0088506118535440215 0.17165723354110679 0 -0.0033948347462645538 0.17676762032388441 0 -0.0088506118535440215 0.17165723354110679 0 -0.0020264807575900269 0.16925100379745331 0 -0.0033948347462645538 0.17676762032388441 0 -0.0020264807575900269 0.16925100379745331 0 0.00430441400605025 0.17621802507742759 0 -0.0097836039706364446 0.18087591686869081 0 -0.0033948347462645538 0.17676762032388441 0 -0.000617891155602524 0.18583592233474339 0 -0.01007641489388551 0.19068279228920931 0 -0.0097836039706364446 0.18087591686869081 0 -0.000617891155602524 0.18583592233474339 0 -0.01267414555222824 0.15839383874738011 0 -0.0068722069722592137 0.16406701442736599 0 -0.0046503903201789492 0.15755019424560959 0 -0.01267414555222824 0.15839383874738011 0 -0.013868896111497451 0.16610434547144659 0 -0.0068722069722592137 0.16406701442736599 0 -0.015992095753029741 0.1746976632615875 0 -0.013868896111497451 0.16610434547144659 0 -0.0088506118535440215 0.17165723354110679 0 -0.013868896111497451 0.16610434547144659 0 -0.0088506118535440215 0.17165723354110679 0 -0.0068722069722592137 0.16406701442736599 0 -0.0088506118535440215 0.17165723354110679 0 -0.0068722069722592137 0.16406701442736599 0 -0.0020264807575900269 0.16925100379745331 0 -0.0068722069722592137 0.16406701442736599 0 -0.0020264807575900269 0.16925100379745331 0 -0.00070180903849404223 0.1620298962772429 0 -0.0068722069722592137 0.16406701442736599 0 -0.00070180903849404223 0.1620298962772429 0 -0.0046503903201789492 0.15755019424560959 0 -0.00070180903849404223 0.1620298962772429 0 -0.0046503903201789492 0.15755019424560959 0 0.0022271874395096 0.1573937168972985 0 -0.0046503903201789492 0.15755019424560959 0 -0.0021862879748443379 0.15127762749284521 0 -0.010008512973272231 0.15180902985001221 0 -0.0046503903201789492 0.15755019424560959 0 -0.0021862879748443379 0.15127762749284521 0 0.0022271874395096 0.1573937168972985 0 -0.0021862879748443379 0.15127762749284521 0 -0.0084447026936406173 0.14386944060710041 0 -0.010008512973272231 0.15180902985001221 0 -0.0084447026936406173 0.14386944060710041 0 -0.0016146699195483841 0.13719475231004019 0 0.0028925413118478238 0.14505368737011831 0 -0.0021862879748443379 0.15127762749284521 0 -0.0084447026936406173 0.14386944060710041 0 0.0028925413118478238 0.14505368737011831 0 -0.01267414555222824 0.15839383874738011 0 -0.010008512973272231 0.15180902985001221 0 -0.01769134053482764 0.14984620207894961 0 -0.01267414555222824 0.15839383874738011 0 -0.0046503903201789492 0.15755019424560959 0 -0.010008512973272231 0.15180902985001221 0 -0.0084447026936406173 0.14386944060710041 0 -0.010008512973272231 0.15180902985001221 0 -0.01769134053482764 0.14984620207894961 0 -0.022037756028283669 0.16138044514460981 0 -0.01769134053482764 0.14984620207894961 0 -0.02922104577188174 0.14982380530350811 0 -0.01769134053482764 0.14984620207894961 0 -0.02922104577188174 0.14982380530350811 0 -0.022569701692132019 0.1363237345135567 0 -0.0084447026936406173 0.14386944060710041 0 -0.01769134053482764 0.14984620207894961 0 -0.022569701692132019 0.1363237345135567 0 -0.049835746967114507 0.12731376090422539 0 -0.022569701692132019 0.1363237345135567 0 -0.020786814196788819 0.11965273275267101 0 -0.022569701692132019 0.1363237345135567 0 -0.01043317137598943 0.13103637382128769 0 -0.020786814196788819 0.11965273275267101 0 -0.0084447026936406173 0.14386944060710041 0 -0.022569701692132019 0.1363237345135567 0 -0.01043317137598943 0.13103637382128769 0 -0.0084447026936406173 0.14386944060710041 0 -0.01043317137598943 0.13103637382128769 0 -0.0016146699195483841 0.13719475231004019 0 -0.01043317137598943 0.13103637382128769 0 -0.001755213224400969 0.1224113826781562 0 0.001514399076776056 0.1296979527704141 0 -0.01043317137598943 0.13103637382128769 0 -0.0016146699195483841 0.13719475231004019 0 0.001514399076776056 0.1296979527704141 0 -0.01043317137598943 0.13103637382128769 0 -0.001755213224400969 0.1224113826781562 0 -0.020786814196788819 0.11965273275267101 0 -0.001755213224400969 0.1224113826781562 0 -0.020786814196788819 0.11965273275267101 0 0.008262118573536599 0.1119917046011166 0 -0.020786814196788819 0.11965273275267101 0 0.008262118573536599 0.1119917046011166 0 -0.0077517695351226072 0.10912583896896309 0 -0.020786814196788819 0.11965273275267101 0 0.008262118573536599 0.1119917046011166 0 -0.0077517695351226072 0.10912583896896309 0 -0.019633965617819989 0.097811996281197452 0 0.0069284747717304274 0.1055091729811206 0 -0.001086642484074318 0.096392062202275391 0 -0.019633965617819989 0.097811996281197452 0 -0.0094622230532577095 0.0873246483624215 0 -0.001086642484074318 0.096392062202275391 0 -0.019633965617819989 0.097811996281197452 0 0.0069284747717304274 0.1055091729811206 0 -0.019633965617819989 0.097811996281197452 0 0.0069284747717304274 0.1055091729811206 0 -0.0077517695351226072 0.10912583896896309 0 -0.019633965617819989 0.097811996281197452 0 -0.020786814196788819 0.11965273275267101 0 -0.019633965617819989 0.097811996281197452 0 -0.020786814196788819 0.11965273275267101 0 -0.032412870754641762 0.1006956468617856 0 -0.020786814196788819 0.11965273275267101 0 -0.038224727471384029 0.1124360973927863 0 -0.032412870754641762 0.1006956468617856 0 -0.0072203321530443674 0.076224749938225922 0 -0.010663945645592711 0.055092594130287928 0 0.0014976518685602461 0.063245080616464985 0 -0.0072203321530443674 0.076224749938225922 0 -0.020793362676127001 0.078795949213662453 0 -0.010663945645592711 0.055092594130287928 0 -0.0072203321530443674 0.076224749938225922 0 0.003320864346216782 0.077053588128725717 0 0.0014976518685602461 0.063245080616464985 0 -0.0072203321530443674 0.076224749938225922 0 -0.0094622230532577095 0.0873246483624215 0 -0.020793362676127001 0.078795949213662453 0 -0.0072203321530443674 0.076224749938225922 0 0.001423187664777124 0.087398484176746255 0 0.003320864346216782 0.077053588128725717 0 -0.0072203321530443674 0.076224749938225922 0 -0.0094622230532577095 0.0873246483624215 0 0.001423187664777124 0.087398484176746255 0 -0.001086642484074318 0.096392062202275391 0 -0.0094622230532577095 0.0873246483624215 0 0.001423187664777124 0.087398484176746255 0 -0.019633965617819989 0.097811996281197452 0 -0.02897909403974994 0.085896517170889211 0 -0.020793362676127001 0.078795949213662453 0 -0.019633965617819989 0.097811996281197452 0 -0.0094622230532577095 0.0873246483624215 0 -0.020793362676127001 0.078795949213662453 0 -0.02897909403974994 0.085896517170889211 0 -0.020793362676127001 0.078795949213662453 0 -0.031357774121539117 0.076384005166914806 0 -0.020793362676127001 0.078795949213662453 0 -0.034350287012973671 0.068590214417097867 0 -0.010663945645592711 0.055092594130287928 0 -0.020793362676127001 0.078795949213662453 0 -0.034350287012973671 0.068590214417097867 0 -0.031357774121539117 0.076384005166914806 0 -0.034350287012973671 0.068590214417097867 0 -0.048866695624608908 0.076862364527954322 0 -0.049925139418616073 0.060383824466003419 0 -0.034350287012973671 0.068590214417097867 0 -0.038278847058928679 0.082788367023369405 0 -0.034350287012973671 0.068590214417097867 0 -0.031357774121539117 0.076384005166914806 0 -0.038278847058928679 0.082788367023369405 0 -0.034350287012973671 0.068590214417097867 0 -0.048866695624608908 0.076862364527954322 0 -0.034350287012973671 0.068590214417097867 0 -0.038278847058928679 0.082788367023369405 0 -0.048866695624608908 0.076862364527954322 0 -0.019633965617819989 0.097811996281197452 0 -0.02897909403974994 0.085896517170889211 0 -0.046196406007370683 0.090114819581275846 0 -0.02897909403974994 0.085896517170889211 0 -0.034790387827465921 0.084297882961074225 0 -0.046196406007370683 0.090114819581275846 0 -0.038278847058928679 0.082788367023369405 0 -0.046196406007370683 0.090114819581275846 0 -0.048866695624608908 0.076862364527954322 0 -0.034790387827465921 0.084297882961074225 0 -0.038278847058928679 0.082788367023369405 0 -0.046196406007370683 0.090114819581275846 0 -0.031357774121539117 0.076384005166914806 0 -0.034790387827465921 0.084297882961074225 0 -0.038278847058928679 0.082788367023369405 0 -0.02897909403974994 0.085896517170889211 0 -0.031357774121539117 0.076384005166914806 0 -0.034790387827465921 0.084297882961074225 0 -0.031357774121539117 0.076384005166914806 0 -0.038278847058928679 0.082788367023369405 0 -0.038278847058928679 0.082788367023369405 0 -0.046196406007370683 0.090114819581275846 0 -0.048732705609614867 0.092461765000885071 0 -0.043926066740609448 0.094445672833398386 0 -0.046196406007370683 0.090114819581275846 0 -0.048732705609614867 0.092461765000885071 0 -0.043926066740609448 0.094445672833398386 0 -0.046196406007370683 0.090114819581275846 0 -0.048866695624608908 0.076862364527954322 0 -0.063383104236242854 0.085134514638813108 0 -0.048866695624608908 0.076862364527954322 0 -0.063383104236242854 0.085134514638813108 0 -0.067973636188675801 0.074314814099168652 0 -0.046196406007370683 0.090114819581275846 0 -0.048732705609614867 0.092461765000885071 0 -0.063383104236242854 0.085134514638813108 0 -0.046196406007370683 0.090114819581275846 0 -0.063383104236242854 0.085134514638813108 0 -0.046196406007370683 0.090114819581275846 0 -0.048732705609614867 0.092461765000885071 0 -0.048732705609614867 0.092461765000885071 0 -0.063383104236242854 0.085134514638813108 0 -0.048866695624608908 0.076862364527954322 0 -0.063383104236242854 0.085134514638813108 0 -0.067973636188675801 0.074314814099168652 0 -0.049925139418616073 0.060383824466003419 0 -0.048866695624608908 0.076862364527954322 0 -0.067973636188675801 0.074314814099168652 0 -0.049925139418616073 0.060383824466003419 0 -0.067973636188675801 0.074314814099168652 0 -0.064660885764819404 0.055897569511132797 0 -0.049925139418616073 0.060383824466003419 0 -0.049835746967114507 0.12731376090422539 0 -0.020786814196788819 0.11965273275267101 0 -0.049835746967114507 0.12731376090422539 0 -0.038224727471384029 0.1124360973927863 0 -0.0506523112061057 0.1039273604549345 0 -0.049835746967114507 0.12731376090422539 0 -0.020786814196788819 0.11965273275267101 0 -0.038224727471384029 0.1124360973927863 0 -0.038224727471384029 0.1124360973927863 0 -0.032412870754641762 0.1006956468617856 0 -0.04130399404318523 0.10287619438572621 0 -0.019633965617819989 0.097811996281197452 0 -0.046196406007370683 0.090114819581275846 0 -0.032412870754641762 0.1006956468617856 0 -0.019633965617819989 0.097811996281197452 0 -0.046196406007370683 0.090114819581275846 0 -0.032412870754641762 0.1006956468617856 0 -0.043926066740609448 0.094445672833398386 0 -0.04130399404318523 0.10287619438572621 0 -0.046196406007370683 0.090114819581275846 0 -0.032412870754641762 0.1006956468617856 0 -0.043926066740609448 0.094445672833398386 0 -0.043926066740609448 0.094445672833398386 0 -0.04130399404318523 0.10287619438572621 0 -0.0506523112061057 0.1039273604549345 0 -0.038224727471384029 0.1124360973927863 0 -0.04130399404318523 0.10287619438572621 0 -0.0506523112061057 0.1039273604549345 0 -0.048732705609614867 0.092461765000885071 0 -0.062232125956785539 0.104953350270648 0 -0.063383104236242854 0.085134514638813108 0 -0.048732705609614867 0.092461765000885071 0 -0.043926066740609448 0.094445672833398386 0 -0.0506523112061057 0.1039273604549345 0 -0.048732705609614867 0.092461765000885071 0 -0.0506523112061057 0.1039273604549345 0 -0.062232125956785539 0.104953350270648 0 -0.048732705609614867 0.092461765000885071 0 -0.062232125956785539 0.104953350270648 0 -0.049835746967114507 0.12731376090422539 0 -0.0506523112061057 0.1039273604549345 0 -0.062232125956785539 0.104953350270648 0 -0.049835746967114507 0.12731376090422539 0 -0.062232125956785539 0.104953350270648 0 -0.075731546303957176 0.11744493554040999 0 -0.062232125956785539 0.104953350270648 0 -0.075731546303957176 0.11744493554040999 0 -0.088350901227011294 0.12912215900755139 0 -0.075731546303957176 0.11744493554040999 0 -0.088350901227011294 0.12912215900755139 0 -0.075731546303957176 0.11744493554040999 0 -0.086121630655385001 0.1060260859549626 0 -0.088350901227011294 0.12912215900755139 0 -0.086121630655385001 0.1060260859549626 0 -0.1042440422767693 0.1168177228390128 0 -0.086121630655385001 0.1060260859549626 0 -0.077532538088439629 0.093197544823510128 0 -0.099811382377393398 0.098889232553449266 0 -0.075731546303957176 0.11744493554040999 0 -0.086121630655385001 0.1060260859549626 0 -0.077532538088439629 0.093197544823510128 0 -0.062232125956785539 0.104953350270648 0 -0.075731546303957176 0.11744493554040999 0 -0.070666329156139698 0.089284847647505439 0 -0.075731546303957176 0.11744493554040999 0 -0.077532538088439629 0.093197544823510128 0 -0.070666329156139698 0.089284847647505439 0 -0.075731546303957176 0.11744493554040999 0 -0.070666329156139698 0.089284847647505439 0 -0.062232125956785539 0.104953350270648 0 -0.063383104236242854 0.085134514638813108 0 -0.070666329156139698 0.089284847647505439 0 -0.0695959678926069 0.0833341714220667 0 -0.070666329156139698 0.089284847647505439 0 -0.063383104236242854 0.085134514638813108 0 -0.070666329156139698 0.089284847647505439 0 -0.063383104236242854 0.085134514638813108 0 -0.0695959678926069 0.0833341714220667 0 -0.067973636188675801 0.074314814099168652 0 -0.0695959678926069 0.0833341714220667 0 -0.067973636188675801 0.074314814099168652 0 -0.063383104236242854 0.085134514638813108 0 -0.0695959678926069 0.0833341714220667 0 -0.063383104236242854 0.085134514638813108 0 -0.0695959678926069 0.0833341714220667 0 -0.070666329156139698 0.089284847647505439 0 -0.0695959678926069 0.0833341714220667 0 -0.073795667077900196 0.082117196391096936 0 -0.070666329156139698 0.089284847647505439 0 -0.0695959678926069 0.0833341714220667 0 -0.073795667077900196 0.082117196391096936 0 -0.067973636188675801 0.074314814099168652 0 -0.073795667077900196 0.082117196391096936 0 -0.076588629841491285 0.080964419814037653 0 -0.067973636188675801 0.074314814099168652 0 -0.0695959678926069 0.0833341714220667 0 -0.073795667077900196 0.082117196391096936 0 -0.073795667077900196 0.082117196391096936 0 -0.076588629841491285 0.080964419814037653 0 -0.07974360933625485 0.088940587885247335 0 -0.073795667077900196 0.082117196391096936 0 -0.076588629841491285 0.080964419814037653 0 -0.073795667077900196 0.082117196391096936 0 -0.070666329156139698 0.089284847647505439 0 -0.07974360933625485 0.088940587885247335 0 -0.077532538088439629 0.093197544823510128 0 -0.070666329156139698 0.089284847647505439 0 -0.07974360933625485 0.088940587885247335 0 -0.077532538088439629 0.093197544823510128 0 -0.070666329156139698 0.089284847647505439 0 -0.067973636188675801 0.074314814099168652 0 -0.075735351577653862 0.06933277714554785 0 -0.064660885764819404 0.055897569511132797 0 -0.075735351577653862 0.06933277714554785 0 -0.089322719001636935 0.065718322762559789 0 -0.064660885764819404 0.055897569511132797 0 -0.067973636188675801 0.074314814099168652 0 -0.064660885764819404 0.055897569511132797 0 -0.076588629841491285 0.080964419814037653 0 -0.067973636188675801 0.074314814099168652 0 -0.075735351577653862 0.06933277714554785 0 -0.076588629841491285 0.080964419814037653 0 -0.067973636188675801 0.074314814099168652 0 -0.076588629841491285 0.080964419814037653 0 -0.089322719001636935 0.065718322762559789 0 -0.1015363210171623 0.070667428241462521 0 -0.076588629841491285 0.080964419814037653 0 -0.1015363210171623 0.070667428241462521 0 -0.095075699851492015 0.075950738413729277 0 -0.076588629841491285 0.080964419814037653 0 -0.1015363210171623 0.070667428241462521 0 -0.076588629841491285 0.080964419814037653 0 -0.075735351577653862 0.06933277714554785 0 -0.089322719001636935 0.065718322762559789 0 -0.076588629841491285 0.080964419814037653 0 -0.099811382377393398 0.098889232553449266 0 -0.077532538088439629 0.093197544823510128 0 -0.07974360933625485 0.088940587885247335 0 -0.099811382377393398 0.098889232553449266 0 -0.076588629841491285 0.080964419814037653 0 -0.07974360933625485 0.088940587885247335 0 -0.099811382377393398 0.098889232553449266 0 -0.076588629841491285 0.080964419814037653 0 -0.090862521769381033 0.084638107896375547 0 -0.095075699851492015 0.075950738413729277 0 -0.076588629841491285 0.080964419814037653 0 -0.090862521769381033 0.084638107896375547 0 -0.099811382377393398 0.098889232553449266 0 -0.076588629841491285 0.080964419814037653 0 -0.095075699851492015 0.075950738413729277 0 -0.090862521769381033 0.084638107896375547 0 -0.097601126459694473 0.085839372161685995 0 -0.099811382377393398 0.098889232553449266 0 -0.090862521769381033 0.084638107896375547 0 -0.097601126459694473 0.085839372161685995 0 -0.095075699851492015 0.075950738413729277 0 -0.097601126459694473 0.085839372161685995 0 -0.1083738090857978 0.085967553254463175 0 -0.095075699851492015 0.075950738413729277 0 -0.097601126459694473 0.085839372161685995 0 -0.1083738090857978 0.085967553254463175 0 -0.099811382377393398 0.098889232553449266 0 -0.095075699851492015 0.075950738413729277 0 -0.1132392697215818 0.070687358816782259 0 -0.1083738090857978 0.085967553254463175 0 -0.095075699851492015 0.075950738413729277 0 -0.1132392697215818 0.070687358816782259 0 -0.1015363210171623 0.070667428241462521 0 -0.095075699851492015 0.075950738413729277 0 -0.1132392697215818 0.070687358816782259 0 -0.1264840121928352 0.060370436668891858 0 -0.1015363210171623 0.070667428241462521 0 -0.1264840121928352 0.060370436668891858 0 -0.1015363210171623 0.070667428241462521 0 -0.1132392697215818 0.070687358816782259 0 -0.12942077957145351 0.085038069788139284 0 -0.1264840121928352 0.060370436668891858 0 -0.1132392697215818 0.070687358816782259 0 -0.12942077957145351 0.085038069788139284 0 -0.1083738090857978 0.085967553254463175 0 -0.1132392697215818 0.070687358816782259 0 -0.12942077957145351 0.085038069788139284 0 -0.1083738090857978 0.085967553254463175 0 -0.11838686230135841 0.0991027021444911 0 -0.11838686230135841 0.0991027021444911 0 -0.12271063477338461 0.11656434709622369 0 -0.099811382377393398 0.098889232553449266 0 -0.13235754695007221 0.10970570290738681 0 -0.11838686230135841 0.0991027021444911 0 -0.12271063477338461 0.11656434709622369 0 -0.12271063477338461 0.11656434709622369 0 -0.099811382377393398 0.098889232553449266 0 -0.12271063477338461 0.11656434709622369 0 -0.1136571652217252 0.1239512688879001 0 -0.1042440422767693 0.1168177228390128 0 -0.1226897624986597 0.12539343477150269 0 -0.12271063477338461 0.11656434709622369 0 -0.1136571652217252 0.1239512688879001 0 -0.10338777755055879 0.12891511785121579 0 -0.088350901227011294 0.12912215900755139 0 -0.1042440422767693 0.1168177228390128 0 -0.12271063477338461 0.11656434709622369 0 -0.1042440422767693 0.1168177228390128 0 -0.099811382377393398 0.098889232553449266 0 -0.10338777755055879 0.12891511785121579 0 -0.1136571652217252 0.1239512688879001 0 -0.1042440422767693 0.1168177228390128 0 -0.1083738090857978 0.085967553254463175 0 -0.11838686230135841 0.0991027021444911 0 -0.099811382377393398 0.098889232553449266 0 -0.086121630655385001 0.1060260859549626 0 -0.1042440422767693 0.1168177228390128 0 -0.099811382377393398 0.098889232553449266 0 -0.094619980710139079 -0.00094113599173017482 0 -0.1028738261545929 0.02051941264950204 0 -0.1198770481880274 0.0048746676511459506 0 -0.1028738261545929 0.02051941264950204 0 -0.1198770481880274 0.0048746676511459506 0 -0.1231805301904309 0.032622552160018997 0 -0.1198770481880274 0.0048746676511459506 0 -0.1231805301904309 0.032622552160018997 0 -0.1028738261545929 0.02051941264950204 0 -0.1231805301904309 0.032622552160018997 0 -0.10286599992985131 0.049840830565401673 0 -0.1264840121928352 0.060370436668891858 0 -0.1231805301904309 0.032622552160018997 0 -0.1264840121928352 0.060370436668891858 0 -0.1231805301904309 0.032622552160018997 0 -0.10286599992985131 0.049840830565401673 0 -0.1264840121928352 0.060370436668891858 0 -0.1015363210171623 0.070667428241462521 0 -0.10286599992985131 0.049840830565401673 0 -0.089322719001636935 0.065718322762559789 0 -0.1015363210171623 0.070667428241462521 0 -0.10286599992985131 0.049840830565401673 0 -0.1028738261545929 0.02051941264950204 0 -0.10286599992985131 0.049840830565401673 0 -0.085459086189042785 0.033174919997949623 0 -0.10286599992985131 0.049840830565401673 0 -0.085459086189042785 0.033174919997949623 0 -0.08041760876843837 0.049068820252425233 0 -0.089322719001636935 0.065718322762559789 0 -0.10286599992985131 0.049840830565401673 0 -0.08041760876843837 0.049068820252425233 0 -0.089322719001636935 0.065718322762559789 0 -0.08041760876843837 0.049068820252425233 0 -0.064660885764819404 0.055897569511132797 0 -0.089322719001636935 0.065718322762559789 0 -0.064660885764819404 0.055897569511132797 0 -0.08041760876843837 0.049068820252425233 0 -0.064660885764819404 0.055897569511132797 0 -0.059395217186574638 0.026623071370000091 0 -0.085459086189042785 0.033174919997949623 0 -0.08041760876843837 0.049068820252425233 0 -0.059395217186574638 0.026623071370000091 0 -0.085459086189042785 0.033174919997949623 0 -0.082683766644382969 0.01595210578510502 0 -0.059395217186574638 0.026623071370000091 0 -0.1028738261545929 0.02051941264950204 0 -0.085459086189042785 0.033174919997949623 0 -0.082683766644382969 0.01595210578510502 0 -0.094619980710139079 -0.00094113599173017482 0 -0.082683766644382969 0.01595210578510502 0 -0.071070722981565443 0.00038426089980352529 0 -0.094619980710139079 -0.00094113599173017482 0 -0.1028738261545929 0.02051941264950204 0 -0.082683766644382969 0.01595210578510502 0 -0.082683766644382969 0.01595210578510502 0 -0.071070722981565443 0.00038426089980352529 0 -0.059395217186574638 0.026623071370000091 0 -0.054129548608327548 -0.002651426771132242 0 -0.059395217186574638 0.026623071370000091 0 -0.044580952533378598 0.018418934127466431 0 -0.054129548608327548 -0.002651426771132242 0 -0.044580952533378598 0.018418934127466431 0 -0.042202478754792043 0.0144225188092575 0 -0.054129548608327548 -0.002651426771132242 0 -0.049372601051152383 -0.010644257407550961 0 -0.042202478754792043 0.0144225188092575 0 -0.054129548608327548 -0.002651426771132242 0 -0.071070722981565443 0.00038426089980352529 0 -0.059395217186574638 0.026623071370000091 0 -0.054129548608327548 -0.002651426771132242 0 -0.044580952533378598 0.018418934127466431 0 -0.054129548608327548 -0.002651426771132242 0 -0.059395217186574638 0.026623071370000091 0 -0.059395217186574638 0.026623071370000091 0 -0.044580952533378598 0.018418934127466431 0 -0.048548209399628818 0.035582981446536738 0 -0.044580952533378598 0.018418934127466431 0 -0.048548209399628818 0.035582981446536738 0 -0.035032356458431203 0.039489295026065879 0 -0.044580952533378598 0.018418934127466431 0 -0.035032356458431203 0.039489295026065879 0 -0.042202478754792043 0.0144225188092575 0 -0.035032356458431203 0.039489295026065879 0 -0.042202478754792043 0.0144225188092575 0 -0.035032356458431203 0.039489295026065879 0 -0.02024450162085218 0.017610697422106771 0 -0.044580952533378598 0.018418934127466431 0 -0.042202478754792043 0.0144225188092575 0 -0.035032356458431203 0.039489295026065879 0 -0.049372601051152383 -0.010644257407550961 0 -0.042202478754792043 0.0144225188092575 0 -0.031594138203677097 -0.0080887341473911793 0 -0.042202478754792043 0.0144225188092575 0 -0.02024450162085218 0.017610697422106771 0 -0.064660885764819404 0.055897569511132797 0 -0.048961794818897043 0.049645929701104673 0 -0.048548209399628818 0.035582981446536738 0 -0.064660885764819404 0.055897569511132797 0 -0.049925139418616073 0.060383824466003419 0 -0.048961794818897043 0.049645929701104673 0 -0.064660885764819404 0.055897569511132797 0 -0.048961794818897043 0.049645929701104673 0 -0.064660885764819404 0.055897569511132797 0 -0.059395217186574638 0.026623071370000091 0 -0.048548209399628818 0.035582981446536738 0 -0.064660885764819404 0.055897569511132797 0 -0.059395217186574638 0.026623071370000091 0 -0.048961794818897043 0.049645929701104673 0 -0.033262703872975093 0.04339428989107541 0 -0.048961794818897043 0.049645929701104673 0 -0.035032356458431203 0.039489295026065879 0 -0.033262703872975093 0.04339428989107541 0 -0.048961794818897043 0.049645929701104673 0 -0.031876642648554977 0.046452834832839768 0 -0.033262703872975093 0.04339428989107541 0 -0.035032356458431203 0.039489295026065879 0 -0.033262703872975093 0.04339428989107541 0 -0.026650088171251019 0.040761036047797662 0 -0.035032356458431203 0.039489295026065879 0 -0.033262703872975093 0.04339428989107541 0 -0.031876642648554977 0.046452834832839768 0 -0.033262703872975093 0.04339428989107541 0 -0.048961794818897043 0.049645929701104673 0 -0.048548209399628818 0.035582981446536738 0 -0.035032356458431203 0.039489295026065879 0 -0.049925139418616073 0.060383824466003419 0 -0.048961794818897043 0.049645929701104673 0 -0.031876642648554977 0.046452834832839768 0 -0.049925139418616073 0.060383824466003419 0 -0.031876642648554977 0.046452834832839768 0 -0.034350287012973671 0.068590214417097867 0 -0.049925139418616073 0.060383824466003419 0 -0.031011160115521699 0.048362647456539322 0 -0.049925139418616073 0.060383824466003419 0 -0.031876642648554977 0.046452834832839768 0 -0.031011160115521699 0.048362647456539322 0 -0.031876642648554977 0.046452834832839768 0 -0.031011160115521699 0.048362647456539322 0 -0.034350287012973671 0.068590214417097867 0 -0.01873463572439631 0.048690640748669543 0 -0.02723329684092481 0.042868802149489203 0 -0.034350287012973671 0.068590214417097867 0 -0.02723329684092481 0.042868802149489203 0 -0.034350287012973671 0.068590214417097867 0 -0.01873463572439631 0.048690640748669543 0 -0.010663945645592711 0.055092594130287928 0 -0.034350287012973671 0.068590214417097867 0 -0.010663945645592711 0.055092594130287928 0 -0.034350287012973671 0.068590214417097867 0 -0.031011160115521699 0.048362647456539322 0 -0.02723329684092481 0.042868802149489203 0 -0.035032356458431203 0.039489295026065879 0 -0.026650088171251019 0.040761036047797662 0 -0.02024450162085218 0.017610697422106771 0 -0.026650088171251019 0.040761036047797662 0 -0.02221380051562552 0.03899443232454991 0 -0.02024450162085218 0.017610697422106771 0 -0.01873463572439631 0.048690640748669543 0 -0.02221380051562552 0.03899443232454991 0 -0.01337148880984537 0.035473276350427241 0 -0.01873463572439631 0.048690640748669543 0 -0.02723329684092481 0.042868802149489203 0 -0.02221380051562552 0.03899443232454991 0 -0.031876642648554977 0.046452834832839768 0 -0.02723329684092481 0.042868802149489203 0 -0.031876642648554977 0.046452834832839768 0 -0.031011160115521699 0.048362647456539322 0 -0.02723329684092481 0.042868802149489203 0 -0.031876642648554977 0.046452834832839768 0 -0.033262703872975093 0.04339428989107541 0 -0.02723329684092481 0.042868802149489203 0 -0.033262703872975093 0.04339428989107541 0 -0.026650088171251019 0.040761036047797662 0 -0.033262703872975093 0.04339428989107541 0 -0.026650088171251019 0.040761036047797662 0 -0.02723329684092481 0.042868802149489203 0 -0.02723329684092481 0.042868802149489203 0 -0.02221380051562552 0.03899443232454991 0 -0.026650088171251019 0.040761036047797662 0 -0.02221380051562552 0.03899443232454991 0 -0.026650088171251019 0.040761036047797662 0 -0.02723329684092481 0.042868802149489203 0 -0.02221380051562552 0.03899443232454991 0 -0.026650088171251019 0.040761036047797662 0 -0.02723329684092481 0.042868802149489203 0 -0.02221380051562552 0.03899443232454991 0 -0.01337148880984537 0.035473276350427241 0 -0.02221380051562552 0.03899443232454991 0 -0.01337148880984537 0.035473276350427241 0 -0.00042354709233450438 0.02217531445499888 0 -0.01337148880984537 0.035473276350427241 0 -0.0063497192591883949 0.04450072918574919 0 0.00018129059320132641 0.034794741961835247 0 -0.01873463572439631 0.048690640748669543 0 -0.01337148880984537 0.035473276350427241 0 -0.0063497192591883949 0.04450072918574919 0 -0.0063497192591883949 0.04450072918574919 0 -0.010663945645592711 0.055092594130287928 0 0.0014976518685602461 0.063245080616464985 0 -0.01873463572439631 0.048690640748669543 0 -0.0063497192591883949 0.04450072918574919 0 -0.010663945645592711 0.055092594130287928 0 -0.031594138203677097 -0.0080887341473911793 0 -0.01381567535620187 -0.0055332108872310336 0 -0.02024450162085218 0.017610697422106771 0 -0.01381567535620187 -0.0055332108872310336 0 -0.02024450162085218 0.017610697422106771 0 -0.026650088171251019 0.040761036047797662 0 -0.02024450162085218 0.017610697422106771 0 -0.02221380051562552 0.03899443232454991 0 -0.02024450162085218 0.017610697422106771 0 -0.00042354709233450438 0.02217531445499888 0 -0.02221380051562552 0.03899443232454991 0 -0.00042354709233450438 0.02217531445499888 0 -0.01337148880984537 0.035473276350427241 0 -0.00042354709233450438 0.02217531445499888 0 0.00018129059320132641 0.034794741961835247 0 -0.01381567535620187 -0.0055332108872310336 0 -0.02024450162085218 0.017610697422106771 0 -0.0039028350278822849 0.007084725468534175 0 -0.02024450162085218 0.017610697422106771 0 -0.00042354709233450438 0.02217531445499888 0 -0.0039028350278822849 0.007084725468534175 0 -0.0039028350278822849 0.007084725468534175 0 0.021366706330957049 0.005356196585448475 0 9.2994626588645875e-05 -0.0066853786883017728 0 -0.00042354709233450438 0.02217531445499888 0 0.021366706330957049 0.005356196585448475 0 -0.00042354709233450438 0.02217531445499888 0 -0.0039028350278822849 0.007084725468534175 0 0.021366706330957049 0.005356196585448475 0 -0.00042354709233450438 0.02217531445499888 0 0.016039594276420509 0.028101574793489389 0 0.021366706330957049 0.005356196585448475 0 -0.00042354709233450438 0.02217531445499888 0 0.016039594276420509 0.028101574793489389 0 0.00018129059320132641 0.034794741961835247 0 0.016039594276420509 0.028101574793489389 0 0.021366706330957049 0.005356196585448475 0 0.034733364282466157 0.028612764739399599 0 0.0081196885353858623 0.044905004502365897 0 0.016144803280046489 0.057127302190561037 0 0.0014976518685602461 0.063245080616464985 0 -0.0063497192591883949 0.04450072918574919 0 0.0081196885353858623 0.044905004502365897 0 0.0014976518685602461 0.063245080616464985 0 0.0081196885353858623 0.044905004502365897 0 0.021311856648053591 0.040664732033235847 0 0.016144803280046489 0.057127302190561037 0 0.016039594276420509 0.028101574793489389 0 0.0081196885353858623 0.044905004502365897 0 0.00018129059320132641 0.034794741961835247 0 0.016039594276420509 0.028101574793489389 0 0.0081196885353858623 0.044905004502365897 0 0.021311856648053591 0.040664732033235847 0 -0.0063497192591883949 0.04450072918574919 0 0.0081196885353858623 0.044905004502365897 0 0.00018129059320132641 0.034794741961835247 0 0.016039594276420509 0.028101574793489389 0 0.021311856648053591 0.040664732033235847 0 0.034733364282466157 0.028612764739399599 0 0.021311856648053591 0.040664732033235847 0 0.030809601489022429 0.050711338530267283 0 0.034733364282466157 0.028612764739399599 0 0.016144803280046489 0.057127302190561037 0 0.030809601489022429 0.050711338530267283 0 0.02512388460789057 0.067052219003521429 0 0.021311856648053591 0.040664732033235847 0 0.016144803280046489 0.057127302190561037 0 0.030809601489022429 0.050711338530267283 0 0.045047014048505529 0.045895153794865307 0 0.055445728409579217 0.059992510409491953 0 0.038673450834204003 0.063696848872527162 0 0.030809601489022429 0.050711338530267283 0 0.045047014048505529 0.045895153794865307 0 0.038673450834204003 0.063696848872527162 0 0.030809601489022429 0.050711338530267283 0 0.038673450834204003 0.063696848872527162 0 0.02512388460789057 0.067052219003521429 0 0.045047014048505529 0.045895153794865307 0 0.034733364282466157 0.028612764739399599 0 0.053402821358222087 0.030462001735883131 0 0.030809601489022429 0.050711338530267283 0 0.045047014048505529 0.045895153794865307 0 0.034733364282466157 0.028612764739399599 0 0.058763666666414152 0.04398082979781797 0 0.053402821358222087 0.030462001735883131 0 0.066511893370755429 0.033668811729911353 0 0.045047014048505529 0.045895153794865307 0 0.058763666666414152 0.04398082979781797 0 0.053402821358222087 0.030462001735883131 0 0.058763666666414152 0.04398082979781797 0 0.055445728409579217 0.059992510409491953 0 0.065215272810060496 0.052088813937529982 0 0.045047014048505529 0.045895153794865307 0 0.058763666666414152 0.04398082979781797 0 0.055445728409579217 0.059992510409491953 0 0.021366706330957049 0.005356196585448475 0 0.048574898960063582 0.01105422245065607 0 0.049491405824600751 -0.014400546848704451 0 0.021366706330957049 0.005356196585448475 0 0.034733364282466157 0.028612764739399599 0 0.048574898960063582 0.01105422245065607 0 0.034733364282466157 0.028612764739399599 0 0.053402821358222087 0.030462001735883131 0 0.048574898960063582 0.01105422245065607 0 0.053402821358222087 0.030462001735883131 0 0.048574898960063582 0.01105422245065607 0 0.066786090821127714 0.019560227902648528 0 0.053402821358222087 0.030462001735883131 0 0.066786090821127714 0.019560227902648528 0 0.066511893370755429 0.033668811729911353 0 0.048574898960063582 0.01105422245065607 0 0.066786090821127714 0.019560227902648528 0 0.067215553891882635 -0.0011799380945436829 0 0.082697905306915911 0.011834101465504791 0 0.066786090821127714 0.019560227902648528 0 0.067215553891882635 -0.0011799380945436829 0 0.082697905306915911 0.011834101465504791 0 0.099114727496955629 0.0053277131660113639 0 0.098722657354415419 0.024371838360165141 0 0.082697905306915911 0.011834101465504791 0 0.099114727496955629 0.0053277131660113639 0 0.085378979920521222 -0.0085271912777543524 0 0.082697905306915911 0.011834101465504791 0 0.085378979920521222 -0.0085271912777543524 0 0.067215553891882635 -0.0011799380945436829 0 0.082697905306915911 0.011834101465504791 0 0.081955401085374191 0.032018666829827007 0 0.098722657354415419 0.024371838360165141 0 0.066786090821127714 0.019560227902648528 0 0.066511893370755429 0.033668811729911353 0 0.081955401085374191 0.032018666829827007 0 0.082697905306915911 0.011834101465504791 0 0.066786090821127714 0.019560227902648528 0 0.081955401085374191 0.032018666829827007 0 0.058763666666414152 0.04398082979781797 0 0.073198035671513895 0.044407703699575328 0 0.065215272810060496 0.052088813937529982 0 0.058763666666414152 0.04398082979781797 0 0.066511893370755429 0.033668811729911353 0 0.073198035671513895 0.044407703699575328 0 0.066511893370755429 0.033668811729911353 0 0.073198035671513895 0.044407703699575328 0 0.081955401085374191 0.032018666829827007 0 0.073198035671513895 0.044407703699575328 0 0.072576478286476342 0.060127604112893279 0 0.084667962942488295 0.049454711049969131 0 0.055445728409579217 0.059992510409491953 0 0.065215272810060496 0.052088813937529982 0 0.072576478286476342 0.060127604112893279 0 0.073198035671513895 0.044407703699575328 0 0.065215272810060496 0.052088813937529982 0 0.072576478286476342 0.060127604112893279 0 0.072576478286476342 0.060127604112893279 0 0.084667962942488295 0.049454711049969131 0 0.085770474645546602 0.063257271676346677 0 0.084667962942488295 0.049454711049969131 0 0.094989021964994119 0.041501068202334228 0 0.095652872658334692 0.05503459675143383 0 0.084667962942488295 0.049454711049969131 0 0.095652872658334692 0.05503459675143383 0 0.085770474645546602 0.063257271676346677 0 0.095652872658334692 0.05503459675143383 0 0.095471060816329806 0.067445671330821591 0 0.085770474645546602 0.063257271676346677 0 0.084667962942488295 0.049454711049969131 0 0.081955401085374191 0.032018666829827007 0 0.094989021964994119 0.041501068202334228 0 0.081955401085374191 0.032018666829827007 0 0.094989021964994119 0.041501068202334228 0 0.098722657354415419 0.024371838360165141 0 0.073198035671513895 0.044407703699575328 0 0.084667962942488295 0.049454711049969131 0 0.081955401085374191 0.032018666829827007 0 0.094989021964994119 0.041501068202334228 0 0.10544775409771399 0.035703452929705351 0 0.098722657354415419 0.024371838360165141 0 0.10544775409771399 0.035703452929705351 0 0.1048791391000212 0.049541524024016827 0 0.11738283554026439 0.045919391363933762 0 0.094989021964994119 0.041501068202334228 0 0.10544775409771399 0.035703452929705351 0 0.1048791391000212 0.049541524024016827 0 0.095652872658334692 0.05503459675143383 0 0.1028828321515117 0.059598660263893752 0 0.095471060816329806 0.067445671330821591 0 0.095652872658334692 0.05503459675143383 0 0.1048791391000212 0.049541524024016827 0 0.1028828321515117 0.059598660263893752 0 0.094989021964994119 0.041501068202334228 0 0.095652872658334692 0.05503459675143383 0 0.1048791391000212 0.049541524024016827 0 0.1028828321515117 0.059598660263893752 0 0.112411561042616 0.058336933182221308 0 0.1077163251641817 0.065935962323567576 0 0.1048791391000212 0.049541524024016827 0 0.1028828321515117 0.059598660263893752 0 0.112411561042616 0.058336933182221308 0 0.1048791391000212 0.049541524024016827 0 0.112411561042616 0.058336933182221308 0 0.11738283554026439 0.045919391363933762 0 0.1226758536221563 0.058754324150062147 0 0.11738283554026439 0.045919391363933762 0 0.12798138470421019 0.049477110941330407 0 0.112411561042616 0.058336933182221308 0 0.1226758536221563 0.058754324150062147 0 0.11738283554026439 0.045919391363933762 0 0.112411561042616 0.058336933182221308 0 0.1226758536221563 0.058754324150062147 0 0.11893238067756071 0.070271736967853812 0 0.10544775409771399 0.035703452929705351 0 0.11738283554026439 0.045919391363933762 0 0.11675507342349629 0.028669086286336621 0 0.11738283554026439 0.045919391363933762 0 0.11675507342349629 0.028669086286336621 0 0.12991484820470231 0.037015230580822421 0 0.11675507342349629 0.028669086286336621 0 0.128050751869075 0.025433798835772761 0 0.12991484820470231 0.037015230580822421 0 0.11675507342349629 0.028669086286336621 0 0.12429721647633871 0.014090971846011839 0 0.1102002914007484 0.015148014965385429 0 0.11675507342349629 0.028669086286336621 0 0.12429721647633871 0.014090971846011839 0 0.128050751869075 0.025433798835772761 0 0.12429721647633871 0.014090971846011839 0 0.1165810207984305 0.0016467845144158069 0 0.1102002914007484 0.015148014965385429 0 0.1165810207984305 0.0016467845144158069 0 0.1102002914007484 0.015148014965385429 0 0.099114727496955629 0.0053277131660113639 0 0.1102002914007484 0.015148014965385429 0 0.099114727496955629 0.0053277131660113639 0 0.098722657354415419 0.024371838360165141 0 0.11675507342349629 0.028669086286336621 0 0.1102002914007484 0.015148014965385429 0 0.098722657354415419 0.024371838360165141 0 0.10544775409771399 0.035703452929705351 0 0.11675507342349629 0.028669086286336621 0 0.098722657354415419 0.024371838360165141 0 0.1028041184507465 0.097706186734434541 0 0.097212278542278208 0.10886251392042889 0 0.095408916884512487 0.089008620146451764 0 0.1069169903053673 0.106877659557417 0 0.1028041184507465 0.097706186734434541 0 0.097212278542278208 0.10886251392042889 0 0.1069169903053673 0.106877659557417 0 0.1028041184507465 0.097706186734434541 0 0.1124122623181667 0.095229204775704193 0 0.097212278542278208 0.10886251392042889 0 0.10474825365104801 0.118871671338058 0 0.092874127428698744 0.1243916658413016 0 0.10474825365104801 0.118871671338058 0 0.092874127428698744 0.1243916658413016 0 0.10123277553907251 0.13030272508469959 0 0.1069169903053673 0.106877659557417 0 0.097212278542278208 0.10886251392042889 0 0.10474825365104801 0.118871671338058 0 0.10474825365104801 0.118871671338058 0 0.1187894170332454 0.1108218881468376 0 0.1155281386006284 0.12780565999363219 0 0.1069169903053673 0.106877659557417 0 0.10474825365104801 0.118871671338058 0 0.1187894170332454 0.1108218881468376 0 0.1069169903053673 0.106877659557417 0 0.1187894170332454 0.1108218881468376 0 0.1124122623181667 0.095229204775704193 0 0.1187894170332454 0.1108218881468376 0 0.1124122623181667 0.095229204775704193 0 0.12718862152087951 0.096688253917490447 0 0.1077294159982722 0.074641224974457007 0 0.12718862152087951 0.096688253917490447 0 0.1124122623181667 0.095229204775704193 0 0.1077294159982722 0.074641224974457007 0 0.12718862152087951 0.096688253917490447 0 0.1077294159982722 0.074641224974457007 0 0.12559456041354719 0.080261485087041423 0 0.12718862152087951 0.096688253917490447 0 0.11893238067756071 0.070271736967853812 0 0.1077294159982722 0.074641224974457007 0 0.12559456041354719 0.080261485087041423 0 0.1226758536221563 0.058754324150062147 0 0.11893238067756071 0.070271736967853812 0 0.1309572929872222 0.07025365409794955 0 0.11893238067756071 0.070271736967853812 0 0.1077163251641817 0.065935962323567576 0 0.1077294159982722 0.074641224974457007 0 0.112411561042616 0.058336933182221308 0 0.11893238067756071 0.070271736967853812 0 0.1077163251641817 0.065935962323567576 0 0.1077163251641817 0.065935962323567576 0 0.095408916884512487 0.089008620146451764 0 0.1077163251641817 0.065935962323567576 0 0.095471060816329806 0.067445671330821591 0 0.095408916884512487 0.089008620146451764 0 0.1077163251641817 0.065935962323567576 0 0.1077294159982722 0.074641224974457007 0 0.095408916884512487 0.089008620146451764 0 0.1028828321515117 0.059598660263893752 0 0.1077163251641817 0.065935962323567576 0 0.095471060816329806 0.067445671330821591 0 0.1124122623181667 0.095229204775704193 0 0.1077294159982722 0.074641224974457007 0 0.10393605835734469 0.086759770889506357 0 0.1028041184507465 0.097706186734434541 0 0.1124122623181667 0.095229204775704193 0 0.10393605835734469 0.086759770889506357 0 0.1077294159982722 0.074641224974457007 0 0.10393605835734469 0.086759770889506357 0 0.095408916884512487 0.089008620146451764 0 0.10393605835734469 0.086759770889506357 0 0.095408916884512487 0.089008620146451764 0 0.1028041184507465 0.097706186734434541 0 0.10393605835734469 0.086759770889506357 0 0.095408916884512487 0.089008620146451764 0 0.095408916884512487 0.089008620146451764 0 0.086822874376219161 0.074535722772263363 0 0.078027174684895007 0.081900969601629639 0 0.095408916884512487 0.089008620146451764 0 0.066359984114187448 0.096669648298007824 0 0.095408916884512487 0.089008620146451764 0 0.078027174684895007 0.081900969601629639 0 0.066359984114187448 0.096669648298007824 0 0.095471060816329806 0.067445671330821591 0 0.095408916884512487 0.089008620146451764 0 0.086822874376219161 0.074535722772263363 0 0.095471060816329806 0.067445671330821591 0 0.086822874376219161 0.074535722772263363 0 0.085770474645546602 0.063257271676346677 0 0.086822874376219161 0.074535722772263363 0 0.07738402469507652 0.071265199768388895 0 0.078027174684895007 0.081900969601629639 0 0.072576478286476342 0.060127604112893279 0 0.085770474645546602 0.063257271676346677 0 0.07738402469507652 0.071265199768388895 0 0.086822874376219161 0.074535722772263363 0 0.085770474645546602 0.063257271676346677 0 0.07738402469507652 0.071265199768388895 0 0.072576478286476342 0.060127604112893279 0 0.07738402469507652 0.071265199768388895 0 0.063723121482245432 0.076504430678811547 0 0.055445728409579217 0.059992510409491953 0 0.072576478286476342 0.060127604112893279 0 0.063723121482245432 0.076504430678811547 0 0.07738402469507652 0.071265199768388895 0 0.063723121482245432 0.076504430678811547 0 0.078027174684895007 0.081900969601629639 0 0.063723121482245432 0.076504430678811547 0 0.078027174684895007 0.081900969601629639 0 0.066359984114187448 0.096669648298007824 0 0.066359984114187448 0.096669648298007824 0 0.073084462795095326 0.1066895693673014 0 0.056210169208783377 0.1091758533090196 0 0.095408916884512487 0.089008620146451764 0 0.073084462795095326 0.1066895693673014 0 0.081226855773400886 0.1155956834667107 0 0.095408916884512487 0.089008620146451764 0 0.066359984114187448 0.096669648298007824 0 0.073084462795095326 0.1066895693673014 0 0.097212278542278208 0.10886251392042889 0 0.095408916884512487 0.089008620146451764 0 0.081226855773400886 0.1155956834667107 0 0.095408916884512487 0.089008620146451764 0 0.081226855773400886 0.1155956834667107 0 0.097212278542278208 0.10886251392042889 0 0.092874127428698744 0.1243916658413016 0 0.081226855773400886 0.1155956834667107 0 0.092874127428698744 0.1243916658413016 0 0.081226855773400886 0.1155956834667107 0 0.079959461045495464 0.13328720631413671 0 0.073084462795095326 0.1066895693673014 0 0.067192531123333551 0.1203097440484758 0 0.056210169208783377 0.1091758533090196 0 0.073084462795095326 0.1066895693673014 0 0.081226855773400886 0.1155956834667107 0 0.067192531123333551 0.1203097440484758 0 0.05073549382100611 0.11930700509781469 0 0.056210169208783377 0.1091758533090196 0 0.058396373177095957 0.12790486731237569 0 0.056210169208783377 0.1091758533090196 0 0.058396373177095957 0.12790486731237569 0 0.05073549382100611 0.11930700509781469 0 0.056210169208783377 0.1091758533090196 0 0.037311051343862027 0.1043306764495622 0 0.067192531123333551 0.1203097440484758 0 0.056210169208783377 0.1091758533090196 0 0.058396373177095957 0.12790486731237569 0 0.066359984114187448 0.096669648298007824 0 0.037311051343862027 0.1043306764495622 0 0.049366773087713617 0.08903265965926227 0 0.066359984114187448 0.096669648298007824 0 0.056210169208783377 0.1091758533090196 0 0.037311051343862027 0.1043306764495622 0 0.066359984114187448 0.096669648298007824 0 0.037311051343862027 0.1043306764495622 0 0.037311051343862027 0.1043306764495622 0 0.034443225565791893 0.0868313155384874 0 0.022038282640759119 0.093506308820960699 0 0.05073549382100611 0.11930700509781469 0 0.037311051343862027 0.1043306764495622 0 0.039332800690571532 0.1224886173184479 0 0.037311051343862027 0.1043306764495622 0 0.039332800690571532 0.1224886173184479 0 0.030061161568504802 0.119151615690954 0 0.039332800690571532 0.1224886173184479 0 0.030061161568504802 0.119151615690954 0 0.029835632689531561 0.12997724586586051 0 0.055445728409579217 0.059992510409491953 0 0.063723121482245432 0.076504430678811547 0 0.0453898909262902 0.076536681577971943 0 0.063723121482245432 0.076504430678811547 0 0.049366773087713617 0.08903265965926227 0 0.0453898909262902 0.076536681577971943 0 0.063723121482245432 0.076504430678811547 0 0.066359984114187448 0.096669648298007824 0 0.049366773087713617 0.08903265965926227 0 0.037311051343862027 0.1043306764495622 0 0.049366773087713617 0.08903265965926227 0 0.034443225565791893 0.0868313155384874 0 0.034443225565791893 0.0868313155384874 0 0.0453898909262902 0.076536681577971943 0 0.031887179727496877 0.076275168294997045 0 0.049366773087713617 0.08903265965926227 0 0.034443225565791893 0.0868313155384874 0 0.0453898909262902 0.076536681577971943 0 0.055445728409579217 0.059992510409491953 0 0.0453898909262902 0.076536681577971943 0 0.038673450834204003 0.063696848872527162 0 0.0453898909262902 0.076536681577971943 0 0.031887179727496877 0.076275168294997045 0 0.038673450834204003 0.063696848872527162 0 0.031887179727496877 0.076275168294997045 0 0.038673450834204003 0.063696848872527162 0 0.02512388460789057 0.067052219003521429 0 0.016144803280046489 0.057127302190561037 0 0.02512388460789057 0.067052219003521429 0 0.01256209664794416 0.073196257704605805 0 0.031887179727496877 0.076275168294997045 0 0.02512388460789057 0.067052219003521429 0 0.021835726924281391 0.080818229983982512 0 0.02512388460789057 0.067052219003521429 0 0.021835726924281391 0.080818229983982512 0 0.01256209664794416 0.073196257704605805 0 0.034443225565791893 0.0868313155384874 0 0.031887179727496877 0.076275168294997045 0 0.021835726924281391 0.080818229983982512 0 0.034443225565791893 0.0868313155384874 0 0.021835726924281391 0.080818229983982512 0 0.022038282640759119 0.093506308820960699 0 0.021835726924281391 0.080818229983982512 0 0.022038282640759119 0.093506308820960699 0 0.011696307588360849 0.085236260302801264 0 0.022038282640759119 0.093506308820960699 0 0.011696307588360849 0.085236260302801264 0 0.010268138603182261 0.095508763697089244 0 -0.001086642484074318 0.096392062202275391 0 0.001423187664777124 0.087398484176746255 0 0.010268138603182261 0.095508763697089244 0 0.001423187664777124 0.087398484176746255 0 0.011696307588360849 0.085236260302801264 0 0.010268138603182261 0.095508763697089244 0 0.001423187664777124 0.087398484176746255 0 0.011696307588360849 0.085236260302801264 0 0.003320864346216782 0.077053588128725717 0 0.011696307588360849 0.085236260302801264 0 0.01256209664794416 0.073196257704605805 0 0.003320864346216782 0.077053588128725717 0 0.021835726924281391 0.080818229983982512 0 0.011696307588360849 0.085236260302801264 0 0.01256209664794416 0.073196257704605805 0 0.016144803280046489 0.057127302190561037 0 0.01256209664794416 0.073196257704605805 0 0.0014976518685602461 0.063245080616464985 0 0.01256209664794416 0.073196257704605805 0 0.003320864346216782 0.077053588128725717 0 0.0014976518685602461 0.063245080616464985 0 0.037311051343862027 0.1043306764495622 0 0.02098735340028603 0.11592606268359509 0 0.008262118573536599 0.1119917046011166 0 0.037311051343862027 0.1043306764495622 0 0.02098735340028603 0.11592606268359509 0 0.030061161568504802 0.119151615690954 0 0.02098735340028603 0.11592606268359509 0 0.016425594631983589 0.1210434610602385 0 0.012545837220630881 0.1177942918168763 0 0.016425594631983589 0.1210434610602385 0 0.0215685167306125 0.123639356121649 0 0.01458147812049912 0.12673231293093951 0 0.02098735340028603 0.11592606268359509 0 0.016425594631983589 0.1210434610602385 0 0.0215685167306125 0.123639356121649 0 0.0215685167306125 0.123639356121649 0 0.030061161568504802 0.119151615690954 0 0.029835632689531561 0.12997724586586051 0 0.02098735340028603 0.11592606268359509 0 0.0215685167306125 0.123639356121649 0 0.030061161568504802 0.119151615690954 0 0.037311051343862027 0.1043306764495622 0 0.022038282640759119 0.093506308820960699 0 0.016961613186614089 0.1021693253099699 0 0.037311051343862027 0.1043306764495622 0 0.008262118573536599 0.1119917046011166 0 0.037311051343862027 0.1043306764495622 0 0.016961613186614089 0.1021693253099699 0 0.008262118573536599 0.1119917046011166 0 0.022038282640759119 0.093506308820960699 0 0.016961613186614089 0.1021693253099699 0 0.010268138603182261 0.095508763697089244 0 0.016961613186614089 0.1021693253099699 0 0.0069284747717304274 0.1055091729811206 0 0.008262118573536599 0.1119917046011166 0 -0.0077517695351226072 0.10912583896896309 0 0.0069284747717304274 0.1055091729811206 0 0.008262118573536599 0.1119917046011166 0 0.016961613186614089 0.1021693253099699 0 0.010268138603182261 0.095508763697089244 0 0.0069284747717304274 0.1055091729811206 0 -0.001086642484074318 0.096392062202275391 0 0.010268138603182261 0.095508763697089244 0 0.0069284747717304274 0.1055091729811206 0 0.02098735340028603 0.11592606268359509 0 0.008262118573536599 0.1119917046011166 0 0.012545837220630881 0.1177942918168763 0 0.008262118573536599 0.1119917046011166 0 0.012545837220630881 0.1177942918168763 0 0.0068102294021785319 0.1197541060424699 0 0.016425594631983589 0.1210434610602385 0 0.01057016768120727 0.122246924866092 0 0.01458147812049912 0.12673231293093951 0 0.016425594631983589 0.1210434610602385 0 0.012545837220630881 0.1177942918168763 0 0.01057016768120727 0.122246924866092 0 0.012545837220630881 0.1177942918168763 0 0.01057016768120727 0.122246924866092 0 0.0068102294021785319 0.1197541060424699 0 -0.001755213224400969 0.1224113826781562 0 0.0044282367599188808 0.1243262262501085 0 0.0068102294021785319 0.1197541060424699 0 0.01057016768120727 0.122246924866092 0 0.0044282367599188808 0.1243262262501085 0 0.0068102294021785319 0.1197541060424699 0 -0.001755213224400969 0.1224113826781562 0 0.008262118573536599 0.1119917046011166 0 0.0068102294021785319 0.1197541060424699 0 -0.001755213224400969 0.1224113826781562 0 0.0044282367599188808 0.1243262262501085 0 0.001514399076776056 0.1296979527704141 0 0.001514399076776056 0.1296979527704141 0 0.0063975840832642501 0.1363163069812805 0 0.0084305202943370863 0.12866179094666791 0 0.0044282367599188808 0.1243262262501085 0 0.001514399076776056 0.1296979527704141 0 0.0084305202943370863 0.12866179094666791 0 0.01057016768120727 0.122246924866092 0 0.0044282367599188808 0.1243262262501085 0 0.0084305202943370863 0.12866179094666791 0 -0.0016146699195483841 0.13719475231004019 0 0.0063975840832642501 0.1363163069812805 0 0.0028925413118478238 0.14505368737011831 0 -0.0016146699195483841 0.13719475231004019 0 0.001514399076776056 0.1296979527704141 0 0.0063975840832642501 0.1363163069812805 0 0.0063975840832642501 0.1363163069812805 0 0.01178499944291753 0.13845797774173349 0 0.0091108703709209607 0.14242124840360851 0 0.0063975840832642501 0.1363163069812805 0 0.012893593199771569 0.1334508291512102 0 0.01178499944291753 0.13845797774173349 0 0.012893593199771569 0.1334508291512102 0 0.01178499944291753 0.13845797774173349 0 0.01696370848406115 0.13792266620085289 0 0.01178499944291753 0.13845797774173349 0 0.01696370848406115 0.13792266620085289 0 0.013910499929924609 0.14286561265918471 0 0.01057016768120727 0.122246924866092 0 0.0084305202943370863 0.12866179094666791 0 0.01458147812049912 0.12673231293093951 0 0.0063975840832642501 0.1363163069812805 0 0.012893593199771569 0.1334508291512102 0 0.0084305202943370863 0.12866179094666791 0 0.012893593199771569 0.1334508291512102 0 0.0084305202943370863 0.12866179094666791 0 0.01458147812049912 0.12673231293093951 0 0.0215685167306125 0.123639356121649 0 0.01458147812049912 0.12673231293093951 0 0.0197264990869374 0.13158070123803431 0 0.012893593199771569 0.1334508291512102 0 0.01458147812049912 0.12673231293093951 0 0.0197264990869374 0.13158070123803431 0 0.012893593199771569 0.1334508291512102 0 0.0197264990869374 0.13158070123803431 0 0.01696370848406115 0.13792266620085289 0 0.01696370848406115 0.13792266620085289 0 0.024349684164093249 0.13796451549024899 0 0.01988098294194952 0.14330082689660381 0 0.0197264990869374 0.13158070123803431 0 0.01696370848406115 0.13792266620085289 0 0.024349684164093249 0.13796451549024899 0 0.024349684164093249 0.13796451549024899 0 0.029835632689531561 0.12997724586586051 0 0.032045911654956662 0.14097461153562851 0 0.0197264990869374 0.13158070123803431 0 0.024349684164093249 0.13796451549024899 0 0.029835632689531561 0.12997724586586051 0 0.0215685167306125 0.123639356121649 0 0.0197264990869374 0.13158070123803431 0 0.029835632689531561 0.12997724586586051 0 0.024525883287768811 0.15290619689188839 0 0.025444166683902859 0.14583601070425739 0 0.02070844189543632 0.14899666090025809 0 0.024525883287768811 0.15290619689188839 0 0.030647300405420418 0.15128523735033439 0 0.025444166683902859 0.14583601070425739 0 0.024525883287768811 0.15290619689188839 0 0.030647300405420418 0.15128523735033439 0 0.028823908269128871 0.15775620414509939 0 0.030647300405420418 0.15128523735033439 0 0.025444166683902859 0.14583601070425739 0 0.032045911654956662 0.14097461153562851 0 0.024349684164093249 0.13796451549024899 0 0.025444166683902859 0.14583601070425739 0 0.032045911654956662 0.14097461153562851 0 0.024349684164093249 0.13796451549024899 0 0.025444166683902859 0.14583601070425739 0 0.01988098294194952 0.14330082689660381 0 0.025444166683902859 0.14583601070425739 0 0.01988098294194952 0.14330082689660381 0 0.02070844189543632 0.14899666090025809 0 0.01696370848406115 0.13792266620085289 0 0.01988098294194952 0.14330082689660381 0 0.013910499929924609 0.14286561265918471 0 0.01988098294194952 0.14330082689660381 0 0.013910499929924609 0.14286561265918471 0 0.01509207722535484 0.14837261257371101 0 0.01988098294194952 0.14330082689660381 0 0.02070844189543632 0.14899666090025809 0 0.01509207722535484 0.14837261257371101 0 0.02070844189543632 0.14899666090025809 0 0.017818233614807041 0.15481680635576969 0 0.01509207722535484 0.14837261257371101 0 0.024525883287768811 0.15290619689188839 0 0.02070844189543632 0.14899666090025809 0 0.017818233614807041 0.15481680635576969 0 0.024525883287768811 0.15290619689188839 0 0.017818233614807041 0.15481680635576969 0 0.022496939048816129 0.15973502551021371 0 0.017818233614807041 0.15481680635576969 0 0.01150190315253885 0.15364585520869151 0 0.01233471246840317 0.15965105041380309 0 0.017818233614807041 0.15481680635576969 0 0.01150190315253885 0.15364585520869151 0 0.01509207722535484 0.14837261257371101 0 0.01150190315253885 0.15364585520869151 0 0.01509207722535484 0.14837261257371101 0 0.0097574338954461524 0.14768186420107829 0 0.01150190315253885 0.15364585520869151 0 0.0097574338954461524 0.14768186420107829 0 0.0057672513893855847 0.15217900095767961 0 0.01150190315253885 0.15364585520869151 0 0.0057672513893855847 0.15217900095767961 0 0.0076550187786762246 0.15696685112919501 0 0.013910499929924609 0.14286561265918471 0 0.01509207722535484 0.14837261257371101 0 0.0097574338954461524 0.14768186420107829 0 0.013910499929924609 0.14286561265918471 0 0.0097574338954461524 0.14768186420107829 0 0.0091108703709209607 0.14242124840360851 0 0.01178499944291753 0.13845797774173349 0 0.013910499929924609 0.14286561265918471 0 0.0091108703709209607 0.14242124840360851 0 0.0063975840832642501 0.1363163069812805 0 0.0091108703709209607 0.14242124840360851 0 0.0028925413118478238 0.14505368737011831 0 0.0097574338954461524 0.14768186420107829 0 0.0091108703709209607 0.14242124840360851 0 0.0028925413118478238 0.14505368737011831 0 0.0097574338954461524 0.14768186420107829 0 0.0028925413118478238 0.14505368737011831 0 0.0057672513893855847 0.15217900095767961 0 -0.0021862879748443379 0.15127762749284521 0 0.0028925413118478238 0.14505368737011831 0 0.0057672513893855847 0.15217900095767961 0 -0.0021862879748443379 0.15127762749284521 0 0.0057672513893855847 0.15217900095767961 0 0.0022271874395096 0.1573937168972985 0 0.0057672513893855847 0.15217900095767961 0 0.0022271874395096 0.1573937168972985 0 0.0076550187786762246 0.15696685112919501 0 0.0022271874395096 0.1573937168972985 0 0.0076550187786762246 0.15696685112919501 0 0.0064440394435439164 0.16196463216850221 0 -0.00070180903849404223 0.1620298962772429 0 0.0022271874395096 0.1573937168972985 0 0.0064440394435439164 0.16196463216850221 0 -0.00070180903849404223 0.1620298962772429 0 0.0064440394435439164 0.16196463216850221 0 0.0043844093426093182 0.16833476653285251 0 -0.0020264807575900269 0.16925100379745331 0 -0.00070180903849404223 0.1620298962772429 0 0.0043844093426093182 0.16833476653285251 0 -0.0020264807575900269 0.16925100379745331 0 0.0043844093426093182 0.16833476653285251 0 0.00430441400605025 0.17621802507742759 0 0.0043844093426093182 0.16833476653285251 0 0.0091704614084429422 0.16741772424374379 0 0.009203747405755176 0.17245803599704071 0 0.0064440394435439164 0.16196463216850221 0 0.0043844093426093182 0.16833476653285251 0 0.0091704614084429422 0.16741772424374379 0 0.0064440394435439164 0.16196463216850221 0 0.0091704614084429422 0.16741772424374379 0 0.010849997275016079 0.16356888954975951 0 0.0091704614084429422 0.16741772424374379 0 0.014573669128994691 0.17176303619860189 0 0.009203747405755176 0.17245803599704071 0 0.0091704614084429422 0.16741772424374379 0 0.014573669128994691 0.17176303619860189 0 0.015450775779674301 0.16524215137298881 0 0.0091704614084429422 0.16741772424374379 0 0.015450775779674301 0.16524215137298881 0 0.010849997275016079 0.16356888954975951 0 0.015450775779674301 0.16524215137298881 0 0.01233471246840317 0.15965105041380309 0 0.010849997275016079 0.16356888954975951 0 0.015450775779674301 0.16524215137298881 0 0.01233471246840317 0.15965105041380309 0 0.017560882471538999 0.16082222783124031 0 0.0076550187786762246 0.15696685112919501 0 0.0064440394435439164 0.16196463216850221 0 0.01233471246840317 0.15965105041380309 0 0.01150190315253885 0.15364585520869151 0 0.0076550187786762246 0.15696685112919501 0 0.01233471246840317 0.15965105041380309 0 0.0064440394435439164 0.16196463216850221 0 0.01233471246840317 0.15965105041380309 0 0.010849997275016079 0.16356888954975951 0 -0.000617891155602524 0.18583592233474339 0 0.0091726476251810483 0.1836087937180978 0 0.01089648941808311 0.1918434627874944 0 -0.000617891155602524 0.18583592233474339 0 0.00430441400605025 0.17621802507742759 0 0.0091726476251810483 0.1836087937180978 0 0.0043844093426093182 0.16833476653285251 0 0.00430441400605025 0.17621802507742759 0 0.009203747405755176 0.17245803599704071 0 -0.0033948347462645538 0.17676762032388441 0 -0.000617891155602524 0.18583592233474339 0 0.00430441400605025 0.17621802507742759 0 0.00430441400605025 0.17621802507742759 0 0.01358578314267868 0.17855662793257751 0 0.0091726476251810483 0.1836087937180978 0 0.00430441400605025 0.17621802507742759 0 0.009203747405755176 0.17245803599704071 0 0.01358578314267868 0.17855662793257751 0 0.014573669128994691 0.17176303619860189 0 0.01358578314267868 0.17855662793257751 0 0.018263305814720441 0.1758300031687339 0 0.014573669128994691 0.17176303619860189 0 0.009203747405755176 0.17245803599704071 0 0.01358578314267868 0.17855662793257751 0 0.01358578314267868 0.17855662793257751 0 0.0091726476251810483 0.1836087937180978 0 0.017694442714695731 0.18558993045824609 0 0.0091726476251810483 0.1836087937180978 0 0.017694442714695731 0.18558993045824609 0 0.01089648941808311 0.1918434627874944 0 0.017694442714695731 0.18558993045824609 0 0.020534238412145689 0.1815549633123949 0 0.027531931036925281 0.1850939977091576 0 0.017694442714695731 0.18558993045824609 0 0.027531931036925281 0.1850939977091576 0 0.023725842278767929 0.18794485024173849 0 0.020534238412145689 0.1815549633123949 0 0.02204740825594358 0.17713644781285751 0 0.027531931036925281 0.1850939977091576 0 0.01358578314267868 0.17855662793257751 0 0.017694442714695731 0.18558993045824609 0 0.020534238412145689 0.1815549633123949 0 0.020534238412145689 0.1815549633123949 0 0.02204740825594358 0.17713644781285751 0 0.018263305814720441 0.1758300031687339 0 0.01358578314267868 0.17855662793257751 0 0.020534238412145689 0.1815549633123949 0 0.018263305814720441 0.1758300031687339 0 0.018263305814720441 0.1758300031687339 0 0.017984059116542019 0.1719707361268509 0 0.020854676832018009 0.17399820762912091 0 0.014573669128994691 0.17176303619860189 0 0.018263305814720441 0.1758300031687339 0 0.017984059116542019 0.1719707361268509 0 0.02204740825594358 0.17713644781285751 0 0.018263305814720441 0.1758300031687339 0 0.020854676832018009 0.17399820762912091 0 0.02204740825594358 0.17713644781285751 0 0.020854676832018009 0.17399820762912091 0 0.033656648754376101 0.17183626113086159 0 0.027531931036925281 0.1850939977091576 0 0.02788291684150275 0.1893477059397303 0 0.023725842278767929 0.18794485024173849 0 0.020854676832018009 0.17399820762912091 0 0.02522399586113324 0.1649505013400516 0 0.040718626988713591 0.16031604447242639 0 0.020854676832018009 0.17399820762912091 0 0.040718626988713591 0.16031604447242639 0 0.019945094483104869 0.16389048748776369 0 0.022496939048816129 0.15973502551021371 0 0.017560882471538999 0.16082222783124031 0 0.019945094483104869 0.16389048748776369 0 0.022496939048816129 0.15973502551021371 0 0.02522399586113324 0.1649505013400516 0 0.017818233614807041 0.15481680635576969 0 0.01233471246840317 0.15965105041380309 0 0.017560882471538999 0.16082222783124031 0 0.017818233614807041 0.15481680635576969 0 0.022496939048816129 0.15973502551021371 0 0.017560882471538999 0.16082222783124031 0 0.015450775779674301 0.16524215137298881 0 0.019945094483104869 0.16389048748776369 0 0.017560882471538999 0.16082222783124031 0 0.015450775779674301 0.16524215137298881 0 0.019945094483104869 0.16389048748776369 0 0.018992879254361661 0.16870253138432381 0 0.020854676832018009 0.17399820762912091 0 0.018992879254361661 0.16870253138432381 0 0.02522399586113324 0.1649505013400516 0 0.014573669128994691 0.17176303619860189 0 0.017984059116542019 0.1719707361268509 0 0.018992879254361661 0.16870253138432381 0 0.014573669128994691 0.17176303619860189 0 0.015450775779674301 0.16524215137298881 0 0.018992879254361661 0.16870253138432381 0 0.017984059116542019 0.1719707361268509 0 0.020854676832018009 0.17399820762912091 0 0.018992879254361661 0.16870253138432381 0 0.019945094483104869 0.16389048748776369 0 0.018992879254361661 0.16870253138432381 0 0.02522399586113324 0.1649505013400516 0 0.022496939048816129 0.15973502551021371 0 0.02522399586113324 0.1649505013400516 0 0.028823908269128871 0.15775620414509939 0 0.024525883287768811 0.15290619689188839 0 0.022496939048816129 0.15973502551021371 0 0.028823908269128871 0.15775620414509939 0 0.020854676832018009 0.17399820762912091 0 0.033656648754376101 0.17183626113086159 0 0.040718626988713591 0.16031604447242639 0 0.030647300405420418 0.15128523735033439 0 0.028823908269128871 0.15775620414509939 0 0.040718626988713591 0.16031604447242639 0 0.02522399586113324 0.1649505013400516 0 0.028823908269128871 0.15775620414509939 0 0.040718626988713591 0.16031604447242639 0 0.033656648754376101 0.17183626113086159 0 0.040718626988713591 0.16031604447242639 0 0.043032669373384722 0.17236592938519571 0 0.040718626988713591 0.16031604447242639 0 0.043032669373384722 0.17236592938519571 0 0.052745631132924242 0.16898934162558399 0 0.02204740825594358 0.17713644781285751 0 0.033656648754376101 0.17183626113086159 0 0.044174740321551477 0.18505716244004139 0 0.027531931036925281 0.1850939977091576 0 0.044174740321551477 0.18505716244004139 0 0.03460923092936697 0.19011098295722481 0 0.043032669373384722 0.17236592938519571 0 0.044174740321551477 0.18505716244004139 0 0.052745631132924242 0.16898934162558399 0 0.02204740825594358 0.17713644781285751 0 0.027531931036925281 0.1850939977091576 0 0.044174740321551477 0.18505716244004139 0 0.02204740825594358 0.17713644781285751 0 0.044174740321551477 0.18505716244004139 0 0.033656648754376101 0.17183626113086159 0 0.043032669373384722 0.17236592938519571 0 0.044174740321551477 0.18505716244004139 0 0.044174740321551477 0.18505716244004139 0 0.052745631132924242 0.16898934162558399 0 0.044174740321551477 0.18505716244004139 0 0.055740668117340172 0.18017484572209741 0 0.06597871692555754 0.19286212852931861 0 0.055740668117340172 0.18017484572209741 0 0.06597871692555754 0.19286212852931861 0 0.063647619434929442 0.17289182467022299 0 0.044174740321551477 0.18505716244004139 0 0.055740668117340172 0.18017484572209741 0 0.052745631132924242 0.16898934162558399 0 0.055740668117340172 0.18017484572209741 0 0.052745631132924242 0.16898934162558399 0 0.063647619434929442 0.17289182467022299 0 0.040718626988713591 0.16031604447242639 0 0.052745631132924242 0.16898934162558399 0 0.061316521944299013 0.1529215208111277 0 0.052745631132924242 0.16898934162558399 0 0.061316521944299013 0.1529215208111277 0 0.061316521944299013 0.1529215208111277 0 0.063647619434929442 0.17289182467022299 0 0.052745631132924242 0.16898934162558399 0 0.061316521944299013 0.1529215208111277 0 0.063647619434929442 0.17289182467022299 0 0.040718626988713591 0.16031604447242639 0 0.050968117035017059 0.14689904002260681 0 0.060582577145409093 0.1466338813157318 0 0.040718626988713591 0.16031604447242639 0 0.060582577145409093 0.1466338813157318 0 0.040718626988713591 0.16031604447242639 0 0.061316521944299013 0.1529215208111277 0 0.060582577145409093 0.1466338813157318 0 0.061316521944299013 0.1529215208111277 0 0.060582577145409093 0.1466338813157318 0 0.050968117035017059 0.14689904002260681 0 0.052943974506085373 0.13803341878026859 0 0.045617567762428028 0.1452434590806167 0 0.050968117035017059 0.14689904002260681 0 0.060582577145409093 0.1466338813157318 0 0.052943974506085373 0.13803341878026859 0 0.060582577145409093 0.1466338813157318 0 0.058396373177095957 0.12790486731237569 0 0.060582577145409093 0.1466338813157318 0 0.058396373177095957 0.12790486731237569 0 0.052943974506085373 0.13803341878026859 0 0.058396373177095957 0.12790486731237569 0 0.052943974506085373 0.13803341878026859 0 0.042528862792271811 0.1341257696379593 0 0.060582577145409093 0.1466338813157318 0 0.058396373177095957 0.12790486731237569 0 0.06704479466229149 0.14218274678697079 0 0.05073549382100611 0.11930700509781469 0 0.058396373177095957 0.12790486731237569 0 0.042528862792271811 0.1341257696379593 0 0.052943974506085373 0.13803341878026859 0 0.042528862792271811 0.1341257696379593 0 0.045617567762428028 0.1452434590806167 0 0.05073549382100611 0.11930700509781469 0 0.039332800690571532 0.1224886173184479 0 0.042528862792271811 0.1341257696379593 0 0.039332800690571532 0.1224886173184479 0 0.029835632689531561 0.12997724586586051 0 0.042528862792271811 0.1341257696379593 0 0.029835632689531561 0.12997724586586051 0 0.042528862792271811 0.1341257696379593 0 0.032045911654956662 0.14097461153562851 0 0.030647300405420418 0.15128523735033439 0 0.032045911654956662 0.14097461153562851 0 0.038422181404157298 0.1484871747139575 0 0.042528862792271811 0.1341257696379593 0 0.032045911654956662 0.14097461153562851 0 0.038422181404157298 0.1484871747139575 0 0.030647300405420418 0.15128523735033439 0 0.040718626988713591 0.16031604447242639 0 0.038422181404157298 0.1484871747139575 0 0.040718626988713591 0.16031604447242639 0 0.050968117035017059 0.14689904002260681 0 0.045617567762428028 0.1452434590806167 0 0.040718626988713591 0.16031604447242639 0 0.038422181404157298 0.1484871747139575 0 0.045617567762428028 0.1452434590806167 0 0.042528862792271811 0.1341257696379593 0 0.038422181404157298 0.1484871747139575 0 0.045617567762428028 0.1452434590806167 0 0.022062085370766191 0.24948980786434841 0 0.01475444484588343 0.2220279858294584 0 0.038458767921905411 0.2372486564289448 0 0.022062085370766191 0.24948980786434841 0 0.0069152235249865081 0.24001655582746689 0 0.01475444484588343 0.2220279858294584 0 -0.0013581205314274699 0.25585075003031849 0 0.022062085370766191 0.24948980786434841 0 0.0069152235249865081 0.24001655582746689 0 -0.0070972438617433386 0.2318192067591931 0 0.0069152235249865081 0.24001655582746689 0 0.01475444484588343 0.2220279858294584 0 0.01475444484588343 0.2220279858294584 0 0.038458767921905411 0.2372486564289448 0 0.01475444484588343 0.2220279858294584 0 0.031101013158240629 0.21426358341649121 0 0.038458767921905411 0.2372486564289448 0 0.031101013158240629 0.21426358341649121 0 0.010474193330965579 0.2086963352052455 0 0.021388213061046431 0.19992492512884161 0 0.01475444484588343 0.2220279858294584 0 0.031101013158240629 0.21426358341649121 0 0.010474193330965579 0.2086963352052455 0 -0.0089498782301390065 0.20680731522997281 0 0.01475444484588343 0.2220279858294584 0 -0.001198125073508286 0.20096261394949769 0 -0.0089498782301390065 0.20680731522997281 0 0.010474193330965579 0.2086963352052455 0 -0.0089498782301390065 0.20680731522997281 0 0.01475444484588343 0.2220279858294584 0 0.010474193330965579 0.2086963352052455 0 -0.001198125073508286 0.20096261394949769 0 0.010474193330965579 0.2086963352052455 0 0.021388213061046431 0.19992492512884161 0 -0.001198125073508286 0.20096261394949769 0 0.021388213061046431 0.19992492512884161 0 -0.001198125073508286 0.20096261394949769 0 0.01089648941808311 0.1918434627874944 0 0.021388213061046431 0.19992492512884161 0 -0.001198125073508286 0.20096261394949769 0 0.01089648941808311 0.1918434627874944 0 -0.001198125073508286 0.20096261394949769 0 -0.000617891155602524 0.18583592233474339 0 0.01089648941808311 0.1918434627874944 0 0.01089648941808311 0.1918434627874944 0 0.021794078521947979 0.1917477668598199 0 0.021388213061046431 0.19992492512884161 0 0.017694442714695731 0.18558993045824609 0 0.01089648941808311 0.1918434627874944 0 0.021794078521947979 0.1917477668598199 0 0.021388213061046431 0.19992492512884161 0 0.02862525467261692 0.19404817166579311 0 0.037184734066848107 0.1981613041756318 0 0.017694442714695731 0.18558993045824609 0 0.021794078521947979 0.1917477668598199 0 0.023725842278767929 0.18794485024173849 0 0.021794078521947979 0.1917477668598199 0 0.021388213061046431 0.19992492512884161 0 0.02862525467261692 0.19404817166579311 0 0.02862525467261692 0.19404817166579311 0 0.02788291684150275 0.1893477059397303 0 0.03460923092936697 0.19011098295722481 0 0.027531931036925281 0.1850939977091576 0 0.02788291684150275 0.1893477059397303 0 0.03460923092936697 0.19011098295722481 0 0.021794078521947979 0.1917477668598199 0 0.02788291684150275 0.1893477059397303 0 0.023725842278767929 0.18794485024173849 0 0.021794078521947979 0.1917477668598199 0 0.02862525467261692 0.19404817166579311 0 0.02788291684150275 0.1893477059397303 0 0.021388213061046431 0.19992492512884161 0 0.043974551195601112 0.19888723630818581 0 0.021388213061046431 0.19992492512884161 0 0.037184734066848107 0.1981613041756318 0 0.043974551195601112 0.19888723630818581 0 0.044174740321551477 0.18505716244004139 0 0.03460923092936697 0.19011098295722481 0 0.037184734066848107 0.1981613041756318 0 0.02862525467261692 0.19404817166579311 0 0.03460923092936697 0.19011098295722481 0 0.037184734066848107 0.1981613041756318 0 0.044174740321551477 0.18505716244004139 0 0.037184734066848107 0.1981613041756318 0 0.043974551195601112 0.19888723630818581 0 0.044174740321551477 0.18505716244004139 0 0.037184734066848107 0.1981613041756318 0 0.044174740321551477 0.18505716244004139 0 0.06597871692555754 0.19286212852931861 0 0.043974551195601112 0.19888723630818581 0 0.066560889330155831 0.1978495474875327 0 0.043974551195601112 0.19888723630818581 0 0.066560889330155831 0.1978495474875327 0 0.06597871692555754 0.19286212852931861 0 0.044174740321551477 0.18505716244004139 0 0.043974551195601112 0.19888723630818581 0 0.06597871692555754 0.19286212852931861 0 0.043974551195601112 0.19888723630818581 0 0.051979137696263458 0.2156263135077553 0 0.066560889330155831 0.1978495474875327 0 0.031101013158240629 0.21426358341649121 0 0.021388213061046431 0.19992492512884161 0 0.043974551195601112 0.19888723630818581 0 0.031101013158240629 0.21426358341649121 0 0.043974551195601112 0.19888723630818581 0 0.051979137696263458 0.2156263135077553 0 0.031101013158240629 0.21426358341649121 0 0.051979137696263458 0.2156263135077553 0 0.038458767921905411 0.2372486564289448 0 0.051979137696263458 0.2156263135077553 0 0.058786390356923152 0.23496943861551711 0 0.069385872849641442 0.22205092881451721 0 0.051979137696263458 0.2156263135077553 0 0.058786390356923152 0.23496943861551711 0 0.038458767921905411 0.2372486564289448 0 0.038458767921905411 0.2372486564289448 0 0.062163090997927238 0.25246932702843122 0 0.058786390356923152 0.23496943861551711 0 0.038458767921905411 0.2372486564289448 0 0.062163090997927238 0.25246932702843122 0 0.038458767921905411 0.2372486564289448 0 0.040294956150503269 0.25223707839592702 0 0.062163090997927238 0.25246932702843122 0 0.022062085370766191 0.24948980786434841 0 0.038458767921905411 0.2372486564289448 0 0.040294956150503269 0.25223707839592702 0 0.092298605903505693 0.2416158844505919 0 0.082658622746558649 0.2397877941422116 0 0.1030595415881696 0.22716480263499461 0 0.091543946649292843 0.24997310198023659 0 0.092298605903505693 0.2416158844505919 0 0.082826472274950214 0.24647050934762871 0 0.091543946649292843 0.24997310198023659 0 0.082826472274950214 0.24647050934762871 0 0.085868016482932338 0.25269131097926117 0 0.092298605903505693 0.2416158844505919 0 0.082658622746558649 0.2397877941422116 0 0.082826472274950214 0.24647050934762871 0 0.082658622746558649 0.2397877941422116 0 0.082826472274950214 0.24647050934762871 0 0.077828192347162622 0.247122705985938 0 0.082658622746558649 0.2397877941422116 0 0.082826472274950214 0.24647050934762871 0 0.082826472274950214 0.24647050934762871 0 0.077828192347162622 0.247122705985938 0 0.080280856494467548 0.25090285684720348 0 0.082658622746558649 0.2397877941422116 0 0.077828192347162622 0.247122705985938 0 0.072210856369126331 0.24625231014150181 0 0.082658622746558649 0.2397877941422116 0 0.072210856369126331 0.24625231014150181 0 0.058786390356923152 0.23496943861551711 0 0.072210856369126331 0.24625231014150181 0 0.069385872849641442 0.22205092881451721 0 0.058786390356923152 0.23496943861551711 0 0.072210856369126331 0.24625231014150181 0 0.062163090997927238 0.25246932702843122 0 0.077828192347162622 0.247122705985938 0 0.072506791539930587 0.248787560300406 0 0.07607094232800328 0.25203594905764171 0 0.082658622746558649 0.2397877941422116 0 0.072210856369126331 0.24625231014150181 0 0.069385872849641442 0.22205092881451721 0 0.077828192347162622 0.247122705985938 0 0.072506791539930587 0.248787560300406 0 0.072210856369126331 0.24625231014150181 0 0.072506791539930587 0.248787560300406 0 0.072210856369126331 0.24625231014150181 0 0.072506791539930587 0.248787560300406 0 0.072210856369126331 0.24625231014150181 0 0.062163090997927238 0.25246932702843122 0 0.072210856369126331 0.24625231014150181 0 0.062163090997927238 0.25246932702843122 0 0.082658622746558649 0.2397877941422116 0 0.069385872849641442 0.22205092881451721 0 0.082139624894835103 0.21912455565418451 0 0.072210856369126331 0.24625231014150181 0 0.069385872849641442 0.22205092881451721 0 0.082658622746558649 0.2397877941422116 0 0.1030595415881696 0.22716480263499461 0 0.082658622746558649 0.2397877941422116 0 0.082139624894835103 0.21912455565418451 0 0.1030595415881696 0.22716480263499461 0 0.082658622746558649 0.2397877941422116 0 0.082139624894835103 0.21912455565418451 0 0.082139624894835103 0.21912455565418451 0 0.095585571169227557 0.20346021793194061 0 0.09714791115721369 0.21544213445291999 0 0.082139624894835103 0.21912455565418451 0 0.076696120787780805 0.20506728339069549 0 0.08158792074259083 0.1971591574645242 0 0.082139624894835103 0.21912455565418451 0 0.08158792074259083 0.1971591574645242 0 0.082139624894835103 0.21912455565418451 0 0.08158792074259083 0.1971591574645242 0 0.095585571169227557 0.20346021793194061 0 0.069385872849641442 0.22205092881451721 0 0.066560889330155831 0.1978495474875327 0 0.051979137696263458 0.2156263135077553 0 0.069385872849641442 0.22205092881451721 0 0.066560889330155831 0.1978495474875327 0 0.069385872849641442 0.22205092881451721 0 0.082139624894835103 0.21912455565418451 0 0.074290296389340357 0.21300337527978819 0 0.082139624894835103 0.21912455565418451 0 0.074290296389340357 0.21300337527978819 0 0.076696120787780805 0.20506728339069549 0 0.069385872849641442 0.22205092881451721 0 0.074290296389340357 0.21300337527978819 0 0.068919423373805702 0.2038155699000451 0 0.069385872849641442 0.22205092881451721 0 0.068919423373805702 0.2038155699000451 0 0.066560889330155831 0.1978495474875327 0 0.074290296389340357 0.21300337527978819 0 0.068919423373805702 0.2038155699000451 0 0.076696120787780805 0.20506728339069549 0 0.068919423373805702 0.2038155699000451 0 0.076696120787780805 0.20506728339069549 0 0.075810993686745876 0.19638169691334109 0 0.076696120787780805 0.20506728339069549 0 0.075810993686745876 0.19638169691334109 0 0.078392972137658321 0.19730594365138451 0 0.075810993686745876 0.19638169691334109 0 0.066560889330155831 0.1978495474875327 0 0.068919423373805702 0.2038155699000451 0 0.075810993686745876 0.19638169691334109 0 0.066560889330155831 0.1978495474875327 0 0.075810993686745876 0.19638169691334109 0 0.078392972137658321 0.19730594365138451 0 0.068919423373805702 0.2038155699000451 0 0.075810993686745876 0.19638169691334109 0 0.075810993686745876 0.19638169691334109 0 0.066560889330155831 0.1978495474875327 0 0.06597871692555754 0.19286212852931861 0 0.066560889330155831 0.1978495474875327 0 0.06597871692555754 0.19286212852931861 0 0.075810993686745876 0.19638169691334109 0 0.06597871692555754 0.19286212852931861 0 0.073834092740423615 0.19040044311737489 0 0.075810993686745876 0.19638169691334109 0 0.06597871692555754 0.19286212852931861 0 0.073834092740423615 0.19040044311737489 0 0.081416520305051893 0.19033506733374281 0 0.072130140044340055 0.18202287969309691 0 0.06597871692555754 0.19286212852931861 0 0.073834092740423615 0.19040044311737489 0 0.072130140044340055 0.18202287969309691 0 0.075810993686745876 0.19638169691334109 0 0.073834092740423615 0.19040044311737489 0 0.081416520305051893 0.19033506733374281 0 0.075810993686745876 0.19638169691334109 0 0.081416520305051893 0.19033506733374281 0 0.081416520305051893 0.19033506733374281 0 0.08158792074259083 0.1971591574645242 0 0.081416520305051893 0.19033506733374281 0 0.078392972137658321 0.19730594365138451 0 0.08158792074259083 0.1971591574645242 0 0.075810993686745876 0.19638169691334109 0 0.081416520305051893 0.19033506733374281 0 0.078392972137658321 0.19730594365138451 0 0.078392972137658321 0.19730594365138451 0 0.08158792074259083 0.1971591574645242 0 0.076696120787780805 0.20506728339069549 0 0.078392972137658321 0.19730594365138451 0 0.08158792074259083 0.1971591574645242 0 0.08158792074259083 0.1971591574645242 0 0.095585571169227557 0.20346021793194061 0 0.081416520305051893 0.19033506733374281 0 0.08158792074259083 0.1971591574645242 0 0.09623004371530515 0.18715311733008061 0 0.08158792074259083 0.1971591574645242 0 0.1077727975799239 0.19595614023337909 0 0.08158792074259083 0.1971591574645242 0 0.1077727975799239 0.19595614023337909 0 0.09623004371530515 0.18715311733008061 0 0.08158792074259083 0.1971591574645242 0 0.1077727975799239 0.19595614023337909 0 0.095585571169227557 0.20346021793194061 0 0.1077727975799239 0.19595614023337909 0 0.1082322389923193 0.20974968668547961 0 0.095585571169227557 0.20346021793194061 0 0.1077727975799239 0.19595614023337909 0 0.09623004371530515 0.18715311733008061 0 0.1105475807722241 0.18160118002685391 0 0.1077727975799239 0.19595614023337909 0 0.1105475807722241 0.18160118002685391 0 0.120986044528871 0.18601621363441179 0 0.1077727975799239 0.19595614023337909 0 0.1339576744172567 0.1947531230022336 0 0.1077727975799239 0.19595614023337909 0 0.120986044528871 0.18601621363441179 0 0.1339576744172567 0.1947531230022336 0 0.1077727975799239 0.19595614023337909 0 0.12150083337996349 0.2045424151535698 0 0.1339576744172567 0.1947531230022336 0 0.1077727975799239 0.19595614023337909 0 0.12150083337996349 0.2045424151535698 0 0.1082322389923193 0.20974968668547961 0 0.1234604604297793 0.2145418111277754 0 0.1082322389923193 0.20974968668547961 0 0.1030595415881696 0.22716480263499461 0 0.12150083337996349 0.2045424151535698 0 0.1234604604297793 0.2145418111277754 0 0.1082322389923193 0.20974968668547961 0 0.1082322389923193 0.20974968668547961 0 0.09714791115721369 0.21544213445291999 0 0.1030595415881696 0.22716480263499461 0 0.1082322389923193 0.20974968668547961 0 0.095585571169227557 0.20346021793194061 0 0.09714791115721369 0.21544213445291999 0 0.082139624894835103 0.21912455565418451 0 0.09714791115721369 0.21544213445291999 0 0.1030595415881696 0.22716480263499461 0 0.1234604604297793 0.2145418111277754 0 0.1030595415881696 0.22716480263499461 0 0.1199404235558679 0.23389585646776331 0 0.1234604604297793 0.2145418111277754 0 0.1030595415881696 0.22716480263499461 0 0.1199404235558679 0.23389585646776331 0 0.12695957089482901 0.24747230001415241 0 0.11700612055034661 0.25280059366604207 0 0.1199404235558679 0.23389585646776331 0 0.1057998516311974 0.26008039821654533 0 0.1199404235558679 0.23389585646776331 0 0.11700612055034661 0.25280059366604207 0 0.1057998516311974 0.26008039821654533 0 0.1030595415881696 0.22716480263499461 0 0.1199404235558679 0.23389585646776331 0 0.10140444625855841 0.24468321414788791 0 0.1199404235558679 0.23389585646776331 0 0.10140444625855841 0.24468321414788791 0 0.1057998516311974 0.26008039821654533 0 0.092298605903505693 0.2416158844505919 0 0.1030595415881696 0.22716480263499461 0 0.10140444625855841 0.24468321414788791 0 0.091543946649292843 0.24997310198023659 0 0.092298605903505693 0.2416158844505919 0 0.10140444625855841 0.24468321414788791 0 0.091543946649292843 0.24997310198023659 0 0.10140444625855841 0.24468321414788791 0 0.097171933684521816 0.25511804805167337 0 0.08963547268293702 0.15148332961178179 0 0.080123132603335923 0.13884048320524789 0 0.080769826454193519 0.16458777526949531 0 0.080123132603335923 0.13884048320524789 0 0.080769826454193519 0.16458777526949531 0 0.08963547268293702 0.15148332961178179 0 0.089860524370539124 0.1427399324318048 0 0.080123132603335923 0.13884048320524789 0 0.089860524370539124 0.1427399324318048 0 0.091167059396607353 0.13573593550393959 0 0.080123132603335923 0.13884048320524789 0 0.092874127428698744 0.1243916658413016 0 0.091167059396607353 0.13573593550393959 0 0.079959461045495464 0.13328720631413671 0 0.092874127428698744 0.1243916658413016 0 0.079959461045495464 0.13328720631413671 0 0.091167059396607353 0.13573593550393959 0 0.080123132603335923 0.13884048320524789 0 0.079959461045495464 0.13328720631413671 0 0.081226855773400886 0.1155956834667107 0 0.06704479466229149 0.14218274678697079 0 0.079959461045495464 0.13328720631413671 0 0.06704479466229149 0.14218274678697079 0 0.080123132603335923 0.13884048320524789 0 0.079959461045495464 0.13328720631413671 0 0.06704479466229149 0.14218274678697079 0 0.081226855773400886 0.1155956834667107 0 0.079959461045495464 0.13328720631413671 0 0.06704479466229149 0.14218274678697079 0 0.081226855773400886 0.1155956834667107 0 0.067192531123333551 0.1203097440484758 0 0.06704479466229149 0.14218274678697079 0 0.067192531123333551 0.1203097440484758 0 0.058396373177095957 0.12790486731237569 0 0.06704479466229149 0.14218274678697079 0 0.061316521944299013 0.1529215208111277 0 0.060582577145409093 0.1466338813157318 0 0.06704479466229149 0.14218274678697079 0 0.061316521944299013 0.1529215208111277 0 0.06704479466229149 0.14218274678697079 0 0.060582577145409093 0.1466338813157318 0 0.06704479466229149 0.14218274678697079 0 0.080123132603335923 0.13884048320524789 0 0.07169167292959 0.1539293704675723 0 0.080769826454193519 0.16458777526949531 0 0.080123132603335923 0.13884048320524789 0 0.06704479466229149 0.14218274678697079 0 0.07169167292959 0.1539293704675723 0 0.061316521944299013 0.1529215208111277 0 0.06704479466229149 0.14218274678697079 0 0.07169167292959 0.1539293704675723 0 0.07169167292959 0.1539293704675723 0 0.063647619434929442 0.17289182467022299 0 0.080769826454193519 0.16458777526949531 0 0.061316521944299013 0.1529215208111277 0 0.07169167292959 0.1539293704675723 0 0.063647619434929442 0.17289182467022299 0 0.081416520305051893 0.19033506733374281 0 0.072130140044340055 0.18202287969309691 0 0.080769826454193519 0.16458777526949531 0 0.063647619434929442 0.17289182467022299 0 0.072130140044340055 0.18202287969309691 0 0.080769826454193519 0.16458777526949531 0 0.06597871692555754 0.19286212852931861 0 0.063647619434929442 0.17289182467022299 0 0.072130140044340055 0.18202287969309691 0 0.06597871692555754 0.19286212852931861 0 0.063647619434929442 0.17289182467022299 0 0.081416520305051893 0.19033506733374281 0 0.1017471809217471 0.16840457226550931 0 0.09623004371530515 0.18715311733008061 0 0.081416520305051893 0.19033506733374281 0 0.080769826454193519 0.16458777526949531 0 0.081416520305051893 0.19033506733374281 0 0.080769826454193519 0.16458777526949531 0 0.1017471809217471 0.16840457226550931 0 0.081416520305051893 0.19033506733374281 0 0.1017471809217471 0.16840457226550931 0 0.08963547268293702 0.15148332961178179 0 0.080769826454193519 0.16458777526949531 0 0.1017471809217471 0.16840457226550931 0 0.1017471809217471 0.16840457226550931 0 0.09623004371530515 0.18715311733008061 0 0.1105475807722241 0.18160118002685391 0 0.1017471809217471 0.16840457226550931 0 0.1105475807722241 0.18160118002685391 0 0.1260018371152733 0.17047585667088891 0 0.1105475807722241 0.18160118002685391 0 0.120986044528871 0.18601621363441179 0 0.1260018371152733 0.17047585667088891 0 0.1017471809217471 0.16840457226550931 0 0.1220778415384416 0.1464740771972749 0 0.1260018371152733 0.17047585667088891 0 0.1017471809217471 0.16840457226550931 0 0.1220778415384416 0.1464740771972749 0 0.08963547268293702 0.15148332961178179 0 0.1017471809217471 0.16840457226550931 0 0.1025518898584848 0.14398509630836701 0 0.1017471809217471 0.16840457226550931 0 0.1220778415384416 0.1464740771972749 0 0.1025518898584848 0.14398509630836701 0 0.089860524370539124 0.1427399324318048 0 0.091167059396607353 0.13573593550393959 0 0.1025518898584848 0.14398509630836701 0 0.08963547268293702 0.15148332961178179 0 0.089860524370539124 0.1427399324318048 0 0.1025518898584848 0.14398509630836701 0 0.1025518898584848 0.14398509630836701 0 0.10123277553907251 0.13030272508469959 0 0.1155281386006284 0.12780565999363219 0 0.092874127428698744 0.1243916658413016 0 0.091167059396607353 0.13573593550393959 0 0.10123277553907251 0.13030272508469959 0 0.091167059396607353 0.13573593550393959 0 0.1025518898584848 0.14398509630836701 0 0.10123277553907251 0.13030272508469959 0 0.10474825365104801 0.118871671338058 0 0.10123277553907251 0.13030272508469959 0 0.1155281386006284 0.12780565999363219 0 0.1220778415384416 0.1464740771972749 0 0.1025518898584848 0.14398509630836701 0 0.1155281386006284 0.12780565999363219 0 0.14521027461101521 0.151337732623779 0 0.1661070325660941 0.14078231180355719 0 0.14664782704348681 0.1187352828605238 0 0.1220778415384416 0.1464740771972749 0 0.14521027461101521 0.151337732623779 0 0.14664782704348681 0.1187352828605238 0 0.1220778415384416 0.1464740771972749 0 0.1155281386006284 0.12780565999363219 0 0.14664782704348681 0.1187352828605238 0 0.1220778415384416 0.1464740771972749 0 0.14521027461101521 0.151337732623779 0 0.1260018371152733 0.17047585667088891 0 0.14521027461101521 0.151337732623779 0 0.1260018371152733 0.17047585667088891 0 0.15061865453786899 0.1729179153565196 0 0.1260018371152733 0.17047585667088891 0 0.13534403773305559 0.1823193438380469 0 0.15061865453786899 0.1729179153565196 0 0.120986044528871 0.18601621363441179 0 0.1260018371152733 0.17047585667088891 0 0.13534403773305559 0.1823193438380469 0 0.14515597806600811 0.1874336105261806 0 0.15061865453786899 0.1729179153565196 0 0.16204504681008089 0.18870236575137159 0 0.13534403773305559 0.1823193438380469 0 0.14515597806600811 0.1874336105261806 0 0.15061865453786899 0.1729179153565196 0 0.14521027461101521 0.151337732623779 0 0.15061865453786899 0.1729179153565196 0 0.16395392184436899 0.16048462241307171 0 0.15061865453786899 0.1729179153565196 0 0.16395392184436899 0.16048462241307171 0 0.1722674094181656 0.17455581153491201 0 0.15061865453786899 0.1729179153565196 0 0.1722674094181656 0.17455581153491201 0 0.17259225927221081 0.19094818343649231 0 0.15061865453786899 0.1729179153565196 0 0.16204504681008089 0.18870236575137159 0 0.17259225927221081 0.19094818343649231 0 0.15061865453786899 0.1729179153565196 0 0.17259225927221081 0.19094818343649231 0 0.1722674094181656 0.17455581153491201 0 0.18060778878421629 0.1846173187868661 0 0.17259225927221081 0.19094818343649231 0 0.1722674094181656 0.17455581153491201 0 0.18562052641514501 0.17696147215046901 0 0.18060778878421629 0.1846173187868661 0 0.18562052641514501 0.17696147215046901 0 0.18060778878421629 0.1846173187868661 0 0.18906167100345331 0.18662938262274939 0 0.16395392184436899 0.16048462241307171 0 0.1722674094181656 0.17455581153491201 0 0.1855662380887014 0.16282934074659061 0 0.1722674094181656 0.17455581153491201 0 0.18562052641514501 0.17696147215046901 0 0.1855662380887014 0.16282934074659061 0 0.1855662380887014 0.16282934074659061 0 0.1661070325660941 0.14078231180355719 0 0.16395392184436899 0.16048462241307171 0 0.1855662380887014 0.16282934074659061 0 0.1661070325660941 0.14078231180355719 0 0.1661070325660941 0.14078231180355719 0 0.14664782704348681 0.1187352828605238 0 0.1798032166279758 0.1186054906750668 0 0.1855662380887014 0.16282934074659061 0 0.1661070325660941 0.14078231180355719 0 0.18956359960750219 0.143555508526789 0 0.1661070325660941 0.14078231180355719 0 0.18956359960750219 0.143555508526789 0 0.1798032166279758 0.1186054906750668 0 0.1661070325660941 0.14078231180355719 0 0.14664782704348681 0.1187352828605238 0 0.14521027461101521 0.151337732623779 0 0.16395392184436899 0.16048462241307171 0 0.1661070325660941 0.14078231180355719 0 0.14866603178531401 0.24164403189080999 0 0.13509442225443219 0.2393925532886215 0 0.13953008625823379 0.22557290513474559 0 0.14866603178531401 0.24164403189080999 0 0.13509442225443219 0.2393925532886215 0 0.13457760263714399 0.25216438853103162 0 0.12695957089482901 0.24747230001415241 0 0.13509442225443219 0.2393925532886215 0 0.13457760263714399 0.25216438853103162 0 0.1199404235558679 0.23389585646776331 0 0.12695957089482901 0.24747230001415241 0 0.13509442225443219 0.2393925532886215 0 0.1199404235558679 0.23389585646776331 0 0.13953008625823379 0.22557290513474559 0 0.13408099548053831 0.2077113147189813 0 0.1199404235558679 0.23389585646776331 0 0.13509442225443219 0.2393925532886215 0 0.13953008625823379 0.22557290513474559 0 0.1199404235558679 0.23389585646776331 0 0.13408099548053831 0.2077113147189813 0 0.14866603178531401 0.24164403189080999 0 0.13953008625823379 0.22557290513474559 0 0.15535553929769749 0.21517319882109079 0 0.14866603178531401 0.24164403189080999 0 0.15535553929769749 0.21517319882109079 0 0.16233630100095151 0.2310180010542876 0 0.14866603178531401 0.24164403189080999 0 0.15535553929769749 0.21517319882109079 0 0.13953008625823379 0.22557290513474559 0 0.15535553929769749 0.21517319882109079 0 0.14337373196278419 0.2145413418462308 0 0.14337373196278419 0.2145413418462308 0 0.13408099548053831 0.2077113147189813 0 0.1456570266952637 0.20136728779579699 0 0.15535553929769749 0.21517319882109079 0 0.14337373196278419 0.2145413418462308 0 0.1456570266952637 0.20136728779579699 0 0.1234604604297793 0.2145418111277754 0 0.1199404235558679 0.23389585646776331 0 0.13408099548053831 0.2077113147189813 0 0.13953008625823379 0.22557290513474559 0 0.14337373196278419 0.2145413418462308 0 0.13408099548053831 0.2077113147189813 0 0.12150083337996349 0.2045424151535698 0 0.1234604604297793 0.2145418111277754 0 0.13408099548053831 0.2077113147189813 0 0.13408099548053831 0.2077113147189813 0 0.1339576744172567 0.1947531230022336 0 0.1456570266952637 0.20136728779579699 0 0.12150083337996349 0.2045424151535698 0 0.13408099548053831 0.2077113147189813 0 0.1339576744172567 0.1947531230022336 0 0.120986044528871 0.18601621363441179 0 0.13534403773305559 0.1823193438380469 0 0.1339576744172567 0.1947531230022336 0 0.13534403773305559 0.1823193438380469 0 0.14515597806600811 0.1874336105261806 0 0.1339576744172567 0.1947531230022336 0 0.14515597806600811 0.1874336105261806 0 0.1339576744172567 0.1947531230022336 0 0.1456570266952637 0.20136728779579699 0 0.15535553929769749 0.21517319882109079 0 0.1456570266952637 0.20136728779579699 0 0.16204504681008089 0.18870236575137159 0 0.14515597806600811 0.1874336105261806 0 0.1456570266952637 0.20136728779579699 0 0.16204504681008089 0.18870236575137159 0 0.15535553929769749 0.21517319882109079 0 0.16204504681008089 0.18870236575137159 0 0.16204504681008089 0.18870236575137159 0 0.17259225927221081 0.19094818343649231 0 0.168194367447317 0.20909388772724299 0 0.17259225927221081 0.19094818343649231 0 0.19456586400655301 0.20897845151646449 0 0.17259225927221081 0.19094818343649231 0 0.17831402759608081 0.20782362223470591 0 0.19456586400655301 0.20897845151646449 0 0.17259225927221081 0.19094818343649231 0 0.18591600872025621 0.193152370432459 0 0.19456586400655301 0.20897845151646449 0 0.17259225927221081 0.19094818343649231 0 0.17831402759608081 0.20782362223470591 0 0.168194367447317 0.20909388772724299 0 0.18060778878421629 0.1846173187868661 0 0.17259225927221081 0.19094818343649231 0 0.18591600872025621 0.193152370432459 0 0.18060778878421629 0.1846173187868661 0 0.18591600872025621 0.193152370432459 0 0.18906167100345331 0.18662938262274939 0 0.17831402759608081 0.20782362223470591 0 0.17852303070688069 0.2208979550655101 0 0.19456586400655301 0.20897845151646449 0 0.17831402759608081 0.20782362223470591 0 0.168194367447317 0.20909388772724299 0 0.17852303070688069 0.2208979550655101 0 0.15535553929769749 0.21517319882109079 0 0.16204504681008089 0.18870236575137159 0 0.168194367447317 0.20909388772724299 0 0.15535553929769749 0.21517319882109079 0 0.168194367447317 0.20909388772724299 0 0.16233630100095151 0.2310180010542876 0 0.168194367447317 0.20909388772724299 0 0.16233630100095151 0.2310180010542876 0 0.17852303070688069 0.2208979550655101 0 0.17852303070688069 0.2208979550655101 0 0.17622132364886739 0.23348535781537499 0 0.1893346898766165 0.23735265190416821 0 0.16233630100095151 0.2310180010542876 0 0.17852303070688069 0.2208979550655101 0 0.17622132364886739 0.23348535781537499 0 0.17852303070688069 0.2208979550655101 0 0.1893346898766165 0.23735265190416821 0 0.19456586400655301 0.20897845151646449 0 0.17352967210218409 0.2442277412166384 0 0.1893346898766165 0.23735265190416821 0 0.18701858308565131 0.2417861968994808 0 0.17352967210218409 0.2442277412166384 0 0.1893346898766165 0.23735265190416821 0 0.17622132364886739 0.23348535781537499 0 0.17352967210218409 0.2442277412166384 0 0.1893346898766165 0.23735265190416821 0 0.18701858308565131 0.2417861968994808 0 0.1804468726277432 0.24761129681614499 0 0.17352967210218409 0.2442277412166384 0 0.187719809250948 0.24611186070449331 0 0.18685789544736289 0.25078693256644929 0 0.1804468726277432 0.24761129681614499 0 0.187719809250948 0.24611186070449331 0 0.18685789544736289 0.25078693256644929 0 0.18701858308565131 0.2417861968994808 0 0.1804468726277432 0.24761129681614499 0 0.187719809250948 0.24611186070449331 0 0.18701858308565131 0.2417861968994808 0 0.187719809250948 0.24611186070449331 0 0.1804468726277432 0.24761129681614499 0 0.17352967210218409 0.2442277412166384 0 0.16955028484120149 0.25400044680028072 0 0.17352967210218409 0.2442277412166384 0 0.15772465432775251 0.25110283052911042 0 0.17352967210218409 0.2442277412166384 0 0.15772465432775251 0.25110283052911042 0 0.16955028484120149 0.25400044680028072 0 0.17352967210218409 0.2442277412166384 0 0.1632227123549452 0.2413752297272686 0 0.15772465432775251 0.25110283052911042 0 0.16233630100095151 0.2310180010542876 0 0.17622132364886739 0.23348535781537499 0 0.1632227123549452 0.2413752297272686 0 0.17622132364886739 0.23348535781537499 0 0.17352967210218409 0.2442277412166384 0 0.1632227123549452 0.2413752297272686 0 0.14866603178531401 0.24164403189080999 0 0.16233630100095151 0.2310180010542876 0 0.1632227123549452 0.2413752297272686 0 0.14866603178531401 0.24164403189080999 0 0.1632227123549452 0.2413752297272686 0 0.15772465432775251 0.25110283052911042 0 0.20491155840100941 0.23057680616692949 0 0.20429698142111721 0.2501470961135025 0 0.21549033157304329 0.24085076469811209 0 0.20491155840100941 0.23057680616692949 0 0.20429698142111721 0.2501470961135025 0 0.21549033157304329 0.24085076469811209 0 0.20429698142111721 0.2501470961135025 0 0.21904009887537171 0.25628199394506529 0 0.1962229660311596 0.24341386898229489 0 0.19721509596201389 0.25467587743472492 0 0.20429698142111721 0.2501470961135025 0 0.1962229660311596 0.24341386898229489 0 0.20491155840100941 0.23057680616692949 0 0.20429698142111721 0.2501470961135025 0 0.1962229660311596 0.24341386898229489 0 0.187719809250948 0.24611186070449331 0 0.19721509596201389 0.25467587743472492 0 0.1962229660311596 0.24341386898229489 0 0.187719809250948 0.24611186070449331 0 0.1893346898766165 0.23735265190416821 0 0.18701858308565131 0.2417861968994808 0 0.187719809250948 0.24611186070449331 0 0.1893346898766165 0.23735265190416821 0 0.187719809250948 0.24611186070449331 0 0.1893346898766165 0.23735265190416821 0 0.1962229660311596 0.24341386898229489 0 0.1893346898766165 0.23735265190416821 0 0.20491155840100941 0.23057680616692949 0 0.1893346898766165 0.23735265190416821 0 0.20491155840100941 0.23057680616692949 0 0.20531289487692081 0.21779684294559851 0 0.1893346898766165 0.23735265190416821 0 0.19456586400655301 0.20897845151646449 0 0.1893346898766165 0.23735265190416821 0 0.20531289487692081 0.21779684294559851 0 0.19456586400655301 0.20897845151646449 0 0.1893346898766165 0.23735265190416821 0 0.20491155840100941 0.23057680616692949 0 0.20491155840100941 0.23057680616692949 0 0.2153527361767896 0.2260349555495865 0 0.20531289487692081 0.21779684294559851 0 0.20491155840100941 0.23057680616692949 0 0.20531289487692081 0.21779684294559851 0 0.2153527361767896 0.2260349555495865 0 0.20531289487692081 0.21779684294559851 0 0.20491155840100941 0.23057680616692949 0 0.2153527361767896 0.2260349555495865 0 0.21549033157304329 0.24085076469811209 0 0.20491155840100941 0.23057680616692949 0 0.2153527361767896 0.2260349555495865 0 0.2153527361767896 0.2260349555495865 0 0.20531289487692081 0.21779684294559851 0 0.2194833912603307 0.2128155721655712 0 0.2149046177477649 0.20404989924004049 0 0.20531289487692081 0.21779684294559851 0 0.20608369677067839 0.1932518029493952 0 0.20531289487692081 0.21779684294559851 0 0.20608369677067839 0.1932518029493952 0 0.2149046177477649 0.20404989924004049 0 0.20531289487692081 0.21779684294559851 0 0.2194833912603307 0.2128155721655712 0 0.20531289487692081 0.21779684294559851 0 0.19456586400655301 0.20897845151646449 0 0.20608369677067839 0.1932518029493952 0 0.20531289487692081 0.21779684294559851 0 0.19456586400655301 0.20897845151646449 0 0.19456586400655301 0.20897845151646449 0 0.1918090975125184 0.19379555526253181 0 0.19792206873969201 0.19077419693138359 0 0.19456586400655301 0.20897845151646449 0 0.19792206873969201 0.19077419693138359 0 0.18591600872025621 0.193152370432459 0 0.19456586400655301 0.20897845151646449 0 0.1918090975125184 0.19379555526253181 0 0.19456586400655301 0.20897845151646449 0 0.19792206873969201 0.19077419693138359 0 0.20608369677067839 0.1932518029493952 0 0.1918090975125184 0.19379555526253181 0 0.19792206873969201 0.19077419693138359 0 0.18906167100345331 0.18662938262274939 0 0.18591600872025621 0.193152370432459 0 0.1918090975125184 0.19379555526253181 0 0.18906167100345331 0.18662938262274939 0 0.2149046177477649 0.20404989924004049 0 0.20608369677067839 0.1932518029493952 0 0.21931858683045949 0.1926679520444263 0 0.20608369677067839 0.1932518029493952 0 0.21931858683045949 0.1926679520444263 0 0.21478638293833879 0.1817485154615508 0 0.21931858683045949 0.1926679520444263 0 0.23507586157148941 0.19761143868751971 0 0.22628492123743479 0.18130945986695651 0 0.21931858683045949 0.1926679520444263 0 0.23507586157148941 0.19761143868751971 0 0.2243245190004349 0.2037173260952117 0 0.2149046177477649 0.20404989924004049 0 0.21931858683045949 0.1926679520444263 0 0.2243245190004349 0.2037173260952117 0 0.2475941291823989 0.18769603697772511 0 0.23507586157148941 0.19761143868751971 0 0.22628492123743479 0.18130945986695651 0 0.2475941291823989 0.18769603697772511 0 0.23507586157148941 0.19761143868751971 0 0.25326763791429752 0.20481875588833531 0 0.23507586157148941 0.19761143868751971 0 0.23966537526391099 0.21545910125246351 0 0.25326763791429752 0.20481875588833531 0 0.23507586157148941 0.19761143868751971 0 0.23966537526391099 0.21545910125246351 0 0.2243245190004349 0.2037173260952117 0 0.23966537526391099 0.21545910125246351 0 0.2243245190004349 0.2037173260952117 0 0.2194833912603307 0.2128155721655712 0 0.2153527361767896 0.2260349555495865 0 0.23966537526391099 0.21545910125246351 0 0.2194833912603307 0.2128155721655712 0 0.2149046177477649 0.20404989924004049 0 0.2243245190004349 0.2037173260952117 0 0.2194833912603307 0.2128155721655712 0 0.2153527361767896 0.2260349555495865 0 0.23966537526391099 0.21545910125246351 0 0.2153527361767896 0.2260349555495865 0 0.23966537526391099 0.21545910125246351 0 0.23385028299092811 0.24121297171547751 0 0.2153527361767896 0.2260349555495865 0 0.23385028299092811 0.24121297171547751 0 0.23966537526391099 0.21545910125246351 0 0.23385028299092811 0.24121297171547751 0 0.25384997619844579 0.23452952838135141 0 0.23385028299092811 0.24121297171547751 0 0.25191630733126869 0.24920661226757701 0 0.25384997619844579 0.23452952838135141 0 0.21549033157304329 0.24085076469811209 0 0.23385028299092811 0.24121297171547751 0 0.21904009887537171 0.25628199394506529 0 0.21549033157304329 0.24085076469811209 0 0.2153527361767896 0.2260349555495865 0 0.23385028299092811 0.24121297171547751 0 0.21298583189558429 0.15153276404608659 0 0.20450911964989471 0.13160516091811969 0 0.22432154431681389 0.13454889904547099 0 0.20450911964989471 0.13160516091811969 0 0.22432154431681389 0.13454889904547099 0 0.2063052671444463 0.111586019176762 0 0.20450911964989471 0.13160516091811969 0 0.18956359960750219 0.143555508526789 0 0.1798032166279758 0.1186054906750668 0 0.21298583189558429 0.15153276404608659 0 0.18956359960750219 0.143555508526789 0 0.20030693048026371 0.1623316716944872 0 0.21298583189558429 0.15153276404608659 0 0.20450911964989471 0.13160516091811969 0 0.18956359960750219 0.143555508526789 0 0.1855662380887014 0.16282934074659061 0 0.18956359960750219 0.143555508526789 0 0.20030693048026371 0.1623316716944872 0 0.1855662380887014 0.16282934074659061 0 0.1932951939519815 0.17094962444640241 0 0.20030693048026371 0.1623316716944872 0 0.18562052641514501 0.17696147215046901 0 0.1855662380887014 0.16282934074659061 0 0.1932951939519815 0.17094962444640241 0 0.20030693048026371 0.1623316716944872 0 0.20127827347283081 0.17256994234630249 0 0.20685449866443631 0.1687067629531919 0 0.1932951939519815 0.17094962444640241 0 0.20030693048026371 0.1623316716944872 0 0.20127827347283081 0.17256994234630249 0 0.19792206873969201 0.19077419693138359 0 0.19370400130296681 0.18005569529416271 0 0.20127827347283081 0.17256994234630249 0 0.19792206873969201 0.19077419693138359 0 0.20608369677067839 0.1932518029493952 0 0.20127827347283081 0.17256994234630249 0 0.19792206873969201 0.19077419693138359 0 0.20127827347283081 0.17256994234630249 0 0.19792206873969201 0.19077419693138359 0 0.19370400130296681 0.18005569529416271 0 0.18906167100345331 0.18662938262274939 0 0.18562052641514501 0.17696147215046901 0 0.19370400130296681 0.18005569529416271 0 0.18906167100345331 0.18662938262274939 0 0.18562052641514501 0.17696147215046901 0 0.1932951939519815 0.17094962444640241 0 0.19370400130296681 0.18005569529416271 0 0.1932951939519815 0.17094962444640241 0 0.19370400130296681 0.18005569529416271 0 0.20127827347283081 0.17256994234630249 0 0.20608369677067839 0.1932518029493952 0 0.20685449866443631 0.1687067629531919 0 0.20608369677067839 0.1932518029493952 0 0.21478638293833879 0.1817485154615508 0 0.20685449866443631 0.1687067629531919 0 0.20608369677067839 0.1932518029493952 0 0.20127827347283081 0.17256994234630249 0 0.20685449866443631 0.1687067629531919 0 0.21660550896694419 0.17250843538665739 0 0.21478638293833879 0.1817485154615508 0 0.20685449866443631 0.1687067629531919 0 0.21298583189558429 0.15153276404608659 0 0.20030693048026371 0.1623316716944872 0 0.21203438001877581 0.16414618218578381 0 0.20030693048026371 0.1623316716944872 0 0.20685449866443631 0.1687067629531919 0 0.21203438001877581 0.16414618218578381 0 0.21660550896694419 0.17250843538665739 0 0.21203438001877581 0.16414618218578381 0 0.22341913008665051 0.1656512768484959 0 0.21660550896694419 0.17250843538665739 0 0.20685449866443631 0.1687067629531919 0 0.21203438001877581 0.16414618218578381 0 0.21298583189558429 0.15153276404608659 0 0.21203438001877581 0.16414618218578381 0 0.22341913008665051 0.1656512768484959 0 0.21298583189558429 0.15153276404608659 0 0.22341913008665051 0.1656512768484959 0 0.23112177849973581 0.15343721315908401 0 0.22341913008665051 0.1656512768484959 0 0.2398937274470776 0.1701272920004806 0 0.23112177849973581 0.15343721315908401 0 0.21660550896694419 0.17250843538665739 0 0.22341913008665051 0.1656512768484959 0 0.22628492123743479 0.18130945986695651 0 0.22341913008665051 0.1656512768484959 0 0.22628492123743479 0.18130945986695651 0 0.2398937274470776 0.1701272920004806 0 0.21931858683045949 0.1926679520444263 0 0.21478638293833879 0.1817485154615508 0 0.22628492123743479 0.18130945986695651 0 0.21660550896694419 0.17250843538665739 0 0.21478638293833879 0.1817485154615508 0 0.22628492123743479 0.18130945986695651 0 0.2475941291823989 0.18769603697772511 0 0.22628492123743479 0.18130945986695651 0 0.2398937274470776 0.1701272920004806 0 0.2398937274470776 0.1701272920004806 0 0.23112177849973581 0.15343721315908401 0 0.25299790414357343 0.16100449818938201 0 0.22432154431681389 0.13454889904547099 0 0.2388396102423237 0.1172756265968197 0 0.25663613896196991 0.14035755598763441 0 0.23112177849973581 0.15343721315908401 0 0.25663613896196991 0.14035755598763441 0 0.25299790414357343 0.16100449818938201 0 0.23112177849973581 0.15343721315908401 0 0.22432154431681389 0.13454889904547099 0 0.25663613896196991 0.14035755598763441 0 0.21298583189558429 0.15153276404608659 0 0.23112177849973581 0.15343721315908401 0 0.22432154431681389 0.13454889904547099 0 0.2388396102423237 0.1172756265968197 0 0.25663613896196991 0.14035755598763441 0 0.2388396102423237 0.1172756265968197 0 0.22104308152267779 0.094193697206005289 0 0.2063052671444463 0.111586019176762 0 0.22432154431681389 0.13454889904547099 0 0.2388396102423237 0.1172756265968197 0 0.2063052671444463 0.111586019176762 0 0.2388396102423237 0.1172756265968197 0 0.22104308152267779 0.094193697206005289 0 0.25384944954462069 0.095449856149134135 0 0.2388396102423237 0.1172756265968197 0 0.25384944954462069 0.095449856149134135 0 0.25620984555605009 0.1131725934863051 0 0.2388396102423237 0.1172756265968197 0 0.22104308152267779 0.094193697206005289 0 0.22104308152267779 0.094193697206005289 0 0.2063052671444463 0.111586019176762 0 0.18730886553821691 0.08781597585429643 0 0.2063052671444463 0.111586019176762 0 0.1798032166279758 0.1186054906750668 0 0.18730886553821691 0.08781597585429643 0 0.20450911964989471 0.13160516091811969 0 0.2063052671444463 0.111586019176762 0 0.1798032166279758 0.1186054906750668 0 0.22104308152267779 0.094193697206005289 0 0.20324655280303169 0.071111767815190782 0 0.18730886553821691 0.08781597585429643 0 0.22104308152267779 0.094193697206005289 0 0.20324655280303169 0.071111767815190782 0 0.22195925580639439 0.062532309102022066 0 0.20324655280303169 0.071111767815190782 0 0.17361370821216091 0.061721877539844178 0 0.18730886553821691 0.08781597585429643 0 0.22104308152267779 0.094193697206005289 0 0.20324655280303169 0.071111767815190782 0 0.22104308152267779 0.094193697206005289 0 0.22195925580639439 0.062532309102022066 0 0.23940360910079561 0.072187684139423405 0 0.22104308152267779 0.094193697206005289 0 0.23940360910079561 0.072187684139423405 0 0.25384944954462069 0.095449856149134135 0 0.23940360910079561 0.072187684139423405 0 0.24773452015769859 0.046187867395794058 0 0.25865679783116052 0.070915849861062308 0 0.24773452015769859 0.046187867395794058 0 0.23445404022264399 0.027078552110983731 0 0.21646291908757839 0.042202639179017128 0 0.22195925580639439 0.062532309102022066 0 0.23940360910079561 0.072187684139423405 0 0.24773452015769859 0.046187867395794058 0 0.22195925580639439 0.062532309102022066 0 0.24773452015769859 0.046187867395794058 0 0.21646291908757839 0.042202639179017128 0 0.24773452015769859 0.046187867395794058 0 0.23445404022264399 0.027078552110983731 0 0.25458476701871002 0.02766973368984053 0 0.23445404022264399 0.027078552110983731 0 0.21638436253333779 0.010068207731140181 0 0.21646291908757839 0.042202639179017128 0 0.24502883806765671 0.008523642691556723 0 0.23445404022264399 0.027078552110983731 0 0.25458476701871002 0.02766973368984053 0 0.24502883806765671 0.008523642691556723 0 0.21638436253333779 0.010068207731140181 0 0.2272738753587025 -0.0034298001956333431 0 0.24502883806765671 0.008523642691556723 0 0.23445404022264399 0.027078552110983731 0 0.21638436253333779 0.010068207731140181 0 0.21638436253333779 0.010068207731140181 0 0.21646291908757839 0.042202639179017128 0 0.1998390893961966 0.031665640179217323 0 0.21638436253333779 0.010068207731140181 0 0.2083029964389638 -0.0070788741920749356 0 0.1894849343298263 -0.0017537201251617909 0 0.21638436253333779 0.010068207731140181 0 0.1998390893961966 0.031665640179217323 0 0.18740766400150541 0.016557319534513788 0 0.21638436253333779 0.010068207731140181 0 0.1894849343298263 -0.0017537201251617909 0 0.18740766400150541 0.016557319534513788 0 0.1894849343298263 -0.0017537201251617909 0 0.21638436253333779 0.010068207731140181 0 0.18740766400150541 0.016557319534513788 0 0.1894849343298263 -0.0017537201251617909 0 0.1998390893961966 0.031665640179217323 0 0.18545002408338579 0.048029838424376373 0 0.18740766400150541 0.016557319534513788 0 0.20324655280303169 0.071111767815190782 0 0.22195925580639439 0.062532309102022066 0 0.21646291908757839 0.042202639179017128 0 0.21646291908757839 0.042202639179017128 0 0.1998390893961966 0.031665640179217323 0 0.18545002408338579 0.048029838424376373 0 0.20324655280303169 0.071111767815190782 0 0.18545002408338579 0.048029838424376373 0 0.20324655280303169 0.071111767815190782 0 0.21646291908757839 0.042202639179017128 0 0.18545002408338579 0.048029838424376373 0 0.20324655280303169 0.071111767815190782 0 0.17361370821216091 0.061721877539844178 0 0.18545002408338579 0.048029838424376373 0 0.17361370821216091 0.061721877539844178 0 0.18545002408338579 0.048029838424376373 0 0.17579545676519651 0.043754955661173968 0 0.18545002408338579 0.048029838424376373 0 0.17579545676519651 0.043754955661173968 0 0.16765349536373969 0.02494790903356188 0 0.18545002408338579 0.048029838424376373 0 0.16765349536373969 0.02494790903356188 0 0.17579545676519651 0.043754955661173968 0 0.16765349536373969 0.02494790903356188 0 0.17579545676519651 0.043754955661173968 0 0.16507570311446121 0.038742451836005547 0 0.16765349536373969 0.02494790903356188 0 0.17579545676519651 0.043754955661173968 0 0.16507570311446121 0.038742451836005547 0 0.16384462943634701 0.050235536958613193 0 0.16507570311446121 0.038742451836005547 0 0.15932171988120411 0.033304873215324091 0 0.15876321412581859 0.041468984311354623 0 0.15932171988120411 0.033304873215324091 0 0.15876321412581859 0.041468984311354623 0 0.15215111719157179 0.036457697171418703 0 0.16507570311446121 0.038742451836005547 0 0.15932171988120411 0.033304873215324091 0 0.16765349536373969 0.02494790903356188 0 0.16507570311446121 0.038742451836005547 0 0.15876321412581859 0.041468984311354623 0 0.16384462943634701 0.050235536958613193 0 0.15876321412581859 0.041468984311354623 0 0.16384462943634701 0.050235536958613193 0 0.1505099141279464 0.048420127582463918 0 0.17361370821216091 0.061721877539844178 0 0.17579545676519651 0.043754955661173968 0 0.16384462943634701 0.050235536958613193 0 0.17361370821216091 0.061721877539844178 0 0.16384462943634701 0.050235536958613193 0 0.15699192909955809 0.065095521589841998 0 0.16384462943634701 0.050235536958613193 0 0.1505099141279464 0.048420127582463918 0 0.15699192909955809 0.065095521589841998 0 0.18545002408338579 0.048029838424376373 0 0.18740766400150541 0.016557319534513788 0 0.16765349536373969 0.02494790903356188 0 0.17427265032816189 0.0062943587249405077 0 0.18740766400150541 0.016557319534513788 0 0.1894849343298263 -0.0017537201251617909 0 0.17427265032816189 0.0062943587249405077 0 0.18740766400150541 0.016557319534513788 0 0.16765349536373969 0.02494790903356188 0 0.15932171988120411 0.033304873215324091 0 0.16765349536373969 0.02494790903356188 0 0.15241084410149669 0.02619879540547047 0 0.16765349536373969 0.02494790903356188 0 0.15876811500151389 0.013423654761153011 0 0.16765349536373969 0.02494790903356188 0 0.15876811500151389 0.013423654761153011 0 0.15241084410149669 0.02619879540547047 0 0.16765349536373969 0.02494790903356188 0 0.1579507192313461 0.0025355498805747921 0 0.16765349536373969 0.02494790903356188 0 0.15876811500151389 0.013423654761153011 0 0.1579507192313461 0.0025355498805747921 0 0.17427265032816189 0.0062943587249405077 0 0.16765349536373969 0.02494790903356188 0 0.1579507192313461 0.0025355498805747921 0 0.1487119162446438 0.0039635729940632582 0 0.14334646056476941 0.01109596170614012 0 0.135234418882348 0.001091121526172267 0 0.15876811500151389 0.013423654761153011 0 0.1579507192313461 0.0025355498805747921 0 0.1487119162446438 0.0039635729940632582 0 0.1579507192313461 0.0025355498805747921 0 0.1487119162446438 0.0039635729940632582 0 0.1454750608441174 -0.0051677832411170417 0 0.15876811500151389 0.013423654761153011 0 0.1487119162446438 0.0039635729940632582 0 0.14990273866863299 0.01696258456456963 0 0.1487119162446438 0.0039635729940632582 0 0.14334646056476941 0.01109596170614012 0 0.14990273866863299 0.01696258456456963 0 0.14990273866863299 0.01696258456456963 0 0.15241084410149669 0.02619879540547047 0 0.13903574260425039 0.02412691712435196 0 0.14334646056476941 0.01109596170614012 0 0.14990273866863299 0.01696258456456963 0 0.13903574260425039 0.02412691712435196 0 0.15876811500151389 0.013423654761153011 0 0.14990273866863299 0.01696258456456963 0 0.15241084410149669 0.02619879540547047 0 0.15241084410149669 0.02619879540547047 0 0.13903574260425039 0.02412691712435196 0 0.14242421330164659 0.035715593243810989 0 0.13903574260425039 0.02412691712435196 0 0.128050751869075 0.025433798835772761 0 0.12991484820470231 0.037015230580822421 0 0.12429721647633871 0.014090971846011839 0 0.128050751869075 0.025433798835772761 0 0.1346572895483614 0.01426336048528485 0 0.14334646056476941 0.01109596170614012 0 0.13903574260425039 0.02412691712435196 0 0.1346572895483614 0.01426336048528485 0 0.13903574260425039 0.02412691712435196 0 0.128050751869075 0.025433798835772761 0 0.1346572895483614 0.01426336048528485 0 0.12429721647633871 0.014090971846011839 0 0.1165810207984305 0.0016467845144158069 0 0.135234418882348 0.001091121526172267 0 0.14334646056476941 0.01109596170614012 0 0.1346572895483614 0.01426336048528485 0 0.135234418882348 0.001091121526172267 0 0.12429721647633871 0.014090971846011839 0 0.1346572895483614 0.01426336048528485 0 0.135234418882348 0.001091121526172267 0 0.1505099141279464 0.048420127582463918 0 0.14225132100752391 0.062865418281989383 0 0.15699192909955809 0.065095521589841998 0 0.1505099141279464 0.048420127582463918 0 0.13848013452328559 0.048512085470883898 0 0.14225132100752391 0.062865418281989383 0 0.15876321412581859 0.041468984311354623 0 0.1505099141279464 0.048420127582463918 0 0.15215111719157179 0.036457697171418703 0 0.15932171988120411 0.033304873215324091 0 0.15241084410149669 0.02619879540547047 0 0.15215111719157179 0.036457697171418703 0 0.15241084410149669 0.02619879540547047 0 0.15215111719157179 0.036457697171418703 0 0.14242421330164659 0.035715593243810989 0 0.1505099141279464 0.048420127582463918 0 0.15215111719157179 0.036457697171418703 0 0.14242421330164659 0.035715593243810989 0 0.1505099141279464 0.048420127582463918 0 0.14242421330164659 0.035715593243810989 0 0.13848013452328559 0.048512085470883898 0 0.14242421330164659 0.035715593243810989 0 0.12991484820470231 0.037015230580822421 0 0.13848013452328559 0.048512085470883898 0 0.13903574260425039 0.02412691712435196 0 0.14242421330164659 0.035715593243810989 0 0.12991484820470231 0.037015230580822421 0 0.11738283554026439 0.045919391363933762 0 0.12991484820470231 0.037015230580822421 0 0.12798138470421019 0.049477110941330407 0 0.12991484820470231 0.037015230580822421 0 0.12798138470421019 0.049477110941330407 0 0.13848013452328559 0.048512085470883898 0 0.12798138470421019 0.049477110941330407 0 0.13848013452328559 0.048512085470883898 0 0.13246919736887969 0.05797251858844308 0 0.13848013452328559 0.048512085470883898 0 0.13246919736887969 0.05797251858844308 0 0.14225132100752391 0.062865418281989383 0 0.1226758536221563 0.058754324150062147 0 0.12798138470421019 0.049477110941330407 0 0.13246919736887969 0.05797251858844308 0 0.1226758536221563 0.058754324150062147 0 0.13246919736887969 0.05797251858844308 0 0.1309572929872222 0.07025365409794955 0 0.1309572929872222 0.07025365409794955 0 0.14225132100752391 0.062865418281989383 0 0.14442657521464849 0.084205263511473963 0 0.11893238067756071 0.070271736967853812 0 0.1309572929872222 0.07025365409794955 0 0.12559456041354719 0.080261485087041423 0 0.13246919736887969 0.05797251858844308 0 0.1309572929872222 0.07025365409794955 0 0.14225132100752391 0.062865418281989383 0 0.14225132100752391 0.062865418281989383 0 0.14442657521464849 0.084205263511473963 0 0.15699192909955809 0.065095521589841998 0 0.14442657521464849 0.084205263511473963 0 0.15699192909955809 0.065095521589841998 0 0.16485721109999579 0.079112457857428944 0 0.1309572929872222 0.07025365409794955 0 0.14442657521464849 0.084205263511473963 0 0.12559456041354719 0.080261485087041423 0 0.14442657521464849 0.084205263511473963 0 0.12559456041354719 0.080261485087041423 0 0.12718862152087951 0.096688253917490447 0 0.14442657521464849 0.084205263511473963 0 0.12718862152087951 0.096688253917490447 0 0.14664782704348681 0.1187352828605238 0 0.12718862152087951 0.096688253917490447 0 0.14664782704348681 0.1187352828605238 0 0.1187894170332454 0.1108218881468376 0 0.12718862152087951 0.096688253917490447 0 0.14664782704348681 0.1187352828605238 0 0.14442657521464849 0.084205263511473963 0 0.14664782704348681 0.1187352828605238 0 0.1646087391048647 0.097694894151757986 0 0.1187894170332454 0.1108218881468376 0 0.1155281386006284 0.12780565999363219 0 0.14664782704348681 0.1187352828605238 0 0.14664782704348681 0.1187352828605238 0 0.1646087391048647 0.097694894151757986 0 0.1798032166279758 0.1186054906750668 0 0.1646087391048647 0.097694894151757986 0 0.1798032166279758 0.1186054906750668 0 0.18730886553821691 0.08781597585429643 0 0.1646087391048647 0.097694894151757986 0 0.18730886553821691 0.08781597585429643 0 0.16485721109999579 0.079112457857428944 0 0.17361370821216091 0.061721877539844178 0 0.18730886553821691 0.08781597585429643 0 0.16485721109999579 0.079112457857428944 0 0.17361370821216091 0.061721877539844178 0 0.15699192909955809 0.065095521589841998 0 0.16485721109999579 0.079112457857428944 0 0.14442657521464849 0.084205263511473963 0 0.1646087391048647 0.097694894151757986 0 0.16485721109999579 0.079112457857428944 0 0.10009711227391881 0.48489311495627652 0 0.12011464659773601 0.48433235658234292 0 0.093396366307362089 0.4764985348735149 0 0.12011464659773601 0.48433235658234292 0 0.093396366307362089 0.4764985348735149 0 0.12011464659773601 0.48433235658234292 0 0.1088743842907562 0.46558615548029098 0 0.093396366307362089 0.4764985348735149 0 0.10009711227391881 0.48489311495627652 0 0.093627485550408146 0.4805988143833777 0 0.093396366307362089 0.4764985348735149 0 0.10009711227391881 0.48489311495627652 0 0.1046197908249327 0.49204337521533659 0 0.12011464659773601 0.48433235658234292 0 0.094101002442320308 0.48868348185838978 0 0.10009711227391881 0.48489311495627652 0 0.1046197908249327 0.49204337521533659 0 0.1046197908249327 0.49204337521533659 0 0.1177491038565109 0.5 0 0.089848052195524386 0.5 0 0.094101002442320308 0.48868348185838978 0 0.10009711227391881 0.48489311495627652 0 0.093627485550408146 0.4805988143833777 0 0.094101002442320308 0.48868348185838978 0 0.1046197908249327 0.49204337521533659 0 0.089848052195524386 0.5 0 0.1046197908249327 0.49204337521533659 0 0.1177491038565109 0.5 0 0.12011464659773601 0.48433235658234292 0 0.12011464659773601 0.48433235658234292 0 0.1088743842907562 0.46558615548029098 0 0.12755468689653379 0.46028893177219221 0 0.1109314836818476 0.44843709676897331 0 0.1088743842907562 0.46558615548029098 0 0.12755468689653379 0.46028893177219221 0 0.1109314836818476 0.44843709676897331 0 0.1138513721720477 0.42894489089561411 0 0.1317389345630566 0.44034454998539962 0 0.1109314836818476 0.44843709676897331 0 0.1317389345630566 0.44034454998539962 0 0.12755468689653379 0.46028893177219221 0 0.1109314836818476 0.44843709676897331 0 0.091353109633241947 0.44024917993534918 0 0.1138513721720477 0.42894489089561411 0 0.1109314836818476 0.44843709676897331 0 0.092374737970301088 0.45837385740443209 0 0.091353109633241947 0.44024917993534918 0 0.1109314836818476 0.44843709676897331 0 0.1088743842907562 0.46558615548029098 0 0.092374737970301088 0.45837385740443209 0 0.1088743842907562 0.46558615548029098 0 0.092374737970301088 0.45837385740443209 0 0.093396366307362089 0.4764985348735149 0 0.092374737970301088 0.45837385740443209 0 0.093396366307362089 0.4764985348735149 0 0.092374737970301088 0.45837385740443209 0 0.074153309142655985 0.44889124799887259 0 0.076936337620146983 0.47167244095367838 0 0.092374737970301088 0.45837385740443209 0 0.091353109633241947 0.44024917993534918 0 0.074153309142655985 0.44889124799887259 0 0.091353109633241947 0.44024917993534918 0 0.074153309142655985 0.44889124799887259 0 0.091353109633241947 0.44024917993534918 0 0.074153309142655985 0.44889124799887259 0 0.075454731922514201 0.43004448293053621 0 0.092374737970301088 0.45837385740443209 0 0.091353109633241947 0.44024917993534918 0 0.074153309142655985 0.44889124799887259 0 0.053891522812498309 0.4472661199552147 0 0.075454731922514201 0.43004448293053621 0 0.074153309142655985 0.44889124799887259 0 0.060476308932931683 0.46684634703384248 0 0.053891522812498309 0.4472661199552147 0 0.074153309142655985 0.44889124799887259 0 0.076936337620146983 0.47167244095367838 0 0.060476308932931683 0.46684634703384248 0 0.065142718158770277 0.48141353841007611 0 0.076936337620146983 0.47167244095367838 0 0.060476308932931683 0.46684634703384248 0 0.065142718158770277 0.48141353841007611 0 0.076936337620146983 0.47167244095367838 0 0.082312571366817563 0.48588210473695859 0 0.076936337620146983 0.47167244095367838 0 0.060476308932931683 0.46684634703384248 0 0.076936337620146983 0.47167244095367838 0 0.093396366307362089 0.4764985348735149 0 0.082312571366817563 0.48588210473695859 0 0.076936337620146983 0.47167244095367838 0 0.093396366307362089 0.4764985348735149 0 0.092374737970301088 0.45837385740443209 0 0.076936337620146983 0.47167244095367838 0 0.093396366307362089 0.4764985348735149 0 0.093627485550408146 0.4805988143833777 0 0.093396366307362089 0.4764985348735149 0 0.082312571366817563 0.48588210473695859 0 0.093627485550408146 0.4805988143833777 0 0.093396366307362089 0.4764985348735149 0 0.094101002442320308 0.48868348185838978 0 0.093627485550408146 0.4805988143833777 0 0.082312571366817563 0.48588210473695859 0 0.094101002442320308 0.48868348185838978 0 0.089848052195524386 0.5 0 0.082312571366817563 0.48588210473695859 0 0.065142718158770277 0.48141353841007611 0 0.082312571366817563 0.48588210473695859 0 0.061947000534537833 0.5 0 0.089848052195524386 0.5 0 0.082312571366817563 0.48588210473695859 0 0.061947000534537833 0.5 0 0.065142718158770277 0.48141353841007611 0 0.061947000534537833 0.5 0 0.049204833067628767 0.48261733032857379 0 0.061947000534537833 0.5 0 0.049204833067628767 0.48261733032857379 0 0.034045948873551328 0.5 0 0.049204833067628767 0.48261733032857379 0 0.044749958694282721 0.46164825313029401 0 0.060476308932931683 0.46684634703384248 0 0.065142718158770277 0.48141353841007611 0 0.049204833067628767 0.48261733032857379 0 0.060476308932931683 0.46684634703384248 0 0.049204833067628767 0.48261733032857379 0 0.030622103575757051 0.47222180234901612 0 0.044749958694282721 0.46164825313029401 0 0.049204833067628767 0.48261733032857379 0 0.034045948873551328 0.5 0 0.030622103575757051 0.47222180234901612 0 0.034045948873551328 0.5 0 0.030622103575757051 0.47222180234901612 0 0.01499989984589173 0.4829621854572419 0 0.034045948873551328 0.5 0 0.01499989984589173 0.4829621854572419 0 0.0061448972125648371 0.5 0 0.030622103575757051 0.47222180234901612 0 0.01499989984589173 0.4829621854572419 0 0.0085473494867990066 0.46459041614164148 0 -0.0092351114354999823 0.48349087954534847 0 0.01499989984589173 0.4829621854572419 0 0.0085473494867990066 0.46459041614164148 0 -0.0092351114354999823 0.48349087954534847 0 0.01499989984589173 0.4829621854572419 0 0.0061448972125648371 0.5 0 -0.00069522750787146328 0.44046125278118642 0 0.0085473494867990066 0.46459041614164148 0 0.02659814765231331 0.44386368636820051 0 -0.00069522750787146328 0.44046125278118642 0 0.02659814765231331 0.44386368636820051 0 0.030622103575757051 0.47222180234901612 0 0.0085473494867990066 0.46459041614164148 0 0.02659814765231331 0.44386368636820051 0 0.02659814765231331 0.44386368636820051 0 0.053891522812498309 0.4472661199552147 0 0.049694494685412621 0.42626372438863069 0 0.02659814765231331 0.44386368636820051 0 0.053891522812498309 0.4472661199552147 0 0.02659814765231331 0.44386368636820051 0 0.044749958694282721 0.46164825313029401 0 0.053891522812498309 0.4472661199552147 0 0.030622103575757051 0.47222180234901612 0 0.02659814765231331 0.44386368636820051 0 0.044749958694282721 0.46164825313029401 0 0.044749958694282721 0.46164825313029401 0 0.060476308932931683 0.46684634703384248 0 0.053891522812498309 0.4472661199552147 0 0.053891522812498309 0.4472661199552147 0 0.049694494685412621 0.42626372438863069 0 0.075454731922514201 0.43004448293053621 0 0.049694494685412621 0.42626372438863069 0 0.048261258017039933 0.40484316686163041 0 0.064865154328764829 0.41362356959926488 0 0.049694494685412621 0.42626372438863069 0 0.029096153379345159 0.41794132061693801 0 0.048261258017039933 0.40484316686163041 0 0.02659814765231331 0.44386368636820051 0 0.049694494685412621 0.42626372438863069 0 0.029096153379345159 0.41794132061693801 0 0.02659814765231331 0.44386368636820051 0 0.029096153379345159 0.41794132061693801 0 0.0075383504917777792 0.42465595175508147 0 0.029096153379345159 0.41794132061693801 0 0.011034103982847401 0.40727448451550369 0 0.0075383504917777792 0.42465595175508147 0 0.029096153379345159 0.41794132061693801 0 0.011034103982847401 0.40727448451550369 0 0.029075113301561959 0.39577425007435751 0 -0.0096881018905816407 0.41168354254352257 0 0.011034103982847401 0.40727448451550369 0 0.0075383504917777792 0.42465595175508147 0 -0.00069522750787146328 0.44046125278118642 0 0.02659814765231331 0.44386368636820051 0 0.0075383504917777792 0.42465595175508147 0 -0.0041601498909107099 0.39486415160942412 0 0.01483908157688984 0.38862140294883879 0 0.0022634058800765338 0.37998431242390279 0 0.01483908157688984 0.38862140294883879 0 0.0022634058800765338 0.37998431242390279 0 0.025818984671691279 0.37097480582370601 0 -0.0041601498909107099 0.39486415160942412 0 0.011034103982847401 0.40727448451550369 0 0.01483908157688984 0.38862140294883879 0 0.011034103982847401 0.40727448451550369 0 0.01483908157688984 0.38862140294883879 0 0.029075113301561959 0.39577425007435751 0 0.01483908157688984 0.38862140294883879 0 0.029075113301561959 0.39577425007435751 0 0.025818984671691279 0.37097480582370601 0 0.029075113301561959 0.39577425007435751 0 0.045401098181558172 0.38499031967952818 0 0.025818984671691279 0.37097480582370601 0 0.029096153379345159 0.41794132061693801 0 0.029075113301561959 0.39577425007435751 0 0.048261258017039933 0.40484316686163041 0 0.029075113301561959 0.39577425007435751 0 0.045401098181558172 0.38499031967952818 0 0.048261258017039933 0.40484316686163041 0 0.045401098181558172 0.38499031967952818 0 0.055703029030803132 0.39231097529774461 0 0.048261258017039933 0.40484316686163041 0 0.055703029030803132 0.39231097529774461 0 0.048261258017039933 0.40484316686163041 0 0.064745056577875409 0.39895793694374471 0 0.048261258017039933 0.40484316686163041 0 0.064745056577875409 0.39895793694374471 0 0.064865154328764829 0.41362356959926488 0 0.055703029030803132 0.39231097529774461 0 0.06512784579127287 0.38212022900172399 0 0.064745056577875409 0.39895793694374471 0 0.045401098181558172 0.38499031967952818 0 0.055703029030803132 0.39231097529774461 0 0.06512784579127287 0.38212022900172399 0 0.045401098181558172 0.38499031967952818 0 0.06512784579127287 0.38212022900172399 0 0.050464958159624818 0.3618654206938538 0 0.076031204872737942 0.38502256531649931 0 0.082440637568075459 0.38766137222336561 0 0.074769193725475219 0.39315708161454072 0 0.06512784579127287 0.38212022900172399 0 0.076031204872737942 0.38502256531649931 0 0.074769193725475219 0.39315708161454072 0 0.06512784579127287 0.38212022900172399 0 0.080033909023446495 0.37734509170710351 0 0.075242093832077264 0.36812177147949349 0 0.06512784579127287 0.38212022900172399 0 0.076031204872737942 0.38502256531649931 0 0.080033909023446495 0.37734509170710351 0 0.080033909023446495 0.37734509170710351 0 0.087962013374406206 0.38008784363674408 0 0.086351257356787101 0.37221421831188489 0 0.080033909023446495 0.37734509170710351 0 0.082440637568075459 0.38766137222336561 0 0.087962013374406206 0.38008784363674408 0 0.076031204872737942 0.38502256531649931 0 0.080033909023446495 0.37734509170710351 0 0.082440637568075459 0.38766137222336561 0 0.082440637568075459 0.38766137222336561 0 0.087962013374406206 0.38008784363674408 0 0.088812673538289449 0.39517937990967189 0 0.087962013374406206 0.38008784363674408 0 0.088812673538289449 0.39517937990967189 0 0.096532904564945857 0.38251664013854092 0 0.087962013374406206 0.38008784363674408 0 0.088812673538289449 0.39517937990967189 0 0.087962013374406206 0.38008784363674408 0 0.09643961299419683 0.37351052037200722 0 0.086351257356787101 0.37221421831188489 0 0.087962013374406206 0.38008784363674408 0 0.096532904564945857 0.38251664013854092 0 0.09643961299419683 0.37351052037200722 0 0.082440637568075459 0.38766137222336561 0 0.088812673538289449 0.39517937990967189 0 0.082827070755661258 0.39564070302940169 0 0.088812673538289449 0.39517937990967189 0 0.082827070755661258 0.39564070302940169 0 0.082440637568075459 0.38766137222336561 0 0.082827070755661258 0.39564070302940169 0 0.074769193725475219 0.39315708161454072 0 0.088812673538289449 0.39517937990967189 0 0.082827070755661258 0.39564070302940169 0 0.080195822601730166 0.40873494384734488 0 0.082827070755661258 0.39564070302940169 0 0.074769193725475219 0.39315708161454072 0 0.080195822601730166 0.40873494384734488 0 0.074769193725475219 0.39315708161454072 0 0.064745056577875409 0.39895793694374471 0 0.080195822601730166 0.40873494384734488 0 0.06512784579127287 0.38212022900172399 0 0.074769193725475219 0.39315708161454072 0 0.064745056577875409 0.39895793694374471 0 0.064865154328764829 0.41362356959926488 0 0.075454731922514201 0.43004448293053621 0 0.080195822601730166 0.40873494384734488 0 0.064745056577875409 0.39895793694374471 0 0.064865154328764829 0.41362356959926488 0 0.080195822601730166 0.40873494384734488 0 0.049694494685412621 0.42626372438863069 0 0.064865154328764829 0.41362356959926488 0 0.075454731922514201 0.43004448293053621 0 0.091353109633241947 0.44024917993534918 0 0.090082891585765629 0.41771427992251048 0 0.091353109633241947 0.44024917993534918 0 0.075454731922514201 0.43004448293053621 0 0.090082891585765629 0.41771427992251048 0 0.088812673538289449 0.39517937990967189 0 0.090082891585765629 0.41771427992251048 0 0.080195822601730166 0.40873494384734488 0 0.075454731922514201 0.43004448293053621 0 0.090082891585765629 0.41771427992251048 0 0.080195822601730166 0.40873494384734488 0 0.088812673538289449 0.39517937990967189 0 0.090082891585765629 0.41771427992251048 0 0.090082891585765629 0.41771427992251048 0 0.1060779427916969 0.41078131195843842 0 0.1138513721720477 0.42894489089561411 0 0.088812673538289449 0.39517937990967189 0 0.090082891585765629 0.41771427992251048 0 0.1060779427916969 0.41078131195843842 0 0.091353109633241947 0.44024917993534918 0 0.1138513721720477 0.42894489089561411 0 0.091353109633241947 0.44024917993534918 0 0.090082891585765629 0.41771427992251048 0 0.1138513721720477 0.42894489089561411 0 0.1138513721720477 0.42894489089561411 0 0.1227317005809329 0.40562766670787193 0 0.1363496347108536 0.41764060185587931 0 0.1060779427916969 0.41078131195843842 0 0.1138513721720477 0.42894489089561411 0 0.1227317005809329 0.40562766670787193 0 0.1060779427916969 0.41078131195843842 0 0.1227317005809329 0.40562766670787193 0 0.1091137664510133 0.39361473155986332 0 0.1227317005809329 0.40562766670787193 0 0.1091137664510133 0.39361473155986332 0 0.1222799321900277 0.39262055348189367 0 0.1091137664510133 0.39361473155986332 0 0.1227317005809329 0.40562766670787193 0 0.1222799321900277 0.39262055348189367 0 0.1091137664510133 0.39361473155986332 0 0.1222799321900277 0.39262055348189367 0 0.1110184186627599 0.36813360195802219 0 0.1222799321900277 0.39262055348189367 0 0.107076611827209 0.3820751205349594 0 0.1110184186627599 0.36813360195802219 0 0.1222799321900277 0.39262055348189367 0 0.1110184186627599 0.36813360195802219 0 0.12874840841938939 0.37491499108935422 0 0.1222799321900277 0.39262055348189367 0 0.107076611827209 0.3820751205349594 0 0.1091137664510133 0.39361473155986332 0 0.107076611827209 0.3820751205349594 0 0.096532904564945857 0.38251664013854092 0 0.1091137664510133 0.39361473155986332 0 0.088812673538289449 0.39517937990967189 0 0.096532904564945857 0.38251664013854092 0 0.1091137664510133 0.39361473155986332 0 0.096532904564945857 0.38251664013854092 0 0.1091137664510133 0.39361473155986332 0 0.107076611827209 0.3820751205349594 0 0.096532904564945857 0.38251664013854092 0 0.09643961299419683 0.37351052037200722 0 0.088812673538289449 0.39517937990967189 0 0.1091137664510133 0.39361473155986332 0 0.088812673538289449 0.39517937990967189 0 0.1060779427916969 0.41078131195843842 0 0.1091137664510133 0.39361473155986332 0 0.1110184186627599 0.36813360195802219 0 0.099756905135492152 0.34364665043415082 0 0.1110184186627599 0.36813360195802219 0 0.099756905135492152 0.34364665043415082 0 0.092078657559808735 0.36200586436407639 0 0.09643961299419683 0.37351052037200722 0 0.1110184186627599 0.36813360195802219 0 0.092078657559808735 0.36200586436407639 0 0.107076611827209 0.3820751205349594 0 0.09643961299419683 0.37351052037200722 0 0.1110184186627599 0.36813360195802219 0 0.1110184186627599 0.36813360195802219 0 0.1228937766592843 0.35378028107363041 0 0.12874840841938939 0.37491499108935422 0 0.1110184186627599 0.36813360195802219 0 0.1228937766592843 0.35378028107363041 0 0.099756905135492152 0.34364665043415082 0 0.1228937766592843 0.35378028107363041 0 0.1227400750860225 0.33515185323383878 0 0.099756905135492152 0.34364665043415082 0 0.1227400750860225 0.33515185323383878 0 0.11060005590789219 0.32189636365797358 0 0.099756905135492152 0.34364665043415082 0 0.1227400750860225 0.33515185323383878 0 0.099756905135492152 0.34364665043415082 0 0.1227400750860225 0.33515185323383878 0 0.12478463900003051 0.31834353230628493 0 0.11060005590789219 0.32189636365797358 0 0.12478463900003051 0.31834353230628493 0 0.11060005590789219 0.32189636365797358 0 0.12210241479145061 0.307299179814506 0 0.11060005590789219 0.32189636365797358 0 0.1021840014142613 0.31460156646078768 0 0.1120178259175218 0.30589296060095411 0 0.11060005590789219 0.32189636365797358 0 0.1021840014142613 0.31460156646078768 0 0.091599334821681755 0.32590889002182488 0 0.1021840014142613 0.31460156646078768 0 0.091599334821681755 0.32590889002182488 0 0.094418444669094409 0.30863820847995133 0 0.099756905135492152 0.34364665043415082 0 0.091599334821681755 0.32590889002182488 0 0.11060005590789219 0.32189636365797358 0 0.099756905135492152 0.34364665043415082 0 0.091599334821681755 0.32590889002182488 0 0.099756905135492152 0.34364665043415082 0 0.078717354165385181 0.33648413126336862 0 0.091599334821681755 0.32590889002182488 0 0.091599334821681755 0.32590889002182488 0 0.071868234402458889 0.32191541960626308 0 0.083441764507871455 0.30817112960949877 0 0.091599334821681755 0.32590889002182488 0 0.083441764507871455 0.30817112960949877 0 0.091599334821681755 0.32590889002182488 0 0.083441764507871455 0.30817112960949877 0 0.094418444669094409 0.30863820847995133 0 0.078717354165385181 0.33648413126336862 0 0.091599334821681755 0.32590889002182488 0 0.071868234402458889 0.32191541960626308 0 0.071868234402458889 0.32191541960626308 0 0.053067125874532807 0.32186771128630598 0 0.075732841623420116 0.3040119888776005 0 0.053067125874532807 0.32186771128630598 0 0.075732841623420116 0.3040119888776005 0 0.078717354165385181 0.33648413126336862 0 0.071868234402458889 0.32191541960626308 0 0.060197324006420687 0.34036404380128371 0 0.078717354165385181 0.33648413126336862 0 0.075110931647558235 0.3527560355640017 0 0.060197324006420687 0.34036404380128371 0 0.075110931647558235 0.3527560355640017 0 0.050464958159624818 0.3618654206938538 0 0.099756905135492152 0.34364665043415082 0 0.078717354165385181 0.33648413126336862 0 0.075110931647558235 0.3527560355640017 0 0.099756905135492152 0.34364665043415082 0 0.075110931647558235 0.3527560355640017 0 0.092078657559808735 0.36200586436407639 0 0.099756905135492152 0.34364665043415082 0 0.075110931647558235 0.3527560355640017 0 0.075110931647558235 0.3527560355640017 0 0.092078657559808735 0.36200586436407639 0 0.075242093832077264 0.36812177147949349 0 0.086351257356787101 0.37221421831188489 0 0.092078657559808735 0.36200586436407639 0 0.075242093832077264 0.36812177147949349 0 0.09643961299419683 0.37351052037200722 0 0.086351257356787101 0.37221421831188489 0 0.092078657559808735 0.36200586436407639 0 0.080033909023446495 0.37734509170710351 0 0.086351257356787101 0.37221421831188489 0 0.075242093832077264 0.36812177147949349 0 0.075110931647558235 0.3527560355640017 0 0.075242093832077264 0.36812177147949349 0 0.050464958159624818 0.3618654206938538 0 0.06512784579127287 0.38212022900172399 0 0.075242093832077264 0.36812177147949349 0 0.050464958159624818 0.3618654206938538 0 0.075110931647558235 0.3527560355640017 0 0.050464958159624818 0.3618654206938538 0 0.060197324006420687 0.34036404380128371 0 0.050464958159624818 0.3618654206938538 0 0.040680680837862818 0.34575401892799468 0 0.060197324006420687 0.34036404380128371 0 0.045401098181558172 0.38499031967952818 0 0.050464958159624818 0.3618654206938538 0 0.025818984671691279 0.37097480582370601 0 0.050464958159624818 0.3618654206938538 0 0.025818984671691279 0.37097480582370601 0 0.050464958159624818 0.3618654206938538 0 0.040680680837862818 0.34575401892799468 0 0.025818984671691279 0.37097480582370601 0 0.040680680837862818 0.34575401892799468 0 0.025818984671691279 0.37097480582370601 0 0.022061582341240501 0.34281488287412448 0 0.025818984671691279 0.37097480582370601 0 0.0059313923409791804 0.35407678938915937 0 0.022061582341240501 0.34281488287412448 0 -0.001494834127354011 0.33585963461024471 0 0.0059313923409791804 0.35407678938915937 0 0.022061582341240501 0.34281488287412448 0 -0.0012915132074347089 0.36652510761091239 0 0.025818984671691279 0.37097480582370601 0 0.0059313923409791804 0.35407678938915937 0 -0.0012915132074347089 0.36652510761091239 0 0.0022634058800765338 0.37998431242390279 0 0.025818984671691279 0.37097480582370601 0 -0.00023275053750003791 0.33341522743281798 0 0.011462415831891559 0.31076399510208819 0 -0.00023275053750003791 0.33341522743281798 0 0.015605828027808921 0.32421774229306788 0 0.011462415831891559 0.31076399510208819 0 -0.00023275053750003791 0.33341522743281798 0 -0.0019245325289174609 0.31603531092320553 0 0.011462415831891559 0.31076399510208819 0 -0.00023275053750003791 0.33341522743281798 0 0.015605828027808921 0.32421774229306788 0 0.022061582341240501 0.34281488287412448 0 -0.001494834127354011 0.33585963461024471 0 0.022061582341240501 0.34281488287412448 0 -0.00023275053750003791 0.33341522743281798 0 0.015605828027808921 0.32421774229306788 0 -0.001494834127354011 0.33585963461024471 0 -0.00023275053750003791 0.33341522743281798 0 0.022061582341240501 0.34281488287412448 0 0.015605828027808921 0.32421774229306788 0 0.022061582341240501 0.34281488287412448 0 0.032498930345451621 0.32877260825484939 0 0.015605828027808921 0.32421774229306788 0 0.031617266128864778 0.3100200228130458 0 0.011462415831891559 0.31076399510208819 0 0.015605828027808921 0.32421774229306788 0 0.032498930345451621 0.32877260825484939 0 0.031617266128864778 0.3100200228130458 0 0.032498930345451621 0.32877260825484939 0 0.053067125874532807 0.32186771128630598 0 0.031617266128864778 0.3100200228130458 0 0.040680680837862818 0.34575401892799468 0 0.032498930345451621 0.32877260825484939 0 0.053067125874532807 0.32186771128630598 0 0.040680680837862818 0.34575401892799468 0 0.022061582341240501 0.34281488287412448 0 0.032498930345451621 0.32877260825484939 0 0.040680680837862818 0.34575401892799468 0 0.060197324006420687 0.34036404380128371 0 0.053067125874532807 0.32186771128630598 0 0.071868234402458889 0.32191541960626308 0 0.060197324006420687 0.34036404380128371 0 0.053067125874532807 0.32186771128630598 0 0.053067125874532807 0.32186771128630598 0 0.052017148134365331 0.29987511517419502 0 0.075732841623420116 0.3040119888776005 0 0.052017148134365331 0.29987511517419502 0 0.05677961595488739 0.28913226718906643 0 0.045928031938694089 0.284090574923205 0 0.05677961595488739 0.28913226718906643 0 0.057794091393966018 0.27869543868171248 0 0.067499702154951061 0.28329206196994589 0 0.052017148134365331 0.29987511517419502 0 0.05677961595488739 0.28913226718906643 0 0.065608098098544898 0.2944172868448815 0 0.05677961595488739 0.28913226718906643 0 0.045928031938694089 0.284090574923205 0 0.057794091393966018 0.27869543868171248 0 0.052017148134365331 0.29987511517419502 0 0.038180007100802327 0.29552461892045129 0 0.045928031938694089 0.284090574923205 0 0.038180007100802327 0.29552461892045129 0 0.045928031938694089 0.284090574923205 0 0.02315758220128512 0.28811276277135928 0 0.052017148134365331 0.29987511517419502 0 0.038180007100802327 0.29552461892045129 0 0.031617266128864778 0.3100200228130458 0 0.053067125874532807 0.32186771128630598 0 0.052017148134365331 0.29987511517419502 0 0.031617266128864778 0.3100200228130458 0 0.031617266128864778 0.3100200228130458 0 0.02315758220128512 0.28811276277135928 0 0.011462415831891559 0.31076399510208819 0 0.038180007100802327 0.29552461892045129 0 0.031617266128864778 0.3100200228130458 0 0.02315758220128512 0.28811276277135928 0 0.02315758220128512 0.28811276277135928 0 0.011462415831891559 0.31076399510208819 0 0.02315758220128512 0.28811276277135928 0 0.0074937284318593164 0.28700854176367141 0 0.011462415831891559 0.31076399510208819 0 0.02315758220128512 0.28811276277135928 0 0.0074937284318593164 0.28700854176367141 0 0.013670863725534251 0.27040545475246153 0 -0.0047650251177795587 0.29780240569285532 0 -0.0019245325289174609 0.31603531092320553 0 0.011462415831891559 0.31076399510208819 0 -0.0047650251177795587 0.29780240569285532 0 0.0074937284318593164 0.28700854176367141 0 0.011462415831891559 0.31076399510208819 0 -0.0013581205314274699 0.25585075003031849 0 0.022062085370766191 0.24948980786434841 0 0.013670863725534251 0.27040545475246153 0 -0.0041828416899563313 0.27650933564444069 0 0.0074937284318593164 0.28700854176367141 0 0.013670863725534251 0.27040545475246153 0 -0.0041828416899563313 0.27650933564444069 0 -0.0013581205314274699 0.25585075003031849 0 0.013670863725534251 0.27040545475246153 0 0.02315758220128512 0.28811276277135928 0 0.013670863725534251 0.27040545475246153 0 0.034852748570678667 0.26546153044063048 0 0.02315758220128512 0.28811276277135928 0 0.034852748570678667 0.26546153044063048 0 0.022062085370766191 0.24948980786434841 0 0.013670863725534251 0.27040545475246153 0 0.034852748570678667 0.26546153044063048 0 0.034852748570678667 0.26546153044063048 0 0.049961034940882519 0.27146551024526477 0 0.050942294489417762 0.2594121525026577 0 0.040294956150503269 0.25223707839592702 0 0.034852748570678667 0.26546153044063048 0 0.050942294489417762 0.2594121525026577 0 0.022062085370766191 0.24948980786434841 0 0.040294956150503269 0.25223707839592702 0 0.034852748570678667 0.26546153044063048 0 0.045928031938694089 0.284090574923205 0 0.02315758220128512 0.28811276277135928 0 0.034852748570678667 0.26546153044063048 0 0.045928031938694089 0.284090574923205 0 0.034852748570678667 0.26546153044063048 0 0.049961034940882519 0.27146551024526477 0 0.045928031938694089 0.284090574923205 0 0.049961034940882519 0.27146551024526477 0 0.057794091393966018 0.27869543868171248 0 0.049961034940882519 0.27146551024526477 0 0.060490933005045183 0.26899625079312822 0 0.050942294489417762 0.2594121525026577 0 0.049961034940882519 0.27146551024526477 0 0.060490933005045183 0.26899625079312822 0 0.057794091393966018 0.27869543868171248 0 0.060490933005045183 0.26899625079312822 0 0.057794091393966018 0.27869543868171248 0 0.066797433850478038 0.27473564276939472 0 0.040294956150503269 0.25223707839592702 0 0.050942294489417762 0.2594121525026577 0 0.062163090997927238 0.25246932702843122 0 0.060490933005045183 0.26899625079312822 0 0.050942294489417762 0.2594121525026577 0 0.062906770803120501 0.2607612059882824 0 0.050942294489417762 0.2594121525026577 0 0.062163090997927238 0.25246932702843122 0 0.062906770803120501 0.2607612059882824 0 0.050942294489417762 0.2594121525026577 0 0.062163090997927238 0.25246932702843122 0 0.072506791539930587 0.248787560300406 0 0.062163090997927238 0.25246932702843122 0 0.070756084691097676 0.25798693350248031 0 0.062163090997927238 0.25246932702843122 0 0.062906770803120501 0.2607612059882824 0 0.070756084691097676 0.25798693350248031 0 0.062163090997927238 0.25246932702843122 0 0.070756084691097676 0.25798693350248031 0 0.062906770803120501 0.2607612059882824 0 0.070756084691097676 0.25798693350248031 0 0.071473083047460861 0.26785647109051353 0 0.070756084691097676 0.25798693350248031 0 0.076915197165763907 0.26254735605948859 0 0.078810659039289327 0.25619380886554771 0 0.070756084691097676 0.25798693350248031 0 0.076915197165763907 0.26254735605948859 0 0.071473083047460861 0.26785647109051353 0 0.070756084691097676 0.25798693350248031 0 0.07607094232800328 0.25203594905764171 0 0.078810659039289327 0.25619380886554771 0 0.072506791539930587 0.248787560300406 0 0.070756084691097676 0.25798693350248031 0 0.07607094232800328 0.25203594905764171 0 0.077828192347162622 0.247122705985938 0 0.07607094232800328 0.25203594905764171 0 0.080280856494467548 0.25090285684720348 0 0.085868016482932338 0.25269131097926117 0 0.078810659039289327 0.25619380886554771 0 0.083739207483843864 0.2610654241912041 0 0.080280856494467548 0.25090285684720348 0 0.085868016482932338 0.25269131097926117 0 0.078810659039289327 0.25619380886554771 0 0.07607094232800328 0.25203594905764171 0 0.080280856494467548 0.25090285684720348 0 0.078810659039289327 0.25619380886554771 0 0.082826472274950214 0.24647050934762871 0 0.080280856494467548 0.25090285684720348 0 0.085868016482932338 0.25269131097926117 0 0.076915197165763907 0.26254735605948859 0 0.083739207483843864 0.2610654241912041 0 0.081276855994644265 0.26950265332025941 0 0.076915197165763907 0.26254735605948859 0 0.078810659039289327 0.25619380886554771 0 0.083739207483843864 0.2610654241912041 0 0.091441525093737167 0.25833245974657548 0 0.088862943340454539 0.26705921151237327 0 0.095669898789823349 0.26252106616712179 0 0.083739207483843864 0.2610654241912041 0 0.091441525093737167 0.25833245974657548 0 0.088862943340454539 0.26705921151237327 0 0.091543946649292843 0.24997310198023659 0 0.091441525093737167 0.25833245974657548 0 0.097171933684521816 0.25511804805167337 0 0.085868016482932338 0.25269131097926117 0 0.083739207483843864 0.2610654241912041 0 0.091441525093737167 0.25833245974657548 0 0.091543946649292843 0.24997310198023659 0 0.085868016482932338 0.25269131097926117 0 0.091441525093737167 0.25833245974657548 0 0.087552203047801022 0.28091046705621248 0 0.093415706265350576 0.27244679584878762 0 0.091659279706526875 0.28626493996532743 0 0.087552203047801022 0.28091046705621248 0 0.093415706265350576 0.27244679584878762 0 0.084891474035981657 0.27451051253011682 0 0.093415706265350576 0.27244679584878762 0 0.088862943340454539 0.26705921151237327 0 0.084891474035981657 0.27451051253011682 0 0.093415706265350576 0.27244679584878762 0 0.088862943340454539 0.26705921151237327 0 0.095669898789823349 0.26252106616712179 0 0.083739207483843864 0.2610654241912041 0 0.088862943340454539 0.26705921151237327 0 0.081276855994644265 0.26950265332025941 0 0.081276855994644265 0.26950265332025941 0 0.084891474035981657 0.27451051253011682 0 0.076051686635716126 0.27612186722421411 0 0.088862943340454539 0.26705921151237327 0 0.081276855994644265 0.26950265332025941 0 0.084891474035981657 0.27451051253011682 0 0.084891474035981657 0.27451051253011682 0 0.082189448931923495 0.28102208021885378 0 0.076051686635716126 0.27612186722421411 0 0.087552203047801022 0.28091046705621248 0 0.084891474035981657 0.27451051253011682 0 0.082189448931923495 0.28102208021885378 0 0.082189448931923495 0.28102208021885378 0 0.076051686635716126 0.27612186722421411 0 0.076037788070510259 0.28463723778530797 0 0.076051686635716126 0.27612186722421411 0 0.071473083047460861 0.26785647109051353 0 0.066797433850478038 0.27473564276939472 0 0.081276855994644265 0.26950265332025941 0 0.076051686635716126 0.27612186722421411 0 0.071473083047460861 0.26785647109051353 0 0.076915197165763907 0.26254735605948859 0 0.081276855994644265 0.26950265332025941 0 0.071473083047460861 0.26785647109051353 0 0.060490933005045183 0.26899625079312822 0 0.071473083047460861 0.26785647109051353 0 0.066797433850478038 0.27473564276939472 0 0.060490933005045183 0.26899625079312822 0 0.062906770803120501 0.2607612059882824 0 0.071473083047460861 0.26785647109051353 0 0.057794091393966018 0.27869543868171248 0 0.066797433850478038 0.27473564276939472 0 0.067499702154951061 0.28329206196994589 0 0.076051686635716126 0.27612186722421411 0 0.066797433850478038 0.27473564276939472 0 0.067499702154951061 0.28329206196994589 0 0.05677961595488739 0.28913226718906643 0 0.067499702154951061 0.28329206196994589 0 0.065608098098544898 0.2944172868448815 0 0.067499702154951061 0.28329206196994589 0 0.065608098098544898 0.2944172868448815 0 0.071696653048085757 0.28968910693399808 0 0.065608098098544898 0.2944172868448815 0 0.071696653048085757 0.28968910693399808 0 0.072502271759253556 0.29498051188015251 0 0.071696653048085757 0.28968910693399808 0 0.072502271759253556 0.29498051188015251 0 0.076981797803440943 0.29185554468502839 0 0.067499702154951061 0.28329206196994589 0 0.071696653048085757 0.28968910693399808 0 0.076037788070510259 0.28463723778530797 0 0.076051686635716126 0.27612186722421411 0 0.067499702154951061 0.28329206196994589 0 0.076037788070510259 0.28463723778530797 0 0.071696653048085757 0.28968910693399808 0 0.076981797803440943 0.29185554468502839 0 0.076037788070510259 0.28463723778530797 0 0.071868234402458889 0.32191541960626308 0 0.075732841623420116 0.3040119888776005 0 0.083441764507871455 0.30817112960949877 0 0.052017148134365331 0.29987511517419502 0 0.065608098098544898 0.2944172868448815 0 0.075732841623420116 0.3040119888776005 0 0.065608098098544898 0.2944172868448815 0 0.072502271759253556 0.29498051188015251 0 0.075732841623420116 0.3040119888776005 0 0.072502271759253556 0.29498051188015251 0 0.076981797803440943 0.29185554468502839 0 0.075732841623420116 0.3040119888776005 0 0.075732841623420116 0.3040119888776005 0 0.092765153569987879 0.29841717721940159 0 0.086589551092593475 0.30480962604661299 0 0.075732841623420116 0.3040119888776005 0 0.083441764507871455 0.30817112960949877 0 0.086589551092593475 0.30480962604661299 0 0.092765153569987879 0.29841717721940159 0 0.086589551092593475 0.30480962604661299 0 0.094418444669094409 0.30863820847995133 0 0.083441764507871455 0.30817112960949877 0 0.086589551092593475 0.30480962604661299 0 0.094418444669094409 0.30863820847995133 0 0.076981797803440943 0.29185554468502839 0 0.075732841623420116 0.3040119888776005 0 0.082702891776207182 0.28795189135542282 0 0.075732841623420116 0.3040119888776005 0 0.082702891776207182 0.28795189135542282 0 0.091659279706526875 0.28626493996532743 0 0.075732841623420116 0.3040119888776005 0 0.092765153569987879 0.29841717721940159 0 0.098398557372307224 0.28615626646889508 0 0.075732841623420116 0.3040119888776005 0 0.091659279706526875 0.28626493996532743 0 0.098398557372307224 0.28615626646889508 0 0.075732841623420116 0.3040119888776005 0 0.098398557372307224 0.28615626646889508 0 0.087552203047801022 0.28091046705621248 0 0.082189448931923495 0.28102208021885378 0 0.082702891776207182 0.28795189135542282 0 0.082189448931923495 0.28102208021885378 0 0.076037788070510259 0.28463723778530797 0 0.082702891776207182 0.28795189135542282 0 0.076981797803440943 0.29185554468502839 0 0.076037788070510259 0.28463723778530797 0 0.082702891776207182 0.28795189135542282 0 0.087552203047801022 0.28091046705621248 0 0.082702891776207182 0.28795189135542282 0 0.091659279706526875 0.28626493996532743 0 0.091659279706526875 0.28626493996532743 0 0.098398557372307224 0.28615626646889508 0 0.10580128949717101 0.27349900119884291 0 0.092765153569987879 0.29841717721940159 0 0.098398557372307224 0.28615626646889508 0 0.1000889004062999 0.29453344680216559 0 0.098398557372307224 0.28615626646889508 0 0.1000889004062999 0.29453344680216559 0 0.1047653488464914 0.29132866091398502 0 0.1000889004062999 0.29453344680216559 0 0.1047653488464914 0.29132866091398502 0 0.10641790435142599 0.29763755045375789 0 0.1047653488464914 0.29132866091398502 0 0.10641790435142599 0.29763755045375789 0 0.1112756588917496 0.29141822042140431 0 0.1047653488464914 0.29132866091398502 0 0.107645723210674 0.2868978204237021 0 0.1112756588917496 0.29141822042140431 0 0.098398557372307224 0.28615626646889508 0 0.107645723210674 0.2868978204237021 0 0.1118487505142923 0.28147954616528331 0 0.098398557372307224 0.28615626646889508 0 0.1047653488464914 0.29132866091398502 0 0.107645723210674 0.2868978204237021 0 0.094418444669094409 0.30863820847995133 0 0.099129224883827069 0.30105518776322321 0 0.1034931103707623 0.30580457559702462 0 0.1021840014142613 0.31460156646078768 0 0.094418444669094409 0.30863820847995133 0 0.1034931103707623 0.30580457559702462 0 0.092765153569987879 0.29841717721940159 0 0.094418444669094409 0.30863820847995133 0 0.099129224883827069 0.30105518776322321 0 0.092765153569987879 0.29841717721940159 0 0.1000889004062999 0.29453344680216559 0 0.099129224883827069 0.30105518776322321 0 0.099129224883827069 0.30105518776322321 0 0.10641790435142599 0.29763755045375789 0 0.1034931103707623 0.30580457559702462 0 0.10641790435142599 0.29763755045375789 0 0.1034931103707623 0.30580457559702462 0 0.1120178259175218 0.30589296060095411 0 0.1000889004062999 0.29453344680216559 0 0.099129224883827069 0.30105518776322321 0 0.10641790435142599 0.29763755045375789 0 0.1021840014142613 0.31460156646078768 0 0.1034931103707623 0.30580457559702462 0 0.1120178259175218 0.30589296060095411 0 0.11060005590789219 0.32189636365797358 0 0.1120178259175218 0.30589296060095411 0 0.12210241479145061 0.307299179814506 0 0.10641790435142599 0.29763755045375789 0 0.1120178259175218 0.30589296060095411 0 0.1135346352530001 0.29704207707564939 0 0.1120178259175218 0.30589296060095411 0 0.1135346352530001 0.29704207707564939 0 0.1190757725299877 0.29819696626480441 0 0.1120178259175218 0.30589296060095411 0 0.1190757725299877 0.29819696626480441 0 0.12210241479145061 0.307299179814506 0 0.1190757725299877 0.29819696626480441 0 0.1239384301897994 0.29929535014450731 0 0.12210241479145061 0.307299179814506 0 0.1239384301897994 0.29929535014450731 0 0.12210241479145061 0.307299179814506 0 0.12877559045209441 0.30108494726757462 0 0.1190757725299877 0.29819696626480441 0 0.1239384301897994 0.29929535014450731 0 0.1230793790240486 0.29508203714845938 0 0.1136433697079313 0.28648149958740959 0 0.1161910945020425 0.28955660483759521 0 0.1188661744979385 0.28721596554243117 0 0.1136433697079313 0.28648149958740959 0 0.1188661744979385 0.28721596554243117 0 0.1172648473879533 0.28332745886508498 0 0.1136433697079313 0.28648149958740959 0 0.1118487505142923 0.28147954616528331 0 0.1172648473879533 0.28332745886508498 0 0.107645723210674 0.2868978204237021 0 0.1136433697079313 0.28648149958740959 0 0.1118487505142923 0.28147954616528331 0 0.107645723210674 0.2868978204237021 0 0.1136433697079313 0.28648149958740959 0 0.1112756588917496 0.29141822042140431 0 0.10641790435142599 0.29763755045375789 0 0.1135346352530001 0.29704207707564939 0 0.1112756588917496 0.29141822042140431 0 0.1135346352530001 0.29704207707564939 0 0.1112756588917496 0.29141822042140431 0 0.1167421942733711 0.29334766709660282 0 0.1135346352530001 0.29704207707564939 0 0.1190757725299877 0.29819696626480441 0 0.1167421942733711 0.29334766709660282 0 0.1112756588917496 0.29141822042140431 0 0.1167421942733711 0.29334766709660282 0 0.1161910945020425 0.28955660483759521 0 0.1136433697079313 0.28648149958740959 0 0.1112756588917496 0.29141822042140431 0 0.1161910945020425 0.28955660483759521 0 0.1161910945020425 0.28955660483759521 0 0.11977419260147069 0.29045724641516668 0 0.1188661744979385 0.28721596554243117 0 0.1167421942733711 0.29334766709660282 0 0.11977419260147069 0.29045724641516668 0 0.1206018118619764 0.29341488756499712 0 0.1167421942733711 0.29334766709660282 0 0.1161910945020425 0.28955660483759521 0 0.11977419260147069 0.29045724641516668 0 0.11977419260147069 0.29045724641516668 0 0.1206018118619764 0.29341488756499712 0 0.1227601697665119 0.29146170911707758 0 0.1190757725299877 0.29819696626480441 0 0.1206018118619764 0.29341488756499712 0 0.1230793790240486 0.29508203714845938 0 0.1190757725299877 0.29819696626480441 0 0.1167421942733711 0.29334766709660282 0 0.1206018118619764 0.29341488756499712 0 0.1239384301897994 0.29929535014450731 0 0.1230793790240486 0.29508203714845938 0 0.12631020149541949 0.29557666323730319 0 0.1206018118619764 0.29341488756499712 0 0.1230793790240486 0.29508203714845938 0 0.1227601697665119 0.29146170911707758 0 0.1230793790240486 0.29508203714845938 0 0.1227601697665119 0.29146170911707758 0 0.12578988830059651 0.29254664656206708 0 0.11977419260147069 0.29045724641516668 0 0.1227601697665119 0.29146170911707758 0 0.1220576342069698 0.28839340045616502 0 0.1227601697665119 0.29146170911707758 0 0.12490931994801389 0.28963907956572149 0 0.12578988830059651 0.29254664656206708 0 0.1227601697665119 0.29146170911707758 0 0.12490931994801389 0.28963907956572149 0 0.1220576342069698 0.28839340045616502 0 0.12490931994801389 0.28963907956572149 0 0.1238527032280814 0.28681284791342487 0 0.1220576342069698 0.28839340045616502 0 0.1238527032280814 0.28681284791342487 0 0.1244496799462624 0.28301920687950871 0 0.1264188560381343 0.2878265607545617 0 0.1238527032280814 0.28681284791342487 0 0.1220576342069698 0.28839340045616502 0 0.1213492015771956 0.28513548125517468 0 0.1188661744979385 0.28721596554243117 0 0.1172648473879533 0.28332745886508498 0 0.1213492015771956 0.28513548125517468 0 0.11977419260147069 0.29045724641516668 0 0.1220576342069698 0.28839340045616502 0 0.1188661744979385 0.28721596554243117 0 0.1220576342069698 0.28839340045616502 0 0.1188661744979385 0.28721596554243117 0 0.1213492015771956 0.28513548125517468 0 0.1172648473879533 0.28332745886508498 0 0.12055002055528601 0.28140114906639768 0 0.1213492015771956 0.28513548125517468 0 0.12055002055528601 0.28140114906639768 0 0.1213492015771956 0.28513548125517468 0 0.1244496799462624 0.28301920687950871 0 0.1238527032280814 0.28681284791342487 0 0.1213492015771956 0.28513548125517468 0 0.1244496799462624 0.28301920687950871 0 0.12199157939662671 0.27698983008809058 0 0.11769479446839209 0.27853376824412951 0 0.1210642731211944 0.26830054406018983 0 0.1244496799462624 0.28301920687950871 0 0.12199157939662671 0.27698983008809058 0 0.12596979802228361 0.27358016688650377 0 0.12055002055528601 0.28140114906639768 0 0.1244496799462624 0.28301920687950871 0 0.12199157939662671 0.27698983008809058 0 0.098398557372307224 0.28615626646889508 0 0.1210642731211944 0.26830054406018983 0 0.098398557372307224 0.28615626646889508 0 0.1118487505142923 0.28147954616528331 0 0.1210642731211944 0.26830054406018983 0 0.1172648473879533 0.28332745886508498 0 0.12055002055528601 0.28140114906639768 0 0.11769479446839209 0.27853376824412951 0 0.12055002055528601 0.28140114906639768 0 0.12199157939662671 0.27698983008809058 0 0.11769479446839209 0.27853376824412951 0 0.1118487505142923 0.28147954616528331 0 0.11769479446839209 0.27853376824412951 0 0.1210642731211944 0.26830054406018983 0 0.1118487505142923 0.28147954616528331 0 0.1172648473879533 0.28332745886508498 0 0.11769479446839209 0.27853376824412951 0 0.1210642731211944 0.26830054406018983 0 0.1123226271155921 0.26453376942764828 0 0.10580128949717101 0.27349900119884291 0 0.12199157939662671 0.27698983008809058 0 0.1210642731211944 0.26830054406018983 0 0.12596979802228361 0.27358016688650377 0 0.11700612055034661 0.25280059366604207 0 0.1281792854763541 0.25910810811730373 0 0.12596979802228361 0.27358016688650377 0 0.1210642731211944 0.26830054406018983 0 0.11700612055034661 0.25280059366604207 0 0.12596979802228361 0.27358016688650377 0 0.11700612055034661 0.25280059366604207 0 0.12596979802228361 0.27358016688650377 0 0.12695957089482901 0.24747230001415241 0 0.11700612055034661 0.25280059366604207 0 0.1281792854763541 0.25910810811730373 0 0.1210642731211944 0.26830054406018983 0 0.11700612055034661 0.25280059366604207 0 0.1123226271155921 0.26453376942764828 0 0.11700612055034661 0.25280059366604207 0 0.1123226271155921 0.26453376942764828 0 0.1057998516311974 0.26008039821654533 0 0.10140444625855841 0.24468321414788791 0 0.1057998516311974 0.26008039821654533 0 0.097171933684521816 0.25511804805167337 0 0.1057998516311974 0.26008039821654533 0 0.097171933684521816 0.25511804805167337 0 0.095669898789823349 0.26252106616712179 0 0.093415706265350576 0.27244679584878762 0 0.1057998516311974 0.26008039821654533 0 0.095669898789823349 0.26252106616712179 0 0.091441525093737167 0.25833245974657548 0 0.097171933684521816 0.25511804805167337 0 0.095669898789823349 0.26252106616712179 0 0.091659279706526875 0.28626493996532743 0 0.1057998516311974 0.26008039821654533 0 0.098398557372307224 0.28615626646889508 0 0.1210642731211944 0.26830054406018983 0 0.10580128949717101 0.27349900119884291 0 0.091659279706526875 0.28626493996532743 0 0.1057998516311974 0.26008039821654533 0 0.10580128949717101 0.27349900119884291 0 0.093415706265350576 0.27244679584878762 0 0.091659279706526875 0.28626493996532743 0 0.1057998516311974 0.26008039821654533 0 0.1123226271155921 0.26453376942764828 0 0.1057998516311974 0.26008039821654533 0 0.10580128949717101 0.27349900119884291 0 0.14197652427293059 0.26811486496052911 0 0.15263622647705771 0.27396686122891101 0 0.14873454311733669 0.28390337731332549 0 0.15263622647705771 0.27396686122891101 0 0.14873454311733669 0.28390337731332549 0 0.15798420398973509 0.28234951176469703 0 0.14197652427293059 0.26811486496052911 0 0.15263622647705771 0.27396686122891101 0 0.154228756659956 0.26237374011589493 0 0.15263622647705771 0.27396686122891101 0 0.154228756659956 0.26237374011589493 0 0.16025710434533 0.27309281199010838 0 0.14866603178531401 0.24164403189080999 0 0.14197652427293059 0.26811486496052911 0 0.14866603178531401 0.24164403189080999 0 0.154228756659956 0.26237374011589493 0 0.15772465432775251 0.25110283052911042 0 0.14866603178531401 0.24164403189080999 0 0.14197652427293059 0.26811486496052911 0 0.13457760263714399 0.25216438853103162 0 0.14866603178531401 0.24164403189080999 0 0.14197652427293059 0.26811486496052911 0 0.154228756659956 0.26237374011589493 0 0.14197652427293059 0.26811486496052911 0 0.13457760263714399 0.25216438853103162 0 0.1281792854763541 0.25910810811730373 0 0.12695957089482901 0.24747230001415241 0 0.13457760263714399 0.25216438853103162 0 0.1281792854763541 0.25910810811730373 0 0.14197652427293059 0.26811486496052911 0 0.1281792854763541 0.25910810811730373 0 0.12596979802228361 0.27358016688650377 0 0.14197652427293059 0.26811486496052911 0 0.12596979802228361 0.27358016688650377 0 0.13528701676054711 0.29458569803024831 0 0.12596979802228361 0.27358016688650377 0 0.13528701676054711 0.29458569803024831 0 0.14197652427293059 0.26811486496052911 0 0.13528701676054711 0.29458569803024831 0 0.1244496799462624 0.28301920687950871 0 0.12596979802228361 0.27358016688650377 0 0.1289196302032366 0.28770345449760082 0 0.12596979802228361 0.27358016688650377 0 0.1289196302032366 0.28770345449760082 0 0.13528701676054711 0.29458569803024831 0 0.1289196302032366 0.28770345449760082 0 0.1264188560381343 0.2878265607545617 0 0.12781988685681139 0.29060998845553632 0 0.1244496799462624 0.28301920687950871 0 0.1289196302032366 0.28770345449760082 0 0.1264188560381343 0.2878265607545617 0 0.12490931994801389 0.28963907956572149 0 0.1238527032280814 0.28681284791342487 0 0.1264188560381343 0.2878265607545617 0 0.12490931994801389 0.28963907956572149 0 0.1264188560381343 0.2878265607545617 0 0.12781988685681139 0.29060998845553632 0 0.12490931994801389 0.28963907956572149 0 0.12578988830059651 0.29254664656206708 0 0.12781988685681139 0.29060998845553632 0 0.12781988685681139 0.29060998845553632 0 0.12858465551822981 0.29348888490683689 0 0.12945820845118949 0.29195888502938427 0 0.12578988830059651 0.29254664656206708 0 0.12781988685681139 0.29060998845553632 0 0.12858465551822981 0.29348888490683689 0 0.12781988685681139 0.29060998845553632 0 0.1292904797995186 0.29051467219905219 0 0.12945820845118949 0.29195888502938427 0 0.1289196302032366 0.28770345449760082 0 0.12781988685681139 0.29060998845553632 0 0.1292904797995186 0.29051467219905219 0 0.12578988830059651 0.29254664656206708 0 0.12631020149541949 0.29557666323730319 0 0.12858465551822981 0.29348888490683689 0 0.1230793790240486 0.29508203714845938 0 0.12578988830059651 0.29254664656206708 0 0.12631020149541949 0.29557666323730319 0 0.12631020149541949 0.29557666323730319 0 0.12858465551822981 0.29348888490683689 0 0.13015586812292779 0.29603553887317069 0 0.13015586812292779 0.29603553887317069 0 0.13134127196310669 0.29382019808104243 0 0.13528701676054711 0.29458569803024831 0 0.13134127196310669 0.29382019808104243 0 0.13096419368683679 0.29178636081368747 0 0.13528701676054711 0.29458569803024831 0 0.12858465551822981 0.29348888490683689 0 0.13134127196310669 0.29382019808104243 0 0.12945820845118949 0.29195888502938427 0 0.12858465551822981 0.29348888490683689 0 0.13015586812292779 0.29603553887317069 0 0.13134127196310669 0.29382019808104243 0 0.1289196302032366 0.28770345449760082 0 0.1292904797995186 0.29051467219905219 0 0.13096419368683679 0.29178636081368747 0 0.1289196302032366 0.28770345449760082 0 0.13096419368683679 0.29178636081368747 0 0.13528701676054711 0.29458569803024831 0 0.13134127196310669 0.29382019808104243 0 0.12945820845118949 0.29195888502938427 0 0.13096419368683679 0.29178636081368747 0 0.1292904797995186 0.29051467219905219 0 0.12945820845118949 0.29195888502938427 0 0.13096419368683679 0.29178636081368747 0 0.13528701676054711 0.29458569803024831 0 0.14389715296615771 0.31513931332742717 0 0.13528701676054711 0.29458569803024831 0 0.13163900220183661 0.3096327917829832 0 0.14389715296615771 0.31513931332742717 0 0.12210241479145061 0.307299179814506 0 0.13163900220183661 0.3096327917829832 0 0.12877559045209441 0.30108494726757462 0 0.12478463900003051 0.31834353230628493 0 0.12210241479145061 0.307299179814506 0 0.13163900220183661 0.3096327917829832 0 0.13528701676054711 0.29458569803024831 0 0.13163900220183661 0.3096327917829832 0 0.12877559045209441 0.30108494726757462 0 0.1239384301897994 0.29929535014450731 0 0.12631020149541949 0.29557666323730319 0 0.12877559045209441 0.30108494726757462 0 0.12631020149541949 0.29557666323730319 0 0.13015586812292779 0.29603553887317069 0 0.12877559045209441 0.30108494726757462 0 0.13015586812292779 0.29603553887317069 0 0.13528701676054711 0.29458569803024831 0 0.12877559045209441 0.30108494726757462 0 0.13528701676054711 0.29458569803024831 0 0.15071564245579089 0.30020272468279102 0 0.14389715296615771 0.31513931332742717 0 0.15071564245579089 0.30020272468279102 0 0.15957801344302991 0.31676338393705339 0 0.14389715296615771 0.31513931332742717 0 0.14197652427293059 0.26811486496052911 0 0.13528701676054711 0.29458569803024831 0 0.14873454311733669 0.28390337731332549 0 0.13528701676054711 0.29458569803024831 0 0.15071564245579089 0.30020272468279102 0 0.14873454311733669 0.28390337731332549 0 0.15071564245579089 0.30020272468279102 0 0.14873454311733669 0.28390337731332549 0 0.1575608153581039 0.29132478081480878 0 0.14873454311733669 0.28390337731332549 0 0.15798420398973509 0.28234951176469703 0 0.1575608153581039 0.29132478081480878 0 0.15798420398973509 0.28234951176469703 0 0.1575608153581039 0.29132478081480878 0 0.1667189265736907 0.28873307038160151 0 0.1575608153581039 0.29132478081480878 0 0.1667189265736907 0.28873307038160151 0 0.16365076065396611 0.30143521993162947 0 0.1667189265736907 0.28873307038160151 0 0.16365076065396611 0.30143521993162947 0 0.17803107115646641 0.29905917037317842 0 0.15798420398973509 0.28234951176469703 0 0.1667189265736907 0.28873307038160151 0 0.169425292587597 0.27771472974453631 0 0.15071564245579089 0.30020272468279102 0 0.16365076065396611 0.30143521993162947 0 0.15957801344302991 0.31676338393705339 0 0.15071564245579089 0.30020272468279102 0 0.1575608153581039 0.29132478081480878 0 0.16365076065396611 0.30143521993162947 0 0.16365076065396611 0.30143521993162947 0 0.17371971529449001 0.31447732007997831 0 0.15957801344302991 0.31676338393705339 0 0.16365076065396611 0.30143521993162947 0 0.17803107115646641 0.29905917037317842 0 0.17371971529449001 0.31447732007997831 0 0.17803107115646641 0.29905917037317842 0 0.1857380800218856 0.3101946128211775 0 0.19553670369938941 0.29433204850784539 0 0.17803107115646641 0.29905917037317842 0 0.1857380800218856 0.3101946128211775 0 0.17371971529449001 0.31447732007997831 0 0.17803107115646641 0.29905917037317842 0 0.18035808436305209 0.28367595670557288 0 0.19553670369938941 0.29433204850784539 0 0.1667189265736907 0.28873307038160151 0 0.18035808436305209 0.28367595670557288 0 0.169425292587597 0.27771472974453631 0 0.1667189265736907 0.28873307038160151 0 0.17803107115646641 0.29905917037317842 0 0.18035808436305209 0.28367595670557288 0 0.18035808436305209 0.28367595670557288 0 0.17795044436139351 0.27152030873633798 0 0.1916282564751686 0.27022195460616932 0 0.17795044436139351 0.27152030873633798 0 0.1795230853522479 0.25998084109328518 0 0.1916282564751686 0.27022195460616932 0 0.17795044436139351 0.27152030873633798 0 0.16881750302890189 0.26600806153212631 0 0.1795230853522479 0.25998084109328518 0 0.17795044436139351 0.27152030873633798 0 0.169425292587597 0.27771472974453631 0 0.16881750302890189 0.26600806153212631 0 0.18035808436305209 0.28367595670557288 0 0.17795044436139351 0.27152030873633798 0 0.169425292587597 0.27771472974453631 0 0.169425292587597 0.27771472974453631 0 0.16881750302890189 0.26600806153212631 0 0.16025710434533 0.27309281199010838 0 0.154228756659956 0.26237374011589493 0 0.16881750302890189 0.26600806153212631 0 0.16025710434533 0.27309281199010838 0 0.15263622647705771 0.27396686122891101 0 0.15798420398973509 0.28234951176469703 0 0.16025710434533 0.27309281199010838 0 0.15798420398973509 0.28234951176469703 0 0.169425292587597 0.27771472974453631 0 0.16025710434533 0.27309281199010838 0 0.154228756659956 0.26237374011589493 0 0.15772465432775251 0.25110283052911042 0 0.16955028484120149 0.25400044680028072 0 0.154228756659956 0.26237374011589493 0 0.16881750302890189 0.26600806153212631 0 0.16955028484120149 0.25400044680028072 0 0.1804468726277432 0.24761129681614499 0 0.16955028484120149 0.25400044680028072 0 0.1795230853522479 0.25998084109328518 0 0.1795230853522479 0.25998084109328518 0 0.18685789544736289 0.25078693256644929 0 0.1916282564751686 0.27022195460616932 0 0.16881750302890189 0.26600806153212631 0 0.16955028484120149 0.25400044680028072 0 0.1795230853522479 0.25998084109328518 0 0.1804468726277432 0.24761129681614499 0 0.1795230853522479 0.25998084109328518 0 0.18685789544736289 0.25078693256644929 0 0.187719809250948 0.24611186070449331 0 0.18685789544736289 0.25078693256644929 0 0.1916282564751686 0.27022195460616932 0 0.187719809250948 0.24611186070449331 0 0.19721509596201389 0.25467587743472492 0 0.1916282564751686 0.27022195460616932 0 0.187719809250948 0.24611186070449331 0 0.1916282564751686 0.27022195460616932 0 0.19721509596201389 0.25467587743472492 0 0.1916282564751686 0.27022195460616932 0 0.20620746663167591 0.26348460676716451 0 0.19721509596201389 0.25467587743472492 0 0.20429698142111721 0.2501470961135025 0 0.20620746663167591 0.26348460676716451 0 0.1916282564751686 0.27022195460616932 0 0.20532734483730111 0.27942103697690518 0 0.20620746663167591 0.26348460676716451 0 0.20532734483730111 0.27942103697690518 0 0.20620746663167591 0.26348460676716451 0 0.2221003269749908 0.27195462893896338 0 0.20620746663167591 0.26348460676716451 0 0.21904009887537171 0.25628199394506529 0 0.2221003269749908 0.27195462893896338 0 0.20429698142111721 0.2501470961135025 0 0.20620746663167591 0.26348460676716451 0 0.21904009887537171 0.25628199394506529 0 0.23385028299092811 0.24121297171547751 0 0.21904009887537171 0.25628199394506529 0 0.23607108661280371 0.26109162133878772 0 0.21904009887537171 0.25628199394506529 0 0.2221003269749908 0.27195462893896338 0 0.23607108661280371 0.26109162133878772 0 0.2221003269749908 0.27195462893896338 0 0.23607108661280371 0.26109162133878772 0 0.2389629137609684 0.2846130902196588 0 0.2389629137609684 0.2846130902196588 0 0.25356354251313462 0.26595069759367879 0 0.23607108661280371 0.26109162133878772 0 0.2389629137609684 0.2846130902196588 0 0.25356354251313462 0.26595069759367879 0 0.23607108661280371 0.26109162133878772 0 0.25356354251313462 0.26595069759367879 0 0.25191630733126869 0.24920661226757701 0 0.23385028299092811 0.24121297171547751 0 0.23607108661280371 0.26109162133878772 0 0.25191630733126869 0.24920661226757701 0 0.2341078156037622 0.30485535591847668 0 0.25251902142887422 0.29489883967006508 0 0.25499603709520552 0.31033398653960542 0 0.2389629137609684 0.2846130902196588 0 0.2341078156037622 0.30485535591847668 0 0.25251902142887422 0.29489883967006508 0 0.2221003269749908 0.27195462893896338 0 0.2389629137609684 0.2846130902196588 0 0.22418865365612811 0.28809700268826588 0 0.2389629137609684 0.2846130902196588 0 0.22436228500880229 0.30327548284563888 0 0.2389629137609684 0.2846130902196588 0 0.22418865365612811 0.28809700268826588 0 0.22436228500880229 0.30327548284563888 0 0.2221003269749908 0.27195462893896338 0 0.22418865365612811 0.28809700268826588 0 0.21077273894930049 0.29519838567424261 0 0.22418865365612811 0.28809700268826588 0 0.22436228500880229 0.30327548284563888 0 0.21077273894930049 0.29519838567424261 0 0.2389629137609684 0.2846130902196588 0 0.22436228500880229 0.30327548284563888 0 0.2341078156037622 0.30485535591847668 0 0.22436228500880229 0.30327548284563888 0 0.2341078156037622 0.30485535591847668 0 0.22734196343228341 0.31574302587251879 0 0.22436228500880229 0.30327548284563888 0 0.21596974794844201 0.3152936262123005 0 0.22734196343228341 0.31574302587251879 0 0.22436228500880229 0.30327548284563888 0 0.21077273894930049 0.29519838567424261 0 0.21596974794844201 0.3152936262123005 0 0.21077273894930049 0.29519838567424261 0 0.1994451509236102 0.31844214240952162 0 0.21077273894930049 0.29519838567424261 0 0.1994451509236102 0.31844214240952162 0 0.21596974794844201 0.3152936262123005 0 0.2221003269749908 0.27195462893896338 0 0.21077273894930049 0.29519838567424261 0 0.20532734483730111 0.27942103697690518 0 0.21077273894930049 0.29519838567424261 0 0.19553670369938941 0.29433204850784539 0 0.20532734483730111 0.27942103697690518 0 0.2221003269749908 0.27195462893896338 0 0.21077273894930049 0.29519838567424261 0 0.1916282564751686 0.27022195460616932 0 0.19553670369938941 0.29433204850784539 0 0.18035808436305209 0.28367595670557288 0 0.1916282564751686 0.27022195460616932 0 0.19553670369938941 0.29433204850784539 0 0.1916282564751686 0.27022195460616932 0 0.20532734483730111 0.27942103697690518 0 0.19553670369938941 0.29433204850784539 0 0.21077273894930049 0.29519838567424261 0 0.19553670369938941 0.29433204850784539 0 0.1994451509236102 0.31844214240952162 0 0.1857380800218856 0.3101946128211775 0 0.19553670369938941 0.29433204850784539 0 0.1994451509236102 0.31844214240952162 0 0.19553670369938941 0.29433204850784539 0 0.1994451509236102 0.31844214240952162 0 0.1994451509236102 0.31844214240952162 0 0.19168635826626171 0.33436287404964388 0 0.18464265667118551 0.32217675768258541 0 0.1994451509236102 0.31844214240952162 0 0.19168635826626171 0.33436287404964388 0 0.1857380800218856 0.3101946128211775 0 0.1994451509236102 0.31844214240952162 0 0.18464265667118551 0.32217675768258541 0 0.19168635826626171 0.33436287404964388 0 0.18392756560891321 0.35028360568976619 0 0.1994451509236102 0.31844214240952162 0 0.19168635826626171 0.33436287404964388 0 0.20342038121273751 0.34296420195217148 0 0.19168635826626171 0.33436287404964388 0 0.20342038121273751 0.34296420195217148 0 0.19506063651208211 0.3529699952382333 0 0.1994451509236102 0.31844214240952162 0 0.20342038121273751 0.34296420195217148 0 0.1994451509236102 0.31844214240952162 0 0.20342038121273751 0.34296420195217148 0 0.21312643064864489 0.33022871731107578 0 0.20342038121273751 0.34296420195217148 0 0.21312643064864489 0.33022871731107578 0 0.22093337687049139 0.34497413856024212 0 0.1994451509236102 0.31844214240952162 0 0.21312643064864489 0.33022871731107578 0 0.21596974794844201 0.3152936262123005 0 0.21312643064864489 0.33022871731107578 0 0.21596974794844201 0.3152936262123005 0 0.22586349628794331 0.32946947742114302 0 0.21596974794844201 0.3152936262123005 0 0.22734196343228341 0.31574302587251879 0 0.22586349628794331 0.32946947742114302 0 0.22734196343228341 0.31574302587251879 0 0.22586349628794331 0.32946947742114302 0 0.24674238681088931 0.3286398127048844 0 0.21312643064864489 0.33022871731107578 0 0.22586349628794331 0.32946947742114302 0 0.22093337687049139 0.34497413856024212 0 0.22586349628794331 0.32946947742114302 0 0.2387375449762775 0.34721292339502191 0 0.22093337687049139 0.34497413856024212 0 0.24674238681088931 0.3286398127048844 0 0.2387375449762775 0.34721292339502191 0 0.25937695801801641 0.35242426949129207 0 0.22586349628794331 0.32946947742114302 0 0.24674238681088931 0.3286398127048844 0 0.2387375449762775 0.34721292339502191 0 0.2341078156037622 0.30485535591847668 0 0.22734196343228341 0.31574302587251879 0 0.24674238681088931 0.3286398127048844 0 0.2341078156037622 0.30485535591847668 0 0.24674238681088931 0.3286398127048844 0 0.25499603709520552 0.31033398653960542 0 0.2341078156037622 0.30485535591847668 0 0.24674238681088931 0.3286398127048844 0 0.2387375449762775 0.34721292339502191 0 0.2269594812077923 0.36498825988947398 0 0.25004482850601251 0.37417003650910702 0 0.2387375449762775 0.34721292339502191 0 0.25937695801801641 0.35242426949129207 0 0.25004482850601251 0.37417003650910702 0 0.2387375449762775 0.34721292339502191 0 0.22093337687049139 0.34497413856024212 0 0.2269594812077923 0.36498825988947398 0 0.22093337687049139 0.34497413856024212 0 0.2269594812077923 0.36498825988947398 0 0.20994774256310131 0.3559473632457717 0 0.2269594812077923 0.36498825988947398 0 0.21018188498289969 0.37041141079402012 0 0.21924101697293169 0.38008071570349722 0 0.2269594812077923 0.36498825988947398 0 0.21018188498289969 0.37041141079402012 0 0.20994774256310131 0.3559473632457717 0 0.21018188498289969 0.37041141079402012 0 0.20994774256310131 0.3559473632457717 0 0.20000180513099849 0.36405584316698397 0 0.20342038121273751 0.34296420195217148 0 0.22093337687049139 0.34497413856024212 0 0.20994774256310131 0.3559473632457717 0 0.19168635826626171 0.33436287404964388 0 0.19506063651208211 0.3529699952382333 0 0.18392756560891321 0.35028360568976619 0 0.20342038121273751 0.34296420195217148 0 0.20994774256310131 0.3559473632457717 0 0.19506063651208211 0.3529699952382333 0 0.20994774256310131 0.3559473632457717 0 0.19506063651208211 0.3529699952382333 0 0.20000180513099849 0.36405584316698397 0 0.20000180513099849 0.36405584316698397 0 0.18137996629048009 0.370206083325063 0 0.19707990164758929 0.37617564161942518 0 0.19506063651208211 0.3529699952382333 0 0.20000180513099849 0.36405584316698397 0 0.18137996629048009 0.370206083325063 0 0.21018188498289969 0.37041141079402012 0 0.20000180513099849 0.36405584316698397 0 0.19707990164758929 0.37617564161942518 0 0.18137996629048009 0.370206083325063 0 0.16732396918070891 0.37428345064546698 0 0.1753414352497735 0.37999325161561159 0 0.18137996629048009 0.370206083325063 0 0.16732396918070891 0.37428345064546698 0 0.1621634682197591 0.35762463483837248 0 0.16732396918070891 0.37428345064546698 0 0.1621634682197591 0.35762463483837248 0 0.15243674997175491 0.37430880753351858 0 0.18137996629048009 0.370206083325063 0 0.17090403088766901 0.34760521338760741 0 0.1621634682197591 0.35762463483837248 0 0.17090403088766901 0.34760521338760741 0 0.1621634682197591 0.35762463483837248 0 0.1528608304380947 0.33591888654788887 0 0.19506063651208211 0.3529699952382333 0 0.18137996629048009 0.370206083325063 0 0.18392756560891321 0.35028360568976619 0 0.18137996629048009 0.370206083325063 0 0.17090403088766901 0.34760521338760741 0 0.18392756560891321 0.35028360568976619 0 0.17090403088766901 0.34760521338760741 0 0.18392756560891321 0.35028360568976619 0 0.17262397884968009 0.33340683905260537 0 0.19168635826626171 0.33436287404964388 0 0.17262397884968009 0.33340683905260537 0 0.18464265667118551 0.32217675768258541 0 0.19168635826626171 0.33436287404964388 0 0.18392756560891321 0.35028360568976619 0 0.17262397884968009 0.33340683905260537 0 0.17262397884968009 0.33340683905260537 0 0.18464265667118551 0.32217675768258541 0 0.17371971529449001 0.31447732007997831 0 0.1857380800218856 0.3101946128211775 0 0.18464265667118551 0.32217675768258541 0 0.17371971529449001 0.31447732007997831 0 0.17262397884968009 0.33340683905260537 0 0.17371971529449001 0.31447732007997831 0 0.15957801344302991 0.31676338393705339 0 0.17090403088766901 0.34760521338760741 0 0.17262397884968009 0.33340683905260537 0 0.1528608304380947 0.33591888654788887 0 0.17262397884968009 0.33340683905260537 0 0.15957801344302991 0.31676338393705339 0 0.1528608304380947 0.33591888654788887 0 0.1528608304380947 0.33591888654788887 0 0.14389715296615771 0.31513931332742717 0 0.13775758730280899 0.34464872921492601 0 0.1528608304380947 0.33591888654788887 0 0.14389715296615771 0.31513931332742717 0 0.15957801344302991 0.31676338393705339 0 0.1528608304380947 0.33591888654788887 0 0.14389715296615771 0.31513931332742717 0 0.12478463900003051 0.31834353230628493 0 0.13163900220183661 0.3096327917829832 0 0.14389715296615771 0.31513931332742717 0 0.1227400750860225 0.33515185323383878 0 0.12478463900003051 0.31834353230628493 0 0.14389715296615771 0.31513931332742717 0 0.1227400750860225 0.33515185323383878 0 0.14389715296615771 0.31513931332742717 0 0.13775758730280899 0.34464872921492601 0 0.1228937766592843 0.35378028107363041 0 0.1227400750860225 0.33515185323383878 0 0.13775758730280899 0.34464872921492601 0 0.1228937766592843 0.35378028107363041 0 0.13775758730280899 0.34464872921492601 0 0.13961414348765769 0.36199437147248692 0 0.1228937766592843 0.35378028107363041 0 0.12874840841938939 0.37491499108935422 0 0.13961414348765769 0.36199437147248692 0 0.12874840841938939 0.37491499108935422 0 0.13961414348765769 0.36199437147248692 0 0.15243674997175491 0.37430880753351858 0 0.1621634682197591 0.35762463483837248 0 0.13961414348765769 0.36199437147248692 0 0.15243674997175491 0.37430880753351858 0 0.1621634682197591 0.35762463483837248 0 0.1528608304380947 0.33591888654788887 0 0.13775758730280899 0.34464872921492601 0 0.1621634682197591 0.35762463483837248 0 0.13775758730280899 0.34464872921492601 0 0.13961414348765769 0.36199437147248692 0 0.1437882913174531 0.39094229228056609 0 0.1372841585407342 0.40260431258846258 0 0.16220676888953181 0.40464864223273678 0 0.12874840841938939 0.37491499108935422 0 0.15243674997175491 0.37430880753351858 0 0.1437882913174531 0.39094229228056609 0 0.1437882913174531 0.39094229228056609 0 0.16529822617177711 0.38928447591476889 0 0.15243674997175491 0.37430880753351858 0 0.1437882913174531 0.39094229228056609 0 0.16529822617177711 0.38928447591476889 0 0.1222799321900277 0.39262055348189367 0 0.12874840841938939 0.37491499108935422 0 0.1437882913174531 0.39094229228056609 0 0.1222799321900277 0.39262055348189367 0 0.1437882913174531 0.39094229228056609 0 0.1222799321900277 0.39262055348189367 0 0.1437882913174531 0.39094229228056609 0 0.1372841585407342 0.40260431258846258 0 0.1227317005809329 0.40562766670787193 0 0.1222799321900277 0.39262055348189367 0 0.1372841585407342 0.40260431258846258 0 0.1227317005809329 0.40562766670787193 0 0.1372841585407342 0.40260431258846258 0 0.1363496347108536 0.41764060185587931 0 0.1227317005809329 0.40562766670787193 0 0.1363496347108536 0.41764060185587931 0 0.1138513721720477 0.42894489089561411 0 0.1363496347108536 0.41764060185587931 0 0.1138513721720477 0.42894489089561411 0 0.1363496347108536 0.41764060185587931 0 0.1317389345630566 0.44034454998539962 0 0.1363496347108536 0.41764060185587931 0 0.1537884457638469 0.43302408838470302 0 0.1317389345630566 0.44034454998539962 0 0.1363496347108536 0.41764060185587931 0 0.1537884457638469 0.43302408838470302 0 0.1363496347108536 0.41764060185587931 0 0.16220676888953181 0.40464864223273678 0 0.1363496347108536 0.41764060185587931 0 0.1537884457638469 0.43302408838470302 0 0.16220676888953181 0.40464864223273678 0 0.1372841585407342 0.40260431258846258 0 0.1363496347108536 0.41764060185587931 0 0.16220676888953181 0.40464864223273678 0 0.1537884457638469 0.43302408838470302 0 0.1693091209623078 0.42250197043899468 0 0.16220676888953181 0.40464864223273678 0 0.1693091209623078 0.42250197043899468 0 0.17612150775587521 0.4106352486917193 0 0.16220676888953181 0.40464864223273678 0 0.1537884457638469 0.43302408838470302 0 0.1693091209623078 0.42250197043899468 0 0.17103554889517389 0.43424175840152229 0 0.17103554889517389 0.43424175840152229 0 0.17983075582414079 0.42495162356552768 0 0.18443025573733721 0.4365214456651102 0 0.1693091209623078 0.42250197043899468 0 0.17103554889517389 0.43424175840152229 0 0.17983075582414079 0.42495162356552768 0 0.17983075582414079 0.42495162356552768 0 0.18734664337836329 0.41737809399924608 0 0.1914514770967467 0.42722245564662598 0 0.17983075582414079 0.42495162356552768 0 0.18443025573733721 0.4365214456651102 0 0.1914514770967467 0.42722245564662598 0 0.17612150775587521 0.4106352486917193 0 0.18734664337836329 0.41737809399924608 0 0.18806390306820961 0.3916566826095933 0 0.1693091209623078 0.42250197043899468 0 0.17983075582414079 0.42495162356552768 0 0.17612150775587521 0.4106352486917193 0 0.17983075582414079 0.42495162356552768 0 0.17612150775587521 0.4106352486917193 0 0.18734664337836329 0.41737809399924608 0 0.17612150775587521 0.4106352486917193 0 0.16220676888953181 0.40464864223273678 0 0.18806390306820961 0.3916566826095933 0 0.16220676888953181 0.40464864223273678 0 0.18806390306820961 0.3916566826095933 0 0.1437882913174531 0.39094229228056609 0 0.16220676888953181 0.40464864223273678 0 0.16529822617177711 0.38928447591476889 0 0.16220676888953181 0.40464864223273678 0 0.16529822617177711 0.38928447591476889 0 0.18806390306820961 0.3916566826095933 0 0.16732396918070891 0.37428345064546698 0 0.15243674997175491 0.37430880753351858 0 0.16529822617177711 0.38928447591476889 0 0.16732396918070891 0.37428345064546698 0 0.16529822617177711 0.38928447591476889 0 0.1753414352497735 0.37999325161561159 0 0.18137996629048009 0.370206083325063 0 0.18680816102610101 0.38762665954897041 0 0.16529822617177711 0.38928447591476889 0 0.18680816102610101 0.38762665954897041 0 0.18806390306820961 0.3916566826095933 0 0.16529822617177711 0.38928447591476889 0 0.18680816102610101 0.38762665954897041 0 0.18137996629048009 0.370206083325063 0 0.1753414352497735 0.37999325161561159 0 0.18680816102610101 0.38762665954897041 0 0.16529822617177711 0.38928447591476889 0 0.1753414352497735 0.37999325161561159 0 0.18680816102610101 0.38762665954897041 0 0.18680816102610101 0.38762665954897041 0 0.18806390306820961 0.3916566826095933 0 0.18806390306820961 0.3916566826095933 0 0.20680003534663419 0.38224268211081408 0 0.18137996629048009 0.370206083325063 0 0.18680816102610101 0.38762665954897041 0 0.19707990164758929 0.37617564161942518 0 0.19335983668554779 0.3871217079902996 0 0.18806390306820961 0.3916566826095933 0 0.20680003534663419 0.38224268211081408 0 0.18680816102610101 0.38762665954897041 0 0.19335983668554779 0.3871217079902996 0 0.19707990164758929 0.37617564161942518 0 0.18680816102610101 0.38762665954897041 0 0.19335983668554779 0.3871217079902996 0 0.18806390306820961 0.3916566826095933 0 0.18680816102610101 0.38762665954897041 0 0.19335983668554779 0.3871217079902996 0 0.19335983668554779 0.3871217079902996 0 0.19707990164758929 0.37617564161942518 0 0.20680003534663419 0.38224268211081408 0 0.18806390306820961 0.3916566826095933 0 0.20523195801271341 0.39931720960292111 0 0.1955974854435317 0.4158340292967373 0 0.18806390306820961 0.3916566826095933 0 0.20523195801271341 0.39931720960292111 0 0.20680003534663419 0.38224268211081408 0 0.18806390306820961 0.3916566826095933 0 0.1955974854435317 0.4158340292967373 0 0.20523195801271341 0.39931720960292111 0 0.21820906190716 0.39315049247634692 0 0.20680003534663419 0.38224268211081408 0 0.20523195801271341 0.39931720960292111 0 0.21820906190716 0.39315049247634692 0 0.2235449368783321 0.41060393605962281 0 0.21018188498289969 0.37041141079402012 0 0.19707990164758929 0.37617564161942518 0 0.20680003534663419 0.38224268211081408 0 0.21820906190716 0.39315049247634692 0 0.20680003534663419 0.38224268211081408 0 0.21924101697293169 0.38008071570349722 0 0.21018188498289969 0.37041141079402012 0 0.20680003534663419 0.38224268211081408 0 0.21924101697293169 0.38008071570349722 0 0.2269594812077923 0.36498825988947398 0 0.2339996019264011 0.38852855870250919 0 0.21924101697293169 0.38008071570349722 0 0.21820906190716 0.39315049247634692 0 0.2339996019264011 0.38852855870250919 0 0.21924101697293169 0.38008071570349722 0 0.21820906190716 0.39315049247634692 0 0.2339996019264011 0.38852855870250919 0 0.2235449368783321 0.41060393605962281 0 0.2339996019264011 0.38852855870250919 0 0.24895753347362559 0.38935250427750873 0 0.25149238831313242 0.40537384282250771 0 0.2339996019264011 0.38852855870250919 0 0.2235449368783321 0.41060393605962281 0 0.25149238831313242 0.40537384282250771 0 0.2339996019264011 0.38852855870250919 0 0.24895753347362559 0.38935250427750873 0 0.25004482850601251 0.37417003650910702 0 0.2269594812077923 0.36498825988947398 0 0.2339996019264011 0.38852855870250919 0 0.25004482850601251 0.37417003650910702 0 0.24724286848401511 0.43730588620179572 0 0.23207751412560629 0.42825955018272338 0 0.22717568757193801 0.44504098101581357 0 0.24724286848401511 0.43730588620179572 0 0.24414969820032961 0.41968706205485867 0 0.23207751412560629 0.42825955018272338 0 0.24724286848401511 0.43730588620179572 0 0.25240732138420802 0.43531519637741978 0 0.2235449368783321 0.41060393605962281 0 0.25149238831313242 0.40537384282250771 0 0.24414969820032961 0.41968706205485867 0 0.2235449368783321 0.41060393605962281 0 0.25149238831313242 0.40537384282250771 0 0.24414969820032961 0.41968706205485867 0 0.2235449368783321 0.41060393605962281 0 0.23207751412560629 0.42825955018272338 0 0.23207751412560629 0.42825955018272338 0 0.21738178200857899 0.43217476483214162 0 0.22717568757193801 0.44504098101581357 0 0.2235449368783321 0.41060393605962281 0 0.23207751412560629 0.42825955018272338 0 0.21738178200857899 0.43217476483214162 0 0.21738178200857899 0.43217476483214162 0 0.1955974854435317 0.4158340292967373 0 0.2013529960516974 0.43430505256328322 0 0.2235449368783321 0.41060393605962281 0 0.21738178200857899 0.43217476483214162 0 0.1955974854435317 0.4158340292967373 0 0.20523195801271341 0.39931720960292111 0 0.2235449368783321 0.41060393605962281 0 0.1955974854435317 0.4158340292967373 0 0.2235449368783321 0.41060393605962281 0 0.1955974854435317 0.4158340292967373 0 0.18734664337836329 0.41737809399924608 0 0.18806390306820961 0.3916566826095933 0 0.1955974854435317 0.4158340292967373 0 0.18734664337836329 0.41737809399924608 0 0.1955974854435317 0.4158340292967373 0 0.1914514770967467 0.42722245564662598 0 0.18734664337836329 0.41737809399924608 0 0.1955974854435317 0.4158340292967373 0 0.18443025573733721 0.4365214456651102 0 0.2013529960516974 0.43430505256328322 0 0.1914514770967467 0.42722245564662598 0 0.1955974854435317 0.4158340292967373 0 0.2013529960516974 0.43430505256328322 0 0.1955974854435317 0.4158340292967373 0 0.2013529960516974 0.43430505256328322 0 0.1914514770967467 0.42722245564662598 0 0.2013529960516974 0.43430505256328322 0 0.19067783845617001 0.44754177702281611 0 0.2071085066598605 0.45277607582982998 0 0.18443025573733721 0.4365214456651102 0 0.2013529960516974 0.43430505256328322 0 0.19067783845617001 0.44754177702281611 0 0.19067783845617001 0.44754177702281611 0 0.2071085066598605 0.45277607582982998 0 0.1835494383271204 0.46185715344019501 0 0.2071085066598605 0.45277607582982998 0 0.19716845636802571 0.46997523873954761 0 0.1835494383271204 0.46185715344019501 0 0.2071085066598605 0.45277607582982998 0 0.1835494383271204 0.46185715344019501 0 0.2071085066598605 0.45277607582982998 0 0.2129482677330139 0.47151748210928229 0 0.2071085066598605 0.45277607582982998 0 0.23009556810851589 0.45441168415554051 0 0.2129482677330139 0.47151748210928229 0 0.2071085066598605 0.45277607582982998 0 0.2129482677330139 0.47151748210928229 0 0.19716845636802571 0.46997523873954761 0 0.2071085066598605 0.45277607582982998 0 0.22717568757193801 0.44504098101581357 0 0.21738178200857899 0.43217476483214162 0 0.2013529960516974 0.43430505256328322 0 0.2071085066598605 0.45277607582982998 0 0.21738178200857899 0.43217476483214162 0 0.2071085066598605 0.45277607582982998 0 0.22717568757193801 0.44504098101581357 0 0.2013529960516974 0.43430505256328322 0 0.2071085066598605 0.45277607582982998 0 0.2071085066598605 0.45277607582982998 0 0.22717568757193801 0.44504098101581357 0 0.23009556810851589 0.45441168415554051 0 0.23009556810851589 0.45441168415554051 0 0.2129482677330139 0.47151748210928229 0 0.23009556810851589 0.45441168415554051 0 0.24021490469564979 0.47961038549362472 0 0.2129482677330139 0.47151748210928229 0 0.23009556810851589 0.45441168415554051 0 0.24765392865386529 0.46593673185467921 0 0.24021490469564979 0.47961038549362472 0 0.23009556810851589 0.45441168415554051 0 0.24765392865386529 0.46593673185467921 0 0.2483864631655168 0.45165419251179562 0 0.24724286848401511 0.43730588620179572 0 0.22717568757193801 0.44504098101581357 0 0.23009556810851589 0.45441168415554051 0 0.24724286848401511 0.43730588620179572 0 0.23009556810851589 0.45441168415554051 0 0.2483864631655168 0.45165419251179562 0 0.24724286848401511 0.43730588620179572 0 0.23009556810851589 0.45441168415554051 0 0.24724286848401511 0.43730588620179572 0 0.22717568757193801 0.44504098101581357 0 0.24021490469564979 0.47961038549362472 0 0.22182332741441829 0.50000000000000167 0 0.25148388954744788 0.5 0 0.24021490469564979 0.47961038549362472 0 0.25148388954744788 0.5 0 0.25828005954776762 0.48727387485427581 0 0.24765392865386529 0.46593673185467921 0 0.24021490469564979 0.47961038549362472 0 0.25911904573229272 0.47479080697793091 0 0.24021490469564979 0.47961038549362472 0 0.22182332741441829 0.50000000000000167 0 0.2129482677330139 0.47151748210928229 0 0.22182332741441829 0.50000000000000167 0 0.2129482677330139 0.47151748210928229 0 0.19867245636649919 0.48575874105464428 0 0.22182332741441829 0.50000000000000167 0 0.2129482677330139 0.47151748210928229 0 0.22182332741441829 0.50000000000000167 0 0.20310998620719981 0.5 0 0.19867245636649919 0.48575874105464428 0 0.2129482677330139 0.47151748210928229 0 0.19867245636649919 0.48575874105464428 0 0.19716845636802571 0.46997523873954761 0 0.19867245636649919 0.48575874105464428 0 0.1803369337241785 0.47779034284413852 0 0.2129482677330139 0.47151748210928229 0 0.19716845636802571 0.46997523873954761 0 0.19867245636649919 0.48575874105464428 0 0.19867245636649919 0.48575874105464428 0 0.18439664499998129 0.50000000000000311 0 0.18012483949379141 0.49009330276992918 0 0.20310998620719981 0.5 0 0.19867245636649919 0.48575874105464428 0 0.18439664499998129 0.50000000000000311 0 0.19867245636649919 0.48575874105464428 0 0.18439664499998129 0.50000000000000311 0 0.18012483949379141 0.49009330276992918 0 0.17355120717848371 0.49999999999999989 0 0.16366695519981431 0.48691742995086351 0 0.19867245636649919 0.48575874105464428 0 0.18012483949379141 0.49009330276992918 0 0.1803369337241785 0.47779034284413852 0 0.18012483949379141 0.49009330276992918 0 0.16366695519981431 0.48691742995086351 0 0.1803369337241785 0.47779034284413852 0 0.18439664499998129 0.50000000000000311 0 0.18012483949379141 0.49009330276992918 0 0.17355120717848371 0.49999999999999989 0 0.17355120717848371 0.49999999999999989 0 0.14683292688810981 0.49216617829117132 0 0.17355120717848371 0.49999999999999989 0 0.16366695519981431 0.48691742995086351 0 0.14683292688810981 0.49216617829117132 0 0.16366695519981431 0.48691742995086351 0 0.15999036999437899 0.47093823105055649 0 0.1803369337241785 0.47779034284413852 0 0.16366695519981431 0.48691742995086351 0 0.15999036999437899 0.47093823105055649 0 0.14683292688810981 0.49216617829117132 0 0.19716845636802571 0.46997523873954761 0 0.1803369337241785 0.47779034284413852 0 0.1835494383271204 0.46185715344019501 0 0.15999036999437899 0.47093823105055649 0 0.1803369337241785 0.47779034284413852 0 0.1835494383271204 0.46185715344019501 0 0.18443025573733721 0.4365214456651102 0 0.19067783845617001 0.44754177702281611 0 0.17122725681684139 0.44840757491352518 0 0.19067783845617001 0.44754177702281611 0 0.1835494383271204 0.46185715344019501 0 0.17122725681684139 0.44840757491352518 0 0.17103554889517389 0.43424175840152229 0 0.18443025573733721 0.4365214456651102 0 0.17122725681684139 0.44840757491352518 0 0.1537884457638469 0.43302408838470302 0 0.17122725681684139 0.44840757491352518 0 0.1537884457638469 0.43302408838470302 0 0.17103554889517389 0.43424175840152229 0 0.17122725681684139 0.44840757491352518 0 0.1537884457638469 0.43302408838470302 0 0.17122725681684139 0.44840757491352518 0 0.14795798415321029 0.45373169023503668 0 0.15999036999437899 0.47093823105055649 0 0.1835494383271204 0.46185715344019501 0 0.15999036999437899 0.47093823105055649 0 0.1835494383271204 0.46185715344019501 0 0.17122725681684139 0.44840757491352518 0 0.15999036999437899 0.47093823105055649 0 0.17122725681684139 0.44840757491352518 0 0.14795798415321029 0.45373169023503668 0 0.15999036999437899 0.47093823105055649 0 0.14795798415321029 0.45373169023503668 0 0.1399756814652966 0.47322436359136899 0 0.1537884457638469 0.43302408838470302 0 0.14795798415321029 0.45373169023503668 0 0.1317389345630566 0.44034454998539962 0 0.14795798415321029 0.45373169023503668 0 0.1317389345630566 0.44034454998539962 0 0.12755468689653379 0.46028893177219221 0 0.14795798415321029 0.45373169023503668 0 0.12755468689653379 0.46028893177219221 0 0.1399756814652966 0.47322436359136899 0 0.12011464659773601 0.48433235658234292 0 0.1399756814652966 0.47322436359136899 0 0.14683292688810981 0.49216617829117132 0 0.12011464659773601 0.48433235658234292 0 0.12755468689653379 0.46028893177219221 0 0.1399756814652966 0.47322436359136899 0 0.12011464659773601 0.48433235658234292 0 0.1456501555174973 0.5 0 0.14683292688810981 0.49216617829117132 0 0.12011464659773601 0.48433235658234292 0 0.14683292688810981 0.49216617829117132 0 0.1177491038565109 0.5 0 0.12011464659773601 0.48433235658234292 0 0.1456501555174973 0.5 0 0.17355120717848371 0.49999999999999989 0 0.1456501555174973 0.5 0 0.14683292688810981 0.49216617829117132 0 0.15999036999437899 0.47093823105055649 0 0.1399756814652966 0.47322436359136899 0 0.14683292688810981 0.49216617829117132 0 0.35247684016610892 0.48135519728094223 0 0.36629076891963169 0.4716758837031908 0 0.34808385012194532 0.46833474746431619 0 0.35247684016610892 0.48135519728094223 0 0.34808385012194532 0.46833474746431619 0 0.3409620632552825 0.47917774720394313 0 0.35247684016610892 0.48135519728094223 0 0.3462214490644917 0.48972220560128799 0 0.3409620632552825 0.47917774720394313 0 0.3462214490644917 0.48972220560128799 0 0.37012613807956618 0.5 0 0.34046557594653659 0.5 0 0.35247684016610892 0.48135519728094223 0 0.3462214490644917 0.48972220560128799 0 0.37012613807956618 0.5 0 0.35247684016610892 0.48135519728094223 0 0.37012613807956618 0.5 0 0.36629076891963169 0.4716758837031908 0 0.37012613807956618 0.5 0 0.36629076891963169 0.4716758837031908 0 0.38608907541949888 0.47640493513650201 0 0.36629076891963169 0.4716758837031908 0 0.36042274455222723 0.45828301314078967 0 0.37601462365556942 0.45725266909953982 0 0.36042274455222723 0.45828301314078967 0 0.37023049558979693 0.44243966271604079 0 0.37601462365556942 0.45725266909953982 0 0.36042274455222723 0.45828301314078967 0 0.37023049558979693 0.44243966271604079 0 0.3447891183557612 0.45387917257366528 0 0.37023049558979693 0.44243966271604079 0 0.3447891183557612 0.45387917257366528 0 0.37023049558979693 0.44243966271604079 0 0.3447891183557612 0.45387917257366528 0 0.34683892198368271 0.43497585396448762 0 0.36042274455222723 0.45828301314078967 0 0.3447891183557612 0.45387917257366528 0 0.34808385012194532 0.46833474746431619 0 0.36629076891963169 0.4716758837031908 0 0.36042274455222723 0.45828301314078967 0 0.34808385012194532 0.46833474746431619 0 0.3447891183557612 0.45387917257366528 0 0.34808385012194532 0.46833474746431619 0 0.33183011984920308 0.46912474326968551 0 0.3447891183557612 0.45387917257366528 0 0.31934774112172409 0.46531868243128682 0 0.3447891183557612 0.45387917257366528 0 0.31934774112172409 0.46531868243128682 0 0.33183011984920308 0.46912474326968551 0 0.3447891183557612 0.45387917257366528 0 0.32242768817354062 0.44789604896168522 0 0.31934774112172409 0.46531868243128682 0 0.3447891183557612 0.45387917257366528 0 0.33430974355392468 0.44085677769708592 0 0.34683892198368271 0.43497585396448762 0 0.3447891183557612 0.45387917257366528 0 0.33430974355392468 0.44085677769708592 0 0.32242768817354062 0.44789604896168522 0 0.32242768817354062 0.44789604896168522 0 0.31934774112172409 0.46531868243128682 0 0.30626697613209891 0.4406942702111516 0 0.32242768817354062 0.44789604896168522 0 0.3164422171315201 0.4402182607629207 0 0.30626697613209891 0.4406942702111516 0 0.31934774112172409 0.46531868243128682 0 0.30626697613209891 0.4406942702111516 0 0.33430974355392468 0.44085677769708592 0 0.32242768817354062 0.44789604896168522 0 0.32436539409019788 0.43574810172012018 0 0.32242768817354062 0.44789604896168522 0 0.3164422171315201 0.4402182607629207 0 0.32436539409019788 0.43574810172012018 0 0.31934774112172409 0.46531868243128682 0 0.31753801155939421 0.46613241271709538 0 0.30626697613209891 0.4406942702111516 0 0.31934774112172409 0.46531868243128682 0 0.33183011984920308 0.46912474326968551 0 0.31934774112172409 0.46531868243128682 0 0.31753801155939421 0.46613241271709538 0 0.31704135239685971 0.47479280848595617 0 0.31934774112172409 0.46531868243128682 0 0.31753801155939421 0.46613241271709538 0 0.31934774112172409 0.46531868243128682 0 0.33220994824648092 0.4895316616073454 0 0.31934774112172409 0.46531868243128682 0 0.33183011984920308 0.46912474326968551 0 0.33220994824648092 0.4895316616073454 0 0.31934774112172409 0.46531868243128682 0 0.31704135239685971 0.47479280848595617 0 0.33220994824648092 0.4895316616073454 0 0.31704135239685971 0.47479280848595617 0 0.33220994824648092 0.4895316616073454 0 0.31601690553499961 0.48723098345619159 0 0.31704135239685971 0.47479280848595617 0 0.31601690553499961 0.48723098345619159 0 0.30657958094704779 0.48509405485225621 0 0.34808385012194532 0.46833474746431619 0 0.33183011984920308 0.46912474326968551 0 0.3409620632552825 0.47917774720394313 0 0.33183011984920308 0.46912474326968551 0 0.3409620632552825 0.47917774720394313 0 0.33220994824648092 0.4895316616073454 0 0.3462214490644917 0.48972220560128799 0 0.34046557594653659 0.5 0 0.33220994824648092 0.4895316616073454 0 0.3462214490644917 0.48972220560128799 0 0.3409620632552825 0.47917774720394313 0 0.33220994824648092 0.4895316616073454 0 0.34046557594653659 0.5 0 0.33220994824648092 0.4895316616073454 0 0.310805013813507 0.5 0 0.33220994824648092 0.4895316616073454 0 0.31601690553499961 0.48723098345619159 0 0.310805013813507 0.5 0 0.31601690553499961 0.48723098345619159 0 0.310805013813507 0.5 0 0.30657958094704779 0.48509405485225621 0 0.310805013813507 0.5 0 0.30657958094704779 0.48509405485225621 0 0.2955866676897117 0.489780963721411 0 0.31753801155939421 0.46613241271709538 0 0.29858451182795492 0.4746547008393045 0 0.31704135239685971 0.47479280848595617 0 0.30657958094704779 0.48509405485225621 0 0.29858451182795492 0.4746547008393045 0 0.31753801155939421 0.46613241271709538 0 0.31704135239685971 0.47479280848595617 0 0.29858451182795492 0.4746547008393045 0 0.30657958094704779 0.48509405485225621 0 0.29858451182795492 0.4746547008393045 0 0.2955866676897117 0.489780963721411 0 0.29858451182795492 0.4746547008393045 0 0.28685719333010651 0.48788382429016008 0 0.27963101209651592 0.48317698896151418 0 0.29858451182795492 0.4746547008393045 0 0.28176766377044671 0.47825995933455823 0 0.27963101209651592 0.48317698896151418 0 0.29858451182795492 0.4746547008393045 0 0.27963101209651592 0.48317698896151418 0 0.29858451182795492 0.4746547008393045 0 0.28176766377044671 0.47825995933455823 0 0.29302416088025218 0.46099996179653391 0 0.28176766377044671 0.47825995933455823 0 0.29302416088025218 0.46099996179653391 0 0.29858451182795492 0.4746547008393045 0 0.2955866676897117 0.489780963721411 0 0.28685719333010651 0.48788382429016008 0 0.310805013813507 0.5 0 0.2955866676897117 0.489780963721411 0 0.28114445168047741 0.5 0 0.28685719333010651 0.48788382429016008 0 0.27933932335587208 0.49180646792857102 0 0.27963101209651592 0.48317698896151418 0 0.28685719333010651 0.48788382429016008 0 0.28114445168047741 0.5 0 0.27933932335587208 0.49180646792857102 0 0.2955866676897117 0.489780963721411 0 0.28685719333010651 0.48788382429016008 0 0.28114445168047741 0.5 0 0.28176766377044671 0.47825995933455823 0 0.27051116666064112 0.49551995687258249 0 0.26842771741161398 0.48157839008493719 0 0.28176766377044671 0.47825995933455823 0 0.27051116666064112 0.49551995687258249 0 0.28176766377044671 0.47825995933455823 0 0.27051116666064112 0.49551995687258249 0 0.27963101209651592 0.48317698896151418 0 0.28114445168047741 0.5 0 0.27051116666064112 0.49551995687258249 0 0.27933932335587208 0.49180646792857102 0 0.28114445168047741 0.5 0 0.27051116666064112 0.49551995687258249 0 0.25148388954744788 0.5 0 0.27051116666064112 0.49551995687258249 0 0.26842771741161398 0.48157839008493719 0 0.25828005954776762 0.48727387485427581 0 0.27051116666064112 0.49551995687258249 0 0.27933932335587208 0.49180646792857102 0 0.27963101209651592 0.48317698896151418 0 0.28176766377044671 0.47825995933455823 0 0.27258176991281541 0.47152939632597629 0 0.26842771741161398 0.48157839008493719 0 0.28176766377044671 0.47825995933455823 0 0.27258176991281541 0.47152939632597629 0 0.27951972664659969 0.4667790986528082 0 0.27258176991281541 0.47152939632597629 0 0.26842771741161398 0.48157839008493719 0 0.25911904573229272 0.47479080697793091 0 0.26842771741161398 0.48157839008493719 0 0.25911904573229272 0.47479080697793091 0 0.25828005954776762 0.48727387485427581 0 0.24021490469564979 0.47961038549362472 0 0.25911904573229272 0.47479080697793091 0 0.25828005954776762 0.48727387485427581 0 0.27051116666064112 0.49551995687258249 0 0.25148388954744788 0.5 0 0.25828005954776762 0.48727387485427581 0 0.2483864631655168 0.45165419251179562 0 0.25837369721546982 0.4426692750196789 0 0.2707053120228845 0.45632707715416471 0 0.25837369721546982 0.4426692750196789 0 0.27051154351642132 0.43814050273699728 0 0.26098867471977433 0.43727279513590289 0 0.24724286848401511 0.43730588620179572 0 0.2483864631655168 0.45165419251179562 0 0.25837369721546982 0.4426692750196789 0 0.24724286848401511 0.43730588620179572 0 0.25837369721546982 0.4426692750196789 0 0.25240732138420802 0.43531519637741978 0 0.25837369721546982 0.4426692750196789 0 0.25240732138420802 0.43531519637741978 0 0.26098867471977433 0.43727279513590289 0 0.2483864631655168 0.45165419251179562 0 0.2707053120228845 0.45632707715416471 0 0.24765392865386529 0.46593673185467921 0 0.25911904573229272 0.47479080697793091 0 0.2707053120228845 0.45632707715416471 0 0.24765392865386529 0.46593673185467921 0 0.2483864631655168 0.45165419251179562 0 0.2707053120228845 0.45632707715416471 0 0.2707053120228845 0.45632707715416471 0 0.27951972664659969 0.4667790986528082 0 0.29302416088025218 0.46099996179653391 0 0.27258176991281541 0.47152939632597629 0 0.25911904573229272 0.47479080697793091 0 0.2707053120228845 0.45632707715416471 0 0.27258176991281541 0.47152939632597629 0 0.2707053120228845 0.45632707715416471 0 0.27951972664659969 0.4667790986528082 0 0.2707053120228845 0.45632707715416471 0 0.27051154351642132 0.43814050273699728 0 0.28379226692031312 0.44255647938766612 0 0.25837369721546982 0.4426692750196789 0 0.2707053120228845 0.45632707715416471 0 0.27051154351642132 0.43814050273699728 0 0.28379226692031312 0.44255647938766612 0 0.29636142725062231 0.44344824904590602 0 0.29302416088025218 0.46099996179653391 0 0.28379226692031312 0.44255647938766612 0 0.29636142725062231 0.44344824904590602 0 0.29390832305854531 0.43417925322187051 0 0.28176766377044671 0.47825995933455823 0 0.27951972664659969 0.4667790986528082 0 0.29302416088025218 0.46099996179653391 0 0.2707053120228845 0.45632707715416471 0 0.29302416088025218 0.46099996179653391 0 0.2707053120228845 0.45632707715416471 0 0.28379226692031312 0.44255647938766612 0 0.29302416088025218 0.46099996179653391 0 0.31753801155939421 0.46613241271709538 0 0.29858451182795492 0.4746547008393045 0 0.29302416088025218 0.46099996179653391 0 0.31753801155939421 0.46613241271709538 0 0.29302416088025218 0.46099996179653391 0 0.30626697613209891 0.4406942702111516 0 0.31753801155939421 0.46613241271709538 0 0.29302416088025218 0.46099996179653391 0 0.29302416088025218 0.46099996179653391 0 0.30626697613209891 0.4406942702111516 0 0.29636142725062231 0.44344824904590602 0 0.29302416088025218 0.46099996179653391 0 0.30626697613209891 0.4406942702111516 0 0.29636142725062231 0.44344824904590602 0 0.30515469468720058 0.43860041126439592 0 0.29390832305854531 0.43417925322187051 0 0.29636142725062231 0.44344824904590602 0 0.30515469468720058 0.43860041126439592 0 0.30626697613209891 0.4406942702111516 0 0.3164422171315201 0.4402182607629207 0 0.30626697613209891 0.4406942702111516 0 0.30932145399283378 0.43601072791181339 0 0.30515469468720058 0.43860041126439592 0 0.30626697613209891 0.4406942702111516 0 0.30932145399283378 0.43601072791181339 0 0.30626697613209891 0.4406942702111516 0 0.30932145399283378 0.43601072791181339 0 0.30515469468720058 0.43860041126439592 0 0.30626697613209891 0.4406942702111516 0 0.30515469468720058 0.43860041126439592 0 0.30932145399283378 0.43601072791181339 0 0.30727117653343111 0.4267359414930636 0 0.30515469468720058 0.43860041126439592 0 0.29490039755973552 0.41929679716425189 0 0.30515469468720058 0.43860041126439592 0 0.29490039755973552 0.41929679716425189 0 0.29390832305854531 0.43417925322187051 0 0.30515469468720058 0.43860041126439592 0 0.30727117653343111 0.4267359414930636 0 0.29490039755973552 0.41929679716425189 0 0.30515469468720058 0.43860041126439592 0 0.30932145399283378 0.43601072791181339 0 0.30932145399283378 0.43601072791181339 0 0.30727117653343111 0.4267359414930636 0 0.31652364362590552 0.42496734788669671 0 0.30727117653343111 0.4267359414930636 0 0.31055221728225407 0.41453781267277118 0 0.31652364362590552 0.42496734788669671 0 0.30727117653343111 0.4267359414930636 0 0.31055221728225407 0.41453781267277118 0 0.29490039755973552 0.41929679716425189 0 0.31055221728225407 0.41453781267277118 0 0.29490039755973552 0.41929679716425189 0 0.3027371753967697 0.40187807462993708 0 0.29490039755973552 0.41929679716425189 0 0.28464610043227068 0.3999931830641078 0 0.29490039755973552 0.41929679716425189 0 0.28464610043227068 0.3999931830641078 0 0.3027371753967697 0.40187807462993708 0 0.29490039755973552 0.41929679716425189 0 0.28155236346502521 0.4164755774242338 0 0.28464610043227068 0.3999931830641078 0 0.29490039755973552 0.41929679716425189 0 0.28155236346502521 0.4164755774242338 0 0.28071847140995082 0.42796279483562261 0 0.29490039755973552 0.41929679716425189 0 0.29390832305854531 0.43417925322187051 0 0.28071847140995082 0.42796279483562261 0 0.28379226692031312 0.44255647938766612 0 0.29390832305854531 0.43417925322187051 0 0.28071847140995082 0.42796279483562261 0 0.27051154351642132 0.43814050273699728 0 0.26594448445814362 0.41864953463295251 0 0.26098867471977433 0.43727279513590289 0 0.27051154351642132 0.43814050273699728 0 0.28071847140995082 0.42796279483562261 0 0.26594448445814362 0.41864953463295251 0 0.27051154351642132 0.43814050273699728 0 0.28379226692031312 0.44255647938766612 0 0.28071847140995082 0.42796279483562261 0 0.26594448445814362 0.41864953463295251 0 0.25149238831313242 0.40537384282250771 0 0.27943983974793268 0.40014374958539273 0 0.26594448445814362 0.41864953463295251 0 0.27943983974793268 0.40014374958539273 0 0.28464610043227068 0.3999931830641078 0 0.28155236346502521 0.4164755774242338 0 0.26594448445814362 0.41864953463295251 0 0.28464610043227068 0.3999931830641078 0 0.28155236346502521 0.4164755774242338 0 0.28071847140995082 0.42796279483562261 0 0.26594448445814362 0.41864953463295251 0 0.26594448445814362 0.41864953463295251 0 0.28464610043227068 0.3999931830641078 0 0.24414969820032961 0.41968706205485867 0 0.26594448445814362 0.41864953463295251 0 0.25149238831313242 0.40537384282250771 0 0.24724286848401511 0.43730588620179572 0 0.26594448445814362 0.41864953463295251 0 0.25240732138420802 0.43531519637741978 0 0.24724286848401511 0.43730588620179572 0 0.24414969820032961 0.41968706205485867 0 0.26594448445814362 0.41864953463295251 0 0.26594448445814362 0.41864953463295251 0 0.25240732138420802 0.43531519637741978 0 0.26098867471977433 0.43727279513590289 0 0.24724286848401511 0.43730588620179572 0 0.26594448445814362 0.41864953463295251 0 0.26029331514895648 0.38933757907591121 0 0.27201152922514349 0.37620872627770002 0 0.25004482850601251 0.37417003650910702 0 0.24895753347362559 0.38935250427750873 0 0.26029331514895648 0.38933757907591121 0 0.25004482850601251 0.37417003650910702 0 0.26029331514895648 0.38933757907591121 0 0.25149238831313242 0.40537384282250771 0 0.27943983974793268 0.40014374958539273 0 0.25149238831313242 0.40537384282250771 0 0.27943983974793268 0.40014374958539273 0 0.24895753347362559 0.38935250427750873 0 0.26029331514895648 0.38933757907591121 0 0.25149238831313242 0.40537384282250771 0 0.27943983974793268 0.40014374958539273 0 0.27201152922514349 0.37620872627770002 0 0.28464610043227068 0.3999931830641078 0 0.26029331514895648 0.38933757907591121 0 0.27943983974793268 0.40014374958539273 0 0.27201152922514349 0.37620872627770002 0 0.27201152922514349 0.37620872627770002 0 0.28464610043227068 0.3999931830641078 0 0.27201152922514349 0.37620872627770002 0 0.29667615895540123 0.38799224146035582 0 0.28464610043227068 0.3999931830641078 0 0.27201152922514349 0.37620872627770002 0 0.29667615895540123 0.38799224146035582 0 0.29379146728033478 0.37241021500447918 0 0.29667615895540123 0.38799224146035582 0 0.28464610043227068 0.3999931830641078 0 0.3027371753967697 0.40187807462993708 0 0.29667615895540123 0.38799224146035582 0 0.28464610043227068 0.3999931830641078 0 0.31055221728225407 0.41453781267277118 0 0.3027371753967697 0.40187807462993708 0 0.31956135436067851 0.39952235043662437 0 0.3027371753967697 0.40187807462993708 0 0.30991937728163271 0.38948227525793522 0 0.31956135436067851 0.39952235043662437 0 0.29667615895540123 0.38799224146035582 0 0.3027371753967697 0.40187807462993708 0 0.30991937728163271 0.38948227525793522 0 0.29667615895540123 0.38799224146035582 0 0.30870621747853161 0.37599129985660368 0 0.29667615895540123 0.38799224146035582 0 0.30870621747853161 0.37599129985660368 0 0.29379146728033478 0.37241021500447918 0 0.29667615895540123 0.38799224146035582 0 0.30991937728163271 0.38948227525793522 0 0.30870621747853161 0.37599129985660368 0 0.30991937728163271 0.38948227525793522 0 0.32191598021678253 0.38202740990615491 0 0.31956135436067851 0.39952235043662437 0 0.32191598021678253 0.38202740990615491 0 0.33790673600516452 0.3878871159059491 0 0.31956135436067851 0.39952235043662437 0 0.30991937728163271 0.38948227525793522 0 0.30870621747853161 0.37599129985660368 0 0.32191598021678253 0.38202740990615491 0 0.33790673600516452 0.3878871159059491 0 0.34772436780185922 0.37711320982869923 0 0.33453775718698869 0.36832022575058282 0 0.32191598021678253 0.38202740990615491 0 0.33790673600516452 0.3878871159059491 0 0.33453775718698869 0.36832022575058282 0 0.33790673600516452 0.3878871159059491 0 0.33599144557606297 0.40514754333622249 0 0.31956135436067851 0.39952235043662437 0 0.33790673600516452 0.3878871159059491 0 0.33599144557606297 0.40514754333622249 0 0.35436964554151712 0.40801281798695099 0 0.33599144557606297 0.40514754333622249 0 0.31956135436067851 0.39952235043662437 0 0.32287553722626061 0.41329068756941723 0 0.31055221728225407 0.41453781267277118 0 0.31956135436067851 0.39952235043662437 0 0.32287553722626061 0.41329068756941723 0 0.31055221728225407 0.41453781267277118 0 0.32287553722626061 0.41329068756941723 0 0.31652364362590552 0.42496734788669671 0 0.32287553722626061 0.41329068756941723 0 0.31652364362590552 0.42496734788669671 0 0.33184554976717562 0.42201177294938252 0 0.30932145399283378 0.43601072791181339 0 0.33184554976717562 0.42201177294938252 0 0.30932145399283378 0.43601072791181339 0 0.32436539409019788 0.43574810172012018 0 0.33184554976717562 0.42201177294938252 0 0.30932145399283378 0.43601072791181339 0 0.31652364362590552 0.42496734788669671 0 0.33184554976717562 0.42201177294938252 0 0.3164422171315201 0.4402182607629207 0 0.30932145399283378 0.43601072791181339 0 0.32436539409019788 0.43574810172012018 0 0.30932145399283378 0.43601072791181339 0 0.31652364362590552 0.42496734788669671 0 0.33430974355392468 0.44085677769708592 0 0.32436539409019788 0.43574810172012018 0 0.33433990234874522 0.43339812658276899 0 0.32436539409019788 0.43574810172012018 0 0.33433990234874522 0.43339812658276899 0 0.33184554976717562 0.42201177294938252 0 0.33430974355392468 0.44085677769708592 0 0.33433990234874522 0.43339812658276899 0 0.34683892198368271 0.43497585396448762 0 0.33433990234874522 0.43339812658276899 0 0.33184554976717562 0.42201177294938252 0 0.34683892198368271 0.43497585396448762 0 0.33599144557606297 0.40514754333622249 0 0.32287553722626061 0.41329068756941723 0 0.33184554976717562 0.42201177294938252 0 0.33599144557606297 0.40514754333622249 0 0.33184554976717562 0.42201177294938252 0 0.35436964554151712 0.40801281798695099 0 0.33184554976717562 0.42201177294938252 0 0.35436964554151712 0.40801281798695099 0 0.33184554976717562 0.42201177294938252 0 0.35436964554151712 0.40801281798695099 0 0.35270801134429902 0.42331693779614088 0 0.35436964554151712 0.40801281798695099 0 0.35270801134429902 0.42331693779614088 0 0.36576493885511052 0.4178029688051923 0 0.33184554976717562 0.42201177294938252 0 0.34683892198368271 0.43497585396448762 0 0.35270801134429902 0.42331693779614088 0 0.34683892198368271 0.43497585396448762 0 0.35270801134429902 0.42331693779614088 0 0.36494729189279101 0.43181380661286789 0 0.37023049558979693 0.44243966271604079 0 0.34683892198368271 0.43497585396448762 0 0.36494729189279101 0.43181380661286789 0 0.35270801134429902 0.42331693779614088 0 0.36494729189279101 0.43181380661286789 0 0.36576493885511052 0.4178029688051923 0 0.36494729189279101 0.43181380661286789 0 0.36576493885511052 0.4178029688051923 0 0.37795549308522902 0.41628895699810292 0 0.37023049558979693 0.44243966271604079 0 0.36494729189279101 0.43181380661286789 0 0.38040430343443521 0.43193634251772789 0 0.35436964554151712 0.40801281798695099 0 0.36576493885511052 0.4178029688051923 0 0.3730999423012219 0.40954342286834639 0 0.36576493885511052 0.4178029688051923 0 0.3730999423012219 0.40954342286834639 0 0.37795549308522902 0.41628895699810292 0 0.35436964554151712 0.40801281798695099 0 0.3730999423012219 0.40954342286834639 0 0.37689374131585868 0.39401386302451952 0 0.35436964554151712 0.40801281798695099 0 0.35919616870876131 0.3894606022172864 0 0.37689374131585868 0.39401386302451952 0 0.35436964554151712 0.40801281798695099 0 0.37689374131585868 0.39401386302451952 0 0.35919616870876131 0.3894606022172864 0 0.37532807730040257 0.38316169753815299 0 0.37689374131585868 0.39401386302451952 0 0.35919616870876131 0.3894606022172864 0 0.35925680930652232 0.36278489544097858 0 0.37532807730040257 0.38316169753815299 0 0.34772436780185922 0.37711320982869923 0 0.35919616870876131 0.3894606022172864 0 0.35925680930652232 0.36278489544097858 0 0.33790673600516452 0.3878871159059491 0 0.34772436780185922 0.37711320982869923 0 0.35919616870876131 0.3894606022172864 0 0.33790673600516452 0.3878871159059491 0 0.35436964554151712 0.40801281798695099 0 0.35919616870876131 0.3894606022172864 0 0.35925680930652232 0.36278489544097858 0 0.3431855413126419 0.34240809334380412 0 0.35925680930652232 0.36278489544097858 0 0.3431855413126419 0.34240809334380412 0 0.33245135870072939 0.35324884091370568 0 0.3572965491905824 0.34401749644765389 0 0.35925680930652232 0.36278489544097858 0 0.3431855413126419 0.34240809334380412 0 0.34772436780185922 0.37711320982869923 0 0.35925680930652232 0.36278489544097858 0 0.33453775718698869 0.36832022575058282 0 0.35925680930652232 0.36278489544097858 0 0.37302365365364959 0.35074164613539471 0 0.37579738303020882 0.36700132473203578 0 0.35925680930652232 0.36278489544097858 0 0.37532807730040257 0.38316169753815299 0 0.35925680930652232 0.36278489544097858 0 0.37579738303020882 0.36700132473203578 0 0.37532807730040257 0.38316169753815299 0 0.3572965491905824 0.34401749644765389 0 0.37302365365364959 0.35074164613539471 0 0.36472776161066189 0.33815375545378978 0 0.3572965491905824 0.34401749644765389 0 0.35925680930652232 0.36278489544097858 0 0.37302365365364959 0.35074164613539471 0 0.37302365365364959 0.35074164613539471 0 0.36472776161066189 0.33815375545378978 0 0.37581922482641023 0.33652832221029488 0 0.36472776161066189 0.33815375545378978 0 0.36652404672022781 0.32498938145526818 0 0.37581922482641023 0.33652832221029488 0 0.36472776161066189 0.33815375545378978 0 0.36652404672022781 0.32498938145526818 0 0.35849339535265401 0.33005623103862841 0 0.3572965491905824 0.34401749644765389 0 0.36472776161066189 0.33815375545378978 0 0.35849339535265401 0.33005623103862841 0 0.36652404672022781 0.32498938145526818 0 0.35581066202774619 0.30787794864699841 0 0.37260377894228941 0.31021247519256018 0 0.36652404672022781 0.32498938145526818 0 0.35849339535265401 0.33005623103862841 0 0.35581066202774619 0.30787794864699841 0 0.36652404672022781 0.32498938145526818 0 0.37260377894228941 0.31021247519256018 0 0.37730394880888052 0.32282274240207831 0 0.36652404672022781 0.32498938145526818 0 0.37730394880888052 0.32282274240207831 0 0.37581922482641023 0.33652832221029488 0 0.3481079572140523 0.33524257318942569 0 0.35581066202774619 0.30787794864699841 0 0.3481079572140523 0.33524257318942569 0 0.34111493155921779 0.31747950799532282 0 0.35581066202774619 0.30787794864699841 0 0.35849339535265401 0.33005623103862841 0 0.3481079572140523 0.33524257318942569 0 0.35581066202774619 0.30787794864699841 0 0.3572965491905824 0.34401749644765389 0 0.35849339535265401 0.33005623103862841 0 0.3481079572140523 0.33524257318942569 0 0.3572965491905824 0.34401749644765389 0 0.3481079572140523 0.33524257318942569 0 0.3431855413126419 0.34240809334380412 0 0.3481079572140523 0.33524257318942569 0 0.3431855413126419 0.34240809334380412 0 0.32711427331876147 0.32203129124662971 0 0.3431855413126419 0.34240809334380412 0 0.32711427331876147 0.32203129124662971 0 0.32516140106458868 0.33857662798360483 0 0.3431855413126419 0.34240809334380412 0 0.32711427331876147 0.32203129124662971 0 0.34111493155921779 0.31747950799532282 0 0.32711427331876147 0.32203129124662971 0 0.33342683367631232 0.30476621889823169 0 0.3481079572140523 0.33524257318942569 0 0.34111493155921779 0.31747950799532282 0 0.32711427331876147 0.32203129124662971 0 0.32711427331876147 0.32203129124662971 0 0.30826630799796811 0.32835504542850491 0 0.3110430053248795 0.30165448914945658 0 0.32516140106458868 0.33857662798360483 0 0.3150827727083641 0.34804672426057698 0 0.30826630799796811 0.32835504542850491 0 0.32711427331876147 0.32203129124662971 0 0.32516140106458868 0.33857662798360483 0 0.30826630799796811 0.32835504542850491 0 0.32516140106458868 0.33857662798360483 0 0.3150827727083641 0.34804672426057698 0 0.33245135870072939 0.35324884091370568 0 0.3150827727083641 0.34804672426057698 0 0.33245135870072939 0.35324884091370568 0 0.31944138740024491 0.36549279456248751 0 0.3150827727083641 0.34804672426057698 0 0.31944138740024491 0.36549279456248751 0 0.3055002461498304 0.3606268844613657 0 0.3431855413126419 0.34240809334380412 0 0.32516140106458868 0.33857662798360483 0 0.33245135870072939 0.35324884091370568 0 0.35925680930652232 0.36278489544097858 0 0.33245135870072939 0.35324884091370568 0 0.33453775718698869 0.36832022575058282 0 0.33245135870072939 0.35324884091370568 0 0.33453775718698869 0.36832022575058282 0 0.31944138740024491 0.36549279456248751 0 0.32191598021678253 0.38202740990615491 0 0.33453775718698869 0.36832022575058282 0 0.31944138740024491 0.36549279456248751 0 0.30870621747853161 0.37599129985660368 0 0.32191598021678253 0.38202740990615491 0 0.31944138740024491 0.36549279456248751 0 0.30870621747853161 0.37599129985660368 0 0.31944138740024491 0.36549279456248751 0 0.3055002461498304 0.3606268844613657 0 0.30870621747853161 0.37599129985660368 0 0.3055002461498304 0.3606268844613657 0 0.29379146728033478 0.37241021500447918 0 0.3150827727083641 0.34804672426057698 0 0.3055002461498304 0.3606268844613657 0 0.29938257928849982 0.3431160598511987 0 0.3055002461498304 0.3606268844613657 0 0.29092895157386889 0.35723497281932359 0 0.29938257928849982 0.3431160598511987 0 0.29092895157386889 0.35723497281932359 0 0.27634523968582098 0.34700977391114629 0 0.29938257928849982 0.3431160598511987 0 0.27201152922514349 0.37620872627770002 0 0.29092895157386889 0.35723497281932359 0 0.29379146728033478 0.37241021500447918 0 0.3055002461498304 0.3606268844613657 0 0.29092895157386889 0.35723497281932359 0 0.29379146728033478 0.37241021500447918 0 0.27201152922514349 0.37620872627770002 0 0.29092895157386889 0.35723497281932359 0 0.27634523968582098 0.34700977391114629 0 0.27201152922514349 0.37620872627770002 0 0.25937695801801641 0.35242426949129207 0 0.27201152922514349 0.37620872627770002 0 0.27634523968582098 0.34700977391114629 0 0.25937695801801641 0.35242426949129207 0 0.27201152922514349 0.37620872627770002 0 0.25937695801801641 0.35242426949129207 0 0.25004482850601251 0.37417003650910702 0 0.24674238681088931 0.3286398127048844 0 0.26690523822224732 0.3302769593791362 0 0.25499603709520552 0.31033398653960542 0 0.24674238681088931 0.3286398127048844 0 0.25937695801801641 0.35242426949129207 0 0.26690523822224732 0.3302769593791362 0 0.24674238681088931 0.3286398127048844 0 0.25937695801801641 0.35242426949129207 0 0.27634523968582098 0.34700977391114629 0 0.26690523822224732 0.3302769593791362 0 0.28683162888174829 0.3297042643066464 0 0.27634523968582098 0.34700977391114629 0 0.25937695801801641 0.35242426949129207 0 0.26690523822224732 0.3302769593791362 0 0.26690523822224732 0.3302769593791362 0 0.27713917884180311 0.31354964932124307 0 0.28683162888174829 0.3297042643066464 0 0.26690523822224732 0.3302769593791362 0 0.27713917884180311 0.31354964932124307 0 0.25499603709520552 0.31033398653960542 0 0.27713917884180311 0.31354964932124307 0 0.29468316863929311 0.31440229445898499 0 0.28683162888174829 0.3297042643066464 0 0.29468316863929311 0.31440229445898499 0 0.28683162888174829 0.3297042643066464 0 0.30826630799796811 0.32835504542850491 0 0.27634523968582098 0.34700977391114629 0 0.28683162888174829 0.3297042643066464 0 0.29938257928849982 0.3431160598511987 0 0.3150827727083641 0.34804672426057698 0 0.29938257928849982 0.3431160598511987 0 0.30826630799796811 0.32835504542850491 0 0.28683162888174829 0.3297042643066464 0 0.29938257928849982 0.3431160598511987 0 0.30826630799796811 0.32835504542850491 0 0.29468316863929311 0.31440229445898499 0 0.30826630799796811 0.32835504542850491 0 0.3110430053248795 0.30165448914945658 0 0.3110430053248795 0.30165448914945658 0 0.29013572215006478 0.29874802408907558 0 0.29468316863929311 0.31440229445898499 0 0.3110430053248795 0.30165448914945658 0 0.29013572215006478 0.29874802408907558 0 0.3110430053248795 0.30165448914945658 0 0.29675006063835402 0.28353242775553628 0 0.3110430053248795 0.30165448914945658 0 0.29675006063835402 0.28353242775553628 0 0.29013572215006478 0.29874802408907558 0 0.3110430053248795 0.30165448914945658 0 0.29675006063835402 0.28353242775553628 0 0.32423558215884968 0.27936384155408228 0 0.29675006063835402 0.28353242775553628 0 0.29013572215006478 0.29874802408907558 0 0.28077424788493621 0.28447651677576269 0 0.27713917884180311 0.31354964932124307 0 0.29468316863929311 0.31440229445898499 0 0.29013572215006478 0.29874802408907558 0 0.29013572215006478 0.29874802408907558 0 0.26922843897525062 0.29584155902869158 0 0.27713917884180311 0.31354964932124307 0 0.29013572215006478 0.29874802408907558 0 0.26922843897525062 0.29584155902869158 0 0.27713917884180311 0.31354964932124307 0 0.26922843897525062 0.29584155902869158 0 0.25499603709520552 0.31033398653960542 0 0.28077424788493621 0.28447651677576269 0 0.26922843897525062 0.29584155902869158 0 0.26486669098251298 0.27890221943231658 0 0.29013572215006478 0.29874802408907558 0 0.28077424788493621 0.28447651677576269 0 0.26922843897525062 0.29584155902869158 0 0.26922843897525062 0.29584155902869158 0 0.25251902142887422 0.29489883967006508 0 0.26486669098251298 0.27890221943231658 0 0.2389629137609684 0.2846130902196588 0 0.25251902142887422 0.29489883967006508 0 0.26486669098251298 0.27890221943231658 0 0.26922843897525062 0.29584155902869158 0 0.25251902142887422 0.29489883967006508 0 0.25499603709520552 0.31033398653960542 0 0.25356354251313462 0.26595069759367879 0 0.26816417126529979 0.24728830496769821 0 0.25191630733126869 0.24920661226757701 0 0.25356354251313462 0.26595069759367879 0 0.26816417126529979 0.24728830496769821 0 0.25356354251313462 0.26595069759367879 0 0.26794447515623521 0.26215906315383281 0 0.26816417126529979 0.24728830496769821 0 0.2389629137609684 0.2846130902196588 0 0.25356354251313462 0.26595069759367879 0 0.26486669098251298 0.27890221943231658 0 0.25356354251313462 0.26595069759367879 0 0.26486669098251298 0.27890221943231658 0 0.26794447515623521 0.26215906315383281 0 0.26486669098251298 0.27890221943231658 0 0.26794447515623521 0.26215906315383281 0 0.28245711595182688 0.2654103663616173 0 0.28077424788493621 0.28447651677576269 0 0.26486669098251298 0.27890221943231658 0 0.28245711595182688 0.2654103663616173 0 0.28245711595182688 0.2654103663616173 0 0.26816417126529979 0.24728830496769821 0 0.26794447515623521 0.26215906315383281 0 0.28245711595182688 0.2654103663616173 0 0.26816417126529979 0.24728830496769821 0 0.28245711595182688 0.2654103663616173 0 0.26816417126529979 0.24728830496769821 0 0.29218139916548841 0.2486239686486868 0 0.28245711595182688 0.2654103663616173 0 0.30546640782105078 0.2637116868073705 0 0.29218139916548841 0.2486239686486868 0 0.29675006063835402 0.28353242775553628 0 0.28245711595182688 0.2654103663616173 0 0.29675006063835402 0.28353242775553628 0 0.28077424788493621 0.28447651677576269 0 0.28245711595182688 0.2654103663616173 0 0.29675006063835402 0.28353242775553628 0 0.28245711595182688 0.2654103663616173 0 0.30546640782105078 0.2637116868073705 0 0.29675006063835402 0.28353242775553628 0 0.30546640782105078 0.2637116868073705 0 0.32423558215884968 0.27936384155408228 0 0.30546640782105078 0.2637116868073705 0 0.3122205487373555 0.24745899623115639 0 0.29218139916548841 0.2486239686486868 0 0.30546640782105078 0.2637116868073705 0 0.32495374027443102 0.25788052029314412 0 0.3122205487373555 0.24745899623115639 0 0.35006285604338172 0.26153112420760838 0 0.33629540821485387 0.2436748746166981 0 0.32495374027443102 0.25788052029314412 0 0.35006285604338172 0.26153112420760838 0 0.33629540821485387 0.2436748746166981 0 0.32423558215884968 0.27936384155408228 0 0.34457100366465909 0.28634269707399151 0 0.35006285604338172 0.26153112420760838 0 0.32495374027443102 0.25788052029314412 0 0.32423558215884968 0.27936384155408228 0 0.35006285604338172 0.26153112420760838 0 0.30546640782105078 0.2637116868073705 0 0.32495374027443102 0.25788052029314412 0 0.32423558215884968 0.27936384155408228 0 0.3110430053248795 0.30165448914945658 0 0.32423558215884968 0.27936384155408228 0 0.33342683367631232 0.30476621889823169 0 0.32711427331876147 0.32203129124662971 0 0.3110430053248795 0.30165448914945658 0 0.33342683367631232 0.30476621889823169 0 0.3110430053248795 0.30165448914945658 0 0.33342683367631232 0.30476621889823169 0 0.32711427331876147 0.32203129124662971 0 0.3110430053248795 0.30165448914945658 0 0.34111493155921779 0.31747950799532282 0 0.33342683367631232 0.30476621889823169 0 0.35581066202774619 0.30787794864699841 0 0.32423558215884968 0.27936384155408228 0 0.33342683367631232 0.30476621889823169 0 0.34457100366465909 0.28634269707399151 0 0.34457100366465909 0.28634269707399151 0 0.35581066202774619 0.30787794864699841 0 0.36383030387190901 0.27938737379851919 0 0.33342683367631232 0.30476621889823169 0 0.35581066202774619 0.30787794864699841 0 0.33342683367631232 0.30476621889823169 0 0.34457100366465909 0.28634269707399151 0 0.35581066202774619 0.30787794864699841 0 0.35581066202774619 0.30787794864699841 0 0.37260377894228941 0.31021247519256018 0 0.37661359986437198 0.29596718776831682 0 0.35581066202774619 0.30787794864699841 0 0.37260377894228941 0.31021247519256018 0 0.35581066202774619 0.30787794864699841 0 0.36383030387190901 0.27938737379851919 0 0.36383030387190901 0.27938737379851919 0 0.37661359986437198 0.29596718776831682 0 0.35581066202774619 0.30787794864699841 0 0.36383030387190901 0.27938737379851919 0 0.37661359986437198 0.29596718776831682 0 0.36383030387190901 0.27938737379851919 0 0.38009657457754392 0.2726843797424427 0 0.37661359986437198 0.29596718776831682 0 0.36383030387190901 0.27938737379851919 0 0.37133135415870921 0.25273914700846112 0 0.38009657457754392 0.2726843797424427 0 0.36383030387190901 0.27938737379851919 0 0.37133135415870921 0.25273914700846112 0 0.36383030387190901 0.27938737379851919 0 0.37133135415870921 0.25273914700846112 0 0.35006285604338172 0.26153112420760838 0 0.37133135415870921 0.25273914700846112 0 0.35006285604338172 0.26153112420760838 0 0.35455324959031859 0.2432250833271849 0 0.34457100366465909 0.28634269707399151 0 0.36383030387190901 0.27938737379851919 0 0.35006285604338172 0.26153112420760838 0 0.36383030387190901 0.27938737379851919 0 0.35006285604338172 0.26153112420760838 0 0.39326744300132332 0.26595502407687149 0 0.40263545028097142 0.25928084217375458 0 0.41060613999230161 0.27285338321486652 0 0.39326744300132332 0.26595502407687149 0 0.39140849794397659 0.28353661092897681 0 0.41060613999230161 0.27285338321486652 0 0.39326744300132332 0.26595502407687149 0 0.40263545028097142 0.25928084217375458 0 0.39298284187090288 0.24806444035772329 0 0.40263545028097142 0.25928084217375458 0 0.40504541688886758 0.25083790210330698 0 0.39298284187090288 0.24806444035772329 0 0.39326744300132332 0.26595502407687149 0 0.3842768735112721 0.25920451289538038 0 0.39298284187090288 0.24806444035772329 0 0.37133135415870921 0.25273914700846112 0 0.3842768735112721 0.25920451289538038 0 0.38009657457754392 0.2726843797424427 0 0.37133135415870921 0.25273914700846112 0 0.3842768735112721 0.25920451289538038 0 0.39298284187090288 0.24806444035772329 0 0.39326744300132332 0.26595502407687149 0 0.38009657457754392 0.2726843797424427 0 0.39140849794397659 0.28353661092897681 0 0.39326744300132332 0.26595502407687149 0 0.3842768735112721 0.25920451289538038 0 0.38009657457754392 0.2726843797424427 0 0.37661359986437198 0.29596718776831682 0 0.39693038286618298 0.2984944409360708 0 0.39140849794397659 0.28353661092897681 0 0.38009657457754392 0.2726843797424427 0 0.37661359986437198 0.29596718776831682 0 0.39140849794397659 0.28353661092897681 0 0.37260377894228941 0.31021247519256018 0 0.38939689585683329 0.31254700173811562 0 0.37661359986437198 0.29596718776831682 0 0.38939689585683329 0.31254700173811562 0 0.37661359986437198 0.29596718776831682 0 0.39693038286618298 0.2984944409360708 0 0.38939689585683329 0.31254700173811562 0 0.37260377894228941 0.31021247519256018 0 0.37661359986437198 0.29596718776831682 0 0.38939689585683329 0.31254700173811562 0 0.39693038286618298 0.2984944409360708 0 0.40034520030979998 0.3140690007514233 0 0.38939689585683329 0.31254700173811562 0 0.39693038286618298 0.2984944409360708 0 0.40755282432221368 0.30247078973559838 0 0.40034520030979998 0.3140690007514233 0 0.39140849794397659 0.28353661092897681 0 0.4167997097475582 0.28963258873142939 0 0.39693038286618298 0.2984944409360708 0 0.39140849794397659 0.28353661092897681 0 0.4167997097475582 0.28963258873142939 0 0.39140849794397659 0.28353661092897681 0 0.4167997097475582 0.28963258873142939 0 0.41060613999230161 0.27285338321486652 0 0.39693038286618298 0.2984944409360708 0 0.4167997097475582 0.28963258873142939 0 0.40755282432221368 0.30247078973559838 0 0.4167997097475582 0.28963258873142939 0 0.42720783143089491 0.2823378786142301 0 0.41060613999230161 0.27285338321486652 0 0.40755282432221368 0.30247078973559838 0 0.41613600436531378 0.30768712852347008 0 0.40034520030979998 0.3140690007514233 0 0.4167997097475582 0.28963258873142939 0 0.41613600436531378 0.30768712852347008 0 0.42802450933929481 0.29952944990105379 0 0.4167997097475582 0.28963258873142939 0 0.40755282432221368 0.30247078973559838 0 0.41613600436531378 0.30768712852347008 0 0.41613600436531378 0.30768712852347008 0 0.42872696557319112 0.30838624039872231 0 0.42802450933929481 0.29952944990105379 0 0.41613600436531378 0.30768712852347008 0 0.42872696557319112 0.30838624039872231 0 0.42604550641036693 0.31704602283193151 0 0.42802450933929481 0.29952944990105379 0 0.43660622637406632 0.30352191176619908 0 0.44219092155113982 0.29572856653388208 0 0.42872696557319112 0.30838624039872231 0 0.42802450933929481 0.29952944990105379 0 0.43660622637406632 0.30352191176619908 0 0.42872696557319112 0.30838624039872231 0 0.43756843903768061 0.31137434343748271 0 0.42604550641036693 0.31704602283193151 0 0.42872696557319112 0.30838624039872231 0 0.43660622637406632 0.30352191176619908 0 0.43756843903768061 0.31137434343748271 0 0.4167997097475582 0.28963258873142939 0 0.44219092155113982 0.29572856653388208 0 0.4167997097475582 0.28963258873142939 0 0.43946294555256499 0.29018605432954619 0 0.44219092155113982 0.29572856653388208 0 0.4167997097475582 0.28963258873142939 0 0.42720783143089491 0.2823378786142301 0 0.43946294555256499 0.29018605432954619 0 0.4167997097475582 0.28963258873142939 0 0.42802450933929481 0.29952944990105379 0 0.44219092155113982 0.29572856653388208 0 0.42953427648845771 0.26970723592650447 0 0.43946294555256499 0.29018605432954619 0 0.42720783143089491 0.2823378786142301 0 0.42953427648845771 0.26970723592650447 0 0.41060613999230161 0.27285338321486652 0 0.42720783143089491 0.2823378786142301 0 0.42953427648845771 0.26970723592650447 0 0.43946294555256499 0.29018605432954619 0 0.42953427648845771 0.26970723592650447 0 0.41060613999230161 0.27285338321486652 0 0.41229635062582021 0.25891009303496942 0 0.42953427648845771 0.26970723592650447 0 0.41229635062582021 0.25891009303496942 0 0.41960560742434949 0.24922841752346311 0 0.40263545028097142 0.25928084217375458 0 0.40504541688886758 0.25083790210330698 0 0.41229635062582021 0.25891009303496942 0 0.40504541688886758 0.25083790210330698 0 0.41229635062582021 0.25891009303496942 0 0.41193031943217301 0.24970998685700099 0 0.40263545028097142 0.25928084217375458 0 0.41060613999230161 0.27285338321486652 0 0.41229635062582021 0.25891009303496942 0 0.41229635062582021 0.25891009303496942 0 0.41960560742434949 0.24922841752346311 0 0.41193031943217301 0.24970998685700099 0 0.41229635062582021 0.25891009303496942 0 0.41960560742434949 0.24922841752346311 0 0.42953427648845771 0.26970723592650447 0 0.43333426729933278 0.25521865159253582 0 0.41960560742434949 0.24922841752346311 0 0.42953427648845771 0.26970723592650447 0 0.43333426729933278 0.25521865159253582 0 0.44664308458244012 0.26914281405341878 0 0.42953427648845771 0.26970723592650447 0 0.41960560742434949 0.24922841752346311 0 0.43333426729933278 0.25521865159253582 0 0.44831133843309301 0.25500336940667873 0 0.44046947178534918 0.24381964733491229 0 0.43333426729933278 0.25521865159253582 0 0.44831133843309301 0.25500336940667873 0 0.44664308458244012 0.26914281405341878 0 0.44831133843309301 0.25500336940667873 0 0.44664308458244012 0.26914281405341878 0 0.46169705660053167 0.2595330470036582 0 0.44664308458244012 0.26914281405341878 0 0.46144726737967851 0.27490887408794118 0 0.44537934833550052 0.28600146328744258 0 0.42953427648845771 0.26970723592650447 0 0.44664308458244012 0.26914281405341878 0 0.44537934833550052 0.28600146328744258 0 0.46144726737967851 0.27490887408794118 0 0.46169705660053167 0.2595330470036582 0 0.47750528502099843 0.26373291612348659 0 0.46144726737967851 0.27490887408794118 0 0.44537934833550052 0.28600146328744258 0 0.44664308458244012 0.26914281405341878 0 0.46144726737967851 0.27490887408794118 0 0.46169705660053167 0.2595330470036582 0 0.44831133843309301 0.25500336940667873 0 0.46169705660053167 0.2595330470036582 0 0.45665518821624052 0.2438898889111111 0 0.46169705660053167 0.2595330470036582 0 0.45665518821624052 0.2438898889111111 0 0.4709233871432138 0.24742201075293871 0 0.46169705660053167 0.2595330470036582 0 0.47750528502099843 0.26373291612348659 0 0.4709233871432138 0.24742201075293871 0 0.47750528502099843 0.26373291612348659 0 0.4709233871432138 0.24742201075293871 0 0.47782294313133589 0.26004539001065669 0 0.47750528502099843 0.26373291612348659 0 0.4709233871432138 0.24742201075293871 0 0.47782294313133589 0.26004539001065669 0 0.48374370526303689 0.24651653993241709 0 0.4709233871432138 0.24742201075293871 0 0.47782294313133589 0.26004539001065669 0 0.47750528502099843 0.26373291612348659 0 0.47750528502099843 0.26373291612348659 0 0.48877809303430297 0.29150874977283497 0 0.46144726737967851 0.27490887408794118 0 0.47750528502099843 0.26373291612348659 0 0.47507823455702108 0.2902455862417781 0 0.46144726737967851 0.27490887408794118 0 0.47750528502099843 0.26373291612348659 0 0.47750528502099843 0.26373291612348659 0 0.47507823455702108 0.2902455862417781 0 0.47750528502099843 0.26373291612348659 0 0.5 0.27193510777227242 0 0.48877809303430297 0.29150874977283497 0 0.47750528502099843 0.26373291612348659 0 0.5 0.27193510777227242 0 0.49999999999999978 0.2482937520986134 0 0.47750528502099843 0.26373291612348659 0 0.49999999999999978 0.2482937520986134 0 0.47782294313133589 0.26004539001065669 0 0.49999999999999978 0.2482937520986134 0 0.48374370526303689 0.24651653993241709 0 0.47782294313133589 0.26004539001065669 0 0.47750528502099843 0.26373291612348659 0 0.49999999999999978 0.2482937520986134 0 0.48877809303430297 0.29150874977283497 0 0.49999999999999861 0.31921781911959018 0 0.48877809303430297 0.29150874977283497 0 0.49999999999999861 0.31921781911959018 0 0.48646213891142032 0.31661213570953761 0 0.5 0.29557646344593119 0 0.48877809303430297 0.29150874977283497 0 0.49999999999999861 0.31921781911959018 0 0.48877809303430297 0.29150874977283497 0 0.48071056335763901 0.30408286408121638 0 0.48646213891142032 0.31661213570953761 0 0.5 0.27193510777227242 0 0.5 0.29557646344593119 0 0.48877809303430297 0.29150874977283497 0 0.47750528502099843 0.26373291612348659 0 0.48877809303430297 0.29150874977283497 0 0.47507823455702108 0.2902455862417781 0 0.48877809303430297 0.29150874977283497 0 0.47507823455702108 0.2902455862417781 0 0.48071056335763901 0.30408286408121638 0 0.47507823455702108 0.2902455862417781 0 0.46758213335472149 0.30182454433633471 0 0.46475291792844919 0.29109435281808088 0 0.47507823455702108 0.2902455862417781 0 0.46758213335472149 0.30182454433633471 0 0.47267595286514902 0.31667803855234022 0 0.47507823455702108 0.2902455862417781 0 0.47267595286514902 0.31667803855234022 0 0.47507823455702108 0.2902455862417781 0 0.48071056335763901 0.30408286408121638 0 0.47267595286514902 0.31667803855234022 0 0.48071056335763901 0.30408286408121638 0 0.47267595286514902 0.31667803855234022 0 0.48646213891142032 0.31661213570953761 0 0.46758213335472149 0.30182454433633471 0 0.46094967354055361 0.31329187672128977 0 0.47267595286514902 0.31667803855234022 0 0.46758213335472149 0.30182454433633471 0 0.44219092155113982 0.29572856653388208 0 0.46758213335472149 0.30182454433633471 0 0.45323398251046798 0.30545338751138618 0 0.44219092155113982 0.29572856653388208 0 0.46758213335472149 0.30182454433633471 0 0.45605418754765292 0.29429856067355542 0 0.44219092155113982 0.29572856653388208 0 0.45323398251046798 0.30545338751138618 0 0.44938402965094998 0.31575273385283031 0 0.46094967354055361 0.31329187672128977 0 0.46758213335472149 0.30182454433633471 0 0.45323398251046798 0.30545338751138618 0 0.46094967354055361 0.31329187672128977 0 0.46144726737967851 0.27490887408794118 0 0.46475291792844919 0.29109435281808088 0 0.45667848684856949 0.2861582895343433 0 0.46144726737967851 0.27490887408794118 0 0.45667848684856949 0.2861582895343433 0 0.44537934833550052 0.28600146328744258 0 0.46144726737967851 0.27490887408794118 0 0.47507823455702108 0.2902455862417781 0 0.46475291792844919 0.29109435281808088 0 0.46758213335472149 0.30182454433633471 0 0.46475291792844919 0.29109435281808088 0 0.45605418754765292 0.29429856067355542 0 0.46475291792844919 0.29109435281808088 0 0.45605418754765292 0.29429856067355542 0 0.45667848684856949 0.2861582895343433 0 0.45605418754765292 0.29429856067355542 0 0.45667848684856949 0.2861582895343433 0 0.4485361804569703 0.29133031220973371 0 0.42953427648845771 0.26970723592650447 0 0.44537934833550052 0.28600146328744258 0 0.43946294555256499 0.29018605432954619 0 0.45667848684856949 0.2861582895343433 0 0.44537934833550052 0.28600146328744258 0 0.4485361804569703 0.29133031220973371 0 0.45605418754765292 0.29429856067355542 0 0.4485361804569703 0.29133031220973371 0 0.44219092155113982 0.29572856653388208 0 0.4485361804569703 0.29133031220973371 0 0.43946294555256499 0.29018605432954619 0 0.44219092155113982 0.29572856653388208 0 0.44537934833550052 0.28600146328744258 0 0.4485361804569703 0.29133031220973371 0 0.43946294555256499 0.29018605432954619 0 0.45323398251046798 0.30545338751138618 0 0.44404431769251218 0.3060229858875832 0 0.44938402965094998 0.31575273385283031 0 0.45323398251046798 0.30545338751138618 0 0.44219092155113982 0.29572856653388208 0 0.44404431769251218 0.3060229858875832 0 0.43660622637406632 0.30352191176619908 0 0.44219092155113982 0.29572856653388208 0 0.44404431769251218 0.3060229858875832 0 0.43756843903768061 0.31137434343748271 0 0.44404431769251218 0.3060229858875832 0 0.44938402965094998 0.31575273385283031 0 0.43660622637406632 0.30352191176619908 0 0.43756843903768061 0.31137434343748271 0 0.44404431769251218 0.3060229858875832 0 0.43756843903768061 0.31137434343748271 0 0.44938402965094998 0.31575273385283031 0 0.43697462940589588 0.32402287657681739 0 0.44938402965094998 0.31575273385283031 0 0.44771075551414519 0.32963222049659402 0 0.43697462940589588 0.32402287657681739 0 0.44938402965094998 0.31575273385283031 0 0.44771075551414519 0.32963222049659402 0 0.45940199689259598 0.32680915794138288 0 0.43842951184597551 0.33946090304339388 0 0.44771075551414519 0.32963222049659402 0 0.45410710664842191 0.33987336125922057 0 0.43842951184597551 0.33946090304339388 0 0.44771075551414519 0.32963222049659402 0 0.43697462940589588 0.32402287657681739 0 0.45410710664842191 0.33987336125922057 0 0.45940199689259598 0.32680915794138288 0 0.4702736711732769 0.34311049086290241 0 0.45940199689259598 0.32680915794138288 0 0.47267595286514902 0.31667803855234022 0 0.4702736711732769 0.34311049086290241 0 0.44771075551414519 0.32963222049659402 0 0.45410710664842191 0.33987336125922057 0 0.45940199689259598 0.32680915794138288 0 0.44938402965094998 0.31575273385283031 0 0.45940199689259598 0.32680915794138288 0 0.46094967354055361 0.31329187672128977 0 0.45940199689259598 0.32680915794138288 0 0.46094967354055361 0.31329187672128977 0 0.47267595286514902 0.31667803855234022 0 0.47267595286514902 0.31667803855234022 0 0.48511235432861888 0.33113369636636708 0 0.48646213891142032 0.31661213570953761 0 0.4702736711732769 0.34311049086290241 0 0.48511235432861888 0.33113369636636708 0 0.48388877990178442 0.35667609176681081 0 0.47267595286514902 0.31667803855234022 0 0.4702736711732769 0.34311049086290241 0 0.48511235432861888 0.33113369636636708 0 0.47267595286514902 0.31667803855234022 0 0.4702736711732769 0.34311049086290241 0 0.48511235432861888 0.33113369636636708 0 0.49999999999999861 0.31921781911959018 0 0.5 0.34489965893315011 0 0.48511235432861888 0.33113369636636708 0 0.49999999999999861 0.31921781911959018 0 0.48646213891142032 0.31661213570953761 0 0.5 0.37058149874670993 0 0.48388877990178442 0.35667609176681081 0 0.48089600100104529 0.38309243001123627 0 0.5 0.37058149874670993 0 0.5 0.34489965893315011 0 0.48388877990178442 0.35667609176681081 0 0.48511235432861888 0.33113369636636708 0 0.5 0.34489965893315011 0 0.48388877990178442 0.35667609176681081 0 0.4702736711732769 0.34311049086290241 0 0.48388877990178442 0.35667609176681081 0 0.46705065290776482 0.36723877568049912 0 0.48388877990178442 0.35667609176681081 0 0.46705065290776482 0.36723877568049912 0 0.48089600100104529 0.38309243001123627 0 0.46705065290776482 0.36723877568049912 0 0.4516484817796152 0.37183694549879343 0 0.46109592324506471 0.38403333438402459 0 0.46705065290776482 0.36723877568049912 0 0.45244574368005808 0.35531335036239231 0 0.4516484817796152 0.37183694549879343 0 0.4702736711732769 0.34311049086290241 0 0.46705065290776482 0.36723877568049912 0 0.45244574368005808 0.35531335036239231 0 0.45410710664842191 0.33987336125922057 0 0.4702736711732769 0.34311049086290241 0 0.45244574368005808 0.35531335036239231 0 0.43842951184597551 0.33946090304339388 0 0.45410710664842191 0.33987336125922057 0 0.45244574368005808 0.35531335036239231 0 0.43842951184597551 0.33946090304339388 0 0.45244574368005808 0.35531335036239231 0 0.43202811065726521 0.36783928403482569 0 0.45244574368005808 0.35531335036239231 0 0.4516484817796152 0.37183694549879343 0 0.43202811065726521 0.36783928403482569 0 0.43202811065726521 0.36783928403482569 0 0.41635359526489479 0.37464484016943472 0 0.41781770572378818 0.34940852326925542 0 0.43202811065726521 0.36783928403482569 0 0.41635359526489479 0.37464484016943472 0 0.43033137966059498 0.38218607443813502 0 0.41635359526489479 0.37464484016943472 0 0.41781770572378818 0.34940852326925542 0 0.40114118459310588 0.36354619742478539 0 0.43202811065726521 0.36783928403482569 0 0.41781770572378818 0.34940852326925542 0 0.43842951184597551 0.33946090304339388 0 0.43202811065726521 0.36783928403482569 0 0.41781770572378818 0.34940852326925542 0 0.43842951184597551 0.33946090304339388 0 0.42270953397625771 0.33087103579867222 0 0.43697462940589588 0.32402287657681739 0 0.43842951184597551 0.33946090304339388 0 0.41781770572378818 0.34940852326925542 0 0.42270953397625771 0.33087103579867222 0 0.43756843903768061 0.31137434343748271 0 0.43697462940589588 0.32402287657681739 0 0.42604550641036693 0.31704602283193151 0 0.42270953397625771 0.33087103579867222 0 0.43697462940589588 0.32402287657681739 0 0.42604550641036693 0.31704602283193151 0 0.41613600436531378 0.30768712852347008 0 0.41318212617986461 0.32064139614414922 0 0.40034520030979998 0.3140690007514233 0 0.42270953397625771 0.33087103579867222 0 0.41318212617986461 0.32064139614414922 0 0.40360730079031132 0.3309777625036851 0 0.41613600436531378 0.30768712852347008 0 0.42604550641036693 0.31704602283193151 0 0.41318212617986461 0.32064139614414922 0 0.42270953397625771 0.33087103579867222 0 0.42604550641036693 0.31704602283193151 0 0.41318212617986461 0.32064139614414922 0 0.41781770572378818 0.34940852326925542 0 0.40360730079031132 0.3309777625036851 0 0.41781770572378818 0.34940852326925542 0 0.42270953397625771 0.33087103579867222 0 0.40360730079031132 0.3309777625036851 0 0.41781770572378818 0.34940852326925542 0 0.40360730079031132 0.3309777625036851 0 0.39239522822416101 0.34584800055796361 0 0.40360730079031132 0.3309777625036851 0 0.3874833708212122 0.32974843650369667 0 0.39239522822416101 0.34584800055796361 0 0.40360730079031132 0.3309777625036851 0 0.38939689585683329 0.31254700173811562 0 0.3874833708212122 0.32974843650369667 0 0.41318212617986461 0.32064139614414922 0 0.40360730079031132 0.3309777625036851 0 0.40034520030979998 0.3140690007514233 0 0.40360730079031132 0.3309777625036851 0 0.38939689585683329 0.31254700173811562 0 0.40360730079031132 0.3309777625036851 0 0.40034520030979998 0.3140690007514233 0 0.38939689585683329 0.31254700173811562 0 0.40034520030979998 0.3140690007514233 0 0.38939689585683329 0.31254700173811562 0 0.38939689585683329 0.31254700173811562 0 0.37730394880888052 0.32282274240207831 0 0.3874833708212122 0.32974843650369667 0 0.37260377894228941 0.31021247519256018 0 0.38939689585683329 0.31254700173811562 0 0.37730394880888052 0.32282274240207831 0 0.3874833708212122 0.32974843650369667 0 0.37581922482641023 0.33652832221029488 0 0.39239522822416101 0.34584800055796361 0 0.37730394880888052 0.32282274240207831 0 0.3874833708212122 0.32974843650369667 0 0.37581922482641023 0.33652832221029488 0 0.37302365365364959 0.35074164613539471 0 0.38587261938700118 0.36085772810504618 0 0.39239522822416101 0.34584800055796361 0 0.37302365365364959 0.35074164613539471 0 0.37581922482641023 0.33652832221029488 0 0.39239522822416101 0.34584800055796361 0 0.37302365365364959 0.35074164613539471 0 0.37579738303020882 0.36700132473203578 0 0.38587261938700118 0.36085772810504618 0 0.37579738303020882 0.36700132473203578 0 0.38692681138805168 0.37499690056769608 0 0.38587261938700118 0.36085772810504618 0 0.41635359526489479 0.37464484016943472 0 0.40114118459310588 0.36354619742478539 0 0.40099163377848368 0.3797207577347837 0 0.38692681138805168 0.37499690056769608 0 0.38587261938700118 0.36085772810504618 0 0.40114118459310588 0.36354619742478539 0 0.38692681138805168 0.37499690056769608 0 0.40114118459310588 0.36354619742478539 0 0.40099163377848368 0.3797207577347837 0 0.38587261938700118 0.36085772810504618 0 0.40114118459310588 0.36354619742478539 0 0.39239522822416101 0.34584800055796361 0 0.41781770572378818 0.34940852326925542 0 0.40114118459310588 0.36354619742478539 0 0.39239522822416101 0.34584800055796361 0 0.39139934529428289 0.4035384996353274 0 0.40078117436570598 0.39290601532775637 0 0.3908000809364619 0.38652140353176367 0 0.39139934529428289 0.4035384996353274 0 0.40101267785727651 0.40393239848879298 0 0.40078117436570598 0.39290601532775637 0 0.40101267785727651 0.40393239848879298 0 0.40078117436570598 0.39290601532775637 0 0.4101150540085981 0.39701655448625012 0 0.40078117436570598 0.39290601532775637 0 0.40099163377848368 0.3797207577347837 0 0.41076572187884508 0.38638240430125442 0 0.38692681138805168 0.37499690056769608 0 0.40099163377848368 0.3797207577347837 0 0.3908000809364619 0.38652140353176367 0 0.40078117436570598 0.39290601532775637 0 0.40099163377848368 0.3797207577347837 0 0.3908000809364619 0.38652140353176367 0 0.37579738303020882 0.36700132473203578 0 0.38692681138805168 0.37499690056769608 0 0.37532807730040257 0.38316169753815299 0 0.38692681138805168 0.37499690056769608 0 0.3908000809364619 0.38652140353176367 0 0.37532807730040257 0.38316169753815299 0 0.39139934529428289 0.4035384996353274 0 0.37532807730040257 0.38316169753815299 0 0.39139934529428289 0.4035384996353274 0 0.37532807730040257 0.38316169753815299 0 0.37689374131585868 0.39401386302451952 0 0.39139934529428289 0.4035384996353274 0 0.3908000809364619 0.38652140353176367 0 0.37532807730040257 0.38316169753815299 0 0.39139934529428289 0.4035384996353274 0 0.37689374131585868 0.39401386302451952 0 0.38231913560775782 0.40715105347220543 0 0.3730999423012219 0.40954342286834639 0 0.37689374131585868 0.39401386302451952 0 0.38231913560775782 0.40715105347220543 0 0.3730999423012219 0.40954342286834639 0 0.38231913560775782 0.40715105347220543 0 0.37795549308522902 0.41628895699810292 0 0.37795549308522902 0.41628895699810292 0 0.39076755343132041 0.42249174788358651 0 0.39224715604219651 0.41237052483473102 0 0.38231913560775782 0.40715105347220543 0 0.37795549308522902 0.41628895699810292 0 0.39224715604219651 0.41237052483473102 0 0.39139934529428289 0.4035384996353274 0 0.38231913560775782 0.40715105347220543 0 0.39224715604219651 0.41237052483473102 0 0.37023049558979693 0.44243966271604079 0 0.38040430343443521 0.43193634251772789 0 0.39567187282383282 0.43100015285841642 0 0.36494729189279101 0.43181380661286789 0 0.38040430343443521 0.43193634251772789 0 0.39076755343132041 0.42249174788358651 0 0.36494729189279101 0.43181380661286789 0 0.37795549308522902 0.41628895699810292 0 0.39076755343132041 0.42249174788358651 0 0.36494729189279101 0.43181380661286789 0 0.39076755343132041 0.42249174788358651 0 0.37023049558979693 0.44243966271604079 0 0.39567187282383282 0.43100015285841642 0 0.38040430343443521 0.43193634251772789 0 0.39567187282383282 0.43100015285841642 0 0.39076755343132041 0.42249174788358651 0 0.39567187282383282 0.43100015285841642 0 0.39076755343132041 0.42249174788358651 0 0.41658781496984998 0.41316968915430502 0 0.39567187282383282 0.43100015285841642 0 0.40975977307311767 0.4309440535241707 0 0.40277120807912181 0.44488064963545743 0 0.39076755343132041 0.42249174788358651 0 0.41658781496984998 0.41316968915430502 0 0.39076755343132041 0.42249174788358651 0 0.40194150124873601 0.41210731821130492 0 0.41658781496984998 0.41316968915430502 0 0.40101267785727651 0.40393239848879298 0 0.39224715604219651 0.41237052483473102 0 0.40194150124873601 0.41210731821130492 0 0.39139934529428289 0.4035384996353274 0 0.40101267785727651 0.40393239848879298 0 0.39224715604219651 0.41237052483473102 0 0.39076755343132041 0.42249174788358651 0 0.39224715604219651 0.41237052483473102 0 0.40194150124873601 0.41210731821130492 0 0.40101267785727651 0.40393239848879298 0 0.40194150124873601 0.41210731821130492 0 0.40959183618413952 0.4056554784373882 0 0.40194150124873601 0.41210731821130492 0 0.41658781496984998 0.41316968915430502 0 0.40959183618413952 0.4056554784373882 0 0.39567187282383282 0.43100015285841642 0 0.42111325005786859 0.41956064300079188 0 0.41658781496984998 0.41316968915430502 0 0.41658781496984998 0.41316968915430502 0 0.41869960039594922 0.40172735805792198 0 0.40959183618413952 0.4056554784373882 0 0.40975977307311767 0.4309440535241707 0 0.42151880959243587 0.42871130481571929 0 0.42575029225984629 0.43817658423166628 0 0.39567187282383282 0.43100015285841642 0 0.42111325005786859 0.41956064300079188 0 0.39567187282383282 0.43100015285841642 0 0.42111325005786859 0.41956064300079188 0 0.40975977307311767 0.4309440535241707 0 0.42111325005786859 0.41956064300079188 0 0.40975977307311767 0.4309440535241707 0 0.42151880959243587 0.42871130481571929 0 0.42151880959243587 0.42871130481571929 0 0.42945192297891138 0.42616393850624851 0 0.42575029225984629 0.43817658423166628 0 0.42111325005786859 0.41956064300079188 0 0.42151880959243587 0.42871130481571929 0 0.42945192297891138 0.42616393850624851 0 0.42945192297891138 0.42616393850624851 0 0.43439853854146121 0.43334695253172728 0 0.43857382712131587 0.42666265093457761 0 0.42945192297891138 0.42616393850624851 0 0.43650619774580718 0.41968959887481389 0 0.43857382712131587 0.42666265093457761 0 0.42945192297891138 0.42616393850624851 0 0.43439853854146121 0.43334695253172728 0 0.42575029225984629 0.43817658423166628 0 0.41658781496984998 0.41316968915430502 0 0.44240807650837932 0.40384763042502347 0 0.42111325005786859 0.41956064300079188 0 0.43650619774580718 0.41968959887481389 0 0.44655462729190443 0.40812113314316739 0 0.42111325005786859 0.41956064300079188 0 0.44655462729190443 0.40812113314316739 0 0.42111325005786859 0.41956064300079188 0 0.44240807650837932 0.40384763042502347 0 0.44655462729190443 0.40812113314316739 0 0.41658781496984998 0.41316968915430502 0 0.42792896078149739 0.40351247135290369 0 0.44240807650837932 0.40384763042502347 0 0.42111325005786859 0.41956064300079188 0 0.41658781496984998 0.41316968915430502 0 0.44240807650837932 0.40384763042502347 0 0.42111325005786859 0.41956064300079188 0 0.42945192297891138 0.42616393850624851 0 0.43650619774580718 0.41968959887481389 0 0.4353740106511933 0.39825956239025367 0 0.42792896078149739 0.40351247135290369 0 0.44240807650837932 0.40384763042502347 0 0.4353740106511933 0.39825956239025367 0 0.42774204813440481 0.39712334373661562 0 0.42792896078149739 0.40351247135290369 0 0.4345514642716975 0.3917737885573907 0 0.4353740106511933 0.39825956239025367 0 0.42774204813440481 0.39712334373661562 0 0.42774204813440481 0.39712334373661562 0 0.41869960039594922 0.40172735805792198 0 0.42248521251837517 0.39040241462862763 0 0.4345514642716975 0.3917737885573907 0 0.42774204813440481 0.39712334373661562 0 0.42248521251837517 0.39040241462862763 0 0.42774204813440481 0.39712334373661562 0 0.42792896078149739 0.40351247135290369 0 0.41869960039594922 0.40172735805792198 0 0.41658781496984998 0.41316968915430502 0 0.42792896078149739 0.40351247135290369 0 0.41869960039594922 0.40172735805792198 0 0.41869960039594922 0.40172735805792198 0 0.4101150540085981 0.39701655448625012 0 0.42248521251837517 0.39040241462862763 0 0.4101150540085981 0.39701655448625012 0 0.41076572187884508 0.38638240430125442 0 0.42248521251837517 0.39040241462862763 0 0.40078117436570598 0.39290601532775637 0 0.4101150540085981 0.39701655448625012 0 0.41076572187884508 0.38638240430125442 0 0.41869960039594922 0.40172735805792198 0 0.4101150540085981 0.39701655448625012 0 0.40959183618413952 0.4056554784373882 0 0.40101267785727651 0.40393239848879298 0 0.4101150540085981 0.39701655448625012 0 0.40959183618413952 0.4056554784373882 0 0.41635359526489479 0.37464484016943472 0 0.41076572187884508 0.38638240430125442 0 0.42248521251837517 0.39040241462862763 0 0.41635359526489479 0.37464484016943472 0 0.40099163377848368 0.3797207577347837 0 0.41076572187884508 0.38638240430125442 0 0.4345514642716975 0.3917737885573907 0 0.43033137966059498 0.38218607443813502 0 0.44623851559074218 0.38627004480039617 0 0.41635359526489479 0.37464484016943472 0 0.42248521251837517 0.39040241462862763 0 0.43033137966059498 0.38218607443813502 0 0.43202811065726521 0.36783928403482569 0 0.43033137966059498 0.38218607443813502 0 0.44623851559074218 0.38627004480039617 0 0.4345514642716975 0.3917737885573907 0 0.42248521251837517 0.39040241462862763 0 0.43033137966059498 0.38218607443813502 0 0.43202811065726521 0.36783928403482569 0 0.44623851559074218 0.38627004480039617 0 0.4516484817796152 0.37183694549879343 0 0.43202811065726521 0.36783928403482569 0 0.44623851559074218 0.38627004480039617 0 0.4516484817796152 0.37183694549879343 0 0.44623851559074218 0.38627004480039617 0 0.46109592324506471 0.38403333438402459 0 0.4353740106511933 0.39825956239025367 0 0.44240807650837932 0.40384763042502347 0 0.44282652473359629 0.39558729108871521 0 0.4345514642716975 0.3917737885573907 0 0.4353740106511933 0.39825956239025367 0 0.44282652473359629 0.39558729108871521 0 0.4345514642716975 0.3917737885573907 0 0.44623851559074218 0.38627004480039617 0 0.44282652473359629 0.39558729108871521 0 0.44623851559074218 0.38627004480039617 0 0.44282652473359629 0.39558729108871521 0 0.45273459899318669 0.39887885568927117 0 0.44240807650837932 0.40384763042502347 0 0.44282652473359629 0.39558729108871521 0 0.45273459899318669 0.39887885568927117 0 0.44240807650837932 0.40384763042502347 0 0.45273459899318669 0.39887885568927117 0 0.44655462729190443 0.40812113314316739 0 0.45273459899318669 0.39887885568927117 0 0.44655462729190443 0.40812113314316739 0 0.45286957771966119 0.40726226746935312 0 0.45273459899318669 0.39887885568927117 0 0.46027475656121197 0.40914777417223219 0 0.45286957771966119 0.40726226746935312 0 0.45273459899318669 0.39887885568927117 0 0.46800728919803369 0.3968829546239519 0 0.46027475656121197 0.40914777417223219 0 0.45273459899318669 0.39887885568927117 0 0.46800728919803369 0.3968829546239519 0 0.46109592324506471 0.38403333438402459 0 0.44623851559074218 0.38627004480039617 0 0.45273459899318669 0.39887885568927117 0 0.46109592324506471 0.38403333438402459 0 0.46800728919803369 0.3968829546239519 0 0.46109592324506471 0.38403333438402459 0 0.48089600100104529 0.38309243001123627 0 0.46705065290776482 0.36723877568049912 0 0.46109592324506471 0.38403333438402459 0 0.48089600100104529 0.38309243001123627 0 0.46800728919803369 0.3968829546239519 0 0.48052571866292071 0.40739679007763829 0 0.46027475656121197 0.40914777417223219 0 0.46800728919803369 0.3968829546239519 0 0.48089600100104529 0.38309243001123627 0 0.48052571866292071 0.40739679007763829 0 0.48089600100104529 0.38309243001123627 0 0.5 0.39626333856026991 0 0.48052571866292071 0.40739679007763829 0 0.5 0.37058149874670993 0 0.48089600100104529 0.38309243001123627 0 0.5 0.39626333856026991 0 0.50000000000000044 0.42194517837382972 0 0.49249892689839653 0.44263329761028031 0 0.50000000000000044 0.42194517837382972 0 0.48607059417963511 0.43501980622280018 0 0.48286133816489218 0.42341531305452368 0 0.50000000000000044 0.42194517837382972 0 0.48607059417963511 0.43501980622280018 0 0.49249892689839653 0.44263329761028031 0 0.50000000000000044 0.42194517837382972 0 0.48052571866292071 0.40739679007763829 0 0.48286133816489218 0.42341531305452368 0 0.5 0.39626333856026991 0 0.50000000000000044 0.42194517837382972 0 0.48052571866292071 0.40739679007763829 0 0.48052571866292071 0.40739679007763829 0 0.47164064571526121 0.42103054174742499 0 0.48286133816489218 0.42341531305452368 0 0.48052571866292071 0.40739679007763829 0 0.47164064571526121 0.42103054174742499 0 0.46027475656121197 0.40914777417223219 0 0.47164064571526121 0.42103054174742499 0 0.47629252230745628 0.43202844473993951 0 0.46800990226762612 0.43013335812610792 0 0.47164064571526121 0.42103054174742499 0 0.48286133816489218 0.42341531305452368 0 0.47629252230745628 0.43202844473993951 0 0.48607059417963511 0.43501980622280018 0 0.48286133816489218 0.42341531305452368 0 0.47629252230745628 0.43202844473993951 0 0.48607059417963511 0.43501980622280018 0 0.47629252230745628 0.43202844473993951 0 0.478837816137195 0.44201535685533822 0 0.47629252230745628 0.43202844473993951 0 0.46800990226762612 0.43013335812610792 0 0.47218787177287758 0.44005088821405802 0 0.46800990226762612 0.43013335812610792 0 0.46425145425015418 0.43687243231697598 0 0.45974298735620428 0.42977630280640189 0 0.46800990226762612 0.43013335812610792 0 0.46425145425015418 0.43687243231697598 0 0.47218787177287758 0.44005088821405802 0 0.47164064571526121 0.42103054174742499 0 0.46800990226762612 0.43013335812610792 0 0.46250278901273162 0.42270752863874778 0 0.46800990226762612 0.43013335812610792 0 0.46250278901273162 0.42270752863874778 0 0.45974298735620428 0.42977630280640189 0 0.45974298735620428 0.42977630280640189 0 0.45430531478421671 0.42163543809745929 0 0.45139083174198802 0.43152763394502058 0 0.46250278901273162 0.42270752863874778 0 0.45974298735620428 0.42977630280640189 0 0.45430531478421671 0.42163543809745929 0 0.45806361024958198 0.43689797920671369 0 0.45139083174198802 0.43152763394502058 0 0.45254463300966402 0.44139975658491459 0 0.45806361024958198 0.43689797920671369 0 0.45974298735620428 0.42977630280640189 0 0.45139083174198802 0.43152763394502058 0 0.46425145425015418 0.43687243231697598 0 0.45806361024958198 0.43689797920671369 0 0.45974298735620428 0.42977630280640189 0 0.47164064571526121 0.42103054174742499 0 0.46250278901273162 0.42270752863874778 0 0.46027475656121197 0.40914777417223219 0 0.46250278901273162 0.42270752863874778 0 0.45430531478421671 0.42163543809745929 0 0.46027475656121197 0.40914777417223219 0 0.45430531478421671 0.42163543809745929 0 0.46027475656121197 0.40914777417223219 0 0.45191432803234188 0.4129013068727414 0 0.46027475656121197 0.40914777417223219 0 0.45286957771966119 0.40726226746935312 0 0.45191432803234188 0.4129013068727414 0 0.44655462729190443 0.40812113314316739 0 0.45191432803234188 0.4129013068727414 0 0.44492745993404609 0.41823451345955742 0 0.44655462729190443 0.40812113314316739 0 0.45286957771966119 0.40726226746935312 0 0.45191432803234188 0.4129013068727414 0 0.45430531478421671 0.42163543809745929 0 0.45191432803234188 0.4129013068727414 0 0.44492745993404609 0.41823451345955742 0 0.45430531478421671 0.42163543809745929 0 0.44492745993404609 0.41823451345955742 0 0.4457346137413758 0.42555210637716051 0 0.43650619774580718 0.41968959887481389 0 0.44655462729190443 0.40812113314316739 0 0.44492745993404609 0.41823451345955742 0 0.43650619774580718 0.41968959887481389 0 0.44492745993404609 0.41823451345955742 0 0.44143552463563618 0.42253471741152743 0 0.45139083174198802 0.43152763394502058 0 0.4457346137413758 0.42555210637716051 0 0.4434773561238215 0.43508604963605529 0 0.45139083174198802 0.43152763394502058 0 0.4434773561238215 0.43508604963605529 0 0.45254463300966402 0.44139975658491459 0 0.45430531478421671 0.42163543809745929 0 0.45139083174198802 0.43152763394502058 0 0.4457346137413758 0.42555210637716051 0 0.4457346137413758 0.42555210637716051 0 0.43857382712131587 0.42666265093457761 0 0.4434773561238215 0.43508604963605529 0 0.44492745993404609 0.41823451345955742 0 0.4457346137413758 0.42555210637716051 0 0.44143552463563618 0.42253471741152743 0 0.4457346137413758 0.42555210637716051 0 0.44143552463563618 0.42253471741152743 0 0.43857382712131587 0.42666265093457761 0 0.43650619774580718 0.41968959887481389 0 0.44143552463563618 0.42253471741152743 0 0.43857382712131587 0.42666265093457761 0 0.43439853854146121 0.43334695253172728 0 0.43857382712131587 0.42666265093457761 0 0.4434773561238215 0.43508604963605529 0 0.43439853854146121 0.43334695253172728 0 0.4434773561238215 0.43508604963605529 0 0.43575360864593399 0.44113171836324733 0 0.50000000000000044 0.42194517837382972 0 0.49249892689839653 0.44263329761028031 0 0.5 0.5 0 0.4434773561238215 0.43508604963605529 0 0.44474629534045218 0.44617052995890072 0 0.43575360864593399 0.44113171836324733 0 0.44474629534045218 0.44617052995890072 0 0.44517803447366883 0.45655072862241958 0 0.43084973980950259 0.45383206042618057 0 0.44474629534045218 0.44617052995890072 0 0.44517803447366883 0.45655072862241958 0 0.45376732636665679 0.45011151328119497 0 0.44474629534045218 0.44617052995890072 0 0.45254463300966402 0.44139975658491459 0 0.45376732636665679 0.45011151328119497 0 0.4434773561238215 0.43508604963605529 0 0.44474629534045218 0.44617052995890072 0 0.45254463300966402 0.44139975658491459 0 0.43783080089711851 0.46539504598376757 0 0.44517803447366883 0.45655072862241958 0 0.44904117110839831 0.46539649319527687 0 0.43783080089711851 0.46539504598376757 0 0.44904117110839831 0.46539649319527687 0 0.44214871703036779 0.47530611484236251 0 0.43783080089711851 0.46539504598376757 0 0.44517803447366883 0.45655072862241958 0 0.43084973980950259 0.45383206042618057 0 0.44517803447366883 0.45655072862241958 0 0.45504728875207989 0.45834734607148547 0 0.45376732636665679 0.45011151328119497 0 0.44517803447366883 0.45655072862241958 0 0.44904117110839831 0.46539649319527687 0 0.45504728875207989 0.45834734607148547 0 0.44904117110839831 0.46539649319527687 0 0.45889199650424761 0.46489046585241561 0 0.45504728875207989 0.45834734607148547 0 0.44904117110839831 0.46539649319527687 0 0.45889199650424761 0.46489046585241561 0 0.45442715469970812 0.47339167529063542 0 0.45889199650424761 0.46489046585241561 0 0.45504728875207989 0.45834734607148547 0 0.46161252012912629 0.45985890746288349 0 0.45504728875207989 0.45834734607148547 0 0.46131690946338172 0.45361321798580218 0 0.45376732636665679 0.45011151328119497 0 0.45504728875207989 0.45834734607148547 0 0.46131690946338172 0.45361321798580218 0 0.46161252012912629 0.45985890746288349 0 0.46131690946338172 0.45361321798580218 0 0.46680993144531391 0.45834549759849641 0 0.46806279178197718 0.45279662831304068 0 0.46131690946338172 0.45361321798580218 0 0.46680993144531391 0.45834549759849641 0 0.46161252012912629 0.45985890746288349 0 0.46680993144531391 0.45834549759849641 0 0.46161252012912629 0.45985890746288349 0 0.46568816705597882 0.46416607075614441 0 0.45889199650424761 0.46489046585241561 0 0.46161252012912629 0.45985890746288349 0 0.46568816705597882 0.46416607075614441 0 0.46680993144531391 0.45834549759849641 0 0.46568816705597882 0.46416607075614441 0 0.47076465736658712 0.46271791075287522 0 0.46568816705597882 0.46416607075614441 0 0.47150327765646421 0.46811707751431669 0 0.46453400959088093 0.47147466992026171 0 0.45889199650424761 0.46489046585241561 0 0.46568816705597882 0.46416607075614441 0 0.46453400959088093 0.47147466992026171 0 0.45806361024958198 0.43689797920671369 0 0.45254463300966402 0.44139975658491459 0 0.46238814488989982 0.4449137703802552 0 0.46131690946338172 0.45361321798580218 0 0.45376732636665679 0.45011151328119497 0 0.46238814488989982 0.4449137703802552 0 0.45254463300966402 0.44139975658491459 0 0.45376732636665679 0.45011151328119497 0 0.46238814488989982 0.4449137703802552 0 0.46806279178197718 0.45279662831304068 0 0.46238814488989982 0.4449137703802552 0 0.47069987249768042 0.4470667263486981 0 0.46131690946338172 0.45361321798580218 0 0.46806279178197718 0.45279662831304068 0 0.46238814488989982 0.4449137703802552 0 0.46425145425015418 0.43687243231697598 0 0.45806361024958198 0.43689797920671369 0 0.46238814488989982 0.4449137703802552 0 0.46425145425015418 0.43687243231697598 0 0.46238814488989982 0.4449137703802552 0 0.47218787177287758 0.44005088821405802 0 0.46238814488989982 0.4449137703802552 0 0.47218787177287758 0.44005088821405802 0 0.47069987249768042 0.4470667263486981 0 0.47629252230745628 0.43202844473993951 0 0.47218787177287758 0.44005088821405802 0 0.478837816137195 0.44201535685533822 0 0.48268722049863211 0.44876094882618339 0 0.48222537473757809 0.46099770093019182 0 0.48790110517619822 0.44149655139528737 0 0.48499785379679211 0.46332141684673073 0 0.49249892689839653 0.44263329761028031 0 0.5 0.5 0 0.47218787177287758 0.44005088821405802 0 0.478837816137195 0.44201535685533822 0 0.47608368640705179 0.44702041545276322 0 0.47218787177287758 0.44005088821405802 0 0.47608368640705179 0.44702041545276322 0 0.47069987249768042 0.4470667263486981 0 0.48607059417963511 0.43501980622280018 0 0.478837816137195 0.44201535685533822 0 0.48311779597932691 0.44295686432938147 0 0.478837816137195 0.44201535685533822 0 0.4799151576259208 0.44634586041342622 0 0.47608368640705179 0.44702041545276322 0 0.478837816137195 0.44201535685533822 0 0.48311779597932691 0.44295686432938147 0 0.4799151576259208 0.44634586041342622 0 0.48268722049863211 0.44876094882618339 0 0.478849269107398 0.45097571660346469 0 0.48022170094719779 0.45490746629732298 0 0.48311779597932691 0.44295686432938147 0 0.48268722049863211 0.44876094882618339 0 0.4799151576259208 0.44634586041342622 0 0.48268722049863211 0.44876094882618339 0 0.4799151576259208 0.44634586041342622 0 0.478849269107398 0.45097571660346469 0 0.4799151576259208 0.44634586041342622 0 0.478849269107398 0.45097571660346469 0 0.47608368640705179 0.44702041545276322 0 0.478849269107398 0.45097571660346469 0 0.47419340825614442 0.45226494510500981 0 0.4777091772080917 0.455998753672333 0 0.478849269107398 0.45097571660346469 0 0.47419340825614442 0.45226494510500981 0 0.47608368640705179 0.44702041545276322 0 0.47419340825614442 0.45226494510500981 0 0.47608368640705179 0.44702041545276322 0 0.47069987249768042 0.4470667263486981 0 0.46806279178197718 0.45279662831304068 0 0.47419340825614442 0.45226494510500981 0 0.47069987249768042 0.4470667263486981 0 0.48222537473757809 0.46099770093019182 0 0.48499785379679211 0.46332141684673073 0 0.47654964429895802 0.48049885046509611 0 0.46680993144531391 0.45834549759849641 0 0.46806279178197718 0.45279662831304068 0 0.4732346064364199 0.45829311474669382 0 0.46806279178197718 0.45279662831304068 0 0.47419340825614442 0.45226494510500981 0 0.4732346064364199 0.45829311474669382 0 0.46680993144531391 0.45834549759849641 0 0.4732346064364199 0.45829311474669382 0 0.47076465736658712 0.46271791075287522 0 0.4732346064364199 0.45829311474669382 0 0.47586222766662412 0.46326910972328061 0 0.47792326309971789 0.45939403703327819 0 0.4732346064364199 0.45829311474669382 0 0.4777091772080917 0.455998753672333 0 0.47792326309971789 0.45939403703327819 0 0.47419340825614442 0.45226494510500981 0 0.4732346064364199 0.45829311474669382 0 0.4777091772080917 0.455998753672333 0 0.46568816705597882 0.46416607075614441 0 0.47150327765646421 0.46811707751431669 0 0.47076465736658712 0.46271791075287522 0 0.4732346064364199 0.45829311474669382 0 0.47076465736658712 0.46271791075287522 0 0.47586222766662412 0.46326910972328061 0 0.47150327765646421 0.46811707751431669 0 0.47076465736658712 0.46271791075287522 0 0.47586222766662412 0.46326910972328061 0 0.47150327765646421 0.46811707751431669 0 0.47586222766662412 0.46326910972328061 0 0.47642929061743872 0.46914306749639789 0 0.47586222766662412 0.46326910972328061 0 0.48222537473757809 0.46099770093019182 0 0.47642929061743872 0.46914306749639789 0 0.47586222766662412 0.46326910972328061 0 0.48222537473757809 0.46099770093019182 0 0.47792326309971789 0.45939403703327819 0 0.48268722049863211 0.44876094882618339 0 0.48222537473757809 0.46099770093019182 0 0.48022170094719779 0.45490746629732298 0 0.478849269107398 0.45097571660346469 0 0.48022170094719779 0.45490746629732298 0 0.4777091772080917 0.455998753672333 0 0.48022170094719779 0.45490746629732298 0 0.4777091772080917 0.455998753672333 0 0.47963746318428868 0.45780421145444222 0 0.4777091772080917 0.455998753672333 0 0.47792326309971789 0.45939403703327819 0 0.47963746318428868 0.45780421145444222 0 0.48222537473757809 0.46099770093019182 0 0.47792326309971789 0.45939403703327819 0 0.47963746318428868 0.45780421145444222 0 0.48222537473757809 0.46099770093019182 0 0.48022170094719779 0.45490746629732298 0 0.47963746318428868 0.45780421145444222 0 0.48222537473757809 0.46099770093019182 0 0.48499785379679211 0.46332141684673073 0 0.49249892689839653 0.44263329761028031 0 0.48222537473757809 0.46099770093019182 0 0.49249892689839653 0.44263329761028031 0 0.48790110517619822 0.44149655139528737 0 0.48222537473757809 0.46099770093019182 0 0.48790110517619822 0.44149655139528737 0 0.48499785379679211 0.46332141684673073 0 0.49249892689839653 0.44263329761028031 0 0.48607059417963511 0.43501980622280018 0 0.48311779597932691 0.44295686432938147 0 0.48790110517619822 0.44149655139528737 0 0.48607059417963511 0.43501980622280018 0 0.49249892689839653 0.44263329761028031 0 0.48790110517619822 0.44149655139528737 0 0.48311779597932691 0.44295686432938147 0 0.48268722049863211 0.44876094882618339 0 0.48790110517619822 0.44149655139528737 0 0.48499785379679211 0.46332141684673073 0 0.5 0.5 0 0.47749678069518769 0.48400953608318109 0 0.48222537473757809 0.46099770093019182 0 0.47642929061743872 0.46914306749639789 0 0.47654964429895802 0.48049885046509611 0 0.48499785379679211 0.46332141684673073 0 0.47749678069518769 0.48400953608318109 0 0.47654964429895802 0.48049885046509611 0 0.48222537473757809 0.46099770093019182 0 0.47654964429895802 0.48049885046509611 0 0.48499785379679211 0.46332141684673073 0 0.47749678069518769 0.48400953608318109 0 0.47642929061743872 0.46914306749639789 0 0.47448605097646152 0.47405048004114331 0 0.47654964429895802 0.48049885046509611 0 0.47642929061743872 0.46914306749639789 0 0.47329548218010697 0.47113994435722911 0 0.47448605097646152 0.47405048004114331 0 0.47150327765646421 0.46811707751431669 0 0.47642929061743872 0.46914306749639789 0 0.47329548218010697 0.47113994435722911 0 0.47329548218010697 0.47113994435722911 0 0.47448605097646152 0.47405048004114331 0 0.4707633094700639 0.47324915237705828 0 0.47448605097646152 0.47405048004114331 0 0.4707633094700639 0.47324915237705828 0 0.47210616269094863 0.47776178102838379 0 0.4707633094700639 0.47324915237705828 0 0.47210616269094863 0.47776178102838379 0 0.4677179246096117 0.47743489494516078 0 0.47150327765646421 0.46811707751431669 0 0.47329548218010697 0.47113994435722911 0 0.4707633094700639 0.47324915237705828 0 0.47150327765646421 0.46811707751431669 0 0.4707633094700639 0.47324915237705828 0 0.46453400959088093 0.47147466992026171 0 0.47654964429895802 0.48049885046509611 0 0.47210616269094863 0.47776178102838379 0 0.46809850492932159 0.48422788912264819 0 0.47448605097646152 0.47405048004114331 0 0.47654964429895802 0.48049885046509611 0 0.47210616269094863 0.47776178102838379 0 0.47210616269094863 0.47776178102838379 0 0.4677179246096117 0.47743489494516078 0 0.46809850492932159 0.48422788912264819 0 0.47654964429895802 0.48049885046509611 0 0.47087391386033778 0.50000000000000044 0 0.46809850492932159 0.48422788912264819 0 0.5 0.5 0 0.47749678069518769 0.48400953608318109 0 0.47087391386033778 0.50000000000000044 0 0.47749678069518769 0.48400953608318109 0 0.47654964429895802 0.48049885046509611 0 0.47087391386033778 0.50000000000000044 0 0.47654964429895802 0.48049885046509611 0 0.47087391386033778 0.50000000000000044 0 0.47087391386033778 0.50000000000000044 0 0.4589338953039 0.48981752427484171 0 0.45016058810298148 0.5 0 0.47087391386033778 0.50000000000000044 0 0.4589338953039 0.48981752427484171 0 0.46809850492932159 0.48422788912264819 0 0.4589338953039 0.48981752427484171 0 0.46119825929785901 0.47992428533449999 0 0.46809850492932159 0.48422788912264819 0 0.4589338953039 0.48981752427484171 0 0.45016058810298148 0.5 0 0.45070790059203542 0.48443967219459588 0 0.4589338953039 0.48981752427484171 0 0.46119825929785901 0.47992428533449999 0 0.45070790059203542 0.48443967219459588 0 0.46453400959088093 0.47147466992026171 0 0.46119825929785901 0.47992428533449999 0 0.4677179246096117 0.47743489494516078 0 0.4707633094700639 0.47324915237705828 0 0.46453400959088093 0.47147466992026171 0 0.4677179246096117 0.47743489494516078 0 0.46119825929785901 0.47992428533449999 0 0.4677179246096117 0.47743489494516078 0 0.46809850492932159 0.48422788912264819 0 0.46119825929785901 0.47992428533449999 0 0.45442715469970812 0.47339167529063542 0 0.45070790059203542 0.48443967219459588 0 0.45889199650424761 0.46489046585241561 0 0.46453400959088093 0.47147466992026171 0 0.45442715469970812 0.47339167529063542 0 0.46453400959088093 0.47147466992026171 0 0.46119825929785901 0.47992428533449999 0 0.45442715469970812 0.47339167529063542 0 0.44904117110839831 0.46539649319527687 0 0.45442715469970812 0.47339167529063542 0 0.44214871703036779 0.47530611484236251 0 0.45442715469970812 0.47339167529063542 0 0.44214871703036779 0.47530611484236251 0 0.45070790059203542 0.48443967219459588 0 0.44214871703036779 0.47530611484236251 0 0.45070790059203542 0.48443967219459588 0 0.43824157364856797 0.4877632263931444 0 0.45016058810298148 0.5 0 0.43824157364856797 0.4877632263931444 0 0.4294472623456253 0.50000000000000222 0 0.45016058810298148 0.5 0 0.45070790059203542 0.48443967219459588 0 0.43824157364856797 0.4877632263931444 0 0.43824157364856797 0.4877632263931444 0 0.4294472623456253 0.50000000000000222 0 0.42288476592145569 0.47698135117472512 0 0.4294472623456253 0.50000000000000222 0 0.42288476592145569 0.47698135117472512 0 0.42288476592145569 0.47698135117472512 0 0.40397616743830389 0.46823404704707622 0 0.39978670021259571 0.5 0 0.4294472623456253 0.50000000000000222 0 0.42288476592145569 0.47698135117472512 0 0.39978670021259571 0.5 0 0.43783080089711851 0.46539504598376757 0 0.44214871703036779 0.47530611484236251 0 0.42288476592145569 0.47698135117472512 0 0.44214871703036779 0.47530611484236251 0 0.43824157364856797 0.4877632263931444 0 0.42288476592145569 0.47698135117472512 0 0.43783080089711851 0.46539504598376757 0 0.42288476592145569 0.47698135117472512 0 0.43084973980950259 0.45383206042618057 0 0.42288476592145569 0.47698135117472512 0 0.43084973980950259 0.45383206042618057 0 0.41632226949728668 0.45396270234944791 0 0.43084973980950259 0.45383206042618057 0 0.43575360864593399 0.44113171836324733 0 0.42575029225984629 0.43817658423166628 0 0.43084973980950259 0.45383206042618057 0 0.42575029225984629 0.43817658423166628 0 0.41632226949728668 0.45396270234944791 0 0.43439853854146121 0.43334695253172728 0 0.43575360864593399 0.44113171836324733 0 0.42575029225984629 0.43817658423166628 0 0.44474629534045218 0.44617052995890072 0 0.43084973980950259 0.45383206042618057 0 0.43575360864593399 0.44113171836324733 0 0.40975977307311767 0.4309440535241707 0 0.41632226949728668 0.45396270234944791 0 0.40975977307311767 0.4309440535241707 0 0.41632226949728668 0.45396270234944791 0 0.40277120807912181 0.44488064963545743 0 0.40975977307311767 0.4309440535241707 0 0.42575029225984629 0.43817658423166628 0 0.41632226949728668 0.45396270234944791 0 0.41632226949728668 0.45396270234944791 0 0.40397616743830389 0.46823404704707622 0 0.40277120807912181 0.44488064963545743 0 0.42288476592145569 0.47698135117472512 0 0.41632226949728668 0.45396270234944791 0 0.42288476592145569 0.47698135117472512 0 0.41632226949728668 0.45396270234944791 0 0.40397616743830389 0.46823404704707622 0 0.40397616743830389 0.46823404704707622 0 0.3914315947512424 0.45558027212499541 0 0.38608907541949888 0.47640493513650201 0 0.40397616743830389 0.46823404704707622 0 0.3914315947512424 0.45558027212499541 0 0.40277120807912181 0.44488064963545743 0 0.3914315947512424 0.45558027212499541 0 0.40277120807912181 0.44488064963545743 0 0.38996981265582331 0.44267230085881909 0 0.39567187282383282 0.43100015285841642 0 0.40277120807912181 0.44488064963545743 0 0.38996981265582331 0.44267230085881909 0 0.37023049558979693 0.44243966271604079 0 0.39567187282383282 0.43100015285841642 0 0.38996981265582331 0.44267230085881909 0 0.37023049558979693 0.44243966271604079 0 0.38996981265582331 0.44267230085881909 0 0.38191163166310799 0.44948622619984879 0 0.3914315947512424 0.45558027212499541 0 0.38996981265582331 0.44267230085881909 0 0.38191163166310799 0.44948622619984879 0 0.37023049558979693 0.44243966271604079 0 0.38191163166310799 0.44948622619984879 0 0.37601462365556942 0.45725266909953982 0 0.36629076891963169 0.4716758837031908 0 0.37601462365556942 0.45725266909953982 0 0.38608907541949888 0.47640493513650201 0 0.3914315947512424 0.45558027212499541 0 0.37601462365556942 0.45725266909953982 0 0.38608907541949888 0.47640493513650201 0 0.3914315947512424 0.45558027212499541 0 0.38191163166310799 0.44948622619984879 0 0.37601462365556942 0.45725266909953982 0 0.40397616743830389 0.46823404704707622 0 0.38608907541949888 0.47640493513650201 0 0.39978670021259571 0.5 0 0.37012613807956618 0.5 0 0.38608907541949888 0.47640493513650201 0 0.39978670021259571 0.5 0 0.34141921861735719 0.067579393527610526 0 0.33466390169128768 0.095467244696698567 0 0.35301293421369478 0.077169886295031048 0 0.34141921861735719 0.067579393527610526 0 0.33466390169128768 0.095467244696698567 0 0.34141921861735719 0.067579393527610526 0 0.32443758592830457 0.080711647831618966 0 0.33466390169128768 0.095467244696698567 0 0.34141921861735719 0.067579393527610526 0 0.32443758592830457 0.080711647831618966 0 0.32730167687102829 0.060217632285516881 0 0.32730167687102829 0.060217632285516881 0 0.30642881819862838 0.080743722212510485 0 0.32730167687102829 0.060217632285516881 0 0.30841852684153609 0.058545680878099637 0 0.30642881819862838 0.080743722212510485 0 0.32443758592830457 0.080711647831618966 0 0.32730167687102829 0.060217632285516881 0 0.30642881819862838 0.080743722212510485 0 0.32443758592830457 0.080711647831618966 0 0.33466390169128768 0.095467244696698567 0 0.30802282078042859 0.1034634579887893 0 0.32443758592830457 0.080711647831618966 0 0.30642881819862838 0.080743722212510485 0 0.30802282078042859 0.1034634579887893 0 0.32912443987471829 0.11261861215727779 0 0.33466390169128768 0.095467244696698567 0 0.30802282078042859 0.1034634579887893 0 0.31654185007284819 0.12022243899103451 0 0.32912443987471829 0.11261861215727779 0 0.30802282078042859 0.1034634579887893 0 0.31654185007284819 0.12022243899103451 0 0.32912443987471829 0.11261861215727779 0 0.3293260288753706 0.12662057091205531 0 0.32912443987471829 0.11261861215727779 0 0.3400679449540831 0.12102442402254431 0 0.34612409287429202 0.10891353633254459 0 0.32912443987471829 0.11261861215727779 0 0.3400679449540831 0.12102442402254431 0 0.3293260288753706 0.12662057091205531 0 0.32912443987471829 0.11261861215727779 0 0.33466390169128768 0.095467244696698567 0 0.34612409287429202 0.10891353633254459 0 0.33466390169128768 0.095467244696698567 0 0.34612409287429202 0.10891353633254459 0 0.3619662266091811 0.089262460385423889 0 0.34612409287429202 0.10891353633254459 0 0.36112302224135773 0.11277521153298881 0 0.3619662266091811 0.089262460385423889 0 0.34612409287429202 0.10891353633254459 0 0.36112302224135773 0.11277521153298881 0 0.35131572215963902 0.12563937409389231 0 0.36112302224135773 0.11277521153298881 0 0.35131572215963902 0.12563937409389231 0 0.36027981787353441 0.13628796268055371 0 0.3400679449540831 0.12102442402254431 0 0.34612409287429202 0.10891353633254459 0 0.35131572215963902 0.12563937409389231 0 0.36112302224135773 0.11277521153298881 0 0.3737374959112344 0.1047415756277144 0 0.3772864422104612 0.1215050391393626 0 0.36112302224135773 0.11277521153298881 0 0.36027981787353441 0.13628796268055371 0 0.36112302224135773 0.11277521153298881 0 0.36027981787353441 0.13628796268055371 0 0.3772864422104612 0.1215050391393626 0 0.36112302224135773 0.11277521153298881 0 0.3737374959112344 0.1047415756277144 0 0.3619662266091811 0.089262460385423889 0 0.36112302224135773 0.11277521153298881 0 0.3619662266091811 0.089262460385423889 0 0.3737374959112344 0.1047415756277144 0 0.3619662266091811 0.089262460385423889 0 0.37901036843610469 0.078043396751232272 0 0.33466390169128768 0.095467244696698567 0 0.3619662266091811 0.089262460385423889 0 0.35301293421369478 0.077169886295031048 0 0.3619662266091811 0.089262460385423889 0 0.35301293421369478 0.077169886295031048 0 0.36280943097700458 0.065749709237859 0 0.34141921861735719 0.067579393527610526 0 0.35301293421369478 0.077169886295031048 0 0.3531558131185013 0.057673261749419537 0 0.35301293421369478 0.077169886295031048 0 0.36280943097700458 0.065749709237859 0 0.3531558131185013 0.057673261749419537 0 0.3619662266091811 0.089262460385423889 0 0.36280943097700458 0.065749709237859 0 0.3619662266091811 0.089262460385423889 0 0.36280943097700458 0.065749709237859 0 0.37901036843610469 0.078043396751232272 0 0.36280943097700458 0.065749709237859 0 0.37036712815049061 0.048210502621681417 0 0.38428324096097499 0.05134521787475009 0 0.36280943097700458 0.065749709237859 0 0.36078310898827642 0.05385930791073916 0 0.37036712815049061 0.048210502621681417 0 0.36078310898827642 0.05385930791073916 0 0.37036712815049061 0.048210502621681417 0 0.35680006370710921 0.043803758033996679 0 0.37036712815049061 0.048210502621681417 0 0.37317808859647822 0.034225398516132828 0 0.35680006370710921 0.043803758033996679 0 0.37317808859647822 0.034225398516132828 0 0.35680006370710921 0.043803758033996679 0 0.36599914633082947 0.022163058614241029 0 0.37317808859647822 0.034225398516132828 0 0.35680006370710921 0.043803758033996679 0 0.34817453554342748 0.039691542358522652 0 0.35214543196535542 0.02329856337107488 0 0.34817453554342748 0.039691542358522652 0 0.35680006370710921 0.043803758033996679 0 0.36599914633082947 0.022163058614241029 0 0.34141921861735719 0.067579393527610526 0 0.34817453554342748 0.039691542358522652 0 0.3531558131185013 0.057673261749419537 0 0.34817453554342748 0.039691542358522652 0 0.35680006370710921 0.043803758033996679 0 0.3531558131185013 0.057673261749419537 0 0.34141921861735719 0.067579393527610526 0 0.34817453554342748 0.039691542358522652 0 0.36280943097700458 0.065749709237859 0 0.36078310898827642 0.05385930791073916 0 0.3531558131185013 0.057673261749419537 0 0.36078310898827642 0.05385930791073916 0 0.35680006370710921 0.043803758033996679 0 0.3531558131185013 0.057673261749419537 0 0.36459978185581599 0.0016197853629371991 0 0.38382375711823202 0.0046345748699598427 0 0.36599914633082947 0.022163058614241029 0 0.38382375711823202 0.0046345748699598427 0 0.36459978185581599 0.0016197853629371991 0 0.36453688913150201 0.011724313320365521 0 0.38382375711823202 0.0046345748699598427 0 0.36453688913150201 0.011724313320365521 0 0.36599914633082947 0.022163058614241029 0 0.38382375711823202 0.0046345748699598427 0 0.36459978185581599 0.0016197853629371991 0 0.35611632838728552 0.0069055843836276897 0 0.35766033028314259 0.00053150962912805184 0 0.36459978185581599 0.0016197853629371991 0 0.36453688913150201 0.011724313320365521 0 0.35611632838728552 0.0069055843836276897 0 0.36459978185581599 0.0016197853629371991 0 0.35611632838728552 0.0069055843836276897 0 0.36459978185581599 0.0016197853629371991 0 0.35766033028314259 0.00053150962912805184 0 0.36453688913150201 0.011724313320365521 0 0.36599914633082947 0.022163058614241029 0 0.35214543196535542 0.02329856337107488 0 0.37317808859647822 0.034225398516132828 0 0.36599914633082947 0.022163058614241029 0 0.37778714102223682 0.02331484962467225 0 0.34817453554342748 0.039691542358522652 0 0.36599914633082947 0.022163058614241029 0 0.35214543196535542 0.02329856337107488 0 0.34817453554342748 0.039691542358522652 0 0.36599914633082947 0.022163058614241029 0 0.34817453554342748 0.039691542358522652 0 0.35214543196535542 0.02329856337107488 0 0.34073010365916312 0.029606654903674989 0 0.34396446868085268 0.020327156331984911 0 0.35214543196535542 0.02329856337107488 0 0.34073010365916312 0.029606654903674989 0 0.34396446868085268 0.020327156331984911 0 0.35214543196535542 0.02329856337107488 0 0.3486391139840414 0.01378171327663134 0 0.35611632838728552 0.0069055843836276897 0 0.35766033028314259 0.00053150962912805184 0 0.34186169234775288 -0.0019461032070706239 0 0.35214543196535542 0.02329856337107488 0 0.3486391139840414 0.01378171327663134 0 0.35611632838728552 0.0069055843836276897 0 0.36453688913150201 0.011724313320365521 0 0.35214543196535542 0.02329856337107488 0 0.35611632838728552 0.0069055843836276897 0 0.35214543196535542 0.02329856337107488 0 0.35611632838728552 0.0069055843836276897 0 0.34788587975520718 0.01203374327326698 0 0.35611632838728552 0.0069055843836276897 0 0.34788587975520718 0.01203374327326698 0 0.3486391139840414 0.01378171327663134 0 0.35611632838728552 0.0069055843836276897 0 0.34396446868085268 0.020327156331984911 0 0.34788587975520718 0.01203374327326698 0 0.3486391139840414 0.01378171327663134 0 0.34788587975520718 0.01203374327326698 0 0.3486391139840414 0.01378171327663134 0 0.34788587975520718 0.01203374327326698 0 0.35611632838728552 0.0069055843836276897 0 0.34186169234775288 -0.0019461032070706239 0 0.34788587975520718 0.01203374327326698 0 0.34186169234775288 -0.0019461032070706239 0 0.35611632838728552 0.0069055843836276897 0 0.35766033028314259 0.00053150962912805184 0 0.34788587975520718 0.01203374327326698 0 0.33040276643443328 0.0077194922335834752 0 0.34186169234775288 -0.0019461032070706239 0 0.34788587975520718 0.01203374327326698 0 0.33040276643443328 0.0077194922335834752 0 0.33042181404049609 0.022915106835276582 0 0.33042181404049609 0.022915106835276582 0 0.34073010365916312 0.029606654903674989 0 0.32916694000703273 0.041137671269217399 0 0.34396446868085268 0.020327156331984911 0 0.34788587975520718 0.01203374327326698 0 0.33042181404049609 0.022915106835276582 0 0.34788587975520718 0.01203374327326698 0 0.33042181404049609 0.022915106835276582 0 0.34396446868085268 0.020327156331984911 0 0.33042181404049609 0.022915106835276582 0 0.34073010365916312 0.029606654903674989 0 0.33042181404049609 0.022915106835276582 0 0.31665256165565792 0.012274888616195721 0 0.31295774832578521 0.033796470397286393 0 0.33042181404049609 0.022915106835276582 0 0.31295774832578521 0.033796470397286393 0 0.33040276643443328 0.0077194922335834752 0 0.31665256165565792 0.012274888616195721 0 0.3153171152914937 -0.0061089421248620053 0 0.33040276643443328 0.0077194922335834752 0 0.33042181404049609 0.022915106835276582 0 0.31665256165565792 0.012274888616195721 0 0.34141921861735719 0.067579393527610526 0 0.34817453554342748 0.039691542358522652 0 0.32730167687102829 0.060217632285516881 0 0.34817453554342748 0.039691542358522652 0 0.32916694000703273 0.041137671269217399 0 0.32730167687102829 0.060217632285516881 0 0.34817453554342748 0.039691542358522652 0 0.32730167687102829 0.060217632285516881 0 0.34817453554342748 0.039691542358522652 0 0.34073010365916312 0.029606654903674989 0 0.32916694000703273 0.041137671269217399 0 0.32916694000703273 0.041137671269217399 0 0.31295774832578521 0.033796470397286393 0 0.30841852684153609 0.058545680878099637 0 0.33042181404049609 0.022915106835276582 0 0.32916694000703273 0.041137671269217399 0 0.31295774832578521 0.033796470397286393 0 0.32916694000703273 0.041137671269217399 0 0.32730167687102829 0.060217632285516881 0 0.30841852684153609 0.058545680878099637 0 0.30841852684153609 0.058545680878099637 0 0.29549368261107423 0.044677833959296212 0 0.29116922898793479 0.065304421801999329 0 0.31295774832578521 0.033796470397286393 0 0.30841852684153609 0.058545680878099637 0 0.29549368261107423 0.044677833959296212 0 0.31295774832578521 0.033796470397286393 0 0.29549368261107423 0.044677833959296212 0 0.29002010253153498 0.029240258759704641 0 0.31295774832578521 0.033796470397286393 0 0.29549368261107423 0.044677833959296212 0 0.29549368261107423 0.044677833959296212 0 0.29002010253153498 0.029240258759704641 0 0.27280963139467213 0.037002697350774501 0 0.29549368261107423 0.044677833959296212 0 0.27447269405752689 0.057703547068217037 0 0.29116922898793479 0.065304421801999329 0 0.31665256165565792 0.012274888616195721 0 0.29594264507526558 0.01116838319107246 0 0.3153171152914937 -0.0061089421248620053 0 0.31295774832578521 0.033796470397286393 0 0.29002010253153498 0.029240258759704641 0 0.29594264507526558 0.01116838319107246 0 0.31665256165565792 0.012274888616195721 0 0.31295774832578521 0.033796470397286393 0 0.29594264507526558 0.01116838319107246 0 0.29002010253153498 0.029240258759704641 0 0.29594264507526558 0.01116838319107246 0 0.27289680525087828 0.01955590890009366 0 0.29594264507526558 0.01116838319107246 0 0.27345126597006592 0.00071225981742997107 0 0.2887725382352363 -0.01027178104266422 0 0.29594264507526558 0.01116838319107246 0 0.27345126597006592 0.00071225981742997107 0 0.27289680525087828 0.01955590890009366 0 0.29002010253153498 0.029240258759704641 0 0.27289680525087828 0.01955590890009366 0 0.27280963139467213 0.037002697350774501 0 0.27289680525087828 0.01955590890009366 0 0.25458476701871002 0.02766973368984053 0 0.27280963139467213 0.037002697350774501 0 0.24502883806765671 0.008523642691556723 0 0.27289680525087828 0.01955590890009366 0 0.25458476701871002 0.02766973368984053 0 0.24502883806765671 0.008523642691556723 0 0.27345126597006592 0.00071225981742997107 0 0.27289680525087828 0.01955590890009366 0 0.29549368261107423 0.044677833959296212 0 0.27447269405752689 0.057703547068217037 0 0.27280963139467213 0.037002697350774501 0 0.24773452015769859 0.046187867395794058 0 0.25458476701871002 0.02766973368984053 0 0.27280963139467213 0.037002697350774501 0 0.24773452015769859 0.046187867395794058 0 0.27447269405752689 0.057703547068217037 0 0.25865679783116052 0.070915849861062308 0 0.24773452015769859 0.046187867395794058 0 0.27447269405752689 0.057703547068217037 0 0.27280963139467213 0.037002697350774501 0 0.25865679783116052 0.070915849861062308 0 0.27616036645407022 0.081171112570811929 0 0.25384944954462069 0.095449856149134135 0 0.23940360910079561 0.072187684139423405 0 0.25865679783116052 0.070915849861062308 0 0.25384944954462069 0.095449856149134135 0 0.27616036645407022 0.081171112570811929 0 0.26943926039456972 0.099795050200150268 0 0.25384944954462069 0.095449856149134135 0 0.27616036645407022 0.081171112570811929 0 0.28555595952622859 0.10126981213950439 0 0.27447269405752689 0.057703547068217037 0 0.25865679783116052 0.070915849861062308 0 0.27616036645407022 0.081171112570811929 0 0.27447269405752689 0.057703547068217037 0 0.27616036645407022 0.081171112570811929 0 0.29116922898793479 0.065304421801999329 0 0.27616036645407022 0.081171112570811929 0 0.29116922898793479 0.065304421801999329 0 0.30642881819862838 0.080743722212510485 0 0.27616036645407022 0.081171112570811929 0 0.30642881819862838 0.080743722212510485 0 0.28555595952622859 0.10126981213950439 0 0.30642881819862838 0.080743722212510485 0 0.28555595952622859 0.10126981213950439 0 0.30841852684153609 0.058545680878099637 0 0.29116922898793479 0.065304421801999329 0 0.30642881819862838 0.080743722212510485 0 0.31654185007284819 0.12022243899103451 0 0.30802282078042859 0.1034634579887893 0 0.3052906345432434 0.12599964084974211 0 0.30802282078042859 0.1034634579887893 0 0.29424027191342261 0.1198469668002466 0 0.3052906345432434 0.12599964084974211 0 0.30642881819862838 0.080743722212510485 0 0.30802282078042859 0.1034634579887893 0 0.28555595952622859 0.10126981213950439 0 0.30802282078042859 0.1034634579887893 0 0.28555595952622859 0.10126981213950439 0 0.29424027191342261 0.1198469668002466 0 0.28555595952622859 0.10126981213950439 0 0.29424027191342261 0.1198469668002466 0 0.28555595952622859 0.10126981213950439 0 0.29424027191342261 0.1198469668002466 0 0.27064383871955061 0.1159341922076164 0 0.29424027191342261 0.1198469668002466 0 0.27064383871955061 0.1159341922076164 0 0.27836593757777162 0.12622500564243611 0 0.28555595952622859 0.10126981213950439 0 0.27064383871955061 0.1159341922076164 0 0.26943926039456972 0.099795050200150268 0 0.27616036645407022 0.081171112570811929 0 0.28555595952622859 0.10126981213950439 0 0.26943926039456972 0.099795050200150268 0 0.28555595952622859 0.10126981213950439 0 0.27064383871955061 0.1159341922076164 0 0.26943926039456972 0.099795050200150268 0 0.25384944954462069 0.095449856149134135 0 0.25620984555605009 0.1131725934863051 0 0.2388396102423237 0.1172756265968197 0 0.25620984555605009 0.1131725934863051 0 0.25573171791287269 0.13059857227572849 0 0.27064383871955061 0.1159341922076164 0 0.25620984555605009 0.1131725934863051 0 0.25573171791287269 0.13059857227572849 0 0.27064383871955061 0.1159341922076164 0 0.26943926039456972 0.099795050200150268 0 0.25620984555605009 0.1131725934863051 0 0.27064383871955061 0.1159341922076164 0 0.25573171791287269 0.13059857227572849 0 0.27064383871955061 0.1159341922076164 0 0.25573171791287269 0.13059857227572849 0 0.26474489835187032 0.13327120188759109 0 0.25663613896196991 0.14035755598763441 0 0.26474489835187032 0.13327120188759109 0 0.27429386623587182 0.14432025961747261 0 0.2388396102423237 0.1172756265968197 0 0.25573171791287269 0.13059857227572849 0 0.25663613896196991 0.14035755598763441 0 0.25573171791287269 0.13059857227572849 0 0.25663613896196991 0.14035755598763441 0 0.26474489835187032 0.13327120188759109 0 0.26474489835187032 0.13327120188759109 0 0.27836593757777162 0.12622500564243611 0 0.2838347413262432 0.13584766167429049 0 0.26474489835187032 0.13327120188759109 0 0.2838347413262432 0.13584766167429049 0 0.26474489835187032 0.13327120188759109 0 0.27429386623587182 0.14432025961747261 0 0.2838347413262432 0.13584766167429049 0 0.27064383871955061 0.1159341922076164 0 0.26474489835187032 0.13327120188759109 0 0.27836593757777162 0.12622500564243611 0 0.25663613896196991 0.14035755598763441 0 0.27429386623587182 0.14432025961747261 0 0.27443266768161589 0.16343948537844899 0 0.27429386623587182 0.14432025961747261 0 0.27443266768161589 0.16343948537844899 0 0.29182088485765978 0.14868539315939769 0 0.25663613896196991 0.14035755598763441 0 0.27443266768161589 0.16343948537844899 0 0.25663613896196991 0.14035755598763441 0 0.25299790414357343 0.16100449818938201 0 0.27443266768161589 0.16343948537844899 0 0.2398937274470776 0.1701272920004806 0 0.25299790414357343 0.16100449818938201 0 0.26290520812746782 0.1776609444212616 0 0.25299790414357343 0.16100449818938201 0 0.26290520812746782 0.1776609444212616 0 0.27443266768161589 0.16343948537844899 0 0.2475941291823989 0.18769603697772511 0 0.2398937274470776 0.1701272920004806 0 0.26290520812746782 0.1776609444212616 0 0.26290520812746782 0.1776609444212616 0 0.27443266768161589 0.16343948537844899 0 0.27827491417824468 0.1876060113889412 0 0.27443266768161589 0.16343948537844899 0 0.29952215514580832 0.1666340054519716 0 0.29182088485765978 0.14868539315939769 0 0.27443266768161589 0.16343948537844899 0 0.29222919640126049 0.18652141476926479 0 0.27443266768161589 0.16343948537844899 0 0.29222919640126049 0.18652141476926479 0 0.29952215514580832 0.1666340054519716 0 0.27443266768161589 0.16343948537844899 0 0.29222919640126049 0.18652141476926479 0 0.27827491417824468 0.1876060113889412 0 0.29222919640126049 0.18652141476926479 0 0.29952215514580832 0.1666340054519716 0 0.30186684762655891 0.18706314627180651 0 0.31878666198549099 0.1723556818718206 0 0.29222919640126049 0.18652141476926479 0 0.30186684762655891 0.18706314627180651 0 0.29952215514580832 0.1666340054519716 0 0.30186684762655891 0.18706314627180651 0 0.29952215514580832 0.1666340054519716 0 0.31878666198549099 0.1723556818718206 0 0.29952215514580832 0.1666340054519716 0 0.30681511389035809 0.14674659613467919 0 0.29952215514580832 0.1666340054519716 0 0.30681511389035809 0.14674659613467919 0 0.31878666198549099 0.1723556818718206 0 0.29952215514580832 0.1666340054519716 0 0.30681511389035809 0.14674659613467919 0 0.29182088485765978 0.14868539315939769 0 0.30681511389035809 0.14674659613467919 0 0.3029245843006162 0.13842412146098901 0 0.29182088485765978 0.14868539315939769 0 0.30681511389035809 0.14674659613467919 0 0.30953966586774662 0.13931692564310591 0 0.31977433524352539 0.15291883525178929 0 0.30681511389035809 0.14674659613467919 0 0.3029245843006162 0.13842412146098901 0 0.30681511389035809 0.14674659613467919 0 0.30953966586774662 0.13931692564310591 0 0.3029245843006162 0.13842412146098901 0 0.30681511389035809 0.14674659613467919 0 0.30953966586774662 0.13931692564310591 0 0.30953966586774662 0.13931692564310591 0 0.3052906345432434 0.12599964084974211 0 0.3029245843006162 0.13842412146098901 0 0.31654185007284819 0.12022243899103451 0 0.30953966586774662 0.13931692564310591 0 0.3052906345432434 0.12599964084974211 0 0.29424027191342261 0.1198469668002466 0 0.3052906345432434 0.12599964084974211 0 0.3029245843006162 0.13842412146098901 0 0.29424027191342261 0.1198469668002466 0 0.3029245843006162 0.13842412146098901 0 0.30953966586774662 0.13931692564310591 0 0.3029245843006162 0.13842412146098901 0 0.3029245843006162 0.13842412146098901 0 0.2838347413262432 0.13584766167429049 0 0.29424027191342261 0.1198469668002466 0 0.27836593757777162 0.12622500564243611 0 0.2838347413262432 0.13584766167429049 0 0.29424027191342261 0.1198469668002466 0 0.3029245843006162 0.13842412146098901 0 0.2838347413262432 0.13584766167429049 0 0.27429386623587182 0.14432025961747261 0 0.2838347413262432 0.13584766167429049 0 0.29182088485765978 0.14868539315939769 0 0.3029245843006162 0.13842412146098901 0 0.2838347413262432 0.13584766167429049 0 0.29182088485765978 0.14868539315939769 0 0.26816417126529979 0.24728830496769821 0 0.28191036028008071 0.22971804954519179 0 0.29218139916548841 0.2486239686486868 0 0.26816417126529979 0.24728830496769821 0 0.28191036028008071 0.22971804954519179 0 0.26816417126529979 0.24728830496769821 0 0.26935092184594922 0.23199051857883521 0 0.28191036028008071 0.22971804954519179 0 0.26575823541941801 0.2442378127097945 0 0.26816417126529979 0.24728830496769821 0 0.26935092184594922 0.23199051857883521 0 0.26575823541941801 0.2442378127097945 0 0.26816417126529979 0.24728830496769821 0 0.26575823541941801 0.2442378127097945 0 0.26816417126529979 0.24728830496769821 0 0.25191630733126869 0.24920661226757701 0 0.26575823541941801 0.2442378127097945 0 0.25191630733126869 0.24920661226757701 0 0.25384997619844579 0.23452952838135141 0 0.26575823541941801 0.2442378127097945 0 0.25384997619844579 0.23452952838135141 0 0.26935092184594922 0.23199051857883521 0 0.25384997619844579 0.23452952838135141 0 0.26117317217072289 0.21972062922760091 0 0.26935092184594922 0.23199051857883521 0 0.23966537526391099 0.21545910125246351 0 0.25384997619844579 0.23452952838135141 0 0.26117317217072289 0.21972062922760091 0 0.26117317217072289 0.21972062922760091 0 0.26935092184594922 0.23199051857883521 0 0.27777523544604321 0.21630652393113339 0 0.26935092184594922 0.23199051857883521 0 0.27777523544604321 0.21630652393113339 0 0.28191036028008071 0.22971804954519179 0 0.26117317217072289 0.21972062922760091 0 0.27777523544604321 0.21630652393113339 0 0.2716253392386293 0.19992191555020641 0 0.26117317217072289 0.21972062922760091 0 0.25326763791429752 0.20481875588833531 0 0.2716253392386293 0.19992191555020641 0 0.23966537526391099 0.21545910125246351 0 0.26117317217072289 0.21972062922760091 0 0.25326763791429752 0.20481875588833531 0 0.2475941291823989 0.18769603697772511 0 0.26290520812746782 0.1776609444212616 0 0.2716253392386293 0.19992191555020641 0 0.2475941291823989 0.18769603697772511 0 0.2716253392386293 0.19992191555020641 0 0.2475941291823989 0.18769603697772511 0 0.25326763791429752 0.20481875588833531 0 0.2716253392386293 0.19992191555020641 0 0.26290520812746782 0.1776609444212616 0 0.2716253392386293 0.19992191555020641 0 0.27827491417824468 0.1876060113889412 0 0.2716253392386293 0.19992191555020641 0 0.27827491417824468 0.1876060113889412 0 0.28821981343768271 0.19745473317944121 0 0.29222919640126049 0.18652141476926479 0 0.28821981343768271 0.19745473317944121 0 0.30388165286261343 0.20163454056516239 0 0.29222919640126049 0.18652141476926479 0 0.27827491417824468 0.1876060113889412 0 0.28821981343768271 0.19745473317944121 0 0.29222919640126049 0.18652141476926479 0 0.28821981343768271 0.19745473317944121 0 0.30186684762655891 0.18706314627180651 0 0.30388165286261343 0.20163454056516239 0 0.3171863871435624 0.1846285486212508 0 0.30388165286261343 0.20163454056516239 0 0.3171863871435624 0.1846285486212508 0 0.29222919640126049 0.18652141476926479 0 0.30388165286261343 0.20163454056516239 0 0.29222919640126049 0.18652141476926479 0 0.30186684762655891 0.18706314627180651 0 0.30388165286261343 0.20163454056516239 0 0.30388165286261343 0.20163454056516239 0 0.29565654929486113 0.2121477941226852 0 0.31320480662446809 0.21372658279547629 0 0.29565654929486113 0.2121477941226852 0 0.32252796038632769 0.22581862502578651 0 0.31320480662446809 0.21372658279547629 0 0.30388165286261343 0.20163454056516239 0 0.29565654929486113 0.2121477941226852 0 0.30388165286261343 0.20163454056516239 0 0.31320480662446809 0.21372658279547629 0 0.2716253392386293 0.19992191555020641 0 0.28821981343768271 0.19745473317944121 0 0.29565654929486113 0.2121477941226852 0 0.28821981343768271 0.19745473317944121 0 0.30388165286261343 0.20163454056516239 0 0.29565654929486113 0.2121477941226852 0 0.2716253392386293 0.19992191555020641 0 0.29565654929486113 0.2121477941226852 0 0.27777523544604321 0.21630652393113339 0 0.2716253392386293 0.19992191555020641 0 0.29565654929486113 0.2121477941226852 0 0.29565654929486113 0.2121477941226852 0 0.28191036028008071 0.22971804954519179 0 0.30030798342997039 0.2325199636831389 0 0.27777523544604321 0.21630652393113339 0 0.29565654929486113 0.2121477941226852 0 0.28191036028008071 0.22971804954519179 0 0.29565654929486113 0.2121477941226852 0 0.28191036028008071 0.22971804954519179 0 0.29565654929486113 0.2121477941226852 0 0.30030798342997039 0.2325199636831389 0 0.32252796038632769 0.22581862502578651 0 0.29565654929486113 0.2121477941226852 0 0.32252796038632769 0.22581862502578651 0 0.30030798342997039 0.2325199636831389 0 0.3122205487373555 0.24745899623115639 0 0.32252796038632769 0.22581862502578651 0 0.30030798342997039 0.2325199636831389 0 0.3122205487373555 0.24745899623115639 0 0.29218139916548841 0.2486239686486868 0 0.28191036028008071 0.22971804954519179 0 0.30030798342997039 0.2325199636831389 0 0.29218139916548841 0.2486239686486868 0 0.33629540821485387 0.2436748746166981 0 0.32252796038632769 0.22581862502578651 0 0.33629540821485387 0.2436748746166981 0 0.33259714760517339 0.2309413242145944 0 0.34517725015399459 0.23419145631923749 0 0.32495374027443102 0.25788052029314412 0 0.3122205487373555 0.24745899623115639 0 0.33629540821485387 0.2436748746166981 0 0.3122205487373555 0.24745899623115639 0 0.33629540821485387 0.2436748746166981 0 0.32252796038632769 0.22581862502578651 0 0.32252796038632769 0.22581862502578651 0 0.33259714760517339 0.2309413242145944 0 0.32252796038632769 0.22581862502578651 0 0.31320480662446809 0.21372658279547629 0 0.32252796038632769 0.22581862502578651 0 0.33125267367822342 0.22180789749000551 0 0.32499489453936248 0.21536776646307501 0 0.33629540821485387 0.2436748746166981 0 0.32252796038632769 0.22581862502578651 0 0.33259714760517339 0.2309413242145944 0 0.33125267367822342 0.22180789749000551 0 0.33259714760517339 0.2309413242145944 0 0.34099383609916878 0.22334663104871949 0 0.33125267367822342 0.22180789749000551 0 0.34099383609916878 0.22334663104871949 0 0.33515739454658738 0.21268098105655289 0 0.32252796038632769 0.22581862502578651 0 0.33125267367822342 0.22180789749000551 0 0.33259714760517339 0.2309413242145944 0 0.33259714760517339 0.2309413242145944 0 0.34099383609916878 0.22334663104871949 0 0.34517725015399459 0.23419145631923749 0 0.34216459535668692 0.20736929626569989 0 0.33515739454658738 0.21268098105655289 0 0.34721285934184382 0.21480265649415151 0 0.34099383609916878 0.22334663104871949 0 0.33515739454658738 0.21268098105655289 0 0.34721285934184382 0.21480265649415151 0 0.34216459535668692 0.20736929626569989 0 0.33515739454658738 0.21268098105655289 0 0.3365767396857155 0.1989611500322046 0 0.33515739454658738 0.21268098105655289 0 0.32283556985395873 0.2023626661269039 0 0.3365767396857155 0.1989611500322046 0 0.33125267367822342 0.22180789749000551 0 0.33515739454658738 0.21268098105655289 0 0.32499489453936248 0.21536776646307501 0 0.30388165286261343 0.20163454056516239 0 0.31320480662446809 0.21372658279547629 0 0.32283556985395873 0.2023626661269039 0 0.32252796038632769 0.22581862502578651 0 0.32499489453936248 0.21536776646307501 0 0.31320480662446809 0.21372658279547629 0 0.32499489453936248 0.21536776646307501 0 0.31320480662446809 0.21372658279547629 0 0.32283556985395873 0.2023626661269039 0 0.33515739454658738 0.21268098105655289 0 0.32499489453936248 0.21536776646307501 0 0.32283556985395873 0.2023626661269039 0 0.30388165286261343 0.20163454056516239 0 0.32283556985395873 0.2023626661269039 0 0.3171863871435624 0.1846285486212508 0 0.32283556985395873 0.2023626661269039 0 0.3171863871435624 0.1846285486212508 0 0.3295368398265357 0.18729136490401671 0 0.3365767396857155 0.1989611500322046 0 0.34927238032072683 0.19186984734859511 0 0.34059438102493128 0.18288190306238539 0 0.3365767396857155 0.1989611500322046 0 0.3295368398265357 0.18729136490401671 0 0.34059438102493128 0.18288190306238539 0 0.32283556985395873 0.2023626661269039 0 0.3365767396857155 0.1989611500322046 0 0.3295368398265357 0.18729136490401671 0 0.34216459535668692 0.20736929626569989 0 0.3365767396857155 0.1989611500322046 0 0.3497113878526007 0.2030323974798908 0 0.3365767396857155 0.1989611500322046 0 0.34927238032072683 0.19186984734859511 0 0.3497113878526007 0.2030323974798908 0 0.34927238032072683 0.19186984734859511 0 0.3497113878526007 0.2030323974798908 0 0.35886656107151288 0.19922652711687289 0 0.34927238032072683 0.19186984734859511 0 0.35886656107151288 0.19922652711687289 0 0.35970402978413618 0.18937113729802901 0 0.36748578966362211 0.19369679982271309 0 0.37387192337018721 0.20442911734433289 0 0.37701840052955249 0.18497325936672221 0 0.35970402978413618 0.18937113729802901 0 0.36748578966362211 0.19369679982271309 0 0.36465881969693392 0.18140316239184731 0 0.35886656107151288 0.19922652711687289 0 0.35970402978413618 0.18937113729802901 0 0.36748578966362211 0.19369679982271309 0 0.36748578966362211 0.19369679982271309 0 0.36667714106039462 0.20514567274092979 0 0.37387192337018721 0.20442911734433289 0 0.35886656107151288 0.19922652711687289 0 0.36748578966362211 0.19369679982271309 0 0.36667714106039462 0.20514567274092979 0 0.37387192337018721 0.20442911734433289 0 0.36688434978973189 0.21722535848888341 0 0.37883240444550981 0.22609092021840321 0 0.35886656107151288 0.19922652711687289 0 0.36667714106039462 0.20514567274092979 0 0.3578788630559987 0.21102444092517639 0 0.36667714106039462 0.20514567274092979 0 0.37387192337018721 0.20442911734433289 0 0.36688434978973189 0.21722535848888341 0 0.36667714106039462 0.20514567274092979 0 0.36688434978973189 0.21722535848888341 0 0.3578788630559987 0.21102444092517639 0 0.36688434978973189 0.21722535848888341 0 0.3578788630559987 0.21102444092517639 0 0.35456962366194128 0.2252133908971263 0 0.3578788630559987 0.21102444092517639 0 0.34721285934184382 0.21480265649415151 0 0.35456962366194128 0.2252133908971263 0 0.3497113878526007 0.2030323974798908 0 0.35886656107151288 0.19922652711687289 0 0.3578788630559987 0.21102444092517639 0 0.3497113878526007 0.2030323974798908 0 0.3578788630559987 0.21102444092517639 0 0.34721285934184382 0.21480265649415151 0 0.34216459535668692 0.20736929626569989 0 0.3497113878526007 0.2030323974798908 0 0.34721285934184382 0.21480265649415151 0 0.34517725015399459 0.23419145631923749 0 0.35456962366194128 0.2252133908971263 0 0.35455324959031859 0.2432250833271849 0 0.35456962366194128 0.2252133908971263 0 0.36523419632924231 0.23289877998801181 0 0.35455324959031859 0.2432250833271849 0 0.34099383609916878 0.22334663104871949 0 0.34721285934184382 0.21480265649415151 0 0.35456962366194128 0.2252133908971263 0 0.34099383609916878 0.22334663104871949 0 0.34517725015399459 0.23419145631923749 0 0.35456962366194128 0.2252133908971263 0 0.36688434978973189 0.21722535848888341 0 0.35456962366194128 0.2252133908971263 0 0.36523419632924231 0.23289877998801181 0 0.36688434978973189 0.21722535848888341 0 0.36523419632924231 0.23289877998801181 0 0.37883240444550981 0.22609092021840321 0 0.37133135415870921 0.25273914700846112 0 0.36523419632924231 0.23289877998801181 0 0.37883240444550981 0.22609092021840321 0 0.37133135415870921 0.25273914700846112 0 0.36523419632924231 0.23289877998801181 0 0.35455324959031859 0.2432250833271849 0 0.35006285604338172 0.26153112420760838 0 0.33629540821485387 0.2436748746166981 0 0.35455324959031859 0.2432250833271849 0 0.33629540821485387 0.2436748746166981 0 0.34517725015399459 0.23419145631923749 0 0.35455324959031859 0.2432250833271849 0 0.3290299395161187 0.14194742953746481 0 0.34852021316449078 0.1445779334318236 0 0.34379585570545929 0.1506165647334268 0 0.3290299395161187 0.14194742953746481 0 0.34852021316449078 0.1445779334318236 0 0.3290299395161187 0.14194742953746481 0 0.3309728473276447 0.15174223820632621 0 0.34379585570545929 0.1506165647334268 0 0.3309728473276447 0.15174223820632621 0 0.331291258845476 0.16148612330262471 0 0.34379585570545929 0.1506165647334268 0 0.331291258845476 0.16148612330262471 0 0.34379585570545929 0.1506165647334268 0 0.3290299395161187 0.14194742953746481 0 0.34262265432247851 0.1325211199087368 0 0.34852021316449078 0.1445779334318236 0 0.3400679449540831 0.12102442402254431 0 0.34262265432247851 0.1325211199087368 0 0.3293260288753706 0.12662057091205531 0 0.3290299395161187 0.14194742953746481 0 0.34262265432247851 0.1325211199087368 0 0.3293260288753706 0.12662057091205531 0 0.31654185007284819 0.12022243899103451 0 0.30953966586774662 0.13931692564310591 0 0.30953966586774662 0.13931692564310591 0 0.3290299395161187 0.14194742953746481 0 0.32081699214401271 0.13278931797889121 0 0.31654185007284819 0.12022243899103451 0 0.30953966586774662 0.13931692564310591 0 0.32081699214401271 0.13278931797889121 0 0.3290299395161187 0.14194742953746481 0 0.3293260288753706 0.12662057091205531 0 0.32081699214401271 0.13278931797889121 0 0.31654185007284819 0.12022243899103451 0 0.3293260288753706 0.12662057091205531 0 0.32081699214401271 0.13278931797889121 0 0.30953966586774662 0.13931692564310591 0 0.3290299395161187 0.14194742953746481 0 0.30953966586774662 0.13931692564310591 0 0.3290299395161187 0.14194742953746481 0 0.31977433524352539 0.15291883525178929 0 0.3309728473276447 0.15174223820632621 0 0.31977433524352539 0.15291883525178929 0 0.331291258845476 0.16148612330262471 0 0.3290299395161187 0.14194742953746481 0 0.3309728473276447 0.15174223820632621 0 0.31977433524352539 0.15291883525178929 0 0.30681511389035809 0.14674659613467919 0 0.31878666198549099 0.1723556818718206 0 0.31977433524352539 0.15291883525178929 0 0.31878666198549099 0.1723556818718206 0 0.331291258845476 0.16148612330262471 0 0.30681511389035809 0.14674659613467919 0 0.31977433524352539 0.15291883525178929 0 0.31878666198549099 0.1723556818718206 0 0.31878666198549099 0.1723556818718206 0 0.331291258845476 0.16148612330262471 0 0.31878666198549099 0.1723556818718206 0 0.331291258845476 0.16148612330262471 0 0.33049112142451048 0.16762255667733861 0 0.30186684762655891 0.18706314627180651 0 0.3171863871435624 0.1846285486212508 0 0.31878666198549099 0.1723556818718206 0 0.32183656014499212 0.17868473922752609 0 0.3295368398265357 0.18729136490401671 0 0.33049112142451048 0.16762255667733861 0 0.3171863871435624 0.1846285486212508 0 0.32183656014499212 0.17868473922752609 0 0.3171863871435624 0.1846285486212508 0 0.31878666198549099 0.1723556818718206 0 0.32183656014499212 0.17868473922752609 0 0.31878666198549099 0.1723556818718206 0 0.32183656014499212 0.17868473922752609 0 0.31878666198549099 0.1723556818718206 0 0.32183656014499212 0.17868473922752609 0 0.33049112142451048 0.16762255667733861 0 0.32183656014499212 0.17868473922752609 0 0.33049112142451048 0.16762255667733861 0 0.3171863871435624 0.1846285486212508 0 0.32183656014499212 0.17868473922752609 0 0.3295368398265357 0.18729136490401671 0 0.3295368398265357 0.18729136490401671 0 0.34059438102493128 0.18288190306238539 0 0.33049112142451048 0.16762255667733861 0 0.34059438102493128 0.18288190306238539 0 0.33049112142451048 0.16762255667733861 0 0.34471721193040689 0.17151378765888639 0 0.33049112142451048 0.16762255667733861 0 0.34610762234637588 0.1612531120542243 0 0.34379585570545929 0.1506165647334268 0 0.331291258845476 0.16148612330262471 0 0.33049112142451048 0.16762255667733861 0 0.34379585570545929 0.1506165647334268 0 0.33049112142451048 0.16762255667733861 0 0.34379585570545929 0.1506165647334268 0 0.33049112142451048 0.16762255667733861 0 0.34610762234637588 0.1612531120542243 0 0.34471721193040689 0.17151378765888639 0 0.34610762234637588 0.1612531120542243 0 0.35140991738353028 0.16856248684795361 0 0.35427836449105049 0.15907746409333559 0 0.35901193667472159 0.17164282592599631 0 0.35427836449105049 0.15907746409333559 0 0.35992731542079281 0.1461174924677778 0 0.34610762234637588 0.1612531120542243 0 0.35427836449105049 0.15907746409333559 0 0.35078077963301002 0.15209425129682119 0 0.34610762234637588 0.1612531120542243 0 0.35140991738353028 0.16856248684795361 0 0.34471721193040689 0.17151378765888639 0 0.35140991738353028 0.16856248684795361 0 0.35901193667472159 0.17164282592599631 0 0.35427836449105049 0.15907746409333559 0 0.34927238032072683 0.19186984734859511 0 0.34059438102493128 0.18288190306238539 0 0.3529344514750965 0.17932524450732529 0 0.35140991738353028 0.16856248684795361 0 0.34471721193040689 0.17151378765888639 0 0.3529344514750965 0.17932524450732529 0 0.34059438102493128 0.18288190306238539 0 0.34471721193040689 0.17151378765888639 0 0.3529344514750965 0.17932524450732529 0 0.35901193667472159 0.17164282592599631 0 0.3529344514750965 0.17932524450732529 0 0.36465881969693392 0.18140316239184731 0 0.35140991738353028 0.16856248684795361 0 0.35901193667472159 0.17164282592599631 0 0.3529344514750965 0.17932524450732529 0 0.35970402978413618 0.18937113729802901 0 0.3529344514750965 0.17932524450732529 0 0.36465881969693392 0.18140316239184731 0 0.34927238032072683 0.19186984734859511 0 0.35970402978413618 0.18937113729802901 0 0.3529344514750965 0.17932524450732529 0 0.35901193667472159 0.17164282592599631 0 0.36465881969693392 0.18140316239184731 0 0.36770334632679152 0.1705038253050993 0 0.36770334632679152 0.1705038253050993 0 0.37701840052955249 0.18497325936672221 0 0.37701474254214568 0.17422418068080639 0 0.36465881969693392 0.18140316239184731 0 0.36770334632679152 0.1705038253050993 0 0.37701840052955249 0.18497325936672221 0 0.36770334632679152 0.1705038253050993 0 0.37701840052955249 0.18497325936672221 0 0.36748578966362211 0.19369679982271309 0 0.36465881969693392 0.18140316239184731 0 0.37701840052955249 0.18497325936672221 0 0.35901193667472159 0.17164282592599631 0 0.36804920991237622 0.15925058011246179 0 0.35992731542079281 0.1461174924677778 0 0.35901193667472159 0.17164282592599631 0 0.35992731542079281 0.1461174924677778 0 0.35901193667472159 0.17164282592599631 0 0.36770334632679152 0.1705038253050993 0 0.36804920991237622 0.15925058011246179 0 0.36770334632679152 0.1705038253050993 0 0.37676134109315701 0.16414884220615661 0 0.37701474254214568 0.17422418068080639 0 0.36770334632679152 0.1705038253050993 0 0.36804920991237622 0.15925058011246179 0 0.37676134109315701 0.16414884220615661 0 0.36804920991237622 0.15925058011246179 0 0.3779440566209013 0.14854912112243801 0 0.37676134109315701 0.16414884220615661 0 0.36804920991237622 0.15925058011246179 0 0.35992731542079281 0.1461174924677778 0 0.3779440566209013 0.14854912112243801 0 0.36816019919183401 0.14157705952426 0 0.35992731542079281 0.1461174924677778 0 0.3779440566209013 0.14854912112243801 0 0.35992731542079281 0.1461174924677778 0 0.3779440566209013 0.14854912112243801 0 0.36816019919183401 0.14157705952426 0 0.37448960685210758 0.1353536618262707 0 0.3779440566209013 0.14854912112243801 0 0.36816019919183401 0.14157705952426 0 0.35992731542079281 0.1461174924677778 0 0.36027981787353441 0.13628796268055371 0 0.35992731542079281 0.1461174924677778 0 0.36027981787353441 0.13628796268055371 0 0.35427836449105049 0.15907746409333559 0 0.35992731542079281 0.1461174924677778 0 0.35078077963301002 0.15209425129682119 0 0.35992731542079281 0.1461174924677778 0 0.35044412065935482 0.14483759351915529 0 0.35078077963301002 0.15209425129682119 0 0.35992731542079281 0.1461174924677778 0 0.35044412065935482 0.14483759351915529 0 0.36027981787353441 0.13628796268055371 0 0.35044412065935482 0.14483759351915529 0 0.34852021316449078 0.1445779334318236 0 0.35574433956713031 0.13534411990267761 0 0.35992731542079281 0.1461174924677778 0 0.35044412065935482 0.14483759351915529 0 0.35044412065935482 0.14483759351915529 0 0.34852021316449078 0.1445779334318236 0 0.34852021316449078 0.1445779334318236 0 0.34379585570545929 0.1506165647334268 0 0.35044412065935482 0.14483759351915529 0 0.34379585570545929 0.1506165647334268 0 0.35044412065935482 0.14483759351915529 0 0.34852021316449078 0.1445779334318236 0 0.34379585570545929 0.1506165647334268 0 0.34610762234637588 0.1612531120542243 0 0.34379585570545929 0.1506165647334268 0 0.35078077963301002 0.15209425129682119 0 0.35044412065935482 0.14483759351915529 0 0.34379585570545929 0.1506165647334268 0 0.35078077963301002 0.15209425129682119 0 0.3400679449540831 0.12102442402254431 0 0.34262265432247851 0.1325211199087368 0 0.35131572215963902 0.12563937409389231 0 0.34262265432247851 0.1325211199087368 0 0.35131572215963902 0.12563937409389231 0 0.35003335113921552 0.13175881806893369 0 0.34262265432247851 0.1325211199087368 0 0.34852021316449078 0.1445779334318236 0 0.34939507859688079 0.13570997898241949 0 0.34852021316449078 0.1445779334318236 0 0.34939507859688079 0.13570997898241949 0 0.35574433956713031 0.13534411990267761 0 0.34262265432247851 0.1325211199087368 0 0.35003335113921552 0.13175881806893369 0 0.34939507859688079 0.13570997898241949 0 0.34852021316449078 0.1445779334318236 0 0.35574433956713031 0.13534411990267761 0 0.35044412065935482 0.14483759351915529 0 0.36027981787353441 0.13628796268055371 0 0.35044412065935482 0.14483759351915529 0 0.35574433956713031 0.13534411990267761 0 0.36027981787353441 0.13628796268055371 0 0.35003335113921552 0.13175881806893369 0 0.34939507859688079 0.13570997898241949 0 0.35574433956713031 0.13534411990267761 0 0.35131572215963902 0.12563937409389231 0 0.35574433956713031 0.13534411990267761 0 0.36027981787353441 0.13628796268055371 0 0.35131572215963902 0.12563937409389231 0 0.35003335113921552 0.13175881806893369 0 0.35574433956713031 0.13534411990267761 0 0.36027981787353441 0.13628796268055371 0 0.3772864422104612 0.1215050391393626 0 0.36027981787353441 0.13628796268055371 0 0.37448960685210758 0.1353536618262707 0 0.3772864422104612 0.1215050391393626 0 0.36816019919183401 0.14157705952426 0 0.36027981787353441 0.13628796268055371 0 0.37448960685210758 0.1353536618262707 0 0.37448960685210758 0.1353536618262707 0 0.39354960417489132 0.13240510493107291 0 0.3772864422104612 0.1215050391393626 0 0.37448960685210758 0.1353536618262707 0 0.39354960417489132 0.13240510493107291 0 0.3779440566209013 0.14854912112243801 0 0.39354960417489132 0.13240510493107291 0 0.4140019186303075 0.12822819622514059 0 0.40952130728670239 0.14328475965468879 0 0.39354960417489132 0.13240510493107291 0 0.4140019186303075 0.12822819622514059 0 0.40657417080820651 0.11523193835467981 0 0.39354960417489132 0.13240510493107291 0 0.39596079782100979 0.15098074977709819 0 0.40952130728670239 0.14328475965468879 0 0.39596079782100979 0.15098074977709819 0 0.3779440566209013 0.14854912112243801 0 0.39354960417489132 0.13240510493107291 0 0.39596079782100979 0.15098074977709819 0 0.3779440566209013 0.14854912112243801 0 0.39596079782100979 0.15098074977709819 0 0.3779440566209013 0.14854912112243801 0 0.38754869977955092 0.1619079067846057 0 0.3779440566209013 0.14854912112243801 0 0.37676134109315701 0.16414884220615661 0 0.38754869977955092 0.1619079067846057 0 0.37676134109315701 0.16414884220615661 0 0.38309065021169469 0.17181772474481941 0 0.37701474254214568 0.17422418068080639 0 0.37676134109315701 0.16414884220615661 0 0.38309065021169469 0.17181772474481941 0 0.38754869977955092 0.1619079067846057 0 0.38309065021169469 0.17181772474481941 0 0.38754869977955092 0.1619079067846057 0 0.39109280163370053 0.1735765317390463 0 0.37701840052955249 0.18497325936672221 0 0.38152488929701961 0.1791926217000957 0 0.3858201504572657 0.18551455577770859 0 0.37701840052955249 0.18497325936672221 0 0.38152488929701961 0.1791926217000957 0 0.37701474254214568 0.17422418068080639 0 0.38309065021169469 0.17181772474481941 0 0.38152488929701961 0.1791926217000957 0 0.37701474254214568 0.17422418068080639 0 0.38309065021169469 0.17181772474481941 0 0.38673033223941389 0.17846412776814419 0 0.39109280163370053 0.1735765317390463 0 0.38673033223941389 0.17846412776814419 0 0.39145968851851098 0.17908558128872451 0 0.39109280163370053 0.1735765317390463 0 0.38309065021169469 0.17181772474481941 0 0.38152488929701961 0.1791926217000957 0 0.38673033223941389 0.17846412776814419 0 0.38152488929701961 0.1791926217000957 0 0.38673033223941389 0.17846412776814419 0 0.3858201504572657 0.18551455577770859 0 0.38673033223941389 0.17846412776814419 0 0.38920674522441168 0.18214034211247229 0 0.3858201504572657 0.18551455577770859 0 0.38673033223941389 0.17846412776814419 0 0.38920674522441168 0.18214034211247229 0 0.39145968851851098 0.17908558128872451 0 0.38920674522441168 0.18214034211247229 0 0.3883360758904571 0.18509015364955081 0 0.38968885722907032 0.18752229251290789 0 0.38920674522441168 0.18214034211247229 0 0.3883360758904571 0.18509015364955081 0 0.3858201504572657 0.18551455577770859 0 0.38920674522441168 0.18214034211247229 0 0.39192026792225931 0.18481100013101301 0 0.38968885722907032 0.18752229251290789 0 0.3883360758904571 0.18509015364955081 0 0.3858201504572657 0.18551455577770859 0 0.38968885722907032 0.18752229251290789 0 0.39748094171833931 0.1849949950301128 0 0.39504611515198351 0.1879339769907416 0 0.39852843986709102 0.1892889698195403 0 0.39748094171833931 0.1849949950301128 0 0.39365862851270311 0.18570185087627639 0 0.39367470471629501 0.18278830301368959 0 0.39748094171833931 0.1849949950301128 0 0.39365862851270311 0.18570185087627639 0 0.39504611515198351 0.1879339769907416 0 0.39365862851270311 0.18570185087627639 0 0.3923414998734609 0.1875781385279997 0 0.39504611515198351 0.1879339769907416 0 0.39365862851270311 0.18570185087627639 0 0.39192026792225931 0.18481100013101301 0 0.3923414998734609 0.1875781385279997 0 0.39192026792225931 0.18481100013101301 0 0.38968885722907032 0.18752229251290789 0 0.3923414998734609 0.1875781385279997 0 0.39365862851270311 0.18570185087627639 0 0.39192026792225931 0.18481100013101301 0 0.39367470471629501 0.18278830301368959 0 0.39367470471629501 0.18278830301368959 0 0.39659385877873349 0.1784586018102701 0 0.39145968851851098 0.17908558128872451 0 0.38920674522441168 0.18214034211247229 0 0.39192026792225931 0.18481100013101301 0 0.39367470471629501 0.18278830301368959 0 0.38920674522441168 0.18214034211247229 0 0.39367470471629501 0.18278830301368959 0 0.39145968851851098 0.17908558128872451 0 0.39748094171833931 0.1849949950301128 0 0.39367470471629501 0.18278830301368959 0 0.39659385877873349 0.1784586018102701 0 0.39659385877873349 0.1784586018102701 0 0.39109280163370053 0.1735765317390463 0 0.40022718646642719 0.16799052750858229 0 0.39659385877873349 0.1784586018102701 0 0.39145968851851098 0.17908558128872451 0 0.39109280163370053 0.1735765317390463 0 0.40523975154182817 0.1820809015611842 0 0.40022718646642719 0.16799052750858229 0 0.4108632937158348 0.173418010651472 0 0.39659385877873349 0.1784586018102701 0 0.40523975154182817 0.1820809015611842 0 0.40022718646642719 0.16799052750858229 0 0.39748094171833931 0.1849949950301128 0 0.39659385877873349 0.1784586018102701 0 0.40523975154182817 0.1820809015611842 0 0.40523975154182817 0.1820809015611842 0 0.40213665071755927 0.18764125549320981 0 0.4072056290230654 0.1917314599979453 0 0.39748094171833931 0.1849949950301128 0 0.40523975154182817 0.1820809015611842 0 0.40213665071755927 0.18764125549320981 0 0.39748094171833931 0.1849949950301128 0 0.40213665071755927 0.18764125549320981 0 0.39852843986709102 0.1892889698195403 0 0.39596079782100979 0.15098074977709819 0 0.38754869977955092 0.1619079067846057 0 0.40022718646642719 0.16799052750858229 0 0.39596079782100979 0.15098074977709819 0 0.40022718646642719 0.16799052750858229 0 0.41459021086811132 0.1591680749185411 0 0.38754869977955092 0.1619079067846057 0 0.39109280163370053 0.1735765317390463 0 0.40022718646642719 0.16799052750858229 0 0.40022718646642719 0.16799052750858229 0 0.41459021086811132 0.1591680749185411 0 0.4108632937158348 0.173418010651472 0 0.41459021086811132 0.1591680749185411 0 0.4108632937158348 0.173418010651472 0 0.42309504939347048 0.1741737562075191 0 0.40523975154182817 0.1820809015611842 0 0.41475516907587529 0.1836022759679049 0 0.4072056290230654 0.1917314599979453 0 0.40523975154182817 0.1820809015611842 0 0.4108632937158348 0.173418010651472 0 0.41475516907587529 0.1836022759679049 0 0.4108632937158348 0.173418010651472 0 0.41475516907587529 0.1836022759679049 0 0.42309504939347048 0.1741737562075191 0 0.41475516907587529 0.1836022759679049 0 0.42445923864125951 0.185647925583247 0 0.42309504939347048 0.1741737562075191 0 0.42309504939347048 0.1741737562075191 0 0.43605395734202002 0.18019968627054031 0 0.43386868853765292 0.16244718732545349 0 0.42445923864125951 0.185647925583247 0 0.43605395734202002 0.18019968627054031 0 0.42998576701167962 0.19644016238761469 0 0.42445923864125951 0.185647925583247 0 0.42309504939347048 0.1741737562075191 0 0.43605395734202002 0.18019968627054031 0 0.41459021086811132 0.1591680749185411 0 0.42309504939347048 0.1741737562075191 0 0.43386868853765292 0.16244718732545349 0 0.43386868853765292 0.16244718732545349 0 0.42934325676537699 0.14186600891046811 0 0.44347952873763791 0.1495458162240092 0 0.41459021086811132 0.1591680749185411 0 0.43386868853765292 0.16244718732545349 0 0.42934325676537699 0.14186600891046811 0 0.42934325676537699 0.14186600891046811 0 0.42759536995770181 0.12741842698392269 0 0.44164427294959729 0.1236138555640913 0 0.42934325676537699 0.14186600891046811 0 0.42759536995770181 0.12741842698392269 0 0.4140019186303075 0.12822819622514059 0 0.42934325676537699 0.14186600891046811 0 0.4140019186303075 0.12822819622514059 0 0.40952130728670239 0.14328475965468879 0 0.41459021086811132 0.1591680749185411 0 0.42934325676537699 0.14186600891046811 0 0.40952130728670239 0.14328475965468879 0 0.39596079782100979 0.15098074977709819 0 0.41459021086811132 0.1591680749185411 0 0.40952130728670239 0.14328475965468879 0 0.40603105077845342 0.24396416794525669 0 0.40175235186532171 0.23615893359935289 0 0.39298284187090288 0.24806444035772329 0 0.40504541688886758 0.25083790210330698 0 0.40603105077845342 0.24396416794525669 0 0.39298284187090288 0.24806444035772329 0 0.40175235186532171 0.23615893359935289 0 0.39298284187090288 0.24806444035772329 0 0.38873350533157658 0.2362065207873173 0 0.37133135415870921 0.25273914700846112 0 0.39298284187090288 0.24806444035772329 0 0.38873350533157658 0.2362065207873173 0 0.37133135415870921 0.25273914700846112 0 0.37883240444550981 0.22609092021840321 0 0.37133135415870921 0.25273914700846112 0 0.38873350533157658 0.2362065207873173 0 0.37883240444550981 0.22609092021840321 0 0.38873350533157658 0.2362065207873173 0 0.37883240444550981 0.22609092021840321 0 0.4004861264089794 0.22142658586351921 0 0.4004861264089794 0.22142658586351921 0 0.39966110729416549 0.2080910008497586 0 0.40963335735925788 0.2286597091866106 0 0.40175235186532171 0.23615893359935289 0 0.4004861264089794 0.22142658586351921 0 0.41463879808564519 0.24341047829869331 0 0.40175235186532171 0.23615893359935289 0 0.38873350533157658 0.2362065207873173 0 0.4004861264089794 0.22142658586351921 0 0.39966110729416549 0.2080910008497586 0 0.40963335735925788 0.2286597091866106 0 0.4004861264089794 0.22142658586351921 0 0.38633345473231229 0.1994426934283457 0 0.39966110729416549 0.2080910008497586 0 0.40900361774870198 0.212249797078188 0 0.40963335735925788 0.2286597091866106 0 0.4004861264089794 0.22142658586351921 0 0.39966110729416549 0.2080910008497586 0 0.38633345473231229 0.1994426934283457 0 0.37883240444550981 0.22609092021840321 0 0.4004861264089794 0.22142658586351921 0 0.38633345473231229 0.1994426934283457 0 0.37883240444550981 0.22609092021840321 0 0.38633345473231229 0.1994426934283457 0 0.37387192337018721 0.20442911734433289 0 0.37883240444550981 0.22609092021840321 0 0.38633345473231229 0.1994426934283457 0 0.37387192337018721 0.20442911734433289 0 0.37701840052955249 0.18497325936672221 0 0.38633345473231229 0.1994426934283457 0 0.37701840052955249 0.18497325936672221 0 0.38633345473231229 0.1994426934283457 0 0.3858201504572657 0.18551455577770859 0 0.38633345473231229 0.1994426934283457 0 0.38968885722907032 0.18752229251290789 0 0.38633345473231229 0.1994426934283457 0 0.38968885722907032 0.18752229251290789 0 0.37701840052955249 0.18497325936672221 0 0.3858201504572657 0.18551455577770859 0 0.38633345473231229 0.1994426934283457 0 0.38968885722907032 0.18752229251290789 0 0.3923414998734609 0.1875781385279997 0 0.39441444091453798 0.18939047469457221 0 0.39966110729416549 0.2080910008497586 0 0.38968885722907032 0.18752229251290789 0 0.39966110729416549 0.2080910008497586 0 0.38633345473231229 0.1994426934283457 0 0.38968885722907032 0.18752229251290789 0 0.38968885722907032 0.18752229251290789 0 0.39441444091453798 0.18939047469457221 0 0.39646729245108397 0.19462899562167121 0 0.39966110729416549 0.2080910008497586 0 0.38968885722907032 0.18752229251290789 0 0.39646729245108397 0.19462899562167121 0 0.3923414998734609 0.1875781385279997 0 0.39441444091453798 0.18939047469457221 0 0.39504611515198351 0.1879339769907416 0 0.39441444091453798 0.18939047469457221 0 0.39646729245108397 0.19462899562167121 0 0.39852843986709102 0.1892889698195403 0 0.39441444091453798 0.18939047469457221 0 0.39504611515198351 0.1879339769907416 0 0.39852843986709102 0.1892889698195403 0 0.39966110729416549 0.2080910008497586 0 0.39646729245108397 0.19462899562167121 0 0.40336821791877731 0.198056836680921 0 0.39966110729416549 0.2080910008497586 0 0.40336821791877731 0.198056836680921 0 0.41064078569669921 0.2026793871130036 0 0.40336821791877731 0.198056836680921 0 0.40168830634048408 0.1925901160696635 0 0.4072056290230654 0.1917314599979453 0 0.40213665071755927 0.18764125549320981 0 0.40168830634048408 0.1925901160696635 0 0.4072056290230654 0.1917314599979453 0 0.40213665071755927 0.18764125549320981 0 0.39852843986709102 0.1892889698195403 0 0.40168830634048408 0.1925901160696635 0 0.39646729245108397 0.19462899562167121 0 0.40336821791877731 0.198056836680921 0 0.40168830634048408 0.1925901160696635 0 0.39646729245108397 0.19462899562167121 0 0.39852843986709102 0.1892889698195403 0 0.40168830634048408 0.1925901160696635 0 0.41475516907587529 0.1836022759679049 0 0.4072056290230654 0.1917314599979453 0 0.41840625038325202 0.1938237470826559 0 0.4072056290230654 0.1917314599979453 0 0.41064078569669921 0.2026793871130036 0 0.41840625038325202 0.1938237470826559 0 0.40336821791877731 0.198056836680921 0 0.4072056290230654 0.1917314599979453 0 0.41064078569669921 0.2026793871130036 0 0.41064078569669921 0.2026793871130036 0 0.41840625038325202 0.1938237470826559 0 0.42198038387554659 0.20313031309463131 0 0.41475516907587529 0.1836022759679049 0 0.42445923864125951 0.185647925583247 0 0.41840625038325202 0.1938237470826559 0 0.42998576701167962 0.19644016238761469 0 0.43244019304630932 0.21041812494154549 0 0.44463840581531799 0.19317719379591711 0 0.43605395734202002 0.18019968627054031 0 0.42998576701167962 0.19644016238761469 0 0.44463840581531799 0.19317719379591711 0 0.42445923864125951 0.185647925583247 0 0.41840625038325202 0.1938237470826559 0 0.42998576701167962 0.19644016238761469 0 0.41840625038325202 0.1938237470826559 0 0.42998576701167962 0.19644016238761469 0 0.42198038387554659 0.20313031309463131 0 0.42198038387554659 0.20313031309463131 0 0.43244019304630932 0.21041812494154549 0 0.41842892323979269 0.2122901439483367 0 0.42998576701167962 0.19644016238761469 0 0.42198038387554659 0.20313031309463131 0 0.43244019304630932 0.21041812494154549 0 0.43244019304630932 0.21041812494154549 0 0.41842892323979269 0.2122901439483367 0 0.42211349285480132 0.2240848132599354 0 0.41842892323979269 0.2122901439483367 0 0.40900361774870198 0.212249797078188 0 0.41479484780063852 0.21932111586826769 0 0.41842892323979269 0.2122901439483367 0 0.41479484780063852 0.21932111586826769 0 0.42211349285480132 0.2240848132599354 0 0.41064078569669921 0.2026793871130036 0 0.42198038387554659 0.20313031309463131 0 0.41842892323979269 0.2122901439483367 0 0.41064078569669921 0.2026793871130036 0 0.41842892323979269 0.2122901439483367 0 0.40900361774870198 0.212249797078188 0 0.39966110729416549 0.2080910008497586 0 0.41064078569669921 0.2026793871130036 0 0.40900361774870198 0.212249797078188 0 0.4004861264089794 0.22142658586351921 0 0.41463879808564519 0.24341047829869331 0 0.4004861264089794 0.22142658586351921 0 0.40963335735925788 0.2286597091866106 0 0.41463879808564519 0.24341047829869331 0 0.40900361774870198 0.212249797078188 0 0.40963335735925788 0.2286597091866106 0 0.41479484780063852 0.21932111586826769 0 0.40963335735925788 0.2286597091866106 0 0.4209513074311263 0.2338054307977854 0 0.42211349285480132 0.2240848132599354 0 0.40963335735925788 0.2286597091866106 0 0.41479484780063852 0.21932111586826769 0 0.42211349285480132 0.2240848132599354 0 0.43244019304630932 0.21041812494154549 0 0.42211349285480132 0.2240848132599354 0 0.43515910734204272 0.22862660486014841 0 0.4209513074311263 0.2338054307977854 0 0.42211349285480132 0.2240848132599354 0 0.43515910734204272 0.22862660486014841 0 0.43515910734204272 0.22862660486014841 0 0.41960560742434949 0.24922841752346311 0 0.43515910734204272 0.22862660486014841 0 0.41960560742434949 0.24922841752346311 0 0.44046947178534918 0.24381964733491229 0 0.4209513074311263 0.2338054307977854 0 0.43515910734204272 0.22862660486014841 0 0.41960560742434949 0.24922841752346311 0 0.43333426729933278 0.25521865159253582 0 0.41960560742434949 0.24922841752346311 0 0.44046947178534918 0.24381964733491229 0 0.40963335735925788 0.2286597091866106 0 0.41960560742434949 0.24922841752346311 0 0.40963335735925788 0.2286597091866106 0 0.4209513074311263 0.2338054307977854 0 0.41960560742434949 0.24922841752346311 0 0.40963335735925788 0.2286597091866106 0 0.41960560742434949 0.24922841752346311 0 0.41463879808564519 0.24341047829869331 0 0.41960560742434949 0.24922841752346311 0 0.41463879808564519 0.24341047829869331 0 0.41193031943217301 0.24970998685700099 0 0.40603105077845342 0.24396416794525669 0 0.40175235186532171 0.23615893359935289 0 0.41463879808564519 0.24341047829869331 0 0.40603105077845342 0.24396416794525669 0 0.41463879808564519 0.24341047829869331 0 0.41193031943217301 0.24970998685700099 0 0.40504541688886758 0.25083790210330698 0 0.40603105077845342 0.24396416794525669 0 0.41193031943217301 0.24970998685700099 0 0.45665518821624052 0.2438898889111111 0 0.46435139066828729 0.2311944741473449 0 0.4709233871432138 0.24742201075293871 0 0.46435139066828729 0.2311944741473449 0 0.4709233871432138 0.24742201075293871 0 0.45665518821624052 0.2438898889111111 0 0.44946955305433117 0.23111108149007009 0 0.46435139066828729 0.2311944741473449 0 0.44831133843309301 0.25500336940667873 0 0.45665518821624052 0.2438898889111111 0 0.44046947178534918 0.24381964733491229 0 0.45665518821624052 0.2438898889111111 0 0.44046947178534918 0.24381964733491229 0 0.44946955305433117 0.23111108149007009 0 0.43515910734204272 0.22862660486014841 0 0.44046947178534918 0.24381964733491229 0 0.44946955305433117 0.23111108149007009 0 0.43515910734204272 0.22862660486014841 0 0.44946955305433117 0.23111108149007009 0 0.45071260725973611 0.2080247921968339 0 0.44946955305433117 0.23111108149007009 0 0.46435139066828729 0.2311944741473449 0 0.45071260725973611 0.2080247921968339 0 0.46435139066828729 0.2311944741473449 0 0.45071260725973611 0.2080247921968339 0 0.4774668000841949 0.2103691858651891 0 0.43244019304630932 0.21041812494154549 0 0.43515910734204272 0.22862660486014841 0 0.45071260725973611 0.2080247921968339 0 0.43515910734204272 0.22862660486014841 0 0.45071260725973611 0.2080247921968339 0 0.43244019304630932 0.21041812494154549 0 0.45071260725973611 0.2080247921968339 0 0.44463840581531799 0.19317719379591711 0 0.45071260725973611 0.2080247921968339 0 0.4774668000841949 0.2103691858651891 0 0.46626610717742972 0.1874229795335193 0 0.45071260725973611 0.2080247921968339 0 0.46626610717742972 0.1874229795335193 0 0.45071260725973611 0.2080247921968339 0 0.44463840581531799 0.19317719379591711 0 0.46626610717742972 0.1874229795335193 0 0.5 0.18864431420976499 0 0.4774668000841949 0.2103691858651891 0 0.46626610717742972 0.1874229795335193 0 0.5 0.18864431420976499 0 0.5 0.2184690331541892 0 0.4774668000841949 0.2103691858651891 0 0.46435139066828729 0.2311944741473449 0 0.4774668000841949 0.2103691858651891 0 0.48310174223308672 0.23113876210711809 0 0.5 0.2184690331541892 0 0.48310174223308672 0.23113876210711809 0 0.49999999999999978 0.2482937520986134 0 0.5 0.2184690331541892 0 0.4774668000841949 0.2103691858651891 0 0.48310174223308672 0.23113876210711809 0 0.48310174223308672 0.23113876210711809 0 0.49999999999999978 0.2482937520986134 0 0.48374370526303689 0.24651653993241709 0 0.46435139066828729 0.2311944741473449 0 0.48310174223308672 0.23113876210711809 0 0.4709233871432138 0.24742201075293871 0 0.48310174223308672 0.23113876210711809 0 0.48374370526303689 0.24651653993241709 0 0.4709233871432138 0.24742201075293871 0 0.45941912895137732 0.1473680259051349 0 0.46732480033342449 0.16303508961350319 0 0.47887403501588072 0.1448113977995823 0 0.45941912895137732 0.1473680259051349 0 0.46264032088443419 0.1288421885786912 0 0.47887403501588072 0.1448113977995823 0 0.45941912895137732 0.1473680259051349 0 0.46264032088443419 0.1288421885786912 0 0.4485061422843038 0.13718111093321531 0 0.46264032088443419 0.1288421885786912 0 0.4485061422843038 0.13718111093321531 0 0.44164427294959729 0.1236138555640913 0 0.42934325676537699 0.14186600891046811 0 0.4485061422843038 0.13718111093321531 0 0.44164427294959729 0.1236138555640913 0 0.45941912895137732 0.1473680259051349 0 0.4485061422843038 0.13718111093321531 0 0.44347952873763791 0.1495458162240092 0 0.45941912895137732 0.1473680259051349 0 0.44347952873763791 0.1495458162240092 0 0.45024512342731171 0.1687518779590749 0 0.42934325676537699 0.14186600891046811 0 0.4485061422843038 0.13718111093321531 0 0.44347952873763791 0.1495458162240092 0 0.43605395734202002 0.18019968627054031 0 0.43386868853765292 0.16244718732545349 0 0.45024512342731171 0.1687518779590749 0 0.43386868853765292 0.16244718732545349 0 0.44347952873763791 0.1495458162240092 0 0.45024512342731171 0.1687518779590749 0 0.43605395734202002 0.18019968627054031 0 0.44463840581531799 0.19317719379591711 0 0.45024512342731171 0.1687518779590749 0 0.44463840581531799 0.19317719379591711 0 0.45024512342731171 0.1687518779590749 0 0.46626610717742972 0.1874229795335193 0 0.45024512342731171 0.1687518779590749 0 0.46626610717742972 0.1874229795335193 0 0.46732480033342449 0.16303508961350319 0 0.45941912895137732 0.1473680259051349 0 0.45024512342731171 0.1687518779590749 0 0.46732480033342449 0.16303508961350319 0 0.5 0.18864431420976499 0 0.46626610717742972 0.1874229795335193 0 0.48181960709512323 0.16682116687020471 0 0.46732480033342449 0.16303508961350319 0 0.48181960709512323 0.16682116687020471 0 0.47887403501588072 0.1448113977995823 0 0.46626610717742972 0.1874229795335193 0 0.46732480033342449 0.16303508961350319 0 0.48181960709512323 0.16682116687020471 0 0.46626610717742972 0.1874229795335193 0 0.48181960709512323 0.16682116687020471 0 0.48181960709512323 0.16682116687020471 0 0.5 0.1588195952653407 0 0.47887403501588072 0.1448113977995823 0 0.5 0.18864431420976499 0 0.48181960709512323 0.16682116687020471 0 0.5 0.1588195952653407 0 0.5 0.1588195952653407 0 0.47887403501588072 0.1448113977995823 0 0.5 0.12899487632091661 0 0.46264032088443419 0.1288421885786912 0 0.47887403501588072 0.1448113977995823 0 0.48150805756809162 0.1234629709036128 0 0.47887403501588072 0.1448113977995823 0 0.5 0.12899487632091661 0 0.48150805756809162 0.1234629709036128 0 0.5 0.12899487632091661 0 0.5 0.099170157376492374 0 0.48150805756809162 0.1234629709036128 0 0.5 0.099170157376492374 0 0.46906253122839331 0.10767259656258441 0 0.48161863208253869 0.083109236145439941 0 0.5 0.099170157376492374 0 0.46906253122839331 0.10767259656258441 0 0.48150805756809162 0.1234629709036128 0 0.46264032088443419 0.1288421885786912 0 0.46906253122839331 0.10767259656258441 0 0.48150805756809162 0.1234629709036128 0 0.50000000000000067 0.069345438432068085 0 0.47050981111710038 0.064702358747088753 0 0.50000000000000067 0.069345438432068085 0 0.47050981111710038 0.064702358747088753 0 0.48616510334546681 0.057250162076796812 0 0.5 0.099170157376492374 0 0.50000000000000067 0.069345438432068085 0 0.48161863208253869 0.083109236145439941 0 0.46906253122839331 0.10767259656258441 0 0.48161863208253869 0.083109236145439941 0 0.46155367765226207 0.085257994772241386 0 0.50000000000000067 0.069345438432068085 0 0.48161863208253869 0.083109236145439941 0 0.47050981111710038 0.064702358747088753 0 0.48161863208253869 0.083109236145439941 0 0.47050981111710038 0.064702358747088753 0 0.46155367765226207 0.085257994772241386 0 0.47050981111710038 0.064702358747088753 0 0.45357773844926091 0.07281603556646013 0 0.44101962223420038 0.060059279062109019 0 0.47050981111710038 0.064702358747088753 0 0.45357773844926091 0.07281603556646013 0 0.46155367765226207 0.085257994772241386 0 0.44122784279348071 0.081244509684401375 0 0.44143606335276159 0.1024297403066937 0 0.42998921844653848 0.089695133087693696 0 0.45357773844926091 0.07281603556646013 0 0.46155367765226207 0.085257994772241386 0 0.44122784279348071 0.081244509684401375 0 0.44122784279348071 0.081244509684401375 0 0.44143606335276159 0.1024297403066937 0 0.46155367765226207 0.085257994772241386 0 0.44122784279348071 0.081244509684401375 0 0.44143606335276159 0.1024297403066937 0 0.44122784279348071 0.081244509684401375 0 0.44101962223420038 0.060059279062109019 0 0.45357773844926091 0.07281603556646013 0 0.44122784279348071 0.081244509684401375 0 0.44101962223420038 0.060059279062109019 0 0.46264032088443419 0.1288421885786912 0 0.46906253122839331 0.10767259656258441 0 0.44164427294959729 0.1236138555640913 0 0.46906253122839331 0.10767259656258441 0 0.44143606335276159 0.1024297403066937 0 0.46906253122839331 0.10767259656258441 0 0.46155367765226207 0.085257994772241386 0 0.44143606335276159 0.1024297403066937 0 0.44143606335276159 0.1024297403066937 0 0.44164427294959729 0.1236138555640913 0 0.46906253122839331 0.10767259656258441 0 0.44143606335276159 0.1024297403066937 0 0.44164427294959729 0.1236138555640913 0 0.42759536995770181 0.12741842698392269 0 0.44164427294959729 0.1236138555640913 0 0.42535235701690932 0.1140294360496955 0 0.44143606335276159 0.1024297403066937 0 0.44164427294959729 0.1236138555640913 0 0.42535235701690932 0.1140294360496955 0 0.42759536995770181 0.12741842698392269 0 0.4140019186303075 0.12822819622514059 0 0.42535235701690932 0.1140294360496955 0 0.4140019186303075 0.12822819622514059 0 0.42535235701690932 0.1140294360496955 0 0.40657417080820651 0.11523193835467981 0 0.42535235701690932 0.1140294360496955 0 0.40657417080820651 0.11523193835467981 0 0.41538907986049273 0.097486633176080695 0 0.44143606335276159 0.1024297403066937 0 0.41538907986049273 0.097486633176080695 0 0.42998921844653848 0.089695133087693696 0 0.44143606335276159 0.1024297403066937 0 0.41538907986049273 0.097486633176080695 0 0.44143606335276159 0.1024297403066937 0 0.42535235701690932 0.1140294360496955 0 0.41538907986049273 0.097486633176080695 0 0.44122784279348071 0.081244509684401375 0 0.42998921844653848 0.089695133087693696 0 0.42190388777941912 0.077619649183598982 0 0.41538907986049273 0.097486633176080695 0 0.42998921844653848 0.089695133087693696 0 0.42190388777941912 0.077619649183598982 0 0.44122784279348071 0.081244509684401375 0 0.42190388777941912 0.077619649183598982 0 0.44101962223420038 0.060059279062109019 0 0.42190388777941912 0.077619649183598982 0 0.41843956690449668 0.056504164627157669 0 0.44101962223420038 0.060059279062109019 0 0.42190388777941912 0.077619649183598982 0 0.40480856524449732 0.083460059192286051 0 0.40413226790965529 0.070632643065209805 0 0.42190388777941912 0.077619649183598982 0 0.40413226790965529 0.070632643065209805 0 0.41843956690449668 0.056504164627157669 0 0.41538907986049273 0.097486633176080695 0 0.42190388777941912 0.077619649183598982 0 0.40480856524449732 0.083460059192286051 0 0.41538907986049273 0.097486633176080695 0 0.40480856524449732 0.083460059192286051 0 0.38934209636822309 0.0925435260454706 0 0.40480856524449732 0.083460059192286051 0 0.39327549430469622 0.079017844491070133 0 0.38934209636822309 0.0925435260454706 0 0.40413226790965529 0.070632643065209805 0 0.3920208138579182 0.06717964046938639 0 0.39940269767815972 0.056859100164669669 0 0.40480856524449732 0.083460059192286051 0 0.39327549430469622 0.079017844491070133 0 0.40413226790965529 0.070632643065209805 0 0.39327549430469622 0.079017844491070133 0 0.40413226790965529 0.070632643065209805 0 0.3920208138579182 0.06717964046938639 0 0.36280943097700458 0.065749709237859 0 0.37901036843610469 0.078043396751232272 0 0.38428324096097499 0.05134521787475009 0 0.3920208138579182 0.06717964046938639 0 0.37901036843610469 0.078043396751232272 0 0.38428324096097499 0.05134521787475009 0 0.37901036843610469 0.078043396751232272 0 0.38428324096097499 0.05134521787475009 0 0.39327549430469622 0.079017844491070133 0 0.3920208138579182 0.06717964046938639 0 0.37901036843610469 0.078043396751232272 0 0.3737374959112344 0.1047415756277144 0 0.37901036843610469 0.078043396751232272 0 0.38934209636822309 0.0925435260454706 0 0.3737374959112344 0.1047415756277144 0 0.37901036843610469 0.078043396751232272 0 0.39327549430469622 0.079017844491070133 0 0.37901036843610469 0.078043396751232272 0 0.38934209636822309 0.0925435260454706 0 0.3737374959112344 0.1047415756277144 0 0.38934209636822309 0.0925435260454706 0 0.39429306654738788 0.1067221155981713 0 0.39354960417489132 0.13240510493107291 0 0.3772864422104612 0.1215050391393626 0 0.3929258209352367 0.1189660495058216 0 0.3737374959112344 0.1047415756277144 0 0.3772864422104612 0.1215050391393626 0 0.39429306654738788 0.1067221155981713 0 0.3772864422104612 0.1215050391393626 0 0.3929258209352367 0.1189660495058216 0 0.39429306654738788 0.1067221155981713 0 0.3772864422104612 0.1215050391393626 0 0.39429306654738788 0.1067221155981713 0 0.39354960417489132 0.13240510493107291 0 0.40657417080820651 0.11523193835467981 0 0.3929258209352367 0.1189660495058216 0 0.40657417080820651 0.11523193835467981 0 0.3929258209352367 0.1189660495058216 0 0.39429306654738788 0.1067221155981713 0 0.41538907986049273 0.097486633176080695 0 0.38934209636822309 0.0925435260454706 0 0.41538907986049273 0.097486633176080695 0 0.38934209636822309 0.0925435260454706 0 0.39429306654738788 0.1067221155981713 0 0.40657417080820651 0.11523193835467981 0 0.41538907986049273 0.097486633176080695 0 0.39429306654738788 0.1067221155981713 0 0.38955611348584679 0.024647038998268121 0 0.41532753770718023 0.0095751381954073643 0 0.39321760861815841 0.0061077605428421378 0 0.38955611348584679 0.024647038998268121 0 0.39321760861815841 0.0061077605428421378 0 0.40866897052541401 0.00084043267164977053 0 0.41532753770718023 0.0095751381954073643 0 0.39321760861815841 0.0061077605428421378 0 0.38955611348584679 0.024647038998268121 0 0.41532753770718023 0.0095751381954073643 0 0.39321760861815841 0.0061077605428421378 0 0.41532753770718023 0.0095751381954073643 0 0.39321760861815841 0.0061077605428421378 0 0.40866897052541401 0.00084043267164977053 0 0.40336105594536298 -0.0041477388281668708 0 0.39321760861815841 0.0061077605428421378 0 0.38382375711823202 0.0046345748699598427 0 0.39584289766833841 -0.0071848871236637746 0 0.39321760861815841 0.0061077605428421378 0 0.38382375711823202 0.0046345748699598427 0 0.38955611348584679 0.024647038998268121 0 0.39321760861815841 0.0061077605428421378 0 0.38382375711823202 0.0046345748699598427 0 0.36599914633082947 0.022163058614241029 0 0.38382375711823202 0.0046345748699598427 0 0.37778714102223682 0.02331484962467225 0 0.37317808859647822 0.034225398516132828 0 0.38955611348584679 0.024647038998268121 0 0.38382375711823202 0.0046345748699598427 0 0.38955611348584679 0.024647038998268121 0 0.37778714102223682 0.02331484962467225 0 0.37317808859647822 0.034225398516132828 0 0.38955611348584679 0.024647038998268121 0 0.37778714102223682 0.02331484962467225 0 0.37317808859647822 0.034225398516132828 0 0.38955611348584679 0.024647038998268121 0 0.38428324096097499 0.05134521787475009 0 0.37036712815049061 0.048210502621681417 0 0.37317808859647822 0.034225398516132828 0 0.38428324096097499 0.05134521787475009 0 0.38955611348584679 0.024647038998268121 0 0.38428324096097499 0.05134521787475009 0 0.38428324096097499 0.05134521787475009 0 0.39940269767815972 0.056859100164669669 0 0.40206542685979041 0.040987403890005117 0 0.3920208138579182 0.06717964046938639 0 0.38428324096097499 0.05134521787475009 0 0.39940269767815972 0.056859100164669669 0 0.38955611348584679 0.024647038998268121 0 0.40206542685979041 0.040987403890005117 0 0.41531896041239791 0.0306196393110271 0 0.38955611348584679 0.024647038998268121 0 0.38428324096097499 0.05134521787475009 0 0.40206542685979041 0.040987403890005117 0 0.40206542685979041 0.040987403890005117 0 0.42436234114541821 0.042403717605747238 0 0.41531896041239791 0.0306196393110271 0 0.40206542685979041 0.040987403890005117 0 0.41843956690449668 0.056504164627157669 0 0.42436234114541821 0.042403717605747238 0 0.39940269767815972 0.056859100164669669 0 0.40206542685979041 0.040987403890005117 0 0.41843956690449668 0.056504164627157669 0 0.40413226790965529 0.070632643065209805 0 0.39940269767815972 0.056859100164669669 0 0.41843956690449668 0.056504164627157669 0 0.41843956690449668 0.056504164627157669 0 0.43116323785720961 0.049969518581928898 0 0.44101962223420038 0.060059279062109019 0 0.41843956690449668 0.056504164627157669 0 0.44101962223420038 0.060059279062109019 0 0.41843956690449668 0.056504164627157669 0 0.43116323785720961 0.049969518581928898 0 0.42436234114541821 0.042403717605747238 0 0.42436234114541821 0.042403717605747238 0 0.42778464214072442 0.029501398292696459 0 0.44083142114472312 0.040910913032701647 0 0.43116323785720961 0.049969518581928898 0 0.42436234114541821 0.042403717605747238 0 0.44083142114472312 0.040910913032701647 0 0.42436234114541821 0.042403717605747238 0 0.42778464214072442 0.029501398292696459 0 0.41531896041239791 0.0306196393110271 0 0.42778464214072442 0.029501398292696459 0 0.41532753770718023 0.0095751381954073643 0 0.44064322005524559 0.02176254700329432 0 0.42778464214072442 0.029501398292696459 0 0.44064322005524559 0.02176254700329432 0 0.44083142114472312 0.040910913032701647 0 0.38955611348584679 0.024647038998268121 0 0.41531896041239791 0.0306196393110271 0 0.41532753770718023 0.0095751381954073643 0 0.42778464214072442 0.029501398292696459 0 0.41531896041239791 0.0306196393110271 0 0.41532753770718023 0.0095751381954073643 0 0.41532753770718023 0.0095751381954073643 0 0.42611381172438428 0.0032670020744285789 0 0.40866897052541401 0.00084043267164977053 0 0.41532753770718023 0.0095751381954073643 0 0.41902260763332583 -0.0018871477833984119 0 0.41532753770718023 0.0095751381954073643 0 0.42611381172438428 0.0032670020744285789 0 0.41902260763332583 -0.0018871477833984119 0 0.41532753770718023 0.0095751381954073643 0 0.44188439354677878 0.01373990272674726 0 0.44064322005524559 0.02176254700329432 0 0.42611381172438428 0.0032670020744285789 0 0.44188439354677878 0.01373990272674726 0 0.42902897096264492 -0.0042686482322491174 0 0.41532753770718023 0.0095751381954073643 0 0.44188439354677878 0.01373990272674726 0 0.41532753770718023 0.0095751381954073643 0 0.42611381172438428 0.0032670020744285789 0 0.44188439354677878 0.01373990272674726 0 0.44188439354677878 0.01373990272674726 0 0.42902897096264492 -0.0042686482322491174 0 0.44188439354677878 0.01373990272674726 0 0.45799276648461301 0.0039916399069799451 0 0.4440821215548531 -0.0020077937309988859 0 0.44188439354677878 0.01373990272674726 0 0.4440821215548531 -0.0020077937309988859 0 0.42902897096264492 -0.0042686482322491174 0 0.44188439354677878 0.01373990272674726 0 0.44064322005524559 0.02176254700329432 0 0.44985002839194782 0.024898582271573631 0 0.44064322005524559 0.02176254700329432 0 0.44985002839194782 0.024898582271573631 0 0.44429059077557681 0.039235925349123957 0 0.44188439354677878 0.01373990272674726 0 0.44985002839194782 0.024898582271573631 0 0.4659390172436681 0.01751225605776692 0 0.44188439354677878 0.01373990272674726 0 0.44985002839194782 0.024898582271573631 0 0.44985002839194782 0.024898582271573631 0 0.4659390172436681 0.01751225605776692 0 0.46041353625474563 0.035419735428311942 0 0.44188439354677878 0.01373990272674726 0 0.4659390172436681 0.01751225605776692 0 0.4659390172436681 0.01751225605776692 0 0.46041353625474563 0.035419735428311942 0 0.4659390172436681 0.01751225605776692 0 0.45799276648461301 0.0039916399069799451 0 0.47238720687794861 -0.0033856210835209021 0 0.44188439354677878 0.01373990272674726 0 0.4659390172436681 0.01751225605776692 0 0.45799276648461301 0.0039916399069799451 0 0.44101962223420038 0.060059279062109019 0 0.44083142114472312 0.040910913032701647 0 0.44101962223420038 0.060059279062109019 0 0.44670962429745897 0.047701173100663352 0 0.44083142114472312 0.040910913032701647 0 0.43116323785720961 0.049969518581928898 0 0.44101962223420038 0.060059279062109019 0 0.44083142114472312 0.040910913032701647 0 0.44101962223420038 0.060059279062109019 0 0.44670962429745897 0.047701173100663352 0 0.45613378378570812 0.049289944954666952 0 0.45188688377837238 0.042911694708191617 0 0.44429059077557681 0.039235925349123957 0 0.46041353625474563 0.035419735428311942 0 0.44985002839194782 0.024898582271573631 0 0.44429059077557681 0.039235925349123957 0 0.46041353625474563 0.035419735428311942 0 0.44429059077557681 0.039235925349123957 0 0.46041353625474563 0.035419735428311942 0 0.44064322005524559 0.02176254700329432 0 0.44083142114472312 0.040910913032701647 0 0.44429059077557681 0.039235925349123957 0 0.44064322005524559 0.02176254700329432 0 0.44083142114472312 0.040910913032701647 0 0.44670962429745897 0.047701173100663352 0 0.45188688377837238 0.042911694708191617 0 0.44429059077557681 0.039235925349123957 0 0.44670962429745897 0.047701173100663352 0 0.45188688377837238 0.042911694708191617 0 0.45613378378570812 0.049289944954666952 0 0.44670962429745897 0.047701173100663352 0 0.44083142114472312 0.040910913032701647 0 0.44429059077557681 0.039235925349123957 0 0.46041353625474563 0.035419735428311942 0 0.45613378378570812 0.049289944954666952 0 0.47415060226476652 0.047255185577138779 0 0.45188688377837238 0.042911694708191617 0 0.46041353625474563 0.035419735428311942 0 0.45613378378570812 0.049289944954666952 0 0.46041353625474563 0.035419735428311942 0 0.45613378378570812 0.049289944954666952 0 0.47050981111710038 0.064702358747088753 0 0.45613378378570812 0.049289944954666952 0 0.47415060226476652 0.047255185577138779 0 0.47050981111710038 0.064702358747088753 0 0.44101962223420038 0.060059279062109019 0 0.45613378378570812 0.049289944954666952 0 0.47050981111710038 0.064702358747088753 0 0.44101962223420038 0.060059279062109019 0 0.47050981111710038 0.064702358747088753 0 0.47415060226476652 0.047255185577138779 0 0.48616510334546681 0.057250162076796812 0 0.46041353625474563 0.035419735428311942 0 0.48020676812737478 0.030734814049014049 0 0.46041353625474563 0.035419735428311942 0 0.47415060226476652 0.047255185577138779 0 0.48020676812737478 0.030734814049014049 0 0.47415060226476652 0.047255185577138779 0 0.5 0.04769766555089161 0 0.48020676812737478 0.030734814049014049 0 0.5 0.04769766555089161 0 0.48020676812737478 0.030734814049014049 0 0.50000000000000366 0.026049892669715049 0 0.50000000000000067 0.069345438432068085 0 0.5 0.04769766555089161 0 0.48616510334546681 0.057250162076796812 0 0.47415060226476652 0.047255185577138779 0 0.5 0.04769766555089161 0 0.48616510334546681 0.057250162076796812 0 0.4659390172436681 0.01751225605776692 0 0.47683851853448012 0.0098621813465796185 0 0.47238720687794861 -0.0033856210835209021 0 0.4659390172436681 0.01751225605776692 0 0.47238720687794861 -0.0033856210835209021 0 0.47683851853448012 0.0098621813465796185 0 0.48296950862183657 0.020183053642827829 0 0.4860583413944673 0.0051390367692453389 0 0.47683851853448012 0.0098621813465796185 0 0.4860583413944673 0.0051390367692453389 0 0.47238720687794861 -0.0033856210835209021 0 0.4659390172436681 0.01751225605776692 0 0.48020676812737478 0.030734814049014049 0 0.48296950862183657 0.020183053642827829 0 0.4659390172436681 0.01751225605776692 0 0.46041353625474563 0.035419735428311942 0 0.48020676812737478 0.030734814049014049 0 0.4659390172436681 0.01751225605776692 0 0.48296950862183657 0.020183053642827829 0 0.4659390172436681 0.01751225605776692 0 0.47683851853448012 0.0098621813465796185 0 0.48296950862183657 0.020183053642827829 0 0.48296950862183657 0.020183053642827829 0 0.50000000000000366 0.026049892669715049 0 0.50000000000000488 0.022853851227890191 0 0.48020676812737478 0.030734814049014049 0 0.50000000000000366 0.026049892669715049 0 0.48296950862183657 0.020183053642827829 0 0.50000000000000488 0.022853851227890191 0 0.48296950862183657 0.020183053642827829 0 0.50000000000000488 0.022853851227890191 0 0.4860583413944673 0.0051390367692453389 0 0.48020676812737478 0.030734814049014049 0 0.48296950862183657 0.020183053642827829 0 0.50000000000000366 0.026049892669715049 0 0.50000000000000488 0.022853851227890191 0 0.4860583413944673 0.0051390367692453389 0 0.5 -0.0070502846343831749 0 0.4860583413944673 0.0051390367692453389 0 0.48539293578850629 -0.010816366411807421 0 0.5 -0.0070502846343831749 0 0.4860583413944673 0.0051390367692453389 0 0.48539293578850629 -0.010816366411807421 0 0.47238720687794861 -0.0033856210835209021 0 0.47250816997415718 -0.01065708789369822 0 0.47238720687794861 -0.0033856210835209021 0 0.47883539651222401 -0.024283498224810209 0 0.47238720687794861 -0.0033856210835209021 0 0.47883539651222401 -0.024283498224810209 0 0.48539293578850629 -0.010816366411807421 0 0.47238720687794861 -0.0033856210835209021 0 0.47883539651222401 -0.024283498224810209 0 0.48539293578850629 -0.010816366411807421 0 0.47883539651222401 -0.024283498224810209 0 0.5 -0.036954420496656537 0 0.48539293578850629 -0.010816366411807421 0 0.5 -0.0070502846343831749 0 0.5 -0.036954420496656537 0 0.47883539651222401 -0.024283498224810209 0 0.5 -0.036954420496656537 0 0.47785653815921098 -0.04992989538101706 0 0.5 -0.036954420496656537 0 0.47785653815921098 -0.04992989538101706 0 0.5 -0.066858556358929899 0 0.47785653815921098 -0.04992989538101706 0 0.47750845018693938 -0.072180340200545146 0 0.45665965976846451 -0.064400147530065191 0 0.47883539651222401 -0.024283498224810209 0 0.47785653815921098 -0.04992989538101706 0 0.46766689801967642 -0.036140532834496232 0 0.46766689801967642 -0.036140532834496232 0 0.45396681631203528 -0.04368193354200342 0 0.45387504267478662 -0.022536102640373021 0 0.47785653815921098 -0.04992989538101706 0 0.46766689801967642 -0.036140532834496232 0 0.45396681631203528 -0.04368193354200342 0 0.47785653815921098 -0.04992989538101706 0 0.45396681631203528 -0.04368193354200342 0 0.45665965976846451 -0.064400147530065191 0 0.45665965976846451 -0.064400147530065191 0 0.43663422392225493 -0.055347139831893363 0 0.45396681631203528 -0.04368193354200342 0 0.45665965976846451 -0.064400147530065191 0 0.43663422392225493 -0.055347139831893363 0 0.45396681631203528 -0.04368193354200342 0 0.43524191537541601 -0.034415117387047833 0 0.43663422392225493 -0.055347139831893363 0 0.45396681631203528 -0.04368193354200342 0 0.45387504267478662 -0.022536102640373021 0 0.43524191537541601 -0.034415117387047833 0 0.45387504267478662 -0.022536102640373021 0 0.43524191537541601 -0.034415117387047833 0 0.44156621616131281 -0.015461818203072551 0 0.45387504267478662 -0.022536102640373021 0 0.43524191537541601 -0.034415117387047833 0 0.44156621616131281 -0.015461818203072551 0 0.4440821215548531 -0.0020077937309988859 0 0.43639355291961263 -0.0093908309790168235 0 0.44156621616131281 -0.015461818203072551 0 0.4440821215548531 -0.0020077937309988859 0 0.45728196880795452 -0.0077390437691694201 0 0.44156621616131281 -0.015461818203072551 0 0.45728196880795452 -0.0077390437691694201 0 0.45387504267478662 -0.022536102640373021 0 0.45799276648461301 0.0039916399069799451 0 0.4440821215548531 -0.0020077937309988859 0 0.45728196880795452 -0.0077390437691694201 0 0.47250816997415718 -0.01065708789369822 0 0.45728196880795452 -0.0077390437691694201 0 0.45387504267478662 -0.022536102640373021 0 0.47250816997415718 -0.01065708789369822 0 0.47238720687794861 -0.0033856210835209021 0 0.45728196880795452 -0.0077390437691694201 0 0.45799276648461301 0.0039916399069799451 0 0.47238720687794861 -0.0033856210835209021 0 0.45728196880795452 -0.0077390437691694201 0 0.47250816997415718 -0.01065708789369822 0 0.47883539651222401 -0.024283498224810209 0 0.45387504267478662 -0.022536102640373021 0 0.47883539651222401 -0.024283498224810209 0 0.46766689801967642 -0.036140532834496232 0 0.45387504267478662 -0.022536102640373021 0 0.47250816997415718 -0.01065708789369822 0 0.45387504267478662 -0.022536102640373021 0 0.48243877335194602 -0.11164641300803679 0 0.45909133198292129 -0.1097405911914678 0 0.47141046065717251 -0.13259826916789391 0 0.48243877335194602 -0.11164641300803679 0 0.5 -0.096762692221203261 0 0.5 -0.12666682808347679 0 0.48243877335194602 -0.11164641300803679 0 0.5 -0.12666682808347679 0 0.47141046065717251 -0.13259826916789391 0 0.48243877335194602 -0.11164641300803679 0 0.5 -0.096762692221203261 0 0.47401098260232088 -0.094859863720988855 0 0.48243877335194602 -0.11164641300803679 0 0.47401098260232088 -0.094859863720988855 0 0.45909133198292129 -0.1097405911914678 0 0.5 -0.096762692221203261 0 0.47401098260232088 -0.094859863720988855 0 0.47750845018693938 -0.072180340200545146 0 0.5 -0.096762692221203261 0 0.5 -0.066858556358929899 0 0.47750845018693938 -0.072180340200545146 0 0.47785653815921098 -0.04992989538101706 0 0.5 -0.066858556358929899 0 0.47750845018693938 -0.072180340200545146 0 0.47750845018693938 -0.072180340200545146 0 0.45665965976846451 -0.064400147530065191 0 0.45167029117592372 -0.083572868370439798 0 0.44441122164829788 -0.070311632498723492 0 0.43268071172654882 -0.077926374262495587 0 0.43663422392225493 -0.055347139831893363 0 0.45665965976846451 -0.064400147530065191 0 0.44441122164829788 -0.070311632498723492 0 0.43663422392225493 -0.055347139831893363 0 0.45665965976846451 -0.064400147530065191 0 0.44441122164829788 -0.070311632498723492 0 0.45167029117592372 -0.083572868370439798 0 0.44441122164829788 -0.070311632498723492 0 0.45167029117592372 -0.083572868370439798 0 0.43268071172654882 -0.077926374262495587 0 0.45167029117592372 -0.083572868370439798 0 0.43961583453722758 -0.1023112712011507 0 0.43268071172654882 -0.077926374262495587 0 0.47401098260232088 -0.094859863720988855 0 0.47750845018693938 -0.072180340200545146 0 0.45167029117592372 -0.083572868370439798 0 0.47401098260232088 -0.094859863720988855 0 0.45167029117592372 -0.083572868370439798 0 0.45909133198292129 -0.1097405911914678 0 0.45167029117592372 -0.083572868370439798 0 0.43961583453722758 -0.1023112712011507 0 0.45909133198292129 -0.1097405911914678 0 0.43961583453722758 -0.1023112712011507 0 0.45909133198292129 -0.1097405911914678 0 0.44655095734790629 -0.1266961681398058 0 0.43961583453722758 -0.1023112712011507 0 0.44655095734790629 -0.1266961681398058 0 0.45909133198292129 -0.1097405911914678 0 0.44655095734790629 -0.1266961681398058 0 0.47141046065717251 -0.13259826916789391 0 0.42599102573534869 -0.12054499986971449 0 0.41631695511098549 -0.1001062752680104 0 0.4000778861949239 -0.1169583502240253 0 0.43961583453722758 -0.1023112712011507 0 0.42599102573534869 -0.12054499986971449 0 0.44655095734790629 -0.1266961681398058 0 0.43961583453722758 -0.1023112712011507 0 0.42599102573534869 -0.12054499986971449 0 0.41631695511098549 -0.1001062752680104 0 0.41631695511098549 -0.1001062752680104 0 0.43268071172654882 -0.077926374262495587 0 0.40567417254765298 -0.080610831813335393 0 0.43961583453722758 -0.1023112712011507 0 0.43268071172654882 -0.077926374262495587 0 0.43961583453722758 -0.1023112712011507 0 0.41631695511098549 -0.1001062752680104 0 0.43268071172654882 -0.077926374262495587 0 0.43268071172654882 -0.077926374262495587 0 0.42574558891587011 -0.053541477323840347 0 0.43268071172654882 -0.077926374262495587 0 0.41269990568370712 -0.066447160205438338 0 0.42574558891587011 -0.053541477323840347 0 0.43268071172654882 -0.077926374262495587 0 0.41269990568370712 -0.066447160205438338 0 0.40567417254765298 -0.080610831813335393 0 0.41631695511098549 -0.1001062752680104 0 0.38397765249956251 -0.092453403817774643 0 0.40567417254765298 -0.080610831813335393 0 0.39788563835686469 -0.068957556063373227 0 0.38715483983987359 -0.074637146742684624 0 0.40567417254765298 -0.080610831813335393 0 0.41269990568370712 -0.066447160205438338 0 0.39788563835686469 -0.068957556063373227 0 0.40308599478014512 -0.060837850326274617 0 0.41269990568370712 -0.066447160205438338 0 0.39788563835686469 -0.068957556063373227 0 0.40567417254765298 -0.080610831813335393 0 0.39788563835686469 -0.068957556063373227 0 0.38712880738954242 -0.064020364886393691 0 0.39414164869935348 -0.056652903392408277 0 0.39788563835686469 -0.068957556063373227 0 0.38712880738954242 -0.064020364886393691 0 0.38715483983987359 -0.074637146742684624 0 0.38712880738954242 -0.064020364886393691 0 0.37860592874597487 -0.065910332619155132 0 0.38715483983987359 -0.074637146742684624 0 0.37860592874597487 -0.065910332619155132 0 0.38715483983987359 -0.074637146742684624 0 0.367877418804201 -0.067948457411523944 0 0.38397765249956251 -0.092453403817774643 0 0.367877418804201 -0.067948457411523944 0 0.38715483983987359 -0.074637146742684624 0 0.38397765249956251 -0.092453403817774643 0 0.367877418804201 -0.067948457411523944 0 0.38715483983987359 -0.074637146742684624 0 0.38397765249956251 -0.092453403817774643 0 0.40567417254765298 -0.080610831813335393 0 0.41631695511098549 -0.1001062752680104 0 0.38397765249956251 -0.092453403817774643 0 0.4000778861949239 -0.1169583502240253 0 0.38397765249956251 -0.092453403817774643 0 0.4000778861949239 -0.1169583502240253 0 0.38397765249956251 -0.092453403817774643 0 0.377531650343081 -0.11818312845693291 0 0.4000778861949239 -0.1169583502240253 0 0.377531650343081 -0.11818312845693291 0 0.4000778861949239 -0.1169583502240253 0 0.39081372193917802 -0.13921075430993471 0 0.41617354837850401 -0.022277199191240549 0 0.40331812579436482 -0.040285750150233238 0 0.40004134521566709 -0.028442921163632829 0 0.41617354837850401 -0.022277199191240549 0 0.40568453858840048 -0.019707946809430801 0 0.40004134521566709 -0.028442921163632829 0 0.41617354837850401 -0.022277199191240549 0 0.42200058775885591 -0.031806908612775457 0 0.41452526250194238 -0.035165997521992877 0 0.41617354837850401 -0.022277199191240549 0 0.41343808224476869 -0.011039096853305791 0 0.40568453858840048 -0.019707946809430801 0 0.41343808224476869 -0.011039096853305791 0 0.40568453858840048 -0.019707946809430801 0 0.40595925382499881 -0.01323156054509427 0 0.41617354837850401 -0.022277199191240549 0 0.41343808224476869 -0.011039096853305791 0 0.42902897096264492 -0.0042686482322491174 0 0.40728443312674051 -0.009432454321143896 0 0.41343808224476869 -0.011039096853305791 0 0.40595925382499881 -0.01323156054509427 0 0.40728443312674051 -0.009432454321143896 0 0.41343808224476869 -0.011039096853305791 0 0.41241604272304189 -0.0054458487684321318 0 0.40866897052541401 0.00084043267164977053 0 0.41241604272304189 -0.0054458487684321318 0 0.41902260763332583 -0.0018871477833984119 0 0.40728443312674051 -0.009432454321143896 0 0.41241604272304189 -0.0054458487684321318 0 0.40336105594536298 -0.0041477388281668708 0 0.40866897052541401 0.00084043267164977053 0 0.41241604272304189 -0.0054458487684321318 0 0.40336105594536298 -0.0041477388281668708 0 0.41343808224476869 -0.011039096853305791 0 0.41241604272304189 -0.0054458487684321318 0 0.41902260763332583 -0.0018871477833984119 0 0.41343808224476869 -0.011039096853305791 0 0.41902260763332583 -0.0018871477833984119 0 0.42902897096264492 -0.0042686482322491174 0 0.41617354837850401 -0.022277199191240549 0 0.42902897096264492 -0.0042686482322491174 0 0.42930457856916521 -0.018754168978605879 0 0.41617354837850401 -0.022277199191240549 0 0.42902897096264492 -0.0042686482322491174 0 0.42611381172438428 0.0032670020744285789 0 0.41902260763332583 -0.0018871477833984119 0 0.42902897096264492 -0.0042686482322491174 0 0.4440821215548531 -0.0020077937309988859 0 0.42902897096264492 -0.0042686482322491174 0 0.43639355291961263 -0.0093908309790168235 0 0.42902897096264492 -0.0042686482322491174 0 0.43639355291961263 -0.0093908309790168235 0 0.42930457856916521 -0.018754168978605879 0 0.44156621616131281 -0.015461818203072551 0 0.43639355291961263 -0.0093908309790168235 0 0.42930457856916521 -0.018754168978605879 0 0.42930457856916521 -0.018754168978605879 0 0.43524191537541601 -0.034415117387047833 0 0.42200058775885591 -0.031806908612775457 0 0.44156621616131281 -0.015461818203072551 0 0.42930457856916521 -0.018754168978605879 0 0.43524191537541601 -0.034415117387047833 0 0.41617354837850401 -0.022277199191240549 0 0.42930457856916521 -0.018754168978605879 0 0.42200058775885591 -0.031806908612775457 0 0.43524191537541601 -0.034415117387047833 0 0.41660878807604512 -0.046294132133722271 0 0.43524191537541601 -0.034415117387047833 0 0.42200058775885591 -0.031806908612775457 0 0.41660878807604512 -0.046294132133722271 0 0.43524191537541601 -0.034415117387047833 0 0.43663422392225493 -0.055347139831893363 0 0.41660878807604512 -0.046294132133722271 0 0.43268071172654882 -0.077926374262495587 0 0.43663422392225493 -0.055347139831893363 0 0.42574558891587011 -0.053541477323840347 0 0.43663422392225493 -0.055347139831893363 0 0.42574558891587011 -0.053541477323840347 0 0.41660878807604512 -0.046294132133722271 0 0.43663422392225493 -0.055347139831893363 0 0.41660878807604512 -0.046294132133722271 0 0.41269990568370712 -0.066447160205438338 0 0.42574558891587011 -0.053541477323840347 0 0.4124232741800965 -0.056362711209388933 0 0.42574558891587011 -0.053541477323840347 0 0.4124232741800965 -0.056362711209388933 0 0.41660878807604512 -0.046294132133722271 0 0.41660878807604512 -0.046294132133722271 0 0.40380515982995763 -0.054456717313471577 0 0.40546178997150689 -0.047152760207232088 0 0.4124232741800965 -0.056362711209388933 0 0.41660878807604512 -0.046294132133722271 0 0.40380515982995763 -0.054456717313471577 0 0.41660878807604512 -0.046294132133722271 0 0.40380515982995763 -0.054456717313471577 0 0.41269990568370712 -0.066447160205438338 0 0.4124232741800965 -0.056362711209388933 0 0.40308599478014512 -0.060837850326274617 0 0.4124232741800965 -0.056362711209388933 0 0.40308599478014512 -0.060837850326274617 0 0.40380515982995763 -0.054456717313471577 0 0.41617354837850401 -0.022277199191240549 0 0.40331812579436482 -0.040285750150233238 0 0.41617354837850401 -0.022277199191240549 0 0.41452526250194238 -0.035165997521992877 0 0.40331812579436482 -0.040285750150233238 0 0.42200058775885591 -0.031806908612775457 0 0.41452526250194238 -0.035165997521992877 0 0.41660878807604512 -0.046294132133722271 0 0.41660878807604512 -0.046294132133722271 0 0.40331812579436482 -0.040285750150233238 0 0.41660878807604512 -0.046294132133722271 0 0.40331812579436482 -0.040285750150233238 0 0.40546178997150689 -0.047152760207232088 0 0.41452526250194238 -0.035165997521992877 0 0.41660878807604512 -0.046294132133722271 0 0.40331812579436482 -0.040285750150233238 0 0.40331812579436482 -0.040285750150233238 0 0.38489540429013558 -0.031957290241550522 0 0.39040469671237632 -0.043485170247506678 0 0.40331812579436482 -0.040285750150233238 0 0.38489540429013558 -0.031957290241550522 0 0.40004134521566709 -0.028442921163632829 0 0.40331812579436482 -0.040285750150233238 0 0.38489540429013558 -0.031957290241550522 0 0.40331812579436482 -0.040285750150233238 0 0.39811508618566022 -0.047574441231501258 0 0.40331812579436482 -0.040285750150233238 0 0.40546178997150689 -0.047152760207232088 0 0.39811508618566022 -0.047574441231501258 0 0.40331812579436482 -0.040285750150233238 0 0.39811508618566022 -0.047574441231501258 0 0.39040469671237632 -0.043485170247506678 0 0.40308599478014512 -0.060837850326274617 0 0.40380515982995763 -0.054456717313471577 0 0.39414164869935348 -0.056652903392408277 0 0.40380515982995763 -0.054456717313471577 0 0.39811508618566022 -0.047574441231501258 0 0.39414164869935348 -0.056652903392408277 0 0.40380515982995763 -0.054456717313471577 0 0.40546178997150689 -0.047152760207232088 0 0.39811508618566022 -0.047574441231501258 0 0.39811508618566022 -0.047574441231501258 0 0.39075267398097352 -0.050566671785063563 0 0.39414164869935348 -0.056652903392408277 0 0.39811508618566022 -0.047574441231501258 0 0.39075267398097352 -0.050566671785063563 0 0.39040469671237632 -0.043485170247506678 0 0.39075267398097352 -0.050566671785063563 0 0.39414164869935348 -0.056652903392408277 0 0.38716095432298497 -0.05577919591507341 0 0.39788563835686469 -0.068957556063373227 0 0.40308599478014512 -0.060837850326274617 0 0.39414164869935348 -0.056652903392408277 0 0.38712880738954242 -0.064020364886393691 0 0.38716095432298497 -0.05577919591507341 0 0.37790393092896729 -0.057362288634667587 0 0.38712880738954242 -0.064020364886393691 0 0.39414164869935348 -0.056652903392408277 0 0.38716095432298497 -0.05577919591507341 0 0.38716095432298497 -0.05577919591507341 0 0.38394098398449239 -0.049341648138828152 0 0.37790393092896729 -0.057362288634667587 0 0.39075267398097352 -0.050566671785063563 0 0.38716095432298497 -0.05577919591507341 0 0.38394098398449239 -0.049341648138828152 0 0.39075267398097352 -0.050566671785063563 0 0.38394098398449239 -0.049341648138828152 0 0.39040469671237632 -0.043485170247506678 0 0.38394098398449239 -0.049341648138828152 0 0.37790393092896729 -0.057362288634667587 0 0.37256074689908181 -0.048143954845173878 0 0.38712880738954242 -0.064020364886393691 0 0.37860592874597487 -0.065910332619155132 0 0.37790393092896729 -0.057362288634667587 0 0.37860592874597487 -0.065910332619155132 0 0.37790393092896729 -0.057362288634667587 0 0.37256210544576412 -0.062113062608914471 0 0.38489540429013558 -0.031957290241550522 0 0.37984251461446161 -0.041867490335570363 0 0.36741074118622208 -0.03640938820479258 0 0.38394098398449239 -0.049341648138828152 0 0.39040469671237632 -0.043485170247506678 0 0.37984251461446161 -0.041867490335570363 0 0.38489540429013558 -0.031957290241550522 0 0.39040469671237632 -0.043485170247506678 0 0.37984251461446161 -0.041867490335570363 0 0.38394098398449239 -0.049341648138828152 0 0.37984251461446161 -0.041867490335570363 0 0.37256074689908181 -0.048143954845173878 0 0.38489540429013558 -0.031957290241550522 0 0.36647268278590661 -0.023628830332867449 0 0.38489540429013558 -0.031957290241550522 0 0.37926200528762849 -0.020296695835783529 0 0.36647268278590661 -0.023628830332867449 0 0.37926200528762849 -0.020296695835783529 0 0.3897001344472939 -0.02095124803312887 0 0.38712380876863389 -0.01241429637512821 0 0.38489540429013558 -0.031957290241550522 0 0.37926200528762849 -0.020296695835783529 0 0.3897001344472939 -0.02095124803312887 0 0.38489540429013558 -0.031957290241550522 0 0.3897001344472939 -0.02095124803312887 0 0.40004134521566709 -0.028442921163632829 0 0.40004134521566709 -0.028442921163632829 0 0.39584289766833841 -0.0071848871236637746 0 0.40568453858840048 -0.019707946809430801 0 0.40004134521566709 -0.028442921163632829 0 0.39983447257892601 -0.01111014848105445 0 0.3897001344472939 -0.02095124803312887 0 0.40004134521566709 -0.028442921163632829 0 0.39584289766833841 -0.0071848871236637746 0 0.40004134521566709 -0.028442921163632829 0 0.39983447257892601 -0.01111014848105445 0 0.39584289766833841 -0.0071848871236637746 0 0.40336105594536298 -0.0041477388281668708 0 0.39983447257892601 -0.01111014848105445 0 0.39584289766833841 -0.0071848871236637746 0 0.40728443312674051 -0.009432454321143896 0 0.40595925382499881 -0.01323156054509427 0 0.39983447257892601 -0.01111014848105445 0 0.40568453858840048 -0.019707946809430801 0 0.40595925382499881 -0.01323156054509427 0 0.39983447257892601 -0.01111014848105445 0 0.40728443312674051 -0.009432454321143896 0 0.40336105594536298 -0.0041477388281668708 0 0.39983447257892601 -0.01111014848105445 0 0.3897001344472939 -0.02095124803312887 0 0.39584289766833841 -0.0071848871236637746 0 0.38712380876863389 -0.01241429637512821 0 0.39983447257892601 -0.01111014848105445 0 0.39584289766833841 -0.0071848871236637746 0 0.39321760861815841 0.0061077605428421378 0 0.40336105594536298 -0.0041477388281668708 0 0.39584289766833841 -0.0071848871236637746 0 0.39321760861815841 0.0061077605428421378 0 0.39584289766833841 -0.0071848871236637746 0 0.38382375711823202 0.0046345748699598427 0 0.39584289766833841 -0.0071848871236637746 0 0.37926200528762849 -0.020296695835783529 0 0.38712380876863389 -0.01241429637512821 0 0.36958213714694382 -0.01070440389615673 0 0.36459978185581599 0.0016197853629371991 0 0.38382375711823202 0.0046345748699598427 0 0.38712380876863389 -0.01241429637512821 0 0.38382375711823202 0.0046345748699598427 0 0.39584289766833841 -0.0071848871236637746 0 0.38712380876863389 -0.01241429637512821 0 0.36459978185581599 0.0016197853629371991 0 0.38712380876863389 -0.01241429637512821 0 0.36459978185581599 0.0016197853629371991 0 0.38712380876863389 -0.01241429637512821 0 0.36958213714694382 -0.01070440389615673 0 0.36958213714694382 -0.01070440389615673 0 0.36390959287229319 -0.00571944909010089 0 0.34804996128167759 -0.0153003704241844 0 0.36459978185581599 0.0016197853629371991 0 0.36958213714694382 -0.01070440389615673 0 0.36390959287229319 -0.00571944909010089 0 0.36459978185581599 0.0016197853629371991 0 0.35766033028314259 0.00053150962912805184 0 0.35857616837682899 -0.0032493280030100671 0 0.36459978185581599 0.0016197853629371991 0 0.36390959287229319 -0.00571944909010089 0 0.35857616837682899 -0.0032493280030100671 0 0.36647268278590661 -0.023628830332867449 0 0.35061344207100081 -0.031077514328909681 0 0.36741074118622208 -0.03640938820479258 0 0.36958213714694382 -0.01070440389615673 0 0.36647268278590661 -0.023628830332867449 0 0.34804996128167759 -0.0153003704241844 0 0.38489540429013558 -0.031957290241550522 0 0.36647268278590661 -0.023628830332867449 0 0.36741074118622208 -0.03640938820479258 0 0.37926200528762849 -0.020296695835783529 0 0.36958213714694382 -0.01070440389615673 0 0.36647268278590661 -0.023628830332867449 0 0.36647268278590661 -0.023628830332867449 0 0.34804996128167759 -0.0153003704241844 0 0.36647268278590661 -0.023628830332867449 0 0.35061344207100081 -0.031077514328909681 0 0.34804996128167759 -0.0153003704241844 0 0.35766033028314259 0.00053150962912805184 0 0.34186169234775288 -0.0019461032070706239 0 0.35766033028314259 0.00053150962912805184 0 0.35074932873207337 -0.0056413875646207229 0 0.34186169234775288 -0.0019461032070706239 0 0.36390959287229319 -0.00571944909010089 0 0.35857616837682899 -0.0032493280030100671 0 0.34804996128167759 -0.0153003704241844 0 0.35766033028314259 0.00053150962912805184 0 0.35857616837682899 -0.0032493280030100671 0 0.35074932873207337 -0.0056413875646207229 0 0.35766033028314259 0.00053150962912805184 0 0.35857616837682899 -0.0032493280030100671 0 0.35857616837682899 -0.0032493280030100671 0 0.34804996128167759 -0.0153003704241844 0 0.35074932873207337 -0.0056413875646207229 0 0.34804996128167759 -0.0153003704241844 0 0.35074932873207337 -0.0056413875646207229 0 0.34186169234775288 -0.0019461032070706239 0 0.34186169234775288 -0.0019461032070706239 0 0.33141434204394188 -0.026190427544278371 0 0.33040276643443328 0.0077194922335834752 0 0.34186169234775288 -0.0019461032070706239 0 0.3153171152914937 -0.0061089421248620053 0 0.34186169234775288 -0.0019461032070706239 0 0.3153171152914937 -0.0061089421248620053 0 0.34186169234775288 -0.0019461032070706239 0 0.33141434204394188 -0.026190427544278371 0 0.3153171152914937 -0.0061089421248620053 0 0.34804996128167759 -0.0153003704241844 0 0.34186169234775288 -0.0019461032070706239 0 0.33141434204394188 -0.026190427544278371 0 0.35061344207100081 -0.031077514328909681 0 0.34804996128167759 -0.0153003704241844 0 0.33141434204394188 -0.026190427544278371 0 0.33141434204394188 -0.026190427544278371 0 0.3153171152914937 -0.0061089421248620053 0 0.31048683641877761 -0.02647334588461828 0 0.3209669917401119 -0.050434751881478029 0 0.31198502812308032 -0.071278471368552754 0 0.33141434204394188 -0.026190427544278371 0 0.3209669917401119 -0.050434751881478029 0 0.33141434204394188 -0.026190427544278371 0 0.3209669917401119 -0.050434751881478029 0 0.31048683641877761 -0.02647334588461828 0 0.33141434204394188 -0.026190427544278371 0 0.3209669917401119 -0.050434751881478029 0 0.33855574001941718 -0.04149255846206204 0 0.35061344207100081 -0.031077514328909681 0 0.33141434204394188 -0.026190427544278371 0 0.33855574001941718 -0.04149255846206204 0 0.3209669917401119 -0.050434751881478029 0 0.34287915089856957 -0.057469557547578237 0 0.32994565146579879 -0.070408000129971129 0 0.3209669917401119 -0.050434751881478029 0 0.34287915089856957 -0.057469557547578237 0 0.3209669917401119 -0.050434751881478029 0 0.33855574001941718 -0.04149255846206204 0 0.34287915089856957 -0.057469557547578237 0 0.34287915089856957 -0.057469557547578237 0 0.36536635039603249 -0.064126550355458833 0 0.3517771851088396 -0.04344351100527323 0 0.36536635039603249 -0.064126550355458833 0 0.34287915089856957 -0.057469557547578237 0 0.3517771851088396 -0.04344351100527323 0 0.36536635039603249 -0.064126550355458833 0 0.33855574001941718 -0.04149255846206204 0 0.34287915089856957 -0.057469557547578237 0 0.3517771851088396 -0.04344351100527323 0 0.35061344207100081 -0.031077514328909681 0 0.3517771851088396 -0.04344351100527323 0 0.36741074118622208 -0.03640938820479258 0 0.35061344207100081 -0.031077514328909681 0 0.33855574001941718 -0.04149255846206204 0 0.3517771851088396 -0.04344351100527323 0 0.3517771851088396 -0.04344351100527323 0 0.36472778273402628 -0.046144250895080723 0 0.36741074118622208 -0.03640938820479258 0 0.37984251461446161 -0.041867490335570363 0 0.36741074118622208 -0.03640938820479258 0 0.37256074689908181 -0.048143954845173878 0 0.36472778273402628 -0.046144250895080723 0 0.36741074118622208 -0.03640938820479258 0 0.37256074689908181 -0.048143954845173878 0 0.3517771851088396 -0.04344351100527323 0 0.36716245774196171 -0.056580149525083182 0 0.36536635039603249 -0.064126550355458833 0 0.3517771851088396 -0.04344351100527323 0 0.36472778273402628 -0.046144250895080723 0 0.36716245774196171 -0.056580149525083182 0 0.37790393092896729 -0.057362288634667587 0 0.36716245774196171 -0.056580149525083182 0 0.37256074689908181 -0.048143954845173878 0 0.36472778273402628 -0.046144250895080723 0 0.36716245774196171 -0.056580149525083182 0 0.37256074689908181 -0.048143954845173878 0 0.36716245774196171 -0.056580149525083182 0 0.37256210544576412 -0.062113062608914471 0 0.367877418804201 -0.067948457411523944 0 0.37790393092896729 -0.057362288634667587 0 0.36716245774196171 -0.056580149525083182 0 0.37256210544576412 -0.062113062608914471 0 0.37860592874597487 -0.065910332619155132 0 0.37256210544576412 -0.062113062608914471 0 0.367877418804201 -0.067948457411523944 0 0.36716245774196171 -0.056580149525083182 0 0.367877418804201 -0.067948457411523944 0 0.36536635039603249 -0.064126550355458833 0 0.36536635039603249 -0.064126550355458833 0 0.36199140161628118 -0.070693499331433679 0 0.35432834397913621 -0.068042042597914673 0 0.367877418804201 -0.067948457411523944 0 0.36536635039603249 -0.064126550355458833 0 0.367877418804201 -0.067948457411523944 0 0.36536635039603249 -0.064126550355458833 0 0.36199140161628118 -0.070693499331433679 0 0.367877418804201 -0.067948457411523944 0 0.36199140161628118 -0.070693499331433679 0 0.36681486797569479 -0.079448043400362392 0 0.36199140161628118 -0.070693499331433679 0 0.36681486797569479 -0.079448043400362392 0 0.35701387758556968 -0.076067074508636423 0 0.38397765249956251 -0.092453403817774643 0 0.367877418804201 -0.067948457411523944 0 0.36681486797569479 -0.079448043400362392 0 0.38397765249956251 -0.092453403817774643 0 0.36328287045184932 -0.090591602182129582 0 0.36681486797569479 -0.079448043400362392 0 0.36328287045184932 -0.090591602182129582 0 0.36681486797569479 -0.079448043400362392 0 0.35701387758556968 -0.076067074508636423 0 0.36328287045184932 -0.090591602182129582 0 0.3503140659036772 -0.084187620873411792 0 0.35701387758556968 -0.076067074508636423 0 0.3503140659036772 -0.084187620873411792 0 0.34496597973823279 -0.071475718388247636 0 0.33602886641856522 -0.088125389228978279 0 0.36328287045184932 -0.090591602182129582 0 0.3503140659036772 -0.084187620873411792 0 0.3486820652911754 -0.097691542219808747 0 0.3503140659036772 -0.084187620873411792 0 0.3486820652911754 -0.097691542219808747 0 0.33602886641856522 -0.088125389228978279 0 0.34287915089856957 -0.057469557547578237 0 0.36536635039603249 -0.064126550355458833 0 0.35432834397913621 -0.068042042597914673 0 0.3503140659036772 -0.084187620873411792 0 0.34496597973823279 -0.071475718388247636 0 0.35701387758556968 -0.076067074508636423 0 0.34287915089856957 -0.057469557547578237 0 0.34496597973823279 -0.071475718388247636 0 0.35432834397913621 -0.068042042597914673 0 0.36199140161628118 -0.070693499331433679 0 0.35432834397913621 -0.068042042597914673 0 0.35701387758556968 -0.076067074508636423 0 0.34496597973823279 -0.071475718388247636 0 0.35432834397913621 -0.068042042597914673 0 0.35701387758556968 -0.076067074508636423 0 0.377531650343081 -0.11818312845693291 0 0.3605480264482771 -0.1076531473471193 0 0.35743407601693239 -0.1234387315732044 0 0.38397765249956251 -0.092453403817774643 0 0.36328287045184932 -0.090591602182129582 0 0.3605480264482771 -0.1076531473471193 0 0.38397765249956251 -0.092453403817774643 0 0.377531650343081 -0.11818312845693291 0 0.3605480264482771 -0.1076531473471193 0 0.36328287045184932 -0.090591602182129582 0 0.3605480264482771 -0.1076531473471193 0 0.3486820652911754 -0.097691542219808747 0 0.3605480264482771 -0.1076531473471193 0 0.3486820652911754 -0.097691542219808747 0 0.34549152156418572 -0.11268068622347339 0 0.35743407601693239 -0.1234387315732044 0 0.34549152156418572 -0.11268068622347339 0 0.33916847671495948 -0.1272035077980376 0 0.3605480264482771 -0.1076531473471193 0 0.35743407601693239 -0.1234387315732044 0 0.34549152156418572 -0.11268068622347339 0 0.34549152156418572 -0.11268068622347339 0 0.32951021368732453 -0.1144084130127828 0 0.33916847671495948 -0.1272035077980376 0 0.32951021368732453 -0.1144084130127828 0 0.32166324728259499 -0.13135633786462661 0 0.33916847671495948 -0.1272035077980376 0 0.34549152156418572 -0.11268068622347339 0 0.32951021368732453 -0.1144084130127828 0 0.33665901951003208 -0.1023726452224928 0 0.32951021368732453 -0.1144084130127828 0 0.33665901951003208 -0.1023726452224928 0 0.32142436305900579 -0.099761858768234152 0 0.3486820652911754 -0.097691542219808747 0 0.34549152156418572 -0.11268068622347339 0 0.33665901951003208 -0.1023726452224928 0 0.3486820652911754 -0.097691542219808747 0 0.33665901951003208 -0.1023726452224928 0 0.33602886641856522 -0.088125389228978279 0 0.33665901951003208 -0.1023726452224928 0 0.32142436305900579 -0.099761858768234152 0 0.33602886641856522 -0.088125389228978279 0 0.32951021368732453 -0.1144084130127828 0 0.32142436305900579 -0.099761858768234152 0 0.31265465399316889 -0.11307544219983209 0 0.31265465399316889 -0.11307544219983209 0 0.30585118941309869 -0.12691687349975089 0 0.32166324728259499 -0.13135633786462661 0 0.32951021368732453 -0.1144084130127828 0 0.31265465399316889 -0.11307544219983209 0 0.32166324728259499 -0.13135633786462661 0 0.34496597973823279 -0.071475718388247636 0 0.32994565146579879 -0.070408000129971129 0 0.33602886641856522 -0.088125389228978279 0 0.34287915089856957 -0.057469557547578237 0 0.34496597973823279 -0.071475718388247636 0 0.32994565146579879 -0.070408000129971129 0 0.32994565146579879 -0.070408000129971129 0 0.33602886641856522 -0.088125389228978279 0 0.32304291409474239 -0.084410454359534426 0 0.32142436305900579 -0.099761858768234152 0 0.32304291409474239 -0.084410454359534426 0 0.3030030645060493 -0.0921221908556277 0 0.32304291409474239 -0.084410454359534426 0 0.31198502812308032 -0.071278471368552754 0 0.3030030645060493 -0.0921221908556277 0 0.32304291409474239 -0.084410454359534426 0 0.3030030645060493 -0.0921221908556277 0 0.32142436305900579 -0.099761858768234152 0 0.33602886641856522 -0.088125389228978279 0 0.32304291409474239 -0.084410454359534426 0 0.32994565146579879 -0.070408000129971129 0 0.32304291409474239 -0.084410454359534426 0 0.31198502812308032 -0.071278471368552754 0 0.3209669917401119 -0.050434751881478029 0 0.32994565146579879 -0.070408000129971129 0 0.31198502812308032 -0.071278471368552754 0 0.31198502812308032 -0.071278471368552754 0 0.29969182285399132 -0.062832736685797821 0 0.29546637918640728 -0.07763776604170057 0 0.31198502812308032 -0.071278471368552754 0 0.3030030645060493 -0.0921221908556277 0 0.29546637918640728 -0.07763776604170057 0 0.31198502812308032 -0.071278471368552754 0 0.3030030645060493 -0.0921221908556277 0 0.3030030645060493 -0.0921221908556277 0 0.28427873383264662 -0.08643932501553736 0 0.29546637918640728 -0.07763776604170057 0 0.3030030645060493 -0.0921221908556277 0 0.28427873383264662 -0.08643932501553736 0 0.27608284085717177 -0.10248163343912969 0 0.28427873383264662 -0.08643932501553736 0 0.29546637918640728 -0.07763776604170057 0 0.27612109171129889 -0.072480719732976595 0 0.29969182285399132 -0.062832736685797821 0 0.27612109171129889 -0.072480719732976595 0 0.29969182285399132 -0.062832736685797821 0 0.27612109171129889 -0.072480719732976595 0 0.28162267234533322 -0.054423897587784917 0 0.29969182285399132 -0.062832736685797821 0 0.29546637918640728 -0.07763776604170057 0 0.27612109171129889 -0.072480719732976595 0 0.29380685764977238 -0.11346308737115909 0 0.29097746285681292 -0.13296084054707949 0 0.30585118941309869 -0.12691687349975089 0 0.31265465399316889 -0.11307544219983209 0 0.29380685764977238 -0.11346308737115909 0 0.30585118941309869 -0.12691687349975089 0 0.31265465399316889 -0.11307544219983209 0 0.3030030645060493 -0.0921221908556277 0 0.29380685764977238 -0.11346308737115909 0 0.32142436305900579 -0.099761858768234152 0 0.31265465399316889 -0.11307544219983209 0 0.3030030645060493 -0.0921221908556277 0 0.3030030645060493 -0.0921221908556277 0 0.29380685764977238 -0.11346308737115909 0 0.3030030645060493 -0.0921221908556277 0 0.27608284085717177 -0.10248163343912969 0 0.3030030645060493 -0.0921221908556277 0 0.29380685764977238 -0.11346308737115909 0 0.27608284085717177 -0.10248163343912969 0 0.29380685764977238 -0.11346308737115909 0 0.2759419647077706 -0.11943119333582231 0 0.29097746285681292 -0.13296084054707949 0 0.29380685764977238 -0.11346308737115909 0 0.2759419647077706 -0.11943119333582231 0 0.27608284085717177 -0.10248163343912969 0 0.2759419647077706 -0.11943119333582231 0 0.27608284085717177 -0.10248163343912969 0 0.24916261720829391 -0.1128410760226309 0 0.27608284085717177 -0.10248163343912969 0 0.24916261720829391 -0.1128410760226309 0 0.27608284085717177 -0.10248163343912969 0 0.27072029290230593 -0.087474315008252257 0 0.24916261720829391 -0.1128410760226309 0 0.27072029290230593 -0.087474315008252257 0 0.25255036056860641 -0.082128702780155355 0 0.24916261720829391 -0.1128410760226309 0 0.2759419647077706 -0.11943119333582231 0 0.26968004496680192 -0.1354093292991122 0 0.24916261720829391 -0.1128410760226309 0 0.27612109171129889 -0.072480719732976595 0 0.27072029290230593 -0.087474315008252257 0 0.25255036056860641 -0.082128702780155355 0 0.28427873383264662 -0.08643932501553736 0 0.27612109171129889 -0.072480719732976595 0 0.27072029290230593 -0.087474315008252257 0 0.28427873383264662 -0.08643932501553736 0 0.27608284085717177 -0.10248163343912969 0 0.27072029290230593 -0.087474315008252257 0 0.27612109171129889 -0.072480719732976595 0 0.25255036056860641 -0.082128702780155355 0 0.25614171351425058 -0.057605891013993667 0 0.27612109171129889 -0.072480719732976595 0 0.25255036056860641 -0.082128702780155355 0 0.25614171351425058 -0.057605891013993667 0 0.2740950910354541 -0.035386727162715348 0 0.28162267234533322 -0.054423897587784917 0 0.27612109171129889 -0.072480719732976595 0 0.25614171351425058 -0.057605891013993667 0 0.28162267234533322 -0.054423897587784917 0 0.25614171351425058 -0.057605891013993667 0 0.2740950910354541 -0.035386727162715348 0 0.24403893135934571 -0.037256147821468667 0 0.2740950910354541 -0.035386727162715348 0 0.26222796117897867 -0.01443461996046645 0 0.24403893135934571 -0.037256147821468667 0 0.24502883806765671 0.008523642691556723 0 0.27345126597006592 0.00071225981742997107 0 0.26222796117897867 -0.01443461996046645 0 0.26222796117897867 -0.01443461996046645 0 0.2887725382352363 -0.01027178104266422 0 0.27345126597006592 0.00071225981742997107 0 0.26222796117897867 -0.01443461996046645 0 0.2887725382352363 -0.01027178104266422 0 0.2740950910354541 -0.035386727162715348 0 0.26222796117897867 -0.01443461996046645 0 0.2887725382352363 -0.01027178104266422 0 0.2740950910354541 -0.035386727162715348 0 0.29296786011376652 -0.028107680413614649 0 0.2887725382352363 -0.01027178104266422 0 0.3153171152914937 -0.0061089421248620053 0 0.2887725382352363 -0.01027178104266422 0 0.3153171152914937 -0.0061089421248620053 0 0.2887725382352363 -0.01027178104266422 0 0.31048683641877761 -0.02647334588461828 0 0.29594264507526558 0.01116838319107246 0 0.3153171152914937 -0.0061089421248620053 0 0.2887725382352363 -0.01027178104266422 0 0.29296786011376652 -0.028107680413614649 0 0.2887725382352363 -0.01027178104266422 0 0.31048683641877761 -0.02647334588461828 0 0.3209669917401119 -0.050434751881478029 0 0.31048683641877761 -0.02647334588461828 0 0.2975310413877828 -0.042910739522097223 0 0.3209669917401119 -0.050434751881478029 0 0.2975310413877828 -0.042910739522097223 0 0.29296786011376652 -0.028107680413614649 0 0.31048683641877761 -0.02647334588461828 0 0.2975310413877828 -0.042910739522097223 0 0.3209669917401119 -0.050434751881478029 0 0.31198502812308032 -0.071278471368552754 0 0.29969182285399132 -0.062832736685797821 0 0.3209669917401119 -0.050434751881478029 0 0.29969182285399132 -0.062832736685797821 0 0.2975310413877828 -0.042910739522097223 0 0.29969182285399132 -0.062832736685797821 0 0.2975310413877828 -0.042910739522097223 0 0.28162267234533322 -0.054423897587784917 0 0.2740950910354541 -0.035386727162715348 0 0.29296786011376652 -0.028107680413614649 0 0.2975310413877828 -0.042910739522097223 0 0.2740950910354541 -0.035386727162715348 0 0.2975310413877828 -0.042910739522097223 0 0.28162267234533322 -0.054423897587784917 0 0.2740950910354541 -0.035386727162715348 0 0.2975310413877828 -0.042910739522097223 0 0.28599713250703918 -0.20031163355485249 0 0.30096916920491351 -0.21264004708164749 0 0.28860803900635101 -0.2222818645608142 0 0.28599713250703918 -0.20031163355485249 0 0.28860803900635101 -0.2222818645608142 0 0.27472451538918602 -0.21515400219702141 0 0.28599713250703918 -0.20031163355485249 0 0.27934977169502012 -0.18132833357158179 0 0.30297614009657281 -0.18293099963707701 0 0.28599713250703918 -0.20031163355485249 0 0.3105875994156681 -0.20078733944699301 0 0.30297614009657281 -0.18293099963707701 0 0.3105875994156681 -0.20078733944699301 0 0.30297614009657281 -0.18293099963707701 0 0.3211547771963868 -0.18823870198864109 0 0.28599713250703918 -0.20031163355485249 0 0.3105875994156681 -0.20078733944699301 0 0.30096916920491351 -0.21264004708164749 0 0.3105875994156681 -0.20078733944699301 0 0.30096916920491351 -0.21264004708164749 0 0.31487138951265148 -0.21656650482682349 0 0.30096916920491351 -0.21264004708164749 0 0.30282141040025518 -0.2244224621518692 0 0.31487138951265148 -0.21656650482682349 0 0.30282141040025518 -0.2244224621518692 0 0.29233168041781638 -0.237437495347567 0 0.31732677385954328 -0.23318639894249371 0 0.30282141040025518 -0.2244224621518692 0 0.31487138951265148 -0.21656650482682349 0 0.31732677385954328 -0.23318639894249371 0 0.30096916920491351 -0.21264004708164749 0 0.30282141040025518 -0.2244224621518692 0 0.28860803900635101 -0.2222818645608142 0 0.29233168041781638 -0.237437495347567 0 0.31732677385954328 -0.23318639894249371 0 0.30812350189974758 -0.24139148326430979 0 0.30334697131571631 -0.24598665396577821 0 0.31948858200591429 -0.24895538480140031 0 0.30812350189974758 -0.24139148326430979 0 0.29233168041781638 -0.237437495347567 0 0.31732677385954328 -0.23318639894249371 0 0.30812350189974758 -0.24139148326430979 0 0.30334697131571631 -0.24598665396577821 0 0.29233168041781638 -0.237437495347567 0 0.30334697131571631 -0.24598665396577821 0 0.31948858200591429 -0.24895538480140031 0 0.30270319855564731 -0.25083068480389359 0 0.30334697131571631 -0.24598665396577821 0 0.29342444761073561 -0.2490154373494701 0 0.30270319855564731 -0.25083068480389359 0 0.29233168041781638 -0.237437495347567 0 0.28475750139054989 -0.24680621714445891 0 0.26733658697608947 -0.2416885917526401 0 0.30334697131571631 -0.24598665396577821 0 0.29342444761073561 -0.2490154373494701 0 0.29233168041781638 -0.237437495347567 0 0.29342444761073561 -0.2490154373494701 0 0.29233168041781638 -0.237437495347567 0 0.28475750139054989 -0.24680621714445891 0 0.29342444761073561 -0.2490154373494701 0 0.28475750139054989 -0.24680621714445891 0 0.28855536188488351 -0.25406702018922561 0 0.29233168041781638 -0.237437495347567 0 0.28860803900635101 -0.2222818645608142 0 0.27336691787881301 -0.2280363603538669 0 0.30282141040025518 -0.2244224621518692 0 0.29233168041781638 -0.237437495347567 0 0.28860803900635101 -0.2222818645608142 0 0.27336691787881301 -0.2280363603538669 0 0.26733658697608947 -0.2416885917526401 0 0.25700636866691529 -0.23229792619875059 0 0.28860803900635101 -0.2222818645608142 0 0.27336691787881301 -0.2280363603538669 0 0.27472451538918602 -0.21515400219702141 0 0.27336691787881301 -0.2280363603538669 0 0.26115909430663092 -0.21897946382591371 0 0.27472451538918602 -0.21515400219702141 0 0.29233168041781638 -0.237437495347567 0 0.26733658697608947 -0.2416885917526401 0 0.28475750139054989 -0.24680621714445891 0 0.26733658697608947 -0.2416885917526401 0 0.27900645603208429 -0.25229706430207338 0 0.29233168041781638 -0.237437495347567 0 0.27336691787881301 -0.2280363603538669 0 0.26733658697608947 -0.2416885917526401 0 0.26733658697608947 -0.2416885917526401 0 0.27900645603208429 -0.25229706430207338 0 0.26733658697608947 -0.2416885917526401 0 0.2538276387990735 -0.243986156319283 0 0.26146442537082609 -0.25583685081005042 0 0.26733658697608947 -0.2416885917526401 0 0.2538276387990735 -0.243986156319283 0 0.26733658697608947 -0.2416885917526401 0 0.25700636866691529 -0.23229792619875059 0 0.26733658697608947 -0.2416885917526401 0 0.2538276387990735 -0.243986156319283 0 0.25700636866691529 -0.23229792619875059 0 0.2538276387990735 -0.243986156319283 0 0.25700636866691529 -0.23229792619875059 0 0.24490165686425211 -0.23528228860034259 0 0.27336691787881301 -0.2280363603538669 0 0.26115909430663092 -0.21897946382591371 0 0.25700636866691529 -0.23229792619875059 0 0.26115909430663092 -0.21897946382591371 0 0.25700636866691529 -0.23229792619875059 0 0.2474680867721589 -0.22346196655244499 0 0.26115909430663092 -0.21897946382591371 0 0.25071911215742437 -0.20927805116274709 0 0.2474680867721589 -0.22346196655244499 0 0.25071911215742437 -0.20927805116274709 0 0.26553192509875939 -0.20550449456077191 0 0.25474998502698032 -0.19691874005317461 0 0.26115909430663092 -0.21897946382591371 0 0.25071911215742437 -0.20927805116274709 0 0.26553192509875939 -0.20550449456077191 0 0.26115909430663092 -0.21897946382591371 0 0.26553192509875939 -0.20550449456077191 0 0.27472451538918602 -0.21515400219702141 0 0.28599713250703918 -0.20031163355485249 0 0.26553192509875939 -0.20550449456077191 0 0.27472451538918602 -0.21515400219702141 0 0.28599713250703918 -0.20031163355485249 0 0.26553192509875939 -0.20550449456077191 0 0.26654543567081013 -0.19131702701194489 0 0.28599713250703918 -0.20031163355485249 0 0.26654543567081013 -0.19131702701194489 0 0.27934977169502012 -0.18132833357158179 0 0.25474998502698032 -0.19691874005317461 0 0.25706624972303532 -0.17543805633142839 0 0.24002367982415451 -0.19374267904470141 0 0.26654543567081013 -0.19131702701194489 0 0.25474998502698032 -0.19691874005317461 0 0.25706624972303532 -0.17543805633142839 0 0.26553192509875939 -0.20550449456077191 0 0.26654543567081013 -0.19131702701194489 0 0.25474998502698032 -0.19691874005317461 0 0.25706624972303532 -0.17543805633142839 0 0.27680814305248802 -0.16466095624802721 0 0.26247388047373083 -0.15483700496883221 0 0.25706624972303532 -0.17543805633142839 0 0.26247388047373083 -0.15483700496883221 0 0.24384523969761221 -0.14863354701755199 0 0.27680814305248802 -0.16466095624802721 0 0.26247388047373083 -0.15483700496883221 0 0.28587983052980898 -0.15032919588913951 0 0.26654543567081013 -0.19131702701194489 0 0.25706624972303532 -0.17543805633142839 0 0.27934977169502012 -0.18132833357158179 0 0.25706624972303532 -0.17543805633142839 0 0.27680814305248802 -0.16466095624802721 0 0.27934977169502012 -0.18132833357158179 0 0.26968004496680192 -0.1354093292991122 0 0.24916261720829391 -0.1128410760226309 0 0.24384523969761221 -0.14863354701755199 0 0.26247388047373083 -0.15483700496883221 0 0.26968004496680192 -0.1354093292991122 0 0.24384523969761221 -0.14863354701755199 0 0.26968004496680192 -0.1354093292991122 0 0.24384523969761221 -0.14863354701755199 0 0.26247388047373083 -0.15483700496883221 0 0.26968004496680192 -0.1354093292991122 0 0.28587983052980898 -0.15032919588913951 0 0.2759419647077706 -0.11943119333582231 0 0.26968004496680192 -0.1354093292991122 0 0.29097746285681292 -0.13296084054707949 0 0.26968004496680192 -0.1354093292991122 0 0.29097746285681292 -0.13296084054707949 0 0.28587983052980898 -0.15032919588913951 0 0.29097746285681292 -0.13296084054707949 0 0.28587983052980898 -0.15032919588913951 0 0.30902832676855202 -0.1463287366881352 0 0.28587983052980898 -0.15032919588913951 0 0.30902832676855202 -0.1463287366881352 0 0.29758277532553101 -0.16510799318255129 0 0.29097746285681292 -0.13296084054707949 0 0.30902832676855202 -0.1463287366881352 0 0.30585118941309869 -0.12691687349975089 0 0.30902832676855202 -0.1463287366881352 0 0.30585118941309869 -0.12691687349975089 0 0.32166324728259499 -0.13135633786462661 0 0.27934977169502012 -0.18132833357158179 0 0.29758277532553101 -0.16510799318255129 0 0.30297614009657281 -0.18293099963707701 0 0.27680814305248802 -0.16466095624802721 0 0.28587983052980898 -0.15032919588913951 0 0.29758277532553101 -0.16510799318255129 0 0.27680814305248802 -0.16466095624802721 0 0.27934977169502012 -0.18132833357158179 0 0.29758277532553101 -0.16510799318255129 0 0.30902832676855202 -0.1463287366881352 0 0.29758277532553101 -0.16510799318255129 0 0.32014315144259708 -0.1671158802551084 0 0.29758277532553101 -0.16510799318255129 0 0.30297614009657281 -0.18293099963707701 0 0.32014315144259708 -0.1671158802551084 0 0.30297614009657281 -0.18293099963707701 0 0.32014315144259708 -0.1671158802551084 0 0.3211547771963868 -0.18823870198864109 0 0.32014315144259708 -0.1671158802551084 0 0.33607407970480141 -0.18141609537731751 0 0.3211547771963868 -0.18823870198864109 0 0.33751965399993589 -0.165035750869688 0 0.33406292577867708 -0.14895917159312161 0 0.35393355286250311 -0.16404111759013801 0 0.32014315144259708 -0.1671158802551084 0 0.33751965399993589 -0.165035750869688 0 0.33607407970480141 -0.18141609537731751 0 0.32014315144259708 -0.1671158802551084 0 0.33751965399993589 -0.165035750869688 0 0.33406292577867708 -0.14895917159312161 0 0.33607407970480141 -0.18141609537731751 0 0.35181632405452712 -0.18225122765141341 0 0.33952255019030481 -0.19740788659300501 0 0.33751965399993589 -0.165035750869688 0 0.33607407970480141 -0.18141609537731751 0 0.35181632405452712 -0.18225122765141341 0 0.30902832676855202 -0.1463287366881352 0 0.32166324728259499 -0.13135633786462661 0 0.33406292577867708 -0.14895917159312161 0 0.30902832676855202 -0.1463287366881352 0 0.32014315144259708 -0.1671158802551084 0 0.33406292577867708 -0.14895917159312161 0 0.32166324728259499 -0.13135633786462661 0 0.33406292577867708 -0.14895917159312161 0 0.33916847671495948 -0.1272035077980376 0 0.33406292577867708 -0.14895917159312161 0 0.33916847671495948 -0.1272035077980376 0 0.35143322607792538 -0.1392080240126416 0 0.35743407601693239 -0.1234387315732044 0 0.33916847671495948 -0.1272035077980376 0 0.35143322607792538 -0.1392080240126416 0 0.33406292577867708 -0.14895917159312161 0 0.35143322607792538 -0.1392080240126416 0 0.35393355286250311 -0.16404111759013801 0 0.35143322607792538 -0.1392080240126416 0 0.36317328408474442 -0.15056839290755411 0 0.35393355286250311 -0.16404111759013801 0 0.36317328408474442 -0.15056839290755411 0 0.37043155495316582 -0.13570389560102139 0 0.37748824702897688 -0.15844041801785649 0 0.35143322607792538 -0.1392080240126416 0 0.36317328408474442 -0.15056839290755411 0 0.37043155495316582 -0.13570389560102139 0 0.377531650343081 -0.11818312845693291 0 0.35743407601693239 -0.1234387315732044 0 0.37043155495316582 -0.13570389560102139 0 0.35743407601693239 -0.1234387315732044 0 0.35143322607792538 -0.1392080240126416 0 0.37043155495316582 -0.13570389560102139 0 0.35181632405452712 -0.18225122765141341 0 0.35393355286250311 -0.16404111759013801 0 0.36799527080895472 -0.17575353387052289 0 0.33751965399993589 -0.165035750869688 0 0.35181632405452712 -0.18225122765141341 0 0.35393355286250311 -0.16404111759013801 0 0.35393355286250311 -0.16404111759013801 0 0.36799527080895472 -0.17575353387052289 0 0.37748824702897688 -0.15844041801785649 0 0.36317328408474442 -0.15056839290755411 0 0.35393355286250311 -0.16404111759013801 0 0.37748824702897688 -0.15844041801785649 0 0.35181632405452712 -0.18225122765141341 0 0.36799527080895472 -0.17575353387052289 0 0.36910296642835988 -0.19322893042875181 0 0.36910296642835988 -0.19322893042875181 0 0.36093814601367208 -0.20591459616417759 0 0.37529156238419897 -0.20727319872900471 0 0.36910296642835988 -0.19322893042875181 0 0.36093814601367208 -0.20591459616417759 0 0.35427653325422431 -0.19748133037764881 0 0.37146636834626762 -0.21746005090504539 0 0.36384916509106152 -0.21443038616939331 0 0.37529156238419897 -0.20727319872900471 0 0.36093814601367208 -0.20591459616417759 0 0.36384916509106152 -0.21443038616939331 0 0.37529156238419897 -0.20727319872900471 0 0.36093814601367208 -0.20591459616417759 0 0.36384916509106152 -0.21443038616939331 0 0.35572062353684553 -0.2149042470782114 0 0.36384916509106152 -0.21443038616939331 0 0.35572062353684553 -0.2149042470782114 0 0.36154188385719332 -0.22218708165319939 0 0.37146636834626762 -0.21746005090504539 0 0.36384916509106152 -0.21443038616939331 0 0.36154188385719332 -0.22218708165319939 0 0.36093814601367208 -0.20591459616417759 0 0.34895003846154449 -0.20707969951931771 0 0.35427653325422431 -0.19748133037764881 0 0.36093814601367208 -0.20591459616417759 0 0.35572062353684553 -0.2149042470782114 0 0.34895003846154449 -0.20707969951931771 0 0.35572062353684553 -0.2149042470782114 0 0.34895003846154449 -0.20707969951931771 0 0.34681287085581031 -0.21537326103128851 0 0.35572062353684553 -0.2149042470782114 0 0.34681287085581031 -0.21537326103128851 0 0.34942674832653742 -0.22305165922821979 0 0.34895003846154449 -0.20707969951931771 0 0.34681287085581031 -0.21537326103128851 0 0.33862139625010212 -0.21163835397800809 0 0.35181632405452712 -0.18225122765141341 0 0.36910296642835988 -0.19322893042875181 0 0.35427653325422431 -0.19748133037764881 0 0.34895003846154449 -0.20707969951931771 0 0.35427653325422431 -0.19748133037764881 0 0.33952255019030481 -0.19740788659300501 0 0.35181632405452712 -0.18225122765141341 0 0.35427653325422431 -0.19748133037764881 0 0.33952255019030481 -0.19740788659300501 0 0.33607407970480141 -0.18141609537731751 0 0.33952255019030481 -0.19740788659300501 0 0.3211547771963868 -0.18823870198864109 0 0.33952255019030481 -0.19740788659300501 0 0.32581763571721373 -0.20626962156498749 0 0.3211547771963868 -0.18823870198864109 0 0.34895003846154449 -0.20707969951931771 0 0.33952255019030481 -0.19740788659300501 0 0.33862139625010212 -0.21163835397800809 0 0.33862139625010212 -0.21163835397800809 0 0.32581763571721373 -0.20626962156498749 0 0.32892855306271462 -0.2221251257289133 0 0.34681287085581031 -0.21537326103128851 0 0.33862139625010212 -0.21163835397800809 0 0.34134554770402181 -0.22019234535268589 0 0.33862139625010212 -0.21163835397800809 0 0.32892855306271462 -0.2221251257289133 0 0.34134554770402181 -0.22019234535268589 0 0.33952255019030481 -0.19740788659300501 0 0.33862139625010212 -0.21163835397800809 0 0.32581763571721373 -0.20626962156498749 0 0.32581763571721373 -0.20626962156498749 0 0.31487138951265148 -0.21656650482682349 0 0.32892855306271462 -0.2221251257289133 0 0.3105875994156681 -0.20078733944699301 0 0.32581763571721373 -0.20626962156498749 0 0.31487138951265148 -0.21656650482682349 0 0.3105875994156681 -0.20078733944699301 0 0.32581763571721373 -0.20626962156498749 0 0.3211547771963868 -0.18823870198864109 0 0.31732677385954328 -0.23318639894249371 0 0.32986217040025001 -0.23920084951267939 0 0.33348379557066721 -0.23496701437411699 0 0.30812350189974758 -0.24139148326430979 0 0.31948858200591429 -0.24895538480140031 0 0.31732677385954328 -0.23318639894249371 0 0.31948858200591429 -0.24895538480140031 0 0.31732677385954328 -0.23318639894249371 0 0.32986217040025001 -0.23920084951267939 0 0.31487138951265148 -0.21656650482682349 0 0.31732677385954328 -0.23318639894249371 0 0.32892855306271462 -0.2221251257289133 0 0.31732677385954328 -0.23318639894249371 0 0.32892855306271462 -0.2221251257289133 0 0.34232186730127001 -0.22893530253742039 0 0.31732677385954328 -0.23318639894249371 0 0.34232186730127001 -0.22893530253742039 0 0.33348379557066721 -0.23496701437411699 0 0.31732677385954328 -0.23318639894249371 0 0.34232186730127001 -0.22893530253742039 0 0.32892855306271462 -0.2221251257289133 0 0.34134554770402181 -0.22019234535268589 0 0.34232186730127001 -0.22893530253742039 0 0.34232186730127001 -0.22893530253742039 0 0.33348379557066721 -0.23496701437411699 0 0.34442437072160559 -0.23854550650387449 0 0.31948858200591429 -0.24895538480140031 0 0.34442437072160559 -0.23854550650387449 0 0.32810416354918359 -0.25546771460389628 0 0.31948858200591429 -0.24895538480140031 0 0.32986217040025001 -0.23920084951267939 0 0.34442437072160559 -0.23854550650387449 0 0.35206922458546819 -0.2425929435678775 0 0.32810416354918359 -0.25546771460389628 0 0.31948858200591429 -0.24895538480140031 0 0.34442437072160559 -0.23854550650387449 0 0.34442437072160559 -0.23854550650387449 0 0.35206922458546819 -0.2425929435678775 0 0.32810416354918359 -0.25546771460389628 0 0.32986217040025001 -0.23920084951267939 0 0.33348379557066721 -0.23496701437411699 0 0.34442437072160559 -0.23854550650387449 0 0.34442437072160559 -0.23854550650387449 0 0.35206922458546819 -0.2425929435678775 0 0.36936015943729689 -0.22813562820634881 0 0.35206922458546819 -0.2425929435678775 0 0.36421571969384159 -0.24460496201461249 0 0.35162734258361761 -0.25242186516885701 0 0.34442437072160559 -0.23854550650387449 0 0.36936015943729689 -0.22813562820634881 0 0.34442437072160559 -0.23854550650387449 0 0.3558739584365066 -0.2296493917759232 0 0.36936015943729689 -0.22813562820634881 0 0.34681287085581031 -0.21537326103128851 0 0.34134554770402181 -0.22019234535268589 0 0.34942674832653742 -0.22305165922821979 0 0.34134554770402181 -0.22019234535268589 0 0.34232186730127001 -0.22893530253742039 0 0.34942674832653742 -0.22305165922821979 0 0.34232186730127001 -0.22893530253742039 0 0.34442437072160559 -0.23854550650387449 0 0.34801173619647979 -0.2300454650113595 0 0.34942674832653742 -0.22305165922821979 0 0.34801173619647979 -0.2300454650113595 0 0.3558739584365066 -0.2296493917759232 0 0.34442437072160559 -0.23854550650387449 0 0.34801173619647979 -0.2300454650113595 0 0.3558739584365066 -0.2296493917759232 0 0.34232186730127001 -0.22893530253742039 0 0.34942674832653742 -0.22305165922821979 0 0.34801173619647979 -0.2300454650113595 0 0.35572062353684553 -0.2149042470782114 0 0.34942674832653742 -0.22305165922821979 0 0.36154188385719332 -0.22218708165319939 0 0.34942674832653742 -0.22305165922821979 0 0.3558739584365066 -0.2296493917759232 0 0.36154188385719332 -0.22218708165319939 0 0.35206922458546819 -0.2425929435678775 0 0.36936015943729689 -0.22813562820634881 0 0.37603428562175278 -0.22971817253185869 0 0.3558739584365066 -0.2296493917759232 0 0.36154188385719332 -0.22218708165319939 0 0.36936015943729689 -0.22813562820634881 0 0.37146636834626762 -0.21746005090504539 0 0.36154188385719332 -0.22218708165319939 0 0.36936015943729689 -0.22813562820634881 0 0.35206922458546819 -0.2425929435678775 0 0.37603428562175278 -0.22971817253185869 0 0.35206922458546819 -0.2425929435678775 0 0.36421571969384159 -0.24460496201461249 0 0.37603428562175278 -0.22971817253185869 0 0.36421571969384159 -0.24460496201461249 0 0.37178074500542491 -0.24902341934924671 0 0.35852737192959488 -0.25473250193359598 0 0.36421571969384159 -0.24460496201461249 0 0.37434333852477197 -0.24063481326921241 0 0.37603428562175278 -0.22971817253185869 0 0.36421571969384159 -0.24460496201461249 0 0.37434333852477197 -0.24063481326921241 0 0.37178074500542491 -0.24902341934924671 0 0.37434333852477197 -0.24063481326921241 0 0.37178074500542491 -0.24902341934924671 0 0.38388338791819782 -0.24158300915388869 0 0.37178074500542491 -0.24902341934924671 0 0.38388338791819782 -0.24158300915388869 0 0.38850651680992782 -0.25425160754921949 0 0.38388338791819782 -0.24158300915388869 0 0.39198724449361738 -0.23258288145297071 0 0.37603428562175278 -0.22971817253185869 0 0.37434333852477197 -0.24063481326921241 0 0.38388338791819782 -0.24158300915388869 0 0.37603428562175278 -0.22971817253185869 0 0.38388338791819782 -0.24158300915388869 0 0.40053146605475087 -0.24463834674800181 0 0.38850651680992782 -0.25425160754921949 0 0.38388338791819782 -0.24158300915388869 0 0.40053146605475087 -0.24463834674800181 0 0.39198724449361738 -0.23258288145297071 0 0.40053146605475087 -0.24463834674800181 0 0.40519113472039719 -0.22924912892228111 0 0.39198724449361738 -0.23258288145297071 0 0.40519113472039719 -0.22924912892228111 0 0.39198724449361738 -0.23258288145297071 0 0.39429594815298818 -0.21772574990882301 0 0.36936015943729689 -0.22813562820634881 0 0.39429594815298818 -0.21772574990882301 0 0.36936015943729689 -0.22813562820634881 0 0.37603428562175278 -0.22971817253185869 0 0.39429594815298818 -0.21772574990882301 0 0.39198724449361738 -0.23258288145297071 0 0.37603428562175278 -0.22971817253185869 0 0.39429594815298818 -0.21772574990882301 0 0.37146636834626762 -0.21746005090504539 0 0.36936015943729689 -0.22813562820634881 0 0.39429594815298818 -0.21772574990882301 0 0.37529156238419897 -0.20727319872900471 0 0.39240247956416952 -0.19866561412211581 0 0.39429594815298818 -0.21772574990882301 0 0.37146636834626762 -0.21746005090504539 0 0.37529156238419897 -0.20727319872900471 0 0.39429594815298818 -0.21772574990882301 0 0.36910296642835988 -0.19322893042875181 0 0.39240247956416952 -0.19866561412211581 0 0.38879519631929338 -0.18002677349278989 0 0.36910296642835988 -0.19322893042875181 0 0.37529156238419897 -0.20727319872900471 0 0.39240247956416952 -0.19866561412211581 0 0.39240247956416952 -0.19866561412211581 0 0.40885620483640162 -0.18820474957671321 0 0.38879519631929338 -0.18002677349278989 0 0.39240247956416952 -0.19866561412211581 0 0.39429594815298818 -0.21772574990882301 0 0.41923173686867959 -0.20731587161129719 0 0.40519113472039719 -0.22924912892228111 0 0.39429594815298818 -0.21772574990882301 0 0.41923173686867959 -0.20731587161129719 0 0.39429594815298818 -0.21772574990882301 0 0.41923173686867959 -0.20731587161129719 0 0.39240247956416952 -0.19866561412211581 0 0.41923173686867959 -0.20731587161129719 0 0.40885620483640162 -0.18820474957671321 0 0.41923173686867959 -0.20731587161129719 0 0.40885620483640162 -0.18820474957671321 0 0.43150182027404649 -0.18401999969678151 0 0.41923173686867959 -0.20731587161129719 0 0.44416752558437111 -0.1969059933137714 0 0.41923173686867959 -0.20731587161129719 0 0.43150182027404649 -0.18401999969678151 0 0.44416752558437111 -0.1969059933137714 0 0.41923173686867959 -0.20731587161129719 0 0.43793780326323839 -0.22010071050784141 0 0.43764031473814058 -0.20869901504486141 0 0.41923173686867959 -0.20731587161129719 0 0.43764031473814058 -0.20869901504486141 0 0.44416752558437111 -0.1969059933137714 0 0.41923173686867959 -0.20731587161129719 0 0.42215984558340891 -0.2359521077738598 0 0.43793780326323839 -0.22010071050784141 0 0.42215984558340891 -0.2359521077738598 0 0.44456519172895659 -0.23924963380793271 0 0.43793780326323839 -0.22010071050784141 0 0.42215984558340891 -0.2359521077738598 0 0.44456519172895659 -0.23924963380793271 0 0.43216559270086402 -0.25737884658375371 0 0.40053146605475087 -0.24463834674800181 0 0.40519113472039719 -0.22924912892228111 0 0.42215984558340891 -0.2359521077738598 0 0.40053146605475087 -0.24463834674800181 0 0.42215984558340891 -0.2359521077738598 0 0.41358604713730163 -0.25721063449283432 0 0.40519113472039719 -0.22924912892228111 0 0.41923173686867959 -0.20731587161129719 0 0.42215984558340891 -0.2359521077738598 0 0.4000778861949239 -0.1169583502240253 0 0.39081372193917802 -0.13921075430993471 0 0.4161781198902853 -0.1414632966302761 0 0.377531650343081 -0.11818312845693291 0 0.37043155495316582 -0.13570389560102139 0 0.39081372193917802 -0.13921075430993471 0 0.37043155495316582 -0.13570389560102139 0 0.39081372193917802 -0.13921075430993471 0 0.37748824702897688 -0.15844041801785649 0 0.39081372193917802 -0.13921075430993471 0 0.39712501526671051 -0.15802734628228779 0 0.37748824702897688 -0.15844041801785649 0 0.39081372193917802 -0.13921075430993471 0 0.39712501526671051 -0.15802734628228779 0 0.4161781198902853 -0.1414632966302761 0 0.39712501526671051 -0.15802734628228779 0 0.38879519631929338 -0.18002677349278989 0 0.41234979115581899 -0.17099548896058189 0 0.39712501526671051 -0.15802734628228779 0 0.37748824702897688 -0.15844041801785649 0 0.38879519631929338 -0.18002677349278989 0 0.36799527080895472 -0.17575353387052289 0 0.37748824702897688 -0.15844041801785649 0 0.38879519631929338 -0.18002677349278989 0 0.36799527080895472 -0.17575353387052289 0 0.36910296642835988 -0.19322893042875181 0 0.38879519631929338 -0.18002677349278989 0 0.40885620483640162 -0.18820474957671321 0 0.38879519631929338 -0.18002677349278989 0 0.41234979115581899 -0.17099548896058189 0 0.40885620483640162 -0.18820474957671321 0 0.43150182027404649 -0.18401999969678151 0 0.41234979115581899 -0.17099548896058189 0 0.43150182027404649 -0.18401999969678151 0 0.43227835358564681 -0.1659682430365268 0 0.41234979115581899 -0.17099548896058189 0 0.43150182027404649 -0.18401999969678151 0 0.43227835358564681 -0.1659682430365268 0 0.44837858728100821 -0.1904731894427775 0 0.39712501526671051 -0.15802734628228779 0 0.41234979115581899 -0.17099548896058189 0 0.4161781198902853 -0.1414632966302761 0 0.43227835358564681 -0.1659682430365268 0 0.41234979115581899 -0.17099548896058189 0 0.4161781198902853 -0.1414632966302761 0 0.43227835358564681 -0.1659682430365268 0 0.4161781198902853 -0.1414632966302761 0 0.43568461662669689 -0.14296521253873459 0 0.43227835358564681 -0.1659682430365268 0 0.4161781198902853 -0.1414632966302761 0 0.42599102573534869 -0.12054499986971449 0 0.4161781198902853 -0.1414632966302761 0 0.43568461662669689 -0.14296521253873459 0 0.42599102573534869 -0.12054499986971449 0 0.43568461662669689 -0.14296521253873459 0 0.44655095734790629 -0.1266961681398058 0 0.4000778861949239 -0.1169583502240253 0 0.4161781198902853 -0.1414632966302761 0 0.42599102573534869 -0.12054499986971449 0 0.4000778861949239 -0.1169583502240253 0 0.4161781198902853 -0.1414632966302761 0 0.44655095734790629 -0.1266961681398058 0 0.45348608015858499 -0.15108106507846081 0 0.47141046065717251 -0.13259826916789391 0 0.44655095734790629 -0.1266961681398058 0 0.45348608015858499 -0.15108106507846081 0 0.43568461662669689 -0.14296521253873459 0 0.44655095734790629 -0.1266961681398058 0 0.45348608015858499 -0.15108106507846081 0 0.43227835358564681 -0.1659682430365268 0 0.43568461662669689 -0.14296521253873459 0 0.45348608015858499 -0.15108106507846081 0 0.45348608015858499 -0.15108106507846081 0 0.47274063334608651 -0.15656820004917271 0 0.47141046065717251 -0.13259826916789391 0 0.45348608015858499 -0.15108106507846081 0 0.4591449490306756 -0.1709063341138389 0 0.47274063334608651 -0.15656820004917271 0 0.43227835358564681 -0.1659682430365268 0 0.45348608015858499 -0.15108106507846081 0 0.4591449490306756 -0.1709063341138389 0 0.43227835358564681 -0.1659682430365268 0 0.4591449490306756 -0.1709063341138389 0 0.44837858728100821 -0.1904731894427775 0 0.43227835358564681 -0.1659682430365268 0 0.44837858728100821 -0.1904731894427775 0 0.4591449490306756 -0.1709063341138389 0 0.46910331430006258 -0.1864961150162455 0 0.47676347545130621 -0.17077431955379191 0 0.4591449490306756 -0.1709063341138389 0 0.46910331430006258 -0.1864961150162455 0 0.44837858728100821 -0.1904731894427775 0 0.46910331430006258 -0.1864961150162455 0 0.4940391030157541 -0.1760862367187197 0 0.47676347545130621 -0.17077431955379191 0 0.46910331430006258 -0.1864961150162455 0 0.4940391030157541 -0.1760862367187197 0 0.48362395040724809 -0.19187600385120321 0 0.46910331430006258 -0.1864961150162455 0 0.4940391030157541 -0.1760862367187197 0 0.4940391030157541 -0.1760862367187197 0 0.5 -0.18647509980802399 0 0.5 -0.1565709639457504 0 0.4940391030157541 -0.1760862367187197 0 0.5 -0.18647509980802399 0 0.48362395040724809 -0.19187600385120321 0 0.4940391030157541 -0.1760862367187197 0 0.48595251878240708 -0.16107838505580399 0 0.47676347545130621 -0.17077431955379191 0 0.4940391030157541 -0.1760862367187197 0 0.5 -0.1565709639457504 0 0.48595251878240708 -0.16107838505580399 0 0.48595251878240708 -0.16107838505580399 0 0.47676347545130621 -0.17077431955379191 0 0.47274063334608651 -0.15656820004917271 0 0.4591449490306756 -0.1709063341138389 0 0.47676347545130621 -0.17077431955379191 0 0.47274063334608651 -0.15656820004917271 0 0.48595251878240708 -0.16107838505580399 0 0.47274063334608651 -0.15656820004917271 0 0.48621938209888871 -0.1453922050115852 0 0.47274063334608651 -0.15656820004917271 0 0.48621938209888871 -0.1453922050115852 0 0.47141046065717251 -0.13259826916789391 0 0.5 -0.1565709639457504 0 0.48595251878240708 -0.16107838505580399 0 0.48621938209888871 -0.1453922050115852 0 0.5 -0.1565709639457504 0 0.48621938209888871 -0.1453922050115852 0 0.5 -0.12666682808347679 0 0.48621938209888871 -0.1453922050115852 0 0.5 -0.12666682808347679 0 0.47141046065717251 -0.13259826916789391 0 0.4548114650637799 -0.2233014153366113 0 0.46358778151453828 -0.2371091749627624 0 0.46988322935749749 -0.2177843034645959 0 0.4548114650637799 -0.2233014153366113 0 0.46358778151453828 -0.2371091749627624 0 0.44456519172895659 -0.23924963380793271 0 0.46358778151453828 -0.2371091749627624 0 0.44456519172895659 -0.23924963380793271 0 0.45788204121143278 -0.25923937752425191 0 0.46358778151453828 -0.2371091749627624 0 0.48028109801640212 -0.24525901446801709 0 0.45788204121143278 -0.25923937752425191 0 0.4548114650637799 -0.2233014153366113 0 0.44456519172895659 -0.23924963380793271 0 0.43793780326323839 -0.22010071050784141 0 0.4548114650637799 -0.2233014153366113 0 0.43793780326323839 -0.22010071050784141 0 0.44922419323627338 -0.21047348474653571 0 0.43793780326323839 -0.22010071050784141 0 0.43764031473814058 -0.20869901504486141 0 0.44922419323627338 -0.21047348474653571 0 0.43764031473814058 -0.20869901504486141 0 0.44922419323627338 -0.21047348474653571 0 0.44416752558437111 -0.1969059933137714 0 0.43150182027404649 -0.18401999969678151 0 0.44837858728100821 -0.1904731894427775 0 0.44416752558437111 -0.1969059933137714 0 0.44922419323627338 -0.21047348474653571 0 0.44416752558437111 -0.1969059933137714 0 0.45916538343800528 -0.20115421453925381 0 0.46910331430006258 -0.1864961150162455 0 0.44416752558437111 -0.1969059933137714 0 0.46910331430006258 -0.1864961150162455 0 0.44416752558437111 -0.1969059933137714 0 0.45916538343800528 -0.20115421453925381 0 0.46910331430006258 -0.1864961150162455 0 0.44837858728100821 -0.1904731894427775 0 0.44416752558437111 -0.1969059933137714 0 0.46910331430006258 -0.1864961150162455 0 0.45916538343800528 -0.20115421453925381 0 0.47222363910876891 -0.20215710136058629 0 0.4617553433454597 -0.21105432866842819 0 0.46988322935749749 -0.2177843034645959 0 0.47222363910876891 -0.20215710136058629 0 0.4548114650637799 -0.2233014153366113 0 0.44922419323627338 -0.21047348474653571 0 0.4617553433454597 -0.21105432866842819 0 0.44922419323627338 -0.21047348474653571 0 0.45916538343800528 -0.20115421453925381 0 0.4617553433454597 -0.21105432866842819 0 0.45916538343800528 -0.20115421453925381 0 0.4617553433454597 -0.21105432866842819 0 0.47222363910876891 -0.20215710136058629 0 0.4548114650637799 -0.2233014153366113 0 0.4617553433454597 -0.21105432866842819 0 0.46988322935749749 -0.2177843034645959 0 0.46988322935749749 -0.2177843034645959 0 0.48512725635516979 -0.20633959514265729 0 0.48179389075726892 -0.22674420531652989 0 0.46988322935749749 -0.2177843034645959 0 0.47222363910876891 -0.20215710136058629 0 0.48512725635516979 -0.20633959514265729 0 0.46910331430006258 -0.1864961150162455 0 0.47222363910876891 -0.20215710136058629 0 0.48362395040724809 -0.19187600385120321 0 0.47222363910876891 -0.20215710136058629 0 0.48362395040724809 -0.19187600385120321 0 0.48512725635516979 -0.20633959514265729 0 0.5 -0.18647509980802399 0 0.48362395040724809 -0.19187600385120321 0 0.48512725635516979 -0.20633959514265729 0 0.5 -0.18647509980802399 0 0.4999999999999995 -0.21637923567029749 0 0.48512725635516979 -0.20633959514265729 0 0.4999999999999995 -0.21637923567029749 0 0.48512725635516979 -0.20633959514265729 0 0.48179389075726892 -0.22674420531652989 0 0.4999999999999995 -0.21637923567029749 0 0.48179389075726892 -0.22674420531652989 0 0.4999999999999995 -0.21637923567029749 0 0.48179389075726892 -0.22674420531652989 0 0.5 -0.2457434582493791 0 0.46358778151453828 -0.2371091749627624 0 0.48179389075726892 -0.22674420531652989 0 0.46358778151453828 -0.2371091749627624 0 0.46988322935749749 -0.2177843034645959 0 0.48179389075726892 -0.22674420531652989 0 0.46358778151453828 -0.2371091749627624 0 0.48179389075726892 -0.22674420531652989 0 0.48028109801640212 -0.24525901446801709 0 0.48179389075726892 -0.22674420531652989 0 0.48028109801640212 -0.24525901446801709 0 0.5 -0.2457434582493791 0 0.48028109801640212 -0.24525901446801709 0 0.5 -0.2457434582493791 0 0.48000624335297942 -0.26467602007376773 0 0.5 -0.2457434582493791 0 0.48000624335297942 -0.26467602007376773 0 0.5 -0.28491853366847941 0 0.48000624335297942 -0.26467602007376773 0 0.46410817167890178 -0.2900625350446418 0 0.5 -0.28491853366847941 0 0.48028109801640212 -0.24525901446801709 0 0.48000624335297942 -0.26467602007376773 0 0.45788204121143278 -0.25923937752425191 0 0.48000624335297942 -0.26467602007376773 0 0.45788204121143278 -0.25923937752425191 0 0.46410817167890178 -0.2900625350446418 0 0.45788204121143278 -0.25923937752425191 0 0.44012465357312031 -0.28215677747919299 0 0.46410817167890178 -0.2900625350446418 0 0.45788204121143278 -0.25923937752425191 0 0.44012465357312031 -0.28215677747919299 0 0.43216559270086402 -0.25737884658375371 0 0.44456519172895659 -0.23924963380793271 0 0.45788204121143278 -0.25923937752425191 0 0.43216559270086402 -0.25737884658375371 0 0.44667694186927448 -0.31064688789394312 0 0.44012465357312031 -0.28215677747919299 0 0.46410817167890178 -0.2900625350446418 0 0.44667694186927448 -0.31064688789394312 0 0.46410817167890178 -0.2900625350446418 0 0.46811354018726709 -0.31867409174409439 0 0.46410817167890178 -0.2900625350446418 0 0.46811354018726709 -0.31867409174409439 0 0.46410817167890178 -0.2900625350446418 0 0.48305542796654222 -0.30771363213866132 0 0.46811354018726709 -0.31867409174409439 0 0.5 -0.28491853366847941 0 0.48305542796654222 -0.30771363213866132 0 0.5 -0.33719936809742979 0 0.46410817167890178 -0.2900625350446418 0 0.5 -0.28491853366847941 0 0.48305542796654222 -0.30771363213866132 0 0.48305542796654222 -0.30771363213866132 0 0.5 -0.33719936809742979 0 0.46811354018726709 -0.31867409174409439 0 0.5 -0.33719936809742979 0 0.47211890869563261 -0.34728564844354692 0 0.46811354018726709 -0.31867409174409439 0 0.5 -0.33719936809742979 0 0.5 -0.40695687264915381 0 0.47612427720399791 -0.37589720514299929 0 0.47211890869563261 -0.34728564844354692 0 0.46811354018726709 -0.31867409174409439 0 0.5 -0.33719936809742979 0 0.47211890869563261 -0.34728564844354692 0 0.47612427720399791 -0.37589720514299929 0 0.47211890869563261 -0.34728564844354692 0 0.45821727882586549 -0.36139513288848268 0 0.47612427720399791 -0.37589720514299929 0 0.47211890869563261 -0.34728564844354692 0 0.47612427720399791 -0.37589720514299929 0 0.45821727882586549 -0.36139513288848268 0 0.47612427720399791 -0.37589720514299929 0 0.45246596930531557 -0.38027639429684068 0 0.47211890869563261 -0.34728564844354692 0 0.45821727882586549 -0.36139513288848268 0 0.45243406367133149 -0.33867658347413548 0 0.43794317525305021 -0.36483983308489099 0 0.45243406367133149 -0.33867658347413548 0 0.43055229420191687 -0.33704372213728567 0 0.45821727882586549 -0.36139513288848268 0 0.43794317525305021 -0.36483983308489099 0 0.45243406367133149 -0.33867658347413548 0 0.45821727882586549 -0.36139513288848268 0 0.43794317525305021 -0.36483983308489099 0 0.45246596930531557 -0.38027639429684068 0 0.44667694186927448 -0.31064688789394312 0 0.46811354018726709 -0.31867409174409439 0 0.45243406367133149 -0.33867658347413548 0 0.47211890869563261 -0.34728564844354692 0 0.46811354018726709 -0.31867409174409439 0 0.45243406367133149 -0.33867658347413548 0 0.44667694186927448 -0.31064688789394312 0 0.45243406367133149 -0.33867658347413548 0 0.43055229420191687 -0.33704372213728567 0 0.43055229420191687 -0.33704372213728567 0 0.42316141315078348 -0.30924761118968019 0 0.44667694186927448 -0.31064688789394312 0 0.43055229420191687 -0.33704372213728567 0 0.42316141315078348 -0.30924761118968019 0 0.43055229420191687 -0.33704372213728567 0 0.40692787713057599 -0.32836954693800607 0 0.41337981830548259 -0.34583960885143239 0 0.43055229420191687 -0.33704372213728567 0 0.40692787713057599 -0.32836954693800607 0 0.42316141315078348 -0.30924761118968019 0 0.40692787713057599 -0.32836954693800607 0 0.40147669905715039 -0.30662017309328349 0 0.42316141315078348 -0.30924761118968019 0 0.43794317525305021 -0.36483983308489099 0 0.41190905644720388 -0.36511364591329298 0 0.43137278571327298 -0.38063131481786328 0 0.43794317525305021 -0.36483983308489099 0 0.43055229420191687 -0.33704372213728567 0 0.41337981830548259 -0.34583960885143239 0 0.43794317525305021 -0.36483983308489099 0 0.43055229420191687 -0.33704372213728567 0 0.41337981830548259 -0.34583960885143239 0 0.41190905644720388 -0.36511364591329298 0 0.39731930301535812 -0.34632239286915728 0 0.43794317525305021 -0.36483983308489099 0 0.41337981830548259 -0.34583960885143239 0 0.41190905644720388 -0.36511364591329298 0 0.41190905644720388 -0.36511364591329298 0 0.39294362352409112 -0.37362758972254678 0 0.39173477139546747 -0.36034459423782927 0 0.41190905644720388 -0.36511364591329298 0 0.39294362352409112 -0.37362758972254678 0 0.40300458737144101 -0.38190116100390969 0 0.41190905644720388 -0.36511364591329298 0 0.39173477139546747 -0.36034459423782927 0 0.39731930301535812 -0.34632239286915728 0 0.39173477139546747 -0.36034459423782927 0 0.39731930301535812 -0.34632239286915728 0 0.38434941408998641 -0.35431111120547643 0 0.39731930301535812 -0.34632239286915728 0 0.38434941408998641 -0.35431111120547643 0 0.38516897933142669 -0.34134708612902498 0 0.37725125690826539 -0.350326147703383 0 0.38434941408998641 -0.35431111120547643 0 0.38516897933142669 -0.34134708612902498 0 0.37725125690826539 -0.350326147703383 0 0.38516897933142669 -0.34134708612902498 0 0.37219439069436278 -0.33973455654827522 0 0.37725125690826539 -0.350326147703383 0 0.38434941408998641 -0.35431111120547643 0 0.37653734604282962 -0.36071243495520089 0 0.39294362352409112 -0.37362758972254678 0 0.38439364276721599 -0.36549691650697369 0 0.37655859199567587 -0.37356725680210112 0 0.39173477139546747 -0.36034459423782927 0 0.38434941408998641 -0.35431111120547643 0 0.38439364276721599 -0.36549691650697369 0 0.39294362352409112 -0.37362758972254678 0 0.39173477139546747 -0.36034459423782927 0 0.38439364276721599 -0.36549691650697369 0 0.38439364276721599 -0.36549691650697369 0 0.37653734604282962 -0.36071243495520089 0 0.37655859199567587 -0.37356725680210112 0 0.38434941408998641 -0.35431111120547643 0 0.38439364276721599 -0.36549691650697369 0 0.37653734604282962 -0.36071243495520089 0 0.40692787713057599 -0.32836954693800607 0 0.38899088554071098 -0.32222889487932332 0 0.40147669905715039 -0.30662017309328349 0 0.40692787713057599 -0.32836954693800607 0 0.39731930301535812 -0.34632239286915728 0 0.39460176125451801 -0.33456698020387787 0 0.40692787713057599 -0.32836954693800607 0 0.39460176125451801 -0.33456698020387787 0 0.38899088554071098 -0.32222889487932332 0 0.40692787713057599 -0.32836954693800607 0 0.41337981830548259 -0.34583960885143239 0 0.39731930301535812 -0.34632239286915728 0 0.39731930301535812 -0.34632239286915728 0 0.39460176125451801 -0.33456698020387787 0 0.38516897933142669 -0.34134708612902498 0 0.38516897933142669 -0.34134708612902498 0 0.38899088554071098 -0.32222889487932332 0 0.37219439069436278 -0.33973455654827522 0 0.38899088554071098 -0.32222889487932332 0 0.37463532271886968 -0.3304806410833328 0 0.37219439069436278 -0.33973455654827522 0 0.38899088554071098 -0.32222889487932332 0 0.37219439069436278 -0.33973455654827522 0 0.39460176125451801 -0.33456698020387787 0 0.38516897933142669 -0.34134708612902498 0 0.38899088554071098 -0.32222889487932332 0 0.38899088554071098 -0.32222889487932332 0 0.37704019807901118 -0.31821116939100041 0 0.37463532271886968 -0.3304806410833328 0 0.38899088554071098 -0.32222889487932332 0 0.37704019807901118 -0.31821116939100041 0 0.38623838138964378 -0.30797187654088221 0 0.38623838138964378 -0.30797187654088221 0 0.38725332723018258 -0.29083006818484031 0 0.36907421003950408 -0.30734622852578569 0 0.37704019807901118 -0.31821116939100041 0 0.38623838138964378 -0.30797187654088221 0 0.36907421003950408 -0.30734622852578569 0 0.38623838138964378 -0.30797187654088221 0 0.40147669905715039 -0.30662017309328349 0 0.38725332723018258 -0.29083006818484031 0 0.38899088554071098 -0.32222889487932332 0 0.38623838138964378 -0.30797187654088221 0 0.40147669905715039 -0.30662017309328349 0 0.40147669905715039 -0.30662017309328349 0 0.38725332723018258 -0.29083006818484031 0 0.4157705320996502 -0.28145150024207488 0 0.38725332723018258 -0.29083006818484031 0 0.37662082769964689 -0.2774383894982605 0 0.39730279924783418 -0.26663237111648119 0 0.37662082769964689 -0.2774383894982605 0 0.37844154921457002 -0.26294067859328962 0 0.39730279924783418 -0.26663237111648119 0 0.38850651680992782 -0.25425160754921949 0 0.37844154921457002 -0.26294067859328962 0 0.39730279924783418 -0.26663237111648119 0 0.37178074500542491 -0.24902341934924671 0 0.38850651680992782 -0.25425160754921949 0 0.37844154921457002 -0.26294067859328962 0 0.40053146605475087 -0.24463834674800181 0 0.38850651680992782 -0.25425160754921949 0 0.39730279924783418 -0.26663237111648119 0 0.40053146605475087 -0.24463834674800181 0 0.39730279924783418 -0.26663237111648119 0 0.41358604713730163 -0.25721063449283432 0 0.38725332723018258 -0.29083006818484031 0 0.39730279924783418 -0.26663237111648119 0 0.4157705320996502 -0.28145150024207488 0 0.39730279924783418 -0.26663237111648119 0 0.41358604713730163 -0.25721063449283432 0 0.4157705320996502 -0.28145150024207488 0 0.41358604713730163 -0.25721063449283432 0 0.43216559270086402 -0.25737884658375371 0 0.4157705320996502 -0.28145150024207488 0 0.42215984558340891 -0.2359521077738598 0 0.41358604713730163 -0.25721063449283432 0 0.43216559270086402 -0.25737884658375371 0 0.44012465357312031 -0.28215677747919299 0 0.43216559270086402 -0.25737884658375371 0 0.4157705320996502 -0.28145150024207488 0 0.44012465357312031 -0.28215677747919299 0 0.42316141315078348 -0.30924761118968019 0 0.4157705320996502 -0.28145150024207488 0 0.44667694186927448 -0.31064688789394312 0 0.44012465357312031 -0.28215677747919299 0 0.42316141315078348 -0.30924761118968019 0 0.40147669905715039 -0.30662017309328349 0 0.42316141315078348 -0.30924761118968019 0 0.4157705320996502 -0.28145150024207488 0 0.42316141315078348 -0.30924761118968019 0 0.4157705320996502 -0.28145150024207488 0 0.5 -0.5 0 0.46914370415076678 -0.47301642599581623 0 0.49064868510325071 -0.43539540273925742 0 0.5 -0.5 0 0.49064868510325071 -0.43539540273925742 0 0.5 -0.40695687264915381 0 0.5 -0.5 0 0.46914370415076678 -0.47301642599581623 0 0.43721955460278877 -0.49999999999999828 0 0.44247203224431247 -0.47815634278871638 0 0.46914370415076678 -0.47301642599581623 0 0.43721955460278877 -0.49999999999999828 0 0.44247203224431247 -0.47815634278871638 0 0.43721955460278877 -0.49999999999999828 0 0.44247203224431247 -0.47815634278871638 0 0.46914370415076678 -0.47301642599581623 0 0.44772450988583518 -0.45631268557743432 0 0.46914370415076678 -0.47301642599581623 0 0.46918659749454272 -0.44585404415834551 0 0.49064868510325071 -0.43539540273925742 0 0.46918659749454272 -0.44585404415834551 0 0.49064868510325071 -0.43539540273925742 0 0.46918659749454272 -0.44585404415834551 0 0.47243248537644261 -0.43298411113964819 0 0.49064868510325071 -0.43539540273925742 0 0.46918659749454272 -0.44585404415834551 0 0.46218535996508531 -0.4385038619470667 0 0.47243248537644261 -0.43298411113964819 0 0.46918659749454272 -0.44585404415834551 0 0.44772450988583518 -0.45631268557743432 0 0.46218535996508531 -0.4385038619470667 0 0.44772450988583518 -0.45631268557743432 0 0.45203538837569007 -0.43864732698586451 0 0.46918659749454272 -0.44585404415834551 0 0.46218535996508531 -0.4385038619470667 0 0.44772450988583518 -0.45631268557743432 0 0.46914370415076678 -0.47301642599581623 0 0.46918659749454272 -0.44585404415834551 0 0.44772450988583518 -0.45631268557743432 0 0.44772450988583518 -0.45631268557743432 0 0.43871194631166388 -0.44304653507354458 0 0.43348570467526287 -0.46325136557206642 0 0.44247203224431247 -0.47815634278871638 0 0.44772450988583518 -0.45631268557743432 0 0.43348570467526287 -0.46325136557206642 0 0.44247203224431247 -0.47815634278871638 0 0.44772450988583518 -0.45631268557743432 0 0.44772450988583518 -0.45631268557743432 0 0.43348570467526287 -0.46325136557206642 0 0.44772450988583518 -0.45631268557743432 0 0.43871194631166388 -0.44304653507354458 0 0.45203538837569007 -0.43864732698586451 0 0.44772450988583518 -0.45631268557743432 0 0.45203538837569007 -0.43864732698586451 0 0.43871194631166388 -0.44304653507354458 0 0.45203538837569007 -0.43864732698586451 0 0.43871194631166388 -0.44304653507354458 0 0.45203538837569007 -0.43864732698586451 0 0.44656967234976253 -0.43496071651682422 0 0.44981551902942513 -0.42646863519196232 0 0.45309121800415653 -0.43399397420152658 0 0.44656967234976253 -0.43496071651682422 0 0.44981551902942513 -0.42646863519196232 0 0.44656967234976253 -0.43496071651682422 0 0.44204334581928578 -0.43016722962667542 0 0.45203538837569007 -0.43864732698586451 0 0.45309121800415653 -0.43399397420152658 0 0.45203538837569007 -0.43864732698586451 0 0.45309121800415653 -0.43399397420152658 0 0.44656967234976253 -0.43496071651682422 0 0.43871194631166388 -0.44304653507354458 0 0.44656967234976253 -0.43496071651682422 0 0.44204334581928578 -0.43016722962667542 0 0.43871194631166388 -0.44304653507354458 0 0.44204334581928578 -0.43016722962667542 0 0.44981551902942513 -0.42646863519196232 0 0.44204334581928578 -0.43016722962667542 0 0.44158562497290849 -0.42029651392787232 0 0.44204334581928578 -0.43016722962667542 0 0.44158562497290849 -0.42029651392787232 0 0.4291623469563175 -0.42963089929852272 0 0.44158562497290849 -0.42029651392787232 0 0.4465725370873892 -0.40899083793849211 0 0.43361634334994159 -0.41188893264196619 0 0.44981551902942513 -0.42646863519196232 0 0.44158562497290849 -0.42029651392787232 0 0.455748687922305 -0.41682208002756949 0 0.44158562497290849 -0.42029651392787232 0 0.4465725370873892 -0.40899083793849211 0 0.455748687922305 -0.41682208002756949 0 0.455748687922305 -0.41682208002756949 0 0.46115012668705879 -0.42802601489631198 0 0.47335454489212181 -0.42011393876180769 0 0.4465725370873892 -0.40899083793849211 0 0.455748687922305 -0.41682208002756949 0 0.46175668853996438 -0.40109910467033338 0 0.455748687922305 -0.41682208002756949 0 0.47335454489212181 -0.42011393876180769 0 0.46175668853996438 -0.40109910467033338 0 0.44981551902942513 -0.42646863519196232 0 0.455748687922305 -0.41682208002756949 0 0.46115012668705879 -0.42802601489631198 0 0.44981551902942513 -0.42646863519196232 0 0.45309121800415653 -0.43399397420152658 0 0.46115012668705879 -0.42802601489631198 0 0.46218535996508531 -0.4385038619470667 0 0.45309121800415653 -0.43399397420152658 0 0.46115012668705879 -0.42802601489631198 0 0.46218535996508531 -0.4385038619470667 0 0.45203538837569007 -0.43864732698586451 0 0.45309121800415653 -0.43399397420152658 0 0.46218535996508531 -0.4385038619470667 0 0.46115012668705879 -0.42802601489631198 0 0.47243248537644261 -0.43298411113964819 0 0.5 -0.40695687264915381 0 0.47335454489212181 -0.42011393876180769 0 0.46175668853996438 -0.40109910467033338 0 0.47243248537644261 -0.43298411113964819 0 0.49064868510325071 -0.43539540273925742 0 0.47335454489212181 -0.42011393876180769 0 0.46115012668705879 -0.42802601489631198 0 0.47243248537644261 -0.43298411113964819 0 0.47335454489212181 -0.42011393876180769 0 0.49064868510325071 -0.43539540273925742 0 0.5 -0.40695687264915381 0 0.47335454489212181 -0.42011393876180769 0 0.5 -0.40695687264915381 0 0.47612427720399791 -0.37589720514299929 0 0.46175668853996438 -0.40109910467033338 0 0.47612427720399791 -0.37589720514299929 0 0.46175668853996438 -0.40109910467033338 0 0.45246596930531557 -0.38027639429684068 0 0.46175668853996438 -0.40109910467033338 0 0.44015534065182649 -0.39484755842471919 0 0.45246596930531557 -0.38027639429684068 0 0.4465725370873892 -0.40899083793849211 0 0.46175668853996438 -0.40109910467033338 0 0.44015534065182649 -0.39484755842471919 0 0.4465725370873892 -0.40899083793849211 0 0.44015534065182649 -0.39484755842471919 0 0.43361634334994159 -0.41188893264196619 0 0.44015534065182649 -0.39484755842471919 0 0.45246596930531557 -0.38027639429684068 0 0.43137278571327298 -0.38063131481786328 0 0.43794317525305021 -0.36483983308489099 0 0.45246596930531557 -0.38027639429684068 0 0.43137278571327298 -0.38063131481786328 0 0.43137278571327298 -0.38063131481786328 0 0.42167524284075558 -0.39955158098274091 0 0.41571582335337143 -0.3820960462712551 0 0.44015534065182649 -0.39484755842471919 0 0.43137278571327298 -0.38063131481786328 0 0.42167524284075558 -0.39955158098274091 0 0.44015534065182649 -0.39484755842471919 0 0.42167524284075558 -0.39955158098274091 0 0.43361634334994159 -0.41188893264196619 0 0.42167524284075558 -0.39955158098274091 0 0.40467817922441629 -0.39435368903658219 0 0.4059920081115887 -0.4111142878910744 0 0.42167524284075558 -0.39955158098274091 0 0.41571582335337143 -0.3820960462712551 0 0.40467817922441629 -0.39435368903658219 0 0.41571582335337143 -0.3820960462712551 0 0.40300458737144101 -0.38190116100390969 0 0.40467817922441629 -0.39435368903658219 0 0.41190905644720388 -0.36511364591329298 0 0.41571582335337143 -0.3820960462712551 0 0.40300458737144101 -0.38190116100390969 0 0.41190905644720388 -0.36511364591329298 0 0.43137278571327298 -0.38063131481786328 0 0.41571582335337143 -0.3820960462712551 0 0.40300458737144101 -0.38190116100390969 0 0.38925678516405798 -0.38718477970959558 0 0.40467817922441629 -0.39435368903658219 0 0.39294362352409112 -0.37362758972254678 0 0.40300458737144101 -0.38190116100390969 0 0.38925678516405798 -0.38718477970959558 0 0.39294362352409112 -0.37362758972254678 0 0.37655859199567587 -0.37356725680210112 0 0.38925678516405798 -0.38718477970959558 0 0.37655859199567587 -0.37356725680210112 0 0.38925678516405798 -0.38718477970959558 0 0.37330473209329468 -0.38652264201337289 0 0.38925678516405798 -0.38718477970959558 0 0.37994999016683761 -0.39569750069821019 0 0.37330473209329468 -0.38652264201337289 0 0.38925678516405798 -0.38718477970959558 0 0.37994999016683761 -0.39569750069821019 0 0.39157393497893173 -0.40229763305841792 0 0.37724184313777309 -0.40502327110628372 0 0.37994999016683761 -0.39569750069821019 0 0.39157393497893173 -0.40229763305841792 0 0.39157393497893173 -0.40229763305841792 0 0.40467817922441629 -0.39435368903658219 0 0.4059920081115887 -0.4111142878910744 0 0.38925678516405798 -0.38718477970959558 0 0.39157393497893173 -0.40229763305841792 0 0.40467817922441629 -0.39435368903658219 0 0.4059920081115887 -0.4111142878910744 0 0.38921930119492387 -0.41636953781766922 0 0.40115039908813588 -0.42294277018906401 0 0.39157393497893173 -0.40229763305841792 0 0.4059920081115887 -0.4111142878910744 0 0.38921930119492387 -0.41636953781766922 0 0.37724184313777309 -0.40502327110628372 0 0.39157393497893173 -0.40229763305841792 0 0.38921930119492387 -0.41636953781766922 0 0.38921930119492387 -0.41636953781766922 0 0.37675352626854169 -0.42749082062860438 0 0.36114900456627291 -0.41416542628647413 0 0.37724184313777309 -0.40502327110628372 0 0.38921930119492387 -0.41636953781766922 0 0.36114900456627291 -0.41416542628647413 0 0.38921930119492387 -0.41636953781766922 0 0.36114900456627291 -0.41416542628647413 0 0.37675352626854169 -0.42749082062860438 0 0.39634139065743068 -0.43689968762724812 0 0.38364425218113479 -0.44214978882543837 0 0.38921930119492387 -0.41636953781766922 0 0.37675352626854169 -0.42749082062860438 0 0.39634139065743068 -0.43689968762724812 0 0.39634139065743068 -0.43689968762724812 0 0.40115039908813588 -0.42294277018906401 0 0.41304889638860021 -0.4273875674202644 0 0.38921930119492387 -0.41636953781766922 0 0.39634139065743068 -0.43689968762724812 0 0.40115039908813588 -0.42294277018906401 0 0.41304889638860021 -0.4273875674202644 0 0.4291623469563175 -0.42963089929852272 0 0.41562283893173169 -0.45067022476536722 0 0.41304889638860021 -0.4273875674202644 0 0.42069896752944069 -0.41591465364691382 0 0.4291623469563175 -0.42963089929852272 0 0.42167524284075558 -0.39955158098274091 0 0.4059920081115887 -0.4111142878910744 0 0.42069896752944069 -0.41591465364691382 0 0.4059920081115887 -0.4111142878910744 0 0.40115039908813588 -0.42294277018906401 0 0.41304889638860021 -0.4273875674202644 0 0.4059920081115887 -0.4111142878910744 0 0.41304889638860021 -0.4273875674202644 0 0.42069896752944069 -0.41591465364691382 0 0.42167524284075558 -0.39955158098274091 0 0.42069896752944069 -0.41591465364691382 0 0.43361634334994159 -0.41188893264196619 0 0.42069896752944069 -0.41591465364691382 0 0.43361634334994159 -0.41188893264196619 0 0.4291623469563175 -0.42963089929852272 0 0.44158562497290849 -0.42029651392787232 0 0.43361634334994159 -0.41188893264196619 0 0.4291623469563175 -0.42963089929852272 0 0.43871194631166388 -0.44304653507354458 0 0.44204334581928578 -0.43016722962667542 0 0.4291623469563175 -0.42963089929852272 0 0.43871194631166388 -0.44304653507354458 0 0.41562283893173169 -0.45067022476536722 0 0.43871194631166388 -0.44304653507354458 0 0.4291623469563175 -0.42963089929852272 0 0.41562283893173169 -0.45067022476536722 0 0.43871194631166388 -0.44304653507354458 0 0.43348570467526287 -0.46325136557206642 0 0.41562283893173169 -0.45067022476536722 0 0.43348570467526287 -0.46325136557206642 0 0.41383203898520182 -0.47282874899210248 0 0.43871194631166388 -0.44304653507354458 0 0.43348570467526287 -0.46325136557206642 0 0.41562283893173169 -0.45067022476536722 0 0.40023509062496182 -0.46988081925770508 0 0.41383203898520182 -0.47282874899210248 0 0.43348570467526287 -0.46325136557206642 0 0.41562283893173169 -0.45067022476536722 0 0.41383203898520182 -0.47282874899210248 0 0.39634139065743068 -0.43689968762724812 0 0.41304889638860021 -0.4273875674202644 0 0.41562283893173169 -0.45067022476536722 0 0.39634139065743068 -0.43689968762724812 0 0.41562283893173169 -0.45067022476536722 0 0.39253373155179971 -0.45829391445718981 0 0.39634139065743068 -0.43689968762724812 0 0.38364425218113479 -0.44214978882543837 0 0.39253373155179971 -0.45829391445718981 0 0.38364425218113479 -0.44214978882543837 0 0.39253373155179971 -0.45829391445718981 0 0.36894836024676703 -0.4459147325887115 0 0.37675352626854169 -0.42749082062860438 0 0.38364425218113479 -0.44214978882543837 0 0.36894836024676703 -0.4459147325887115 0 0.39253373155179971 -0.45829391445718981 0 0.36944462417186769 -0.4659176041490124 0 0.39253373155179971 -0.45829391445718981 0 0.38481180180543689 -0.47093280811495503 0 0.36944462417186769 -0.4659176041490124 0 0.39253373155179971 -0.45829391445718981 0 0.36944462417186769 -0.4659176041490124 0 0.36894836024676703 -0.4459147325887115 0 0.41562283893173169 -0.45067022476536722 0 0.39253373155179971 -0.45829391445718981 0 0.41562283893173169 -0.45067022476536722 0 0.39253373155179971 -0.45829391445718981 0 0.40023509062496182 -0.46988081925770508 0 0.39253373155179971 -0.45829391445718981 0 0.40023509062496182 -0.46988081925770508 0 0.38481180180543689 -0.47093280811495503 0 0.39417837329514038 -0.48240613241213792 0 0.40870373472020072 -0.48326191071644931 0 0.41383203898520182 -0.47282874899210248 0 0.39417837329514038 -0.48240613241213792 0 0.41383203898520182 -0.47282874899210248 0 0.40023509062496182 -0.46988081925770508 0 0.39417837329514038 -0.48240613241213792 0 0.41383203898520182 -0.47282874899210248 0 0.39417837329514038 -0.48240613241213792 0 0.39872958156394089 -0.4849177273275086 0 0.40870373472020072 -0.48326191071644931 0 0.40023509062496182 -0.46988081925770508 0 0.39417837329514038 -0.48240613241213792 0 0.38481180180543689 -0.47093280811495503 0 0.39872958156394089 -0.4849177273275086 0 0.37254254917793822 -0.47922951058416979 0 0.39417837329514038 -0.48240613241213792 0 0.38481180180543689 -0.47093280811495503 0 0.37254254917793822 -0.47922951058416979 0 0.39417837329514038 -0.48240613241213792 0 0.39872958156394089 -0.4849177273275086 0 0.37254254917793822 -0.47922951058416979 0 0.38481180180543689 -0.47093280811495503 0 0.37254254917793822 -0.47922951058416979 0 0.36944462417186769 -0.4659176041490124 0 0.38309445967137129 -0.49192120796377908 0 0.37087931350645942 -0.5 0 0.37254254917793822 -0.47922951058416979 0 0.39014186006510432 -0.4896234286503095 0 0.38309445967137129 -0.49192120796377908 0 0.37254254917793822 -0.47922951058416979 0 0.38309445967137129 -0.49192120796377908 0 0.39742975347278658 -0.5 0 0.37087931350645942 -0.5 0 0.39014186006510432 -0.4896234286503095 0 0.39872958156394089 -0.4849177273275086 0 0.37254254917793822 -0.47922951058416979 0 0.39014186006510432 -0.4896234286503095 0 0.38309445967137129 -0.49192120796377908 0 0.39742975347278658 -0.5 0 0.39014186006510432 -0.4896234286503095 0 0.39742975347278658 -0.5 0 0.3989129564394841 -0.49204869737608981 0 0.39014186006510432 -0.4896234286503095 0 0.39872958156394089 -0.4849177273275086 0 0.3989129564394841 -0.49204869737608981 0 0.3989129564394841 -0.49204869737608981 0 0.40383549929632362 -0.48824914480023129 0 0.40944636037366139 -0.49232509949704312 0 0.39872958156394089 -0.4849177273275086 0 0.40383549929632362 -0.48824914480023129 0 0.40870373472020072 -0.48326191071644931 0 0.39872958156394089 -0.4849177273275086 0 0.3989129564394841 -0.49204869737608981 0 0.40383549929632362 -0.48824914480023129 0 0.39742975347278658 -0.5 0 0.3989129564394841 -0.49204869737608981 0 0.40944636037366139 -0.49232509949704312 0 0.39742975347278658 -0.5 0 0.40944636037366139 -0.49232509949704312 0 0.42398019343911392 -0.50000000000000133 0 0.40944636037366139 -0.49232509949704312 0 0.41811538250540692 -0.48650103938460831 0 0.42398019343911392 -0.50000000000000133 0 0.40944636037366139 -0.49232509949704312 0 0.41811538250540692 -0.48650103938460831 0 0.40870373472020072 -0.48326191071644931 0 0.40383549929632362 -0.48824914480023129 0 0.40944636037366139 -0.49232509949704312 0 0.40870373472020072 -0.48326191071644931 0 0.41811538250540692 -0.48650103938460831 0 0.40870373472020072 -0.48326191071644931 0 0.41383203898520182 -0.47282874899210248 0 0.41811538250540692 -0.48650103938460831 0 0.41383203898520182 -0.47282874899210248 0 0.42873294905718839 -0.48162568278603379 0 0.44247203224431247 -0.47815634278871638 0 0.43348570467526287 -0.46325136557206642 0 0.42873294905718839 -0.48162568278603379 0 0.43348570467526287 -0.46325136557206642 0 0.42873294905718839 -0.48162568278603379 0 0.43348570467526287 -0.46325136557206642 0 0.41383203898520182 -0.47282874899210248 0 0.42873294905718839 -0.48162568278603379 0 0.41811538250540692 -0.48650103938460831 0 0.42873294905718839 -0.48162568278603379 0 0.42398019343911392 -0.50000000000000133 0 0.42873294905718839 -0.48162568278603379 0 0.43721955460278877 -0.49999999999999828 0 0.42398019343911392 -0.50000000000000133 0 0.44247203224431247 -0.47815634278871638 0 0.42873294905718839 -0.48162568278603379 0 0.43721955460278877 -0.49999999999999828 0 0.42873294905718839 -0.48162568278603379 0 0.42398019343911392 -0.50000000000000133 0 0.31777843357380497 -0.49999999999999889 0 0.32740914194814302 -0.4797971130986885 0 0.30846276710435028 -0.48605293235654179 0 0.31777843357380497 -0.49999999999999889 0 0.30846276710435028 -0.48605293235654179 0 0.31708404780773519 -0.4746163573441714 0 0.32740914194814302 -0.4797971130986885 0 0.30846276710435028 -0.48605293235654179 0 0.32740914194814302 -0.4797971130986885 0 0.30846276710435028 -0.48605293235654179 0 0.31708404780773519 -0.4746163573441714 0 0.32761604647806858 -0.46947079943621839 0 0.30887657616420161 -0.46540030503160568 0 0.31708404780773519 -0.4746163573441714 0 0.32761604647806858 -0.46947079943621839 0 0.32740914194814302 -0.4797971130986885 0 0.32761604647806858 -0.46947079943621839 0 0.3463555167919351 -0.47354129384083321 0 0.32740914194814302 -0.4797971130986885 0 0.3463555167919351 -0.47354129384083321 0 0.32761604647806858 -0.46947079943621839 0 0.32740914194814302 -0.4797971130986885 0 0.3463555167919351 -0.47354129384083321 0 0.31777843357380497 -0.49999999999999889 0 0.32740914194814302 -0.4797971130986885 0 0.3443288735401322 -0.5 0 0.32740914194814302 -0.4797971130986885 0 0.3443288735401322 -0.5 0 0.3463555167919351 -0.47354129384083321 0 0.3569992528753847 -0.4876635362854686 0 0.3443288735401322 -0.5 0 0.37087931350645942 -0.5 0 0.3569992528753847 -0.4876635362854686 0 0.3443288735401322 -0.5 0 0.3463555167919351 -0.47354129384083321 0 0.3569992528753847 -0.4876635362854686 0 0.37087931350645942 -0.5 0 0.37254254917793822 -0.47922951058416979 0 0.37254254917793822 -0.47922951058416979 0 0.3463555167919351 -0.47354129384083321 0 0.36944462417186769 -0.4659176041490124 0 0.37254254917793822 -0.47922951058416979 0 0.3463555167919351 -0.47354129384083321 0 0.3569992528753847 -0.4876635362854686 0 0.37254254917793822 -0.47922951058416979 0 0.3463555167919351 -0.47354129384083321 0 0.3463555167919351 -0.47354129384083321 0 0.36944462417186769 -0.4659176041490124 0 0.3463555167919351 -0.47354129384083321 0 0.35650231948554362 -0.45623110614981077 0 0.33905499650725568 -0.45422779571067851 0 0.3463555167919351 -0.47354129384083321 0 0.35650231948554362 -0.45623110614981077 0 0.36944462417186769 -0.4659176041490124 0 0.35650231948554362 -0.45623110614981077 0 0.36944462417186769 -0.4659176041490124 0 0.36894836024676703 -0.4459147325887115 0 0.35650231948554362 -0.45623110614981077 0 0.36894836024676703 -0.4459147325887115 0 0.35361871733544981 -0.43305537036686109 0 0.35650231948554362 -0.45623110614981077 0 0.33905499650725568 -0.45422779571067851 0 0.35361871733544981 -0.43305537036686109 0 0.33048390840235781 -0.43861992010511791 0 0.33905499650725568 -0.45422779571067851 0 0.319753470550179 -0.45444828436522738 0 0.33048390840235781 -0.43861992010511791 0 0.33905499650725568 -0.45422779571067851 0 0.35361871733544981 -0.43305537036686109 0 0.32761604647806858 -0.46947079943621839 0 0.33905499650725568 -0.45422779571067851 0 0.319753470550179 -0.45444828436522738 0 0.32761604647806858 -0.46947079943621839 0 0.3463555167919351 -0.47354129384083321 0 0.33905499650725568 -0.45422779571067851 0 0.32761604647806858 -0.46947079943621839 0 0.30887657616420161 -0.46540030503160568 0 0.32761604647806858 -0.46947079943621839 0 0.319753470550179 -0.45444828436522738 0 0.30887657616420161 -0.46540030503160568 0 0.33048390840235781 -0.43861992010511791 0 0.30734909946926581 -0.44418446984337462 0 0.33048390840235781 -0.43861992010511791 0 0.319753470550179 -0.45444828436522738 0 0.30734909946926581 -0.44418446984337462 0 0.33048390840235781 -0.43861992010511791 0 0.31666566748996022 -0.42825861813861232 0 0.30734909946926581 -0.44418446984337462 0 0.33048390840235781 -0.43861992010511791 0 0.31666566748996022 -0.42825861813861232 0 0.33307870793762168 -0.41196131475527897 0 0.33307870793762168 -0.41196131475527897 0 0.30500841130897061 -0.4097572032240831 0 0.33307870793762168 -0.41196131475527897 0 0.30500841130897061 -0.4097572032240831 0 0.31024346633473221 -0.41792040565894878 0 0.31666566748996022 -0.42825861813861232 0 0.33307870793762168 -0.41196131475527897 0 0.31024346633473221 -0.41792040565894878 0 0.33048390840235781 -0.43861992010511791 0 0.35361871733544981 -0.43305537036686109 0 0.33048390840235781 -0.43861992010511791 0 0.33307870793762168 -0.41196131475527897 0 0.35361871733544981 -0.43305537036686109 0 0.37675352626854169 -0.42749082062860438 0 0.35361871733544981 -0.43305537036686109 0 0.37675352626854169 -0.42749082062860438 0 0.35361871733544981 -0.43305537036686109 0 0.36114900456627291 -0.41416542628647413 0 0.37675352626854169 -0.42749082062860438 0 0.36894836024676703 -0.4459147325887115 0 0.35361871733544981 -0.43305537036686109 0 0.33307870793762168 -0.41196131475527897 0 0.35361871733544981 -0.43305537036686109 0 0.36114900456627291 -0.41416542628647413 0 0.33307870793762168 -0.41196131475527897 0 0.36114900456627291 -0.41416542628647413 0 0.33307870793762168 -0.41196131475527897 0 0.36114900456627291 -0.41416542628647413 0 0.34590450666672939 -0.39969137298690349 0 0.36114900456627291 -0.41416542628647413 0 0.34590450666672939 -0.39969137298690349 0 0.36431698478189922 -0.39658625767064681 0 0.34590450666672939 -0.39969137298690349 0 0.36431698478189922 -0.39658625767064681 0 0.34748867884538298 -0.38560494389043559 0 0.37724184313777309 -0.40502327110628372 0 0.37994999016683761 -0.39569750069821019 0 0.36431698478189922 -0.39658625767064681 0 0.37994999016683761 -0.39569750069821019 0 0.36431698478189922 -0.39658625767064681 0 0.37330473209329468 -0.38652264201337289 0 0.37724184313777309 -0.40502327110628372 0 0.36114900456627291 -0.41416542628647413 0 0.36431698478189922 -0.39658625767064681 0 0.36431698478189922 -0.39658625767064681 0 0.37330473209329468 -0.38652264201337289 0 0.36294720531266811 -0.38018066368018399 0 0.37655859199567587 -0.37356725680210112 0 0.37330473209329468 -0.38652264201337289 0 0.36294720531266811 -0.38018066368018399 0 0.36431698478189922 -0.39658625767064681 0 0.36294720531266811 -0.38018066368018399 0 0.34748867884538298 -0.38560494389043559 0 0.36294720531266811 -0.38018066368018399 0 0.34748867884538298 -0.38560494389043559 0 0.35135706915401588 -0.37017394756356969 0 0.34748867884538298 -0.38560494389043559 0 0.35135706915401588 -0.37017394756356969 0 0.33860140100166652 -0.37474587988617891 0 0.32180490615531843 -0.39225154155513092 0 0.33860140100166652 -0.37474587988617891 0 0.34748867884538298 -0.38560494389043559 0 0.32180490615531843 -0.39225154155513092 0 0.33860140100166652 -0.37474587988617891 0 0.33307870793762168 -0.41196131475527897 0 0.34590450666672939 -0.39969137298690349 0 0.32180490615531843 -0.39225154155513092 0 0.34590450666672939 -0.39969137298690349 0 0.34748867884538298 -0.38560494389043559 0 0.32180490615531843 -0.39225154155513092 0 0.33307870793762168 -0.41196131475527897 0 0.32180490615531843 -0.39225154155513092 0 0.30500841130897061 -0.4097572032240831 0 0.32180490615531843 -0.39225154155513092 0 0.30500841130897061 -0.4097572032240831 0 0.32180490615531843 -0.39225154155513092 0 0.33860140100166652 -0.37474587988617891 0 0.31323691028295181 -0.37098663086795219 0 0.32180490615531843 -0.39225154155513092 0 0.30376608135307642 -0.38256574588337439 0 0.31323691028295181 -0.37098663086795219 0 0.32180490615531843 -0.39225154155513092 0 0.30376608135307642 -0.38256574588337439 0 0.30731149415820402 -0.39515612727383359 0 0.30376608135307642 -0.38256574588337439 0 0.30731149415820402 -0.39515612727383359 0 0.29337198732769459 -0.39866819468633308 0 0.32180490615531843 -0.39225154155513092 0 0.30731149415820402 -0.39515612727383359 0 0.30500841130897061 -0.4097572032240831 0 0.30731149415820402 -0.39515612727383359 0 0.29337198732769459 -0.39866819468633308 0 0.30500841130897061 -0.4097572032240831 0 0.29337198732769459 -0.39866819468633308 0 0.2799407683096225 -0.4077888634617477 0 0.30500841130897061 -0.4097572032240831 0 0.29337198732769459 -0.39866819468633308 0 0.278149446005374 -0.39788240814120979 0 0.2799407683096225 -0.4077888634617477 0 0.29337198732769459 -0.39866819468633308 0 0.28877460187089993 -0.38482352348357052 0 0.278149446005374 -0.39788240814120979 0 0.30376608135307642 -0.38256574588337439 0 0.29337198732769459 -0.39866819468633308 0 0.28877460187089993 -0.38482352348357052 0 0.28877460187089993 -0.38482352348357052 0 0.28059514594661789 -0.37749688251145941 0 0.276430809046046 -0.38800123371271289 0 0.30376608135307642 -0.38256574588337439 0 0.28877460187089993 -0.38482352348357052 0 0.29406281218487668 -0.37110195615280478 0 0.28877460187089993 -0.38482352348357052 0 0.28059514594661789 -0.37749688251145941 0 0.29406281218487668 -0.37110195615280478 0 0.27063627606564722 -0.38146981263072172 0 0.26290172883027341 -0.38265145819369878 0 0.27307123056561983 -0.36208788657748658 0 0.28059514594661789 -0.37749688251145941 0 0.276430809046046 -0.38800123371271289 0 0.27063627606564722 -0.38146981263072172 0 0.28877460187089993 -0.38482352348357052 0 0.276430809046046 -0.38800123371271289 0 0.278149446005374 -0.39788240814120979 0 0.27021864096413573 -0.39052612391390579 0 0.26741570795753072 -0.38643910548815003 0 0.27063627606564722 -0.38146981263072172 0 0.276430809046046 -0.38800123371271289 0 0.27021864096413573 -0.39052612391390579 0 0.27063627606564722 -0.38146981263072172 0 0.26741570795753072 -0.38643910548815003 0 0.27063627606564722 -0.38146981263072172 0 0.26290172883027341 -0.38265145819369878 0 0.27021864096413573 -0.39052612391390579 0 0.26741570795753072 -0.38643910548815003 0 0.26460793079589717 -0.39204645848148278 0 0.26290172883027341 -0.38265145819369878 0 0.24170827130145911 -0.36851600104022741 0 0.26290172883027341 -0.38265145819369878 0 0.25290265537557088 -0.40287040976406652 0 0.23670873457410921 -0.37862547682540998 0 0.26741570795753072 -0.38643910548815003 0 0.26290172883027341 -0.38265145819369878 0 0.26460793079589717 -0.39204645848148278 0 0.26290172883027341 -0.38265145819369878 0 0.25290265537557088 -0.40287040976406652 0 0.26460793079589717 -0.39204645848148278 0 0.26290172883027341 -0.38265145819369878 0 0.25290265537557088 -0.40287040976406652 0 0.25487312531027401 -0.40582052369941718 0 0.25290265537557088 -0.40287040976406652 0 0.26422859541755339 -0.40152360769324658 0 0.25290265537557088 -0.40287040976406652 0 0.25157189961603621 -0.40556130771334759 0 0.25487312531027401 -0.40582052369941718 0 0.25290265537557088 -0.40287040976406652 0 0.25487312531027401 -0.40582052369941718 0 0.25157189961603621 -0.40556130771334759 0 0.25487312531027401 -0.40582052369941718 0 0.25290265537557088 -0.40287040976406652 0 0.25157189961603621 -0.40556130771334759 0 0.25290265537557088 -0.40287040976406652 0 0.26460793079589717 -0.39204645848148278 0 0.26422859541755339 -0.40152360769324658 0 0.25487312531027401 -0.40582052369941718 0 0.26422859541755339 -0.40152360769324658 0 0.2799407683096225 -0.4077888634617477 0 0.26422859541755339 -0.40152360769324658 0 0.27049404179538011 -0.39733735467012199 0 0.2799407683096225 -0.4077888634617477 0 0.26460793079589717 -0.39204645848148278 0 0.26422859541755339 -0.40152360769324658 0 0.27049404179538011 -0.39733735467012199 0 0.27021864096413573 -0.39052612391390579 0 0.26460793079589717 -0.39204645848148278 0 0.27049404179538011 -0.39733735467012199 0 0.27021864096413573 -0.39052612391390579 0 0.27049404179538011 -0.39733735467012199 0 0.27359367896458092 -0.39371644966374431 0 0.276430809046046 -0.38800123371271289 0 0.27021864096413573 -0.39052612391390579 0 0.27359367896458092 -0.39371644966374431 0 0.276430809046046 -0.38800123371271289 0 0.27359367896458092 -0.39371644966374431 0 0.278149446005374 -0.39788240814120979 0 0.27049404179538011 -0.39733735467012199 0 0.27359367896458092 -0.39371644966374431 0 0.278149446005374 -0.39788240814120979 0 0.27049404179538011 -0.39733735467012199 0 0.278149446005374 -0.39788240814120979 0 0.2799407683096225 -0.4077888634617477 0 0.25487312531027401 -0.40582052369941718 0 0.2799407683096225 -0.4077888634617477 0 0.27236935201136631 -0.41843914721718511 0 0.25487312531027401 -0.40582052369941718 0 0.2799407683096225 -0.4077888634617477 0 0.2799407683096225 -0.4077888634617477 0 0.27236935201136631 -0.41843914721718511 0 0.28327229028388118 -0.41696091427050369 0 0.27236935201136631 -0.41843914721718511 0 0.28214617269356762 -0.42588265829911459 0 0.28327229028388118 -0.41696091427050369 0 0.27236935201136631 -0.41843914721718511 0 0.2638588996409259 -0.419273689163152 0 0.2638588996409259 -0.419273689163152 0 0.23731646036861351 -0.42187646254780581 0 0.24978898330324689 -0.40916651161004941 0 0.2638588996409259 -0.419273689163152 0 0.23731646036861351 -0.42187646254780581 0 0.25487312531027401 -0.40582052369941718 0 0.27236935201136631 -0.41843914721718511 0 0.2638588996409259 -0.419273689163152 0 0.25487312531027401 -0.40582052369941718 0 0.2638588996409259 -0.419273689163152 0 0.25487312531027401 -0.40582052369941718 0 0.2638588996409259 -0.419273689163152 0 0.24978898330324689 -0.40916651161004941 0 0.25487312531027401 -0.40582052369941718 0 0.25157189961603621 -0.40556130771334759 0 0.24978898330324689 -0.40916651161004941 0 0.25157189961603621 -0.40556130771334759 0 0.24978898330324689 -0.40916651161004941 0 0.2638588996409259 -0.419273689163152 0 0.27403659508855033 -0.43451135437239358 0 0.25818984504014392 -0.43773795357143519 0 0.2638588996409259 -0.419273689163152 0 0.25818984504014392 -0.43773795357143519 0 0.2458814731527304 -0.43245118805556382 0 0.27236935201136631 -0.41843914721718511 0 0.2638588996409259 -0.419273689163152 0 0.27403659508855033 -0.43451135437239358 0 0.27236935201136631 -0.41843914721718511 0 0.27403659508855033 -0.43451135437239358 0 0.28214617269356762 -0.42588265829911459 0 0.2638588996409259 -0.419273689163152 0 0.27403659508855033 -0.43451135437239358 0 0.27403659508855033 -0.43451135437239358 0 0.28970516354326709 -0.4362146828719129 0 0.28214617269356762 -0.42588265829911459 0 0.28970516354326709 -0.4362146828719129 0 0.29233458633086729 -0.42647872765493072 0 0.30262707173807718 -0.42791155662944719 0 0.29233458633086729 -0.42647872765493072 0 0.28989894624364509 -0.42012582270453042 0 0.29729557743577961 -0.42225891776964769 0 0.29233458633086729 -0.42647872765493072 0 0.28214617269356762 -0.42588265829911459 0 0.28989894624364509 -0.42012582270453042 0 0.28970516354326709 -0.4362146828719129 0 0.29233458633086729 -0.42647872765493072 0 0.28214617269356762 -0.42588265829911459 0 0.28327229028388118 -0.41696091427050369 0 0.29200621216120459 -0.41256807966994019 0 0.28989894624364509 -0.42012582270453042 0 0.28214617269356762 -0.42588265829911459 0 0.28327229028388118 -0.41696091427050369 0 0.28989894624364509 -0.42012582270453042 0 0.2799407683096225 -0.4077888634617477 0 0.30500841130897061 -0.4097572032240831 0 0.2799407683096225 -0.4077888634617477 0 0.29200621216120459 -0.41256807966994019 0 0.30500841130897061 -0.4097572032240831 0 0.2799407683096225 -0.4077888634617477 0 0.28327229028388118 -0.41696091427050369 0 0.29200621216120459 -0.41256807966994019 0 0.29200621216120459 -0.41256807966994019 0 0.28989894624364509 -0.42012582270453042 0 0.2967561993417599 -0.41674260586548217 0 0.28989894624364509 -0.42012582270453042 0 0.2967561993417599 -0.41674260586548217 0 0.29729557743577961 -0.42225891776964769 0 0.29200621216120459 -0.41256807966994019 0 0.2967561993417599 -0.41674260586548217 0 0.30187087132828772 -0.41302721365644263 0 0.2967561993417599 -0.41674260586548217 0 0.30258353590210618 -0.41849154021046731 0 0.29729557743577961 -0.42225891776964769 0 0.2967561993417599 -0.41674260586548217 0 0.30258353590210618 -0.41849154021046731 0 0.30187087132828772 -0.41302721365644263 0 0.30258353590210618 -0.41849154021046731 0 0.30187087132828772 -0.41302721365644263 0 0.30492657121852418 -0.41479909068748538 0 0.29200621216120459 -0.41256807966994019 0 0.30187087132828772 -0.41302721365644263 0 0.30500841130897061 -0.4097572032240831 0 0.30187087132828772 -0.41302721365644263 0 0.30500841130897061 -0.4097572032240831 0 0.30492657121852418 -0.41479909068748538 0 0.30187087132828772 -0.41302721365644263 0 0.30500841130897061 -0.4097572032240831 0 0.30500841130897061 -0.4097572032240831 0 0.30492657121852418 -0.41479909068748538 0 0.31024346633473221 -0.41792040565894878 0 0.30258353590210618 -0.41849154021046731 0 0.31024346633473221 -0.41792040565894878 0 0.30262707173807718 -0.42791155662944719 0 0.30258353590210618 -0.41849154021046731 0 0.30492657121852418 -0.41479909068748538 0 0.31024346633473221 -0.41792040565894878 0 0.31666566748996022 -0.42825861813861232 0 0.31024346633473221 -0.41792040565894878 0 0.30262707173807718 -0.42791155662944719 0 0.28970516354326709 -0.4362146828719129 0 0.30262707173807718 -0.42791155662944719 0 0.30734909946926581 -0.44418446984337462 0 0.31666566748996022 -0.42825861813861232 0 0.30262707173807718 -0.42791155662944719 0 0.30734909946926581 -0.44418446984337462 0 0.29233458633086729 -0.42647872765493072 0 0.30262707173807718 -0.42791155662944719 0 0.29729557743577961 -0.42225891776964769 0 0.30258353590210618 -0.41849154021046731 0 0.30262707173807718 -0.42791155662944719 0 0.29729557743577961 -0.42225891776964769 0 0.319753470550179 -0.45444828436522738 0 0.30734909946926581 -0.44418446984337462 0 0.30035387943449249 -0.4553510092405304 0 0.30734909946926581 -0.44418446984337462 0 0.30035387943449249 -0.4553510092405304 0 0.28421429053617459 -0.44974901958163538 0 0.319753470550179 -0.45444828436522738 0 0.30887657616420161 -0.46540030503160568 0 0.30035387943449249 -0.4553510092405304 0 0.30887657616420161 -0.46540030503160568 0 0.30035387943449249 -0.4553510092405304 0 0.2963385288202624 -0.46790097596908858 0 0.30035387943449249 -0.4553510092405304 0 0.2963385288202624 -0.46790097596908858 0 0.28421429053617459 -0.44974901958163538 0 0.2963385288202624 -0.46790097596908858 0 0.28421429053617459 -0.44974901958163538 0 0.2963385288202624 -0.46790097596908858 0 0.28421429053617459 -0.44974901958163538 0 0.2762646876022099 -0.47019445102184498 0 0.27403659508855033 -0.43451135437239358 0 0.28970516354326709 -0.4362146828719129 0 0.28421429053617459 -0.44974901958163538 0 0.28970516354326709 -0.4362146828719129 0 0.30734909946926581 -0.44418446984337462 0 0.28421429053617459 -0.44974901958163538 0 0.30734909946926581 -0.44418446984337462 0 0.28421429053617459 -0.44974901958163538 0 0.27403659508855033 -0.43451135437239358 0 0.28421429053617459 -0.44974901958163538 0 0.28421429053617459 -0.44974901958163538 0 0.26316522138220222 -0.45481189226798141 0 0.27403659508855033 -0.43451135437239358 0 0.28421429053617459 -0.44974901958163538 0 0.26316522138220222 -0.45481189226798141 0 0.25818984504014392 -0.43773795357143519 0 0.26316522138220222 -0.45481189226798141 0 0.24472284787994869 -0.44485666861058237 0 0.27403659508855033 -0.43451135437239358 0 0.25818984504014392 -0.43773795357143519 0 0.26316522138220222 -0.45481189226798141 0 0.26316522138220222 -0.45481189226798141 0 0.24211615222823071 -0.45987476495433138 0 0.24472284787994869 -0.44485666861058237 0 0.26316522138220222 -0.45481189226798141 0 0.2762646876022099 -0.47019445102184498 0 0.25704613436640061 -0.47851187754702579 0 0.26316522138220222 -0.45481189226798141 0 0.25704613436640061 -0.47851187754702579 0 0.24211615222823071 -0.45987476495433138 0 0.26316522138220222 -0.45481189226798141 0 0.24211615222823071 -0.45987476495433138 0 0.28421429053617459 -0.44974901958163538 0 0.26316522138220222 -0.45481189226798141 0 0.2762646876022099 -0.47019445102184498 0 0.2762646876022099 -0.47019445102184498 0 0.25704613436640061 -0.47851187754702579 0 0.27171905511034911 -0.48543319868678508 0 0.2762646876022099 -0.47019445102184498 0 0.27171905511034911 -0.48543319868678508 0 0.2873427218590453 -0.49302646617826978 0 0.25704613436640061 -0.47851187754702579 0 0.26622267661374083 -0.49999999999999872 0 0.24017857710909041 -0.5 0 0.25704613436640061 -0.47851187754702579 0 0.26622267661374083 -0.49999999999999872 0 0.27171905511034911 -0.48543319868678508 0 0.26622267661374083 -0.49999999999999872 0 0.2873427218590453 -0.49302646617826978 0 0.26622267661374083 -0.49999999999999872 0 0.27171905511034911 -0.48543319868678508 0 0.2873427218590453 -0.49302646617826978 0 0.26622267661374083 -0.49999999999999872 0 0.2873427218590453 -0.49302646617826978 0 0.29200055509377287 -0.5 0 0.2873427218590453 -0.49302646617826978 0 0.29200055509377287 -0.5 0 0.30846276710435028 -0.48605293235654179 0 0.2963385288202624 -0.46790097596908858 0 0.2762646876022099 -0.47019445102184498 0 0.2873427218590453 -0.49302646617826978 0 0.30887657616420161 -0.46540030503160568 0 0.2963385288202624 -0.46790097596908858 0 0.30846276710435028 -0.48605293235654179 0 0.2963385288202624 -0.46790097596908858 0 0.2873427218590453 -0.49302646617826978 0 0.30846276710435028 -0.48605293235654179 0 0.2963385288202624 -0.46790097596908858 0 0.30846276710435028 -0.48605293235654179 0 0.31708404780773519 -0.4746163573441714 0 0.30887657616420161 -0.46540030503160568 0 0.30846276710435028 -0.48605293235654179 0 0.31777843357380497 -0.49999999999999889 0 0.29200055509377287 -0.5 0 0.30846276710435028 -0.48605293235654179 0 0.2873427218590453 -0.49302646617826978 0 0.30846276710435028 -0.48605293235654179 0 0.33891225779016732 -0.28238564021998691 0 0.33149771766007402 -0.30001414710683749 0 0.32545867162029879 -0.28380017181572881 0 0.33891225779016732 -0.28238564021998691 0 0.33149771766007402 -0.30001414710683749 0 0.3487231760697509 -0.30066031440716368 0 0.33149771766007402 -0.30001414710683749 0 0.35062666321971642 -0.31740327914382699 0 0.33149771766007402 -0.30001414710683749 0 0.3487231760697509 -0.30066031440716368 0 0.35062666321971642 -0.31740327914382699 0 0.33149771766007402 -0.30001414710683749 0 0.31542750239419942 -0.29947292928289659 0 0.31495401674792167 -0.31345967574744882 0 0.33149771766007402 -0.30001414710683749 0 0.33089331707070768 -0.32280120611538748 0 0.31495401674792167 -0.31345967574744882 0 0.33149771766007402 -0.30001414710683749 0 0.31236877210043268 -0.28262501506984689 0 0.33149771766007402 -0.30001414710683749 0 0.31542750239419942 -0.29947292928289659 0 0.31236877210043268 -0.28262501506984689 0 0.33149771766007402 -0.30001414710683749 0 0.32545867162029879 -0.28380017181572881 0 0.31236877210043268 -0.28262501506984689 0 0.33891225779016732 -0.28238564021998691 0 0.31688619849725208 -0.27349040615296011 0 0.31688619849725208 -0.27349040615296011 0 0.32450724380411078 -0.25740009099478589 0 0.30413910251289888 -0.26834248563991481 0 0.31688619849725208 -0.27349040615296011 0 0.32457317556750009 -0.26748196603209529 0 0.32450724380411078 -0.25740009099478589 0 0.33891225779016732 -0.28238564021998691 0 0.31688619849725208 -0.27349040615296011 0 0.32457317556750009 -0.26748196603209529 0 0.31688619849725208 -0.27349040615296011 0 0.31236877210043268 -0.28262501506984689 0 0.32545867162029879 -0.28380017181572881 0 0.31688619849725208 -0.27349040615296011 0 0.31236877210043268 -0.28262501506984689 0 0.33891225779016732 -0.28238564021998691 0 0.32545867162029879 -0.28380017181572881 0 0.31688619849725208 -0.27349040615296011 0 0.32450724380411078 -0.25740009099478589 0 0.30413910251289888 -0.26834248563991481 0 0.31688619849725208 -0.27349040615296011 0 0.32450724380411078 -0.25740009099478589 0 0.31948858200591429 -0.24895538480140031 0 0.32450724380411078 -0.25740009099478589 0 0.30413910251289888 -0.26834248563991481 0 0.32457317556750009 -0.26748196603209529 0 0.32450724380411078 -0.25740009099478589 0 0.32849371080272338 -0.26059386243685528 0 0.32450724380411078 -0.25740009099478589 0 0.32810416354918359 -0.25546771460389628 0 0.32849371080272338 -0.26059386243685528 0 0.31948858200591429 -0.24895538480140031 0 0.32450724380411078 -0.25740009099478589 0 0.32810416354918359 -0.25546771460389628 0 0.32450724380411078 -0.25740009099478589 0 0.32810416354918359 -0.25546771460389628 0 0.35206922458546819 -0.2425929435678775 0 0.32810416354918359 -0.25546771460389628 0 0.33929421772345042 -0.25584115290640691 0 0.32810416354918359 -0.25546771460389628 0 0.33316748106084559 -0.25927948987249222 0 0.33929421772345042 -0.25584115290640691 0 0.33316748106084559 -0.25927948987249222 0 0.33194140665501881 -0.26301415099677161 0 0.33820221180489851 -0.26242962772265932 0 0.33316748106084559 -0.25927948987249222 0 0.32849371080272338 -0.26059386243685528 0 0.33194140665501881 -0.26301415099677161 0 0.32810416354918359 -0.25546771460389628 0 0.33316748106084559 -0.25927948987249222 0 0.32849371080272338 -0.26059386243685528 0 0.32457317556750009 -0.26748196603209529 0 0.32849371080272338 -0.26059386243685528 0 0.33194140665501881 -0.26301415099677161 0 0.33820221180489851 -0.26242962772265932 0 0.33838015542742422 -0.26907129793516549 0 0.34756558382942998 -0.26314319419524601 0 0.33820221180489851 -0.26242962772265932 0 0.33929421772345042 -0.25584115290640691 0 0.34756558382942998 -0.26314319419524601 0 0.33194140665501881 -0.26301415099677161 0 0.33820221180489851 -0.26242962772265932 0 0.33838015542742422 -0.26907129793516549 0 0.33316748106084559 -0.25927948987249222 0 0.33820221180489851 -0.26242962772265932 0 0.33929421772345042 -0.25584115290640691 0 0.32457317556750009 -0.26748196603209529 0 0.33194140665501881 -0.26301415099677161 0 0.33838015542742422 -0.26907129793516549 0 0.33891225779016732 -0.28238564021998691 0 0.32457317556750009 -0.26748196603209529 0 0.33838015542742422 -0.26907129793516549 0 0.33891225779016732 -0.28238564021998691 0 0.33838015542742422 -0.26907129793516549 0 0.3506376976989482 -0.27616872846289692 0 0.3506376976989482 -0.27616872846289692 0 0.36311551863328329 -0.26982830391897888 0 0.3609383170830836 -0.29128087428701072 0 0.33838015542742422 -0.26907129793516549 0 0.3506376976989482 -0.27616872846289692 0 0.34756558382942998 -0.26314319419524601 0 0.3506376976989482 -0.27616872846289692 0 0.34756558382942998 -0.26314319419524601 0 0.36311551863328329 -0.26982830391897888 0 0.33929421772345042 -0.25584115290640691 0 0.34756558382942998 -0.26314319419524601 0 0.35162734258361761 -0.25242186516885701 0 0.35206922458546819 -0.2425929435678775 0 0.33929421772345042 -0.25584115290640691 0 0.35162734258361761 -0.25242186516885701 0 0.34756558382942998 -0.26314319419524601 0 0.35852737192959488 -0.25473250193359598 0 0.36311551863328329 -0.26982830391897888 0 0.36421571969384159 -0.24460496201461249 0 0.35852737192959488 -0.25473250193359598 0 0.35162734258361761 -0.25242186516885701 0 0.34756558382942998 -0.26314319419524601 0 0.35852737192959488 -0.25473250193359598 0 0.35162734258361761 -0.25242186516885701 0 0.37178074500542491 -0.24902341934924671 0 0.35852737192959488 -0.25473250193359598 0 0.36796629619571819 -0.2591312259487778 0 0.35852737192959488 -0.25473250193359598 0 0.36796629619571819 -0.2591312259487778 0 0.36311551863328329 -0.26982830391897888 0 0.37844154921457002 -0.26294067859328962 0 0.36796629619571819 -0.2591312259487778 0 0.36311551863328329 -0.26982830391897888 0 0.37178074500542491 -0.24902341934924671 0 0.37844154921457002 -0.26294067859328962 0 0.36796629619571819 -0.2591312259487778 0 0.37662082769964689 -0.2774383894982605 0 0.36311551863328329 -0.26982830391897888 0 0.3609383170830836 -0.29128087428701072 0 0.37662082769964689 -0.2774383894982605 0 0.37844154921457002 -0.26294067859328962 0 0.36311551863328329 -0.26982830391897888 0 0.38725332723018258 -0.29083006818484031 0 0.3609383170830836 -0.29128087428701072 0 0.36907421003950408 -0.30734622852578569 0 0.38725332723018258 -0.29083006818484031 0 0.37662082769964689 -0.2774383894982605 0 0.3609383170830836 -0.29128087428701072 0 0.33891225779016732 -0.28238564021998691 0 0.3506376976989482 -0.27616872846289692 0 0.3609383170830836 -0.29128087428701072 0 0.33891225779016732 -0.28238564021998691 0 0.3609383170830836 -0.29128087428701072 0 0.3487231760697509 -0.30066031440716368 0 0.33891225779016732 -0.28238564021998691 0 0.3609383170830836 -0.29128087428701072 0 0.3487231760697509 -0.30066031440716368 0 0.36907421003950408 -0.30734622852578569 0 0.35062666321971642 -0.31740327914382699 0 0.3609383170830836 -0.29128087428701072 0 0.3487231760697509 -0.30066031440716368 0 0.36907421003950408 -0.30734622852578569 0 0.37704019807901118 -0.31821116939100041 0 0.36907421003950408 -0.30734622852578569 0 0.36420613216148001 -0.32105017041593897 0 0.36907421003950408 -0.30734622852578569 0 0.36420613216148001 -0.32105017041593897 0 0.35062666321971642 -0.31740327914382699 0 0.37704019807901118 -0.31821116939100041 0 0.36420613216148001 -0.32105017041593897 0 0.37463532271886968 -0.3304806410833328 0 0.36420613216148001 -0.32105017041593897 0 0.37463532271886968 -0.3304806410833328 0 0.35328143237080267 -0.33685700093578808 0 0.37463532271886968 -0.3304806410833328 0 0.37219439069436278 -0.33973455654827522 0 0.35328143237080267 -0.33685700093578808 0 0.37219439069436278 -0.33973455654827522 0 0.35328143237080267 -0.33685700093578808 0 0.36187220681042243 -0.34664139095833302 0 0.37463532271886968 -0.3304806410833328 0 0.35328143237080267 -0.33685700093578808 0 0.35328143237080267 -0.33685700093578808 0 0.34957973154128041 -0.34618211696341539 0 0.33192754202273572 -0.34323336078824351 0 0.35328143237080267 -0.33685700093578808 0 0.36187220681042243 -0.34664139095833302 0 0.34957973154128041 -0.34618211696341539 0 0.36420613216148001 -0.32105017041593897 0 0.35328143237080267 -0.33685700093578808 0 0.35062666321971642 -0.31740327914382699 0 0.35328143237080267 -0.33685700093578808 0 0.35062666321971642 -0.31740327914382699 0 0.34168223867099062 -0.33007371174581152 0 0.37655859199567587 -0.37356725680210112 0 0.36287328785402612 -0.36899476329825298 0 0.36948003967883492 -0.36376344626797991 0 0.37655859199567587 -0.37356725680210112 0 0.36294720531266811 -0.38018066368018399 0 0.36287328785402612 -0.36899476329825298 0 0.37653734604282962 -0.36071243495520089 0 0.36948003967883492 -0.36376344626797991 0 0.36925867876408658 -0.35496334079180009 0 0.37653734604282962 -0.36071243495520089 0 0.37655859199567587 -0.37356725680210112 0 0.36948003967883492 -0.36376344626797991 0 0.36948003967883492 -0.36376344626797991 0 0.36217229373755672 -0.36057943549254429 0 0.36925867876408658 -0.35496334079180009 0 0.36287328785402612 -0.36899476329825298 0 0.36217229373755672 -0.36057943549254429 0 0.35795013664840342 -0.36424709114289849 0 0.36287328785402612 -0.36899476329825298 0 0.36948003967883492 -0.36376344626797991 0 0.36217229373755672 -0.36057943549254429 0 0.37219439069436278 -0.33973455654827522 0 0.35539789584801468 -0.35724021821722712 0 0.37219439069436278 -0.33973455654827522 0 0.36475581476100521 -0.35312938776246161 0 0.35539789584801468 -0.35724021821722712 0 0.37219439069436278 -0.33973455654827522 0 0.36187220681042243 -0.34664139095833302 0 0.35539789584801468 -0.35724021821722712 0 0.36217229373755672 -0.36057943549254429 0 0.36475581476100521 -0.35312938776246161 0 0.35539789584801468 -0.35724021821722712 0 0.36217229373755672 -0.36057943549254429 0 0.36475581476100521 -0.35312938776246161 0 0.36925867876408658 -0.35496334079180009 0 0.37725125690826539 -0.350326147703383 0 0.37653734604282962 -0.36071243495520089 0 0.36925867876408658 -0.35496334079180009 0 0.37725125690826539 -0.350326147703383 0 0.37219439069436278 -0.33973455654827522 0 0.36925867876408658 -0.35496334079180009 0 0.37219439069436278 -0.33973455654827522 0 0.36475581476100521 -0.35312938776246161 0 0.36925867876408658 -0.35496334079180009 0 0.34957973154128041 -0.34618211696341539 0 0.35320517612990071 -0.35553714392729158 0 0.33192754202273572 -0.34323336078824351 0 0.3534984398014635 -0.35024730304545121 0 0.34957973154128041 -0.34618211696341539 0 0.35320517612990071 -0.35553714392729158 0 0.36187220681042243 -0.34664139095833302 0 0.3534984398014635 -0.35024730304545121 0 0.3558501669988845 -0.3524210775484839 0 0.36187220681042243 -0.34664139095833302 0 0.3534984398014635 -0.35024730304545121 0 0.34957973154128041 -0.34618211696341539 0 0.35320517612990071 -0.35553714392729158 0 0.35539789584801468 -0.35724021821722712 0 0.34042329576697339 -0.35823164563226978 0 0.36187220681042243 -0.34664139095833302 0 0.35539789584801468 -0.35724021821722712 0 0.3558501669988845 -0.3524210775484839 0 0.3534984398014635 -0.35024730304545121 0 0.35320517612990071 -0.35553714392729158 0 0.3558501669988845 -0.3524210775484839 0 0.35320517612990071 -0.35553714392729158 0 0.35539789584801468 -0.35724021821722712 0 0.3558501669988845 -0.3524210775484839 0 0.35539789584801468 -0.35724021821722712 0 0.33860140100166652 -0.37474587988617891 0 0.34042329576697339 -0.35823164563226978 0 0.35539789584801468 -0.35724021821722712 0 0.35135706915401588 -0.37017394756356969 0 0.33860140100166652 -0.37474587988617891 0 0.35539789584801468 -0.35724021821722712 0 0.33860140100166652 -0.37474587988617891 0 0.35539789584801468 -0.35724021821722712 0 0.35795013664840342 -0.36424709114289849 0 0.35135706915401588 -0.37017394756356969 0 0.36217229373755672 -0.36057943549254429 0 0.35539789584801468 -0.35724021821722712 0 0.35795013664840342 -0.36424709114289849 0 0.36294720531266811 -0.38018066368018399 0 0.36287328785402612 -0.36899476329825298 0 0.35135706915401588 -0.37017394756356969 0 0.36287328785402612 -0.36899476329825298 0 0.35795013664840342 -0.36424709114289849 0 0.35135706915401588 -0.37017394756356969 0 0.33860140100166652 -0.37474587988617891 0 0.34042329576697339 -0.35823164563226978 0 0.3265103903251248 -0.35945213496471662 0 0.35320517612990071 -0.35553714392729158 0 0.33192754202273572 -0.34323336078824351 0 0.35320517612990071 -0.35553714392729158 0 0.34042329576697339 -0.35823164563226978 0 0.33192754202273572 -0.34323336078824351 0 0.34042329576697339 -0.35823164563226978 0 0.3265103903251248 -0.35945213496471662 0 0.33192754202273572 -0.34323336078824351 0 0.3154146555364471 -0.34816417689355561 0 0.33192754202273572 -0.34323336078824351 0 0.3154146555364471 -0.34816417689355561 0 0.3265103903251248 -0.35945213496471662 0 0.33192754202273572 -0.34323336078824351 0 0.3154146555364471 -0.34816417689355561 0 0.31323691028295181 -0.37098663086795219 0 0.3265103903251248 -0.35945213496471662 0 0.33860140100166652 -0.37474587988617891 0 0.31323691028295181 -0.37098663086795219 0 0.3265103903251248 -0.35945213496471662 0 0.35062666321971642 -0.31740327914382699 0 0.33089331707070768 -0.32280120611538748 0 0.34168223867099062 -0.33007371174581152 0 0.33149771766007402 -0.30001414710683749 0 0.35062666321971642 -0.31740327914382699 0 0.33089331707070768 -0.32280120611538748 0 0.33089331707070768 -0.32280120611538748 0 0.33192754202273572 -0.34323336078824351 0 0.34168223867099062 -0.33007371174581152 0 0.35328143237080267 -0.33685700093578808 0 0.33192754202273572 -0.34323336078824351 0 0.35328143237080267 -0.33685700093578808 0 0.33192754202273572 -0.34323336078824351 0 0.34168223867099062 -0.33007371174581152 0 0.3154146555364471 -0.34816417689355561 0 0.33192754202273572 -0.34323336078824351 0 0.31266888802952059 -0.33209705206665119 0 0.33089331707070768 -0.32280120611538748 0 0.33192754202273572 -0.34323336078824351 0 0.31266888802952059 -0.33209705206665119 0 0.33192754202273572 -0.34323336078824351 0 0.31266888802952059 -0.33209705206665119 0 0.33089331707070768 -0.32280120611538748 0 0.31266888802952059 -0.33209705206665119 0 0.31495401674792167 -0.31345967574744882 0 0.31266888802952059 -0.33209705206665119 0 0.31495401674792167 -0.31345967574744882 0 0.29341023403630562 -0.32096074334505892 0 0.31266888802952059 -0.33209705206665119 0 0.29341023403630562 -0.32096074334505892 0 0.3154146555364471 -0.34816417689355561 0 0.31266888802952059 -0.33209705206665119 0 0.29821893739111432 -0.3376351833950002 0 0.31266888802952059 -0.33209705206665119 0 0.29821893739111432 -0.3376351833950002 0 0.29341023403630562 -0.32096074334505892 0 0.29821893739111432 -0.3376351833950002 0 0.28324073230096269 -0.34152431496127278 0 0.29341023403630562 -0.32096074334505892 0 0.28324073230096269 -0.34152431496127278 0 0.29341023403630562 -0.32096074334505892 0 0.28324073230096269 -0.34152431496127278 0 0.29341023403630562 -0.32096074334505892 0 0.27257483066671129 -0.32623096063484219 0 0.29341023403630562 -0.32096074334505892 0 0.27045895388275498 -0.30768917507057048 0 0.31323691028295181 -0.37098663086795219 0 0.29890176905015869 -0.35309499299886782 0 0.29406281218487668 -0.37110195615280478 0 0.30376608135307642 -0.38256574588337439 0 0.31323691028295181 -0.37098663086795219 0 0.29406281218487668 -0.37110195615280478 0 0.3154146555364471 -0.34816417689355561 0 0.31323691028295181 -0.37098663086795219 0 0.29890176905015869 -0.35309499299886782 0 0.3154146555364471 -0.34816417689355561 0 0.29821893739111432 -0.3376351833950002 0 0.29890176905015869 -0.35309499299886782 0 0.3154146555364471 -0.34816417689355561 0 0.29890176905015869 -0.35309499299886782 0 0.28324073230096269 -0.34152431496127278 0 0.29890176905015869 -0.35309499299886782 0 0.27307123056561983 -0.36208788657748658 0 0.29821893739111432 -0.3376351833950002 0 0.28324073230096269 -0.34152431496127278 0 0.29890176905015869 -0.35309499299886782 0 0.28059514594661789 -0.37749688251145941 0 0.29406281218487668 -0.37110195615280478 0 0.27307123056561983 -0.36208788657748658 0 0.29890176905015869 -0.35309499299886782 0 0.29406281218487668 -0.37110195615280478 0 0.27307123056561983 -0.36208788657748658 0 0.28059514594661789 -0.37749688251145941 0 0.27063627606564722 -0.38146981263072172 0 0.27307123056561983 -0.36208788657748658 0 0.26290172883027341 -0.38265145819369878 0 0.27307123056561983 -0.36208788657748658 0 0.28324073230096269 -0.34152431496127278 0 0.27307123056561983 -0.36208788657748658 0 0.28324073230096269 -0.34152431496127278 0 0.27307123056561983 -0.36208788657748658 0 0.25902008546228139 -0.33944764004923739 0 0.27307123056561983 -0.36208788657748658 0 0.25016122440348099 -0.35456012118761387 0 0.25902008546228139 -0.33944764004923739 0 0.26290172883027341 -0.38265145819369878 0 0.27307123056561983 -0.36208788657748658 0 0.25780649861617821 -0.36733526799276739 0 0.26290172883027341 -0.38265145819369878 0 0.25780649861617821 -0.36733526799276739 0 0.24170827130145911 -0.36851600104022741 0 0.27307123056561983 -0.36208788657748658 0 0.25016122440348099 -0.35456012118761387 0 0.25780649861617821 -0.36733526799276739 0 0.27257483066671129 -0.32623096063484219 0 0.25674414765125192 -0.32153292974807168 0 0.27045895388275498 -0.30768917507057048 0 0.29341023403630562 -0.32096074334505892 0 0.27257483066671129 -0.32623096063484219 0 0.27045895388275498 -0.30768917507057048 0 0.28324073230096269 -0.34152431496127278 0 0.27257483066671129 -0.32623096063484219 0 0.25902008546228139 -0.33944764004923739 0 0.27257483066671129 -0.32623096063484219 0 0.25902008546228139 -0.33944764004923739 0 0.25674414765125192 -0.32153292974807168 0 0.25902008546228139 -0.33944764004923739 0 0.25674414765125192 -0.32153292974807168 0 0.23663746231218019 -0.32558129144487769 0 0.25674414765125192 -0.32153292974807168 0 0.27045895388275498 -0.30768917507057048 0 0.24451567491351181 -0.30988941304627587 0 0.27045895388275498 -0.30768917507057048 0 0.24750767372920429 -0.29441760679608231 0 0.24451567491351181 -0.30988941304627587 0 0.27045895388275498 -0.30768917507057048 0 0.24750767372920429 -0.29441760679608231 0 0.26933829144208221 -0.28372997478518469 0 0.24865637472303559 -0.27728039917688507 0 0.24750767372920429 -0.29441760679608231 0 0.26933829144208221 -0.28372997478518469 0 0.27045895388275498 -0.30768917507057048 0 0.24750767372920429 -0.29441760679608231 0 0.26933829144208221 -0.28372997478518469 0 0.27045895388275498 -0.30768917507057048 0 0.28396972673167459 -0.29080273138076301 0 0.26933829144208221 -0.28372997478518469 0 0.28396972673167459 -0.29080273138076301 0 0.28180038579786648 -0.27949520726006949 0 0.27045895388275498 -0.30768917507057048 0 0.28857793451958469 -0.30405092516071902 0 0.28396972673167459 -0.29080273138076301 0 0.29341023403630562 -0.32096074334505892 0 0.27045895388275498 -0.30768917507057048 0 0.28857793451958469 -0.30405092516071902 0 0.29341023403630562 -0.32096074334505892 0 0.28857793451958469 -0.30405092516071902 0 0.30288950306836931 -0.30179287920745301 0 0.28857793451958469 -0.30405092516071902 0 0.29735664071998719 -0.28913593265213972 0 0.30288950306836931 -0.30179287920745301 0 0.28396972673167459 -0.29080273138076301 0 0.28953870887964972 -0.28279325983877462 0 0.28180038579786648 -0.27949520726006949 0 0.28396972673167459 -0.29080273138076301 0 0.28953870887964972 -0.28279325983877462 0 0.29735664071998719 -0.28913593265213972 0 0.28953870887964972 -0.28279325983877462 0 0.29735664071998719 -0.28913593265213972 0 0.29489219767257202 -0.27992957760209408 0 0.28857793451958469 -0.30405092516071902 0 0.28396972673167459 -0.29080273138076301 0 0.29735664071998719 -0.28913593265213972 0 0.31542750239419942 -0.29947292928289659 0 0.31236877210043268 -0.28262501506984689 0 0.30288950306836931 -0.30179287920745301 0 0.31236877210043268 -0.28262501506984689 0 0.30288950306836931 -0.30179287920745301 0 0.29735664071998719 -0.28913593265213972 0 0.31236877210043268 -0.28262501506984689 0 0.30288950306836931 -0.30179287920745301 0 0.29735664071998719 -0.28913593265213972 0 0.31236877210043268 -0.28262501506984689 0 0.30104320449713451 -0.27997981374830122 0 0.29735664071998719 -0.28913593265213972 0 0.30104320449713451 -0.27997981374830122 0 0.29489219767257202 -0.27992957760209408 0 0.29341023403630562 -0.32096074334505892 0 0.30288950306836931 -0.30179287920745301 0 0.31495401674792167 -0.31345967574744882 0 0.29341023403630562 -0.32096074334505892 0 0.30288950306836931 -0.30179287920745301 0 0.31542750239419942 -0.29947292928289659 0 0.31495401674792167 -0.31345967574744882 0 0.30288950306836931 -0.30179287920745301 0 0.31948858200591429 -0.24895538480140031 0 0.29455279329022288 -0.25936526309892599 0 0.31948858200591429 -0.24895538480140031 0 0.30270319855564731 -0.25083068480389359 0 0.29455279329022288 -0.25936526309892599 0 0.31948858200591429 -0.24895538480140031 0 0.30413910251289888 -0.26834248563991481 0 0.29455279329022288 -0.25936526309892599 0 0.30413910251289888 -0.26834248563991481 0 0.29067632508807889 -0.26290553685150669 0 0.29342444761073561 -0.2490154373494701 0 0.30270319855564731 -0.25083068480389359 0 0.29455279329022288 -0.25936526309892599 0 0.31688619849725208 -0.27349040615296011 0 0.30413910251289888 -0.26834248563991481 0 0.31688619849725208 -0.27349040615296011 0 0.31236877210043268 -0.28262501506984689 0 0.30413910251289888 -0.26834248563991481 0 0.31236877210043268 -0.28262501506984689 0 0.30413910251289888 -0.26834248563991481 0 0.29943643885206489 -0.27086890181723722 0 0.31236877210043268 -0.28262501506984689 0 0.29943643885206489 -0.27086890181723722 0 0.31236877210043268 -0.28262501506984689 0 0.30104320449713451 -0.27997981374830122 0 0.29943643885206489 -0.27086890181723722 0 0.30104320449713451 -0.27997981374830122 0 0.29943643885206489 -0.27086890181723722 0 0.29526627671383621 -0.27310924172839129 0 0.30104320449713451 -0.27997981374830122 0 0.29526627671383621 -0.27310924172839129 0 0.29489219767257202 -0.27992957760209408 0 0.30413910251289888 -0.26834248563991481 0 0.29943643885206489 -0.27086890181723722 0 0.29067632508807889 -0.26290553685150669 0 0.30413910251289888 -0.26834248563991481 0 0.29943643885206489 -0.27086890181723722 0 0.29943643885206489 -0.27086890181723722 0 0.29526627671383621 -0.27310924172839129 0 0.29943643885206489 -0.27086890181723722 0 0.29070985511479219 -0.26996860976649489 0 0.29067632508807889 -0.26290553685150669 0 0.29943643885206489 -0.27086890181723722 0 0.29067632508807889 -0.26290553685150669 0 0.29943643885206489 -0.27086890181723722 0 0.29526627671383621 -0.27310924172839129 0 0.29070985511479219 -0.26996860976649489 0 0.29526627671383621 -0.27310924172839129 0 0.29070985511479219 -0.26996860976649489 0 0.28953189466040019 -0.27553176578282901 0 0.29526627671383621 -0.27310924172839129 0 0.29489219767257202 -0.27992957760209408 0 0.28953189466040019 -0.27553176578282901 0 0.28953870887964972 -0.28279325983877462 0 0.29489219767257202 -0.27992957760209408 0 0.28953189466040019 -0.27553176578282901 0 0.28953189466040019 -0.27553176578282901 0 0.28180038579786648 -0.27949520726006949 0 0.28355603387518719 -0.27155009664995139 0 0.28953870887964972 -0.28279325983877462 0 0.28953189466040019 -0.27553176578282901 0 0.28180038579786648 -0.27949520726006949 0 0.29070985511479219 -0.26996860976649489 0 0.28538392147282099 -0.26645021187832468 0 0.28355603387518719 -0.27155009664995139 0 0.29070985511479219 -0.26996860976649489 0 0.28538392147282099 -0.26645021187832468 0 0.29067632508807889 -0.26290553685150669 0 0.29070985511479219 -0.26996860976649489 0 0.28953189466040019 -0.27553176578282901 0 0.28355603387518719 -0.27155009664995139 0 0.28538392147282099 -0.26645021187832468 0 0.28355603387518719 -0.27155009664995139 0 0.27993127607616303 -0.26568643484764221 0 0.28538392147282099 -0.26645021187832468 0 0.28587422930842099 -0.26096620828599898 0 0.27993127607616303 -0.26568643484764221 0 0.28587422930842099 -0.26096620828599898 0 0.29067632508807889 -0.26290553685150669 0 0.27900645603208429 -0.25229706430207338 0 0.28538392147282099 -0.26645021187832468 0 0.28587422930842099 -0.26096620828599898 0 0.29067632508807889 -0.26290553685150669 0 0.28587422930842099 -0.26096620828599898 0 0.29067632508807889 -0.26290553685150669 0 0.30413910251289888 -0.26834248563991481 0 0.29455279329022288 -0.25936526309892599 0 0.29067632508807889 -0.26290553685150669 0 0.29455279329022288 -0.25936526309892599 0 0.29067632508807889 -0.26290553685150669 0 0.28855536188488351 -0.25406702018922561 0 0.29342444761073561 -0.2490154373494701 0 0.29455279329022288 -0.25936526309892599 0 0.28855536188488351 -0.25406702018922561 0 0.28475750139054989 -0.24680621714445891 0 0.28855536188488351 -0.25406702018922561 0 0.27900645603208429 -0.25229706430207338 0 0.29067632508807889 -0.26290553685150669 0 0.28855536188488351 -0.25406702018922561 0 0.27900645603208429 -0.25229706430207338 0 0.29067632508807889 -0.26290553685150669 0 0.27900645603208429 -0.25229706430207338 0 0.28587422930842099 -0.26096620828599898 0 0.27900645603208429 -0.25229706430207338 0 0.2777471093450074 -0.25993694902172559 0 0.27900645603208429 -0.25229706430207338 0 0.2777471093450074 -0.25993694902172559 0 0.27149854063402512 -0.25616919287358703 0 0.2777471093450074 -0.25993694902172559 0 0.27242504467434348 -0.26456584479932671 0 0.27149854063402512 -0.25616919287358703 0 0.28587422930842099 -0.26096620828599898 0 0.2777471093450074 -0.25993694902172559 0 0.27993127607616303 -0.26568643484764221 0 0.2777471093450074 -0.25993694902172559 0 0.27242504467434348 -0.26456584479932671 0 0.27993127607616303 -0.26568643484764221 0 0.27242504467434348 -0.26456584479932671 0 0.26307847596695039 -0.27052873695471552 0 0.26146442537082609 -0.25583685081005042 0 0.27242504467434348 -0.26456584479932671 0 0.27149854063402512 -0.25616919287358703 0 0.26146442537082609 -0.25583685081005042 0 0.26733658697608947 -0.2416885917526401 0 0.27149854063402512 -0.25616919287358703 0 0.26146442537082609 -0.25583685081005042 0 0.26733658697608947 -0.2416885917526401 0 0.27900645603208429 -0.25229706430207338 0 0.27149854063402512 -0.25616919287358703 0 0.26933829144208221 -0.28372997478518469 0 0.28180038579786648 -0.27949520726006949 0 0.27486765919820538 -0.27256341512291421 0 0.28180038579786648 -0.27949520726006949 0 0.28355603387518719 -0.27155009664995139 0 0.27486765919820538 -0.27256341512291421 0 0.27242504467434348 -0.26456584479932671 0 0.27486765919820538 -0.27256341512291421 0 0.27993127607616303 -0.26568643484764221 0 0.28355603387518719 -0.27155009664995139 0 0.27486765919820538 -0.27256341512291421 0 0.27993127607616303 -0.26568643484764221 0 0.27242504467434348 -0.26456584479932671 0 0.27486765919820538 -0.27256341512291421 0 0.26307847596695039 -0.27052873695471552 0 0.26933829144208221 -0.28372997478518469 0 0.27486765919820538 -0.27256341512291421 0 0.26307847596695039 -0.27052873695471552 0 0.26933829144208221 -0.28372997478518469 0 0.26307847596695039 -0.27052873695471552 0 0.24865637472303559 -0.27728039917688507 0 0.26307847596695039 -0.27052873695471552 0 0.25101111975996859 -0.26563328692327859 0 0.24865637472303559 -0.27728039917688507 0 0.25101111975996859 -0.26563328692327859 0 0.26146442537082609 -0.25583685081005042 0 0.2448903888819314 -0.25274008289494182 0 0.2538276387990735 -0.243986156319283 0 0.26146442537082609 -0.25583685081005042 0 0.2448903888819314 -0.25274008289494182 0 0.26307847596695039 -0.27052873695471552 0 0.25101111975996859 -0.26563328692327859 0 0.26146442537082609 -0.25583685081005042 0 0.25101111975996859 -0.26563328692327859 0 0.2448903888819314 -0.25274008289494182 0 0.2364462938643549 -0.26822675108045579 0 0.2448903888819314 -0.25274008289494182 0 0.2364462938643549 -0.26822675108045579 0 0.23102541472123911 -0.25599355796250051 0 0.2448903888819314 -0.25274008289494182 0 0.23102541472123911 -0.25599355796250051 0 0.2355561727938057 -0.24422168856868201 0 0.24865637472303559 -0.27728039917688507 0 0.2364462938643549 -0.26822675108045579 0 0.2245563935756536 -0.28114603852159398 0 0.25101111975996859 -0.26563328692327859 0 0.24865637472303559 -0.27728039917688507 0 0.2364462938643549 -0.26822675108045579 0 0.2364462938643549 -0.26822675108045579 0 0.2245563935756536 -0.28114603852159398 0 0.22044795806211831 -0.26218928624163029 0 0.22044795806211831 -0.26218928624163029 0 0.23102541472123911 -0.25599355796250051 0 0.22036553595057129 -0.24563164019566869 0 0.2364462938643549 -0.26822675108045579 0 0.22044795806211831 -0.26218928624163029 0 0.23102541472123911 -0.25599355796250051 0 0.22044795806211831 -0.26218928624163029 0 0.20456781783476069 -0.25396670583710529 0 0.22036553595057129 -0.24563164019566869 0 0.22044795806211831 -0.26218928624163029 0 0.20456781783476069 -0.25396670583710529 0 0.20160511342210291 -0.2678744702471057 0 0.2245563935756536 -0.28114603852159398 0 0.20160511342210291 -0.2678744702471057 0 0.2019198381618168 -0.28326470310752488 0 0.2245563935756536 -0.28114603852159398 0 0.20160511342210291 -0.2678744702471057 0 0.2245563935756536 -0.28114603852159398 0 0.22044795806211831 -0.26218928624163029 0 0.20160511342210291 -0.2678744702471057 0 0.20160511342210291 -0.2678744702471057 0 0.1786538332685523 -0.25460290197261742 0 0.18617355488529971 -0.27574024348564791 0 0.20160511342210291 -0.2678744702471057 0 0.2019198381618168 -0.28326470310752488 0 0.18617355488529971 -0.27574024348564791 0 0.20456781783476069 -0.25396670583710529 0 0.20160511342210291 -0.2678744702471057 0 0.1786538332685523 -0.25460290197261742 0 0.20160511342210291 -0.2678744702471057 0 0.1786538332685523 -0.25460290197261742 0 0.1979107111278321 -0.29322402346471382 0 0.21346470950660959 -0.29300202656947189 0 0.1872036309678928 -0.30450828607407959 0 0.2076527524326254 -0.30853802527989549 0 0.20396838391790831 -0.31541686340156178 0 0.1872036309678928 -0.30450828607407959 0 0.21346470950660959 -0.29300202656947189 0 0.2076527524326254 -0.30853802527989549 0 0.1872036309678928 -0.30450828607407959 0 0.21346470950660959 -0.29300202656947189 0 0.1872036309678928 -0.30450828607407959 0 0.18907724088750361 -0.29628162746642173 0 0.1979107111278321 -0.29322402346471382 0 0.1872036309678928 -0.30450828607407959 0 0.18907724088750361 -0.29628162746642173 0 0.1878085464534032 -0.28860141635661651 0 0.1979107111278321 -0.29322402346471382 0 0.1878085464534032 -0.28860141635661651 0 0.2019198381618168 -0.28326470310752488 0 0.18617355488529971 -0.27574024348564791 0 0.1878085464534032 -0.28860141635661651 0 0.2019198381618168 -0.28326470310752488 0 0.1979107111278321 -0.29322402346471382 0 0.2019198381618168 -0.28326470310752488 0 0.1979107111278321 -0.29322402346471382 0 0.21346470950660959 -0.29300202656947189 0 0.2245563935756536 -0.28114603852159398 0 0.2019198381618168 -0.28326470310752488 0 0.21346470950660959 -0.29300202656947189 0 0.21346470950660959 -0.29300202656947189 0 0.2076527524326254 -0.30853802527989549 0 0.2188042407491522 -0.3061664508678551 0 0.2076527524326254 -0.30853802527989549 0 0.2188042407491522 -0.3061664508678551 0 0.21715792990084659 -0.31917672727185448 0 0.2188042407491522 -0.3061664508678551 0 0.2283103357443797 -0.29898326899784378 0 0.22743547616129961 -0.31113220622020971 0 0.2188042407491522 -0.3061664508678551 0 0.22743547616129961 -0.31113220622020971 0 0.21715792990084659 -0.31917672727185448 0 0.2283103357443797 -0.29898326899784378 0 0.22743547616129961 -0.31113220622020971 0 0.24451567491351181 -0.30988941304627587 0 0.21346470950660959 -0.29300202656947189 0 0.2188042407491522 -0.3061664508678551 0 0.2283103357443797 -0.29898326899784378 0 0.2245563935756536 -0.28114603852159398 0 0.2283103357443797 -0.29898326899784378 0 0.24750767372920429 -0.29441760679608231 0 0.2245563935756536 -0.28114603852159398 0 0.21346470950660959 -0.29300202656947189 0 0.2283103357443797 -0.29898326899784378 0 0.24865637472303559 -0.27728039917688507 0 0.2245563935756536 -0.28114603852159398 0 0.24750767372920429 -0.29441760679608231 0 0.2245563935756536 -0.28114603852159398 0 0.24750767372920429 -0.29441760679608231 0 0.2283103357443797 -0.29898326899784378 0 0.24750767372920429 -0.29441760679608231 0 0.24451567491351181 -0.30988941304627587 0 0.25674414765125192 -0.32153292974807168 0 0.24451567491351181 -0.30988941304627587 0 0.23663746231218019 -0.32558129144487769 0 0.22743547616129961 -0.31113220622020971 0 0.24451567491351181 -0.30988941304627587 0 0.23663746231218019 -0.32558129144487769 0 0.25902008546228139 -0.33944764004923739 0 0.23663746231218019 -0.32558129144487769 0 0.23812677282779671 -0.34579504452205923 0 0.23663746231218019 -0.32558129144487769 0 0.22305327423549071 -0.33520998890311388 0 0.23812677282779671 -0.34579504452205923 0 0.23663746231218019 -0.32558129144487769 0 0.22305327423549071 -0.33520998890311388 0 0.21715792990084659 -0.31917672727185448 0 0.22743547616129961 -0.31113220622020971 0 0.23663746231218019 -0.32558129144487769 0 0.21715792990084659 -0.31917672727185448 0 0.25016122440348099 -0.35456012118761387 0 0.25780649861617821 -0.36733526799276739 0 0.24170827130145911 -0.36851600104022741 0 0.25016122440348099 -0.35456012118761387 0 0.24170827130145911 -0.36851600104022741 0 0.23812677282779671 -0.34579504452205923 0 0.25016122440348099 -0.35456012118761387 0 0.25902008546228139 -0.33944764004923739 0 0.23812677282779671 -0.34579504452205923 0 0.22305327423549071 -0.33520998890311388 0 0.23812677282779671 -0.34579504452205923 0 0.22051481377264559 -0.354380543886755 0 0.24170827130145911 -0.36851600104022741 0 0.23812677282779671 -0.34579504452205923 0 0.22051481377264559 -0.354380543886755 0 0.24170827130145911 -0.36851600104022741 0 0.22051481377264559 -0.354380543886755 0 0.23670873457410921 -0.37862547682540998 0 0.22051481377264559 -0.354380543886755 0 0.21671442970331559 -0.36952189520083739 0 0.23670873457410921 -0.37862547682540998 0 0.24170827130145911 -0.36851600104022741 0 0.22051481377264559 -0.354380543886755 0 0.22051481377264559 -0.354380543886755 0 0.23670873457410921 -0.37862547682540998 0 0.2145442295313045 -0.35406247509838012 0 0.19610549299704269 -0.35761320467495011 0 0.20223677674008531 -0.37536150164024062 0 0.2145442295313045 -0.35406247509838012 0 0.20223677674008531 -0.37536150164024062 0 0.21671442970331559 -0.36952189520083739 0 0.2145442295313045 -0.35406247509838012 0 0.20223677674008531 -0.37536150164024062 0 0.22051481377264559 -0.354380543886755 0 0.19726166297455741 -0.33887132759476052 0 0.22051481377264559 -0.354380543886755 0 0.2145442295313045 -0.35406247509838012 0 0.19726166297455741 -0.33887132759476052 0 0.22051481377264559 -0.354380543886755 0 0.21671442970331559 -0.36952189520083739 0 0.2145442295313045 -0.35406247509838012 0 0.2145442295313045 -0.35406247509838012 0 0.19610549299704269 -0.35761320467495011 0 0.19726166297455741 -0.33887132759476052 0 0.18800049553334899 -0.35067348666979081 0 0.19610549299704269 -0.35761320467495011 0 0.19726166297455741 -0.33887132759476052 0 0.18800049553334899 -0.35067348666979081 0 0.19610549299704269 -0.35761320467495011 0 0.18169290130044011 -0.36055065201636799 0 0.19610549299704269 -0.35761320467495011 0 0.18850222486442261 -0.37083334481065872 0 0.20223677674008531 -0.37536150164024062 0 0.19610549299704269 -0.35761320467495011 0 0.18850222486442261 -0.37083334481065872 0 0.18169290130044011 -0.36055065201636799 0 0.22305327423549071 -0.33520998890311388 0 0.21715792990084659 -0.31917672727185448 0 0.2038592223702686 -0.32944441498041771 0 0.20396838391790831 -0.31541686340156178 0 0.21715792990084659 -0.31917672727185448 0 0.2038592223702686 -0.32944441498041771 0 0.2076527524326254 -0.30853802527989549 0 0.20396838391790831 -0.31541686340156178 0 0.21715792990084659 -0.31917672727185448 0 0.22305327423549071 -0.33520998890311388 0 0.22051481377264559 -0.354380543886755 0 0.2038592223702686 -0.32944441498041771 0 0.22051481377264559 -0.354380543886755 0 0.2038592223702686 -0.32944441498041771 0 0.22051481377264559 -0.354380543886755 0 0.2038592223702686 -0.32944441498041771 0 0.19726166297455741 -0.33887132759476052 0 0.2038592223702686 -0.32944441498041771 0 0.19726166297455741 -0.33887132759476052 0 0.18946458957283371 -0.32686389011310341 0 0.2038592223702686 -0.32944441498041771 0 0.18946458957283371 -0.32686389011310341 0 0.19011791489938501 -0.32059219805621608 0 0.20396838391790831 -0.31541686340156178 0 0.2038592223702686 -0.32944441498041771 0 0.1872036309678928 -0.30450828607407959 0 0.2038592223702686 -0.32944441498041771 0 0.19011791489938501 -0.32059219805621608 0 0.1872036309678928 -0.30450828607407959 0 0.2038592223702686 -0.32944441498041771 0 0.1872036309678928 -0.30450828607407959 0 0.18946458957283371 -0.32686389011310341 0 0.19011791489938501 -0.32059219805621608 0 0.18343459098095011 -0.32171141587599461 0 0.19011791489938501 -0.32059219805621608 0 0.1801473472751117 -0.31602746403189369 0 0.18343459098095011 -0.32171141587599461 0 0.19011791489938501 -0.32059219805621608 0 0.1801473472751117 -0.31602746403189369 0 0.1872036309678928 -0.30450828607407959 0 0.1801473472751117 -0.31602746403189369 0 0.1740085121764697 -0.32336211130276538 0 0.16624449121000939 -0.313691507573988 0 0.1801473472751117 -0.31602746403189369 0 0.1740085121764697 -0.32336211130276538 0 0.18343459098095011 -0.32171141587599461 0 0.18946458957283371 -0.32686389011310341 0 0.1740085121764697 -0.32336211130276538 0 0.18343459098095011 -0.32171141587599461 0 0.19726166297455741 -0.33887132759476052 0 0.1740085121764697 -0.32336211130276538 0 0.19726166297455741 -0.33887132759476052 0 0.18946458957283371 -0.32686389011310341 0 0.1740085121764697 -0.32336211130276538 0 0.19726166297455741 -0.33887132759476052 0 0.1740085121764697 -0.32336211130276538 0 0.17084668282717949 -0.33444376436359807 0 0.19726166297455741 -0.33887132759476052 0 0.17084668282717949 -0.33444376436359807 0 0.1769419248613559 -0.34565876239308452 0 0.17084668282717949 -0.33444376436359807 0 0.1579746676120877 -0.33844373838875669 0 0.1769419248613559 -0.34565876239308452 0 0.17084668282717949 -0.33444376436359807 0 0.1579746676120877 -0.33844373838875669 0 0.16287194105557451 -0.32656317014060099 0 0.16287194105557451 -0.32656317014060099 0 0.16624449121000939 -0.313691507573988 0 0.14528535145212601 -0.3228747290738968 0 0.1740085121764697 -0.32336211130276538 0 0.16287194105557451 -0.32656317014060099 0 0.16624449121000939 -0.313691507573988 0 0.1740085121764697 -0.32336211130276538 0 0.17084668282717949 -0.33444376436359807 0 0.16287194105557451 -0.32656317014060099 0 0.18850222486442261 -0.37083334481065872 0 0.18169290130044011 -0.36055065201636799 0 0.17566325228533769 -0.37771211281408068 0 0.18169290130044011 -0.36055065201636799 0 0.16476591200055099 -0.36143087792073608 0 0.17566325228533769 -0.37771211281408068 0 0.18169290130044011 -0.36055065201636799 0 0.1769419248613559 -0.34565876239308452 0 0.16476591200055099 -0.36143087792073608 0 0.18800049553334899 -0.35067348666979081 0 0.19726166297455741 -0.33887132759476052 0 0.1769419248613559 -0.34565876239308452 0 0.18800049553334899 -0.35067348666979081 0 0.18169290130044011 -0.36055065201636799 0 0.1769419248613559 -0.34565876239308452 0 0.1579746676120877 -0.33844373838875669 0 0.1769419248613559 -0.34565876239308452 0 0.16476591200055099 -0.36143087792073608 0 0.16476591200055099 -0.36143087792073608 0 0.17566325228533769 -0.37771211281408068 0 0.16064821501244969 -0.38160022960319528 0 0.16476591200055099 -0.36143087792073608 0 0.14708381304481141 -0.36811750004093857 0 0.16064821501244969 -0.38160022960319528 0 0.14708381304481141 -0.36811750004093857 0 0.14310340874650751 -0.35116913907698971 0 0.1340546722423305 -0.36362250164351873 0 0.16476591200055099 -0.36143087792073608 0 0.14708381304481141 -0.36811750004093857 0 0.14310340874650751 -0.35116913907698971 0 0.1579746676120877 -0.33844373838875669 0 0.16476591200055099 -0.36143087792073608 0 0.14310340874650751 -0.35116913907698971 0 0.14310340874650751 -0.35116913907698971 0 0.13814505060406329 -0.3371351449365903 0 0.11787172207594671 -0.35404558409213099 0 0.14310340874650751 -0.35116913907698971 0 0.1340546722423305 -0.36362250164351873 0 0.11787172207594671 -0.35404558409213099 0 0.1340546722423305 -0.36362250164351873 0 0.1281597451020563 -0.38115778336401568 0 0.11787172207594671 -0.35404558409213099 0 0.14708381304481141 -0.36811750004093857 0 0.1340546722423305 -0.36362250164351873 0 0.1281597451020563 -0.38115778336401568 0 0.16624449121000939 -0.313691507573988 0 0.14528535145212601 -0.3228747290738968 0 0.15600928873626829 -0.30488595851687977 0 0.16624449121000939 -0.313691507573988 0 0.14528535145212601 -0.3228747290738968 0 0.1579746676120877 -0.33844373838875669 0 0.14310340874650751 -0.35116913907698971 0 0.13814505060406329 -0.3371351449365903 0 0.1579746676120877 -0.33844373838875669 0 0.16287194105557451 -0.32656317014060099 0 0.14528535145212601 -0.3228747290738968 0 0.1579746676120877 -0.33844373838875669 0 0.14528535145212601 -0.3228747290738968 0 0.13814505060406329 -0.3371351449365903 0 0.14528535145212601 -0.3228747290738968 0 0.13814505060406329 -0.3371351449365903 0 0.1243262116942427 -0.33205795057380549 0 0.13814505060406329 -0.3371351449365903 0 0.1243262116942427 -0.33205795057380549 0 0.11787172207594671 -0.35404558409213099 0 0.14528535145212601 -0.3228747290738968 0 0.1243262116942427 -0.33205795057380549 0 0.14528535145212601 -0.3228747290738968 0 0.12642119591326259 -0.30901513411978632 0 0.1243262116942427 -0.33205795057380549 0 0.14528535145212601 -0.3228747290738968 0 0.12642119591326259 -0.30901513411978632 0 0.1417328999497251 -0.30462507190237331 0 0.12642119591326259 -0.30901513411978632 0 0.1417328999497251 -0.30462507190237331 0 0.13508701183200689 -0.29197957117870571 0 0.14528535145212601 -0.3228747290738968 0 0.1417328999497251 -0.30462507190237331 0 0.15600928873626829 -0.30488595851687977 0 0.1417328999497251 -0.30462507190237331 0 0.14984738564292591 -0.29498976961013329 0 0.13508701183200689 -0.29197957117870571 0 0.1417328999497251 -0.30462507190237331 0 0.15600928873626829 -0.30488595851687977 0 0.14984738564292591 -0.29498976961013329 0 0.14984738564292591 -0.29498976961013329 0 0.13508701183200689 -0.29197957117870571 0 0.15185155798713029 -0.2798214517088996 0 0.14984738564292591 -0.29498976961013329 0 0.15185155798713029 -0.2798214517088996 0 0.16455616970949899 -0.29363679474380799 0 0.13508701183200689 -0.29197957117870571 0 0.12936800559182801 -0.27235718855874019 0 0.15185155798713029 -0.2798214517088996 0 0.12936800559182801 -0.27235718855874019 0 0.15357400750707581 -0.26113889521412309 0 0.13475341233392191 -0.24985250807845871 0 0.12936800559182801 -0.27235718855874019 0 0.1162321014502215 -0.25452752110021859 0 0.13475341233392191 -0.24985250807845871 0 0.15357400750707581 -0.26113889521412309 0 0.1557025531150017 -0.2413313336981292 0 0.13475341233392191 -0.24985250807845871 0 0.12936800559182801 -0.27235718855874019 0 0.15357400750707581 -0.26113889521412309 0 0.15185155798713029 -0.2798214517088996 0 0.15357400750707581 -0.26113889521412309 0 0.15185155798713029 -0.2798214517088996 0 0.1685908476252411 -0.27549950142870988 0 0.15357400750707581 -0.26113889521412309 0 0.1786538332685523 -0.25460290197261742 0 0.1557025531150017 -0.2413313336981292 0 0.15357400750707581 -0.26113889521412309 0 0.1685908476252411 -0.27549950142870988 0 0.1786538332685523 -0.25460290197261742 0 0.1685908476252411 -0.27549950142870988 0 0.18617355488529971 -0.27574024348564791 0 0.1767359623938897 -0.28805672144716421 0 0.1685908476252411 -0.27549950142870988 0 0.1786538332685523 -0.25460290197261742 0 0.18617355488529971 -0.27574024348564791 0 0.1878085464534032 -0.28860141635661651 0 0.18617355488529971 -0.27574024348564791 0 0.1767359623938897 -0.28805672144716421 0 0.1767359623938897 -0.28805672144716421 0 0.17503849261423551 -0.29613207522837531 0 0.16455616970949899 -0.29363679474380799 0 0.1767359623938897 -0.28805672144716421 0 0.17503849261423551 -0.29613207522837531 0 0.18338607500088641 -0.29879278397027731 0 0.18907724088750361 -0.29628162746642173 0 0.1878085464534032 -0.28860141635661651 0 0.18338607500088641 -0.29879278397027731 0 0.1878085464534032 -0.28860141635661651 0 0.1767359623938897 -0.28805672144716421 0 0.18338607500088641 -0.29879278397027731 0 0.18907724088750361 -0.29628162746642173 0 0.1872036309678928 -0.30450828607407959 0 0.18338607500088641 -0.29879278397027731 0 0.16624449121000939 -0.313691507573988 0 0.1872036309678928 -0.30450828607407959 0 0.1872036309678928 -0.30450828607407959 0 0.18338607500088641 -0.29879278397027731 0 0.17237924947348041 -0.3034393906012558 0 0.1801473472751117 -0.31602746403189369 0 0.16624449121000939 -0.313691507573988 0 0.1872036309678928 -0.30450828607407959 0 0.16624449121000939 -0.313691507573988 0 0.1872036309678928 -0.30450828607407959 0 0.17237924947348041 -0.3034393906012558 0 0.1872036309678928 -0.30450828607407959 0 0.18338607500088641 -0.29879278397027731 0 0.17503849261423551 -0.29613207522837531 0 0.18338607500088641 -0.29879278397027731 0 0.17237924947348041 -0.3034393906012558 0 0.16624449121000939 -0.313691507573988 0 0.15600928873626829 -0.30488595851687977 0 0.17237924947348041 -0.3034393906012558 0 0.15600928873626829 -0.30488595851687977 0 0.17237924947348041 -0.3034393906012558 0 0.16455616970949899 -0.29363679474380799 0 0.17503849261423551 -0.29613207522837531 0 0.17237924947348041 -0.3034393906012558 0 0.16455616970949899 -0.29363679474380799 0 0.15600928873626829 -0.30488595851687977 0 0.14984738564292591 -0.29498976961013329 0 0.16455616970949899 -0.29363679474380799 0 0.1685908476252411 -0.27549950142870988 0 0.1767359623938897 -0.28805672144716421 0 0.16455616970949899 -0.29363679474380799 0 0.15185155798713029 -0.2798214517088996 0 0.1685908476252411 -0.27549950142870988 0 0.16455616970949899 -0.29363679474380799 0 0.18809037809979001 -0.5 0 0.20038039862023599 -0.48291914820849002 0 0.18222678381117521 -0.48279505628326641 0 0.18809037809979001 -0.5 0 0.20038039862023599 -0.48291914820849002 0 0.21413447760444029 -0.5 0 0.20038039862023599 -0.48291914820849002 0 0.1868186143285987 -0.46613018820261132 0 0.18222678381117521 -0.48279505628326641 0 0.20038039862023599 -0.48291914820849002 0 0.20570137835005209 -0.46076033295649232 0 0.1868186143285987 -0.46613018820261132 0 0.20038039862023599 -0.48291914820849002 0 0.21935477369884451 -0.4738211708127838 0 0.20570137835005209 -0.46076033295649232 0 0.20038039862023599 -0.48291914820849002 0 0.21413447760444029 -0.5 0 0.21935477369884451 -0.4738211708127838 0 0.21413447760444029 -0.5 0 0.24017857710909041 -0.5 0 0.23456602300140131 -0.48244156266282823 0 0.21413447760444029 -0.5 0 0.23456602300140131 -0.48244156266282823 0 0.21935477369884451 -0.4738211708127838 0 0.25704613436640061 -0.47851187754702579 0 0.24017857710909041 -0.5 0 0.23456602300140131 -0.48244156266282823 0 0.25704613436640061 -0.47851187754702579 0 0.23456602300140131 -0.48244156266282823 0 0.24211615222823071 -0.45987476495433138 0 0.23456602300140131 -0.48244156266282823 0 0.21935477369884451 -0.4738211708127838 0 0.24211615222823071 -0.45987476495433138 0 0.21935477369884451 -0.4738211708127838 0 0.24211615222823071 -0.45987476495433138 0 0.22014413388641679 -0.45183767530244179 0 0.24211615222823071 -0.45987476495433138 0 0.24472284787994869 -0.44485666861058237 0 0.23251075997647891 -0.44099317432663571 0 0.25818984504014392 -0.43773795357143519 0 0.24472284787994869 -0.44485666861058237 0 0.2458814731527304 -0.43245118805556382 0 0.24472284787994869 -0.44485666861058237 0 0.23251075997647891 -0.44099317432663571 0 0.2458814731527304 -0.43245118805556382 0 0.24211615222823071 -0.45987476495433138 0 0.23251075997647891 -0.44099317432663571 0 0.22014413388641679 -0.45183767530244179 0 0.23251075997647891 -0.44099317432663571 0 0.22014413388641679 -0.45183767530244179 0 0.2215018063572394 -0.43756147612299612 0 0.22014413388641679 -0.45183767530244179 0 0.20539009081672979 -0.44052811493967381 0 0.20570137835005209 -0.46076033295649232 0 0.22014413388641679 -0.45183767530244179 0 0.2215018063572394 -0.43756147612299612 0 0.20539009081672979 -0.44052811493967381 0 0.21935477369884451 -0.4738211708127838 0 0.22014413388641679 -0.45183767530244179 0 0.20570137835005209 -0.46076033295649232 0 0.20570137835005209 -0.46076033295649232 0 0.18455113115686969 -0.44571606751776133 0 0.1868186143285987 -0.46613018820261132 0 0.20539009081672979 -0.44052811493967381 0 0.20570137835005209 -0.46076033295649232 0 0.18455113115686969 -0.44571606751776133 0 0.20539009081672979 -0.44052811493967381 0 0.1912054511972808 -0.42639814596127051 0 0.18455113115686969 -0.44571606751776133 0 0.1912054511972808 -0.42639814596127051 0 0.2107740210963007 -0.42447923593245579 0 0.1912054511972808 -0.42639814596127051 0 0.19419794612697311 -0.42121939532820762 0 0.2107740210963007 -0.42447923593245579 0 0.20539009081672979 -0.44052811493967381 0 0.1912054511972808 -0.42639814596127051 0 0.2107740210963007 -0.42447923593245579 0 0.19419794612697311 -0.42121939532820762 0 0.2107740210963007 -0.42447923593245579 0 0.19419794612697311 -0.42121939532820762 0 0.2037759855817606 -0.41195349406997528 0 0.2107740210963007 -0.42447923593245579 0 0.1912054511972808 -0.42639814596127051 0 0.19419794612697311 -0.42121939532820762 0 0.1776218711576453 -0.41795955472396051 0 0.1905128901329691 -0.40931664649905869 0 0.19620190653906111 -0.40965489231799501 0 0.19461340289229981 -0.40108886194303012 0 0.19419794612697311 -0.42121939532820762 0 0.1905128901329691 -0.40931664649905869 0 0.19620190653906111 -0.40965489231799501 0 0.19620190653906111 -0.40965489231799501 0 0.2037759855817606 -0.41195349406997528 0 0.19461340289229981 -0.40108886194303012 0 0.19419794612697311 -0.42121939532820762 0 0.19620190653906111 -0.40965489231799501 0 0.2037759855817606 -0.41195349406997528 0 0.2037759855817606 -0.41195349406997528 0 0.2107740210963007 -0.42447923593245579 0 0.22309265125416811 -0.40332508482818807 0 0.2215018063572394 -0.43756147612299612 0 0.20539009081672979 -0.44052811493967381 0 0.2107740210963007 -0.42447923593245579 0 0.2107740210963007 -0.42447923593245579 0 0.2386900260102707 -0.429969180113773 0 0.23731646036861351 -0.42187646254780581 0 0.2107740210963007 -0.42447923593245579 0 0.23731646036861351 -0.42187646254780581 0 0.2215018063572394 -0.43756147612299612 0 0.2107740210963007 -0.42447923593245579 0 0.2386900260102707 -0.429969180113773 0 0.2107740210963007 -0.42447923593245579 0 0.2386900260102707 -0.429969180113773 0 0.23251075997647891 -0.44099317432663571 0 0.2215018063572394 -0.43756147612299612 0 0.2386900260102707 -0.429969180113773 0 0.23251075997647891 -0.44099317432663571 0 0.2386900260102707 -0.429969180113773 0 0.2458814731527304 -0.43245118805556382 0 0.2638588996409259 -0.419273689163152 0 0.23731646036861351 -0.42187646254780581 0 0.2458814731527304 -0.43245118805556382 0 0.2386900260102707 -0.429969180113773 0 0.23731646036861351 -0.42187646254780581 0 0.2458814731527304 -0.43245118805556382 0 0.23731646036861351 -0.42187646254780581 0 0.24978898330324689 -0.40916651161004941 0 0.22309265125416811 -0.40332508482818807 0 0.2107740210963007 -0.42447923593245579 0 0.23731646036861351 -0.42187646254780581 0 0.22309265125416811 -0.40332508482818807 0 0.22309265125416811 -0.40332508482818807 0 0.23670873457410921 -0.37862547682540998 0 0.20968882108116921 -0.39156278165976471 0 0.22309265125416811 -0.40332508482818807 0 0.241068985204971 -0.39759556978275301 0 0.23670873457410921 -0.37862547682540998 0 0.25157189961603621 -0.40556130771334759 0 0.22309265125416811 -0.40332508482818807 0 0.25157189961603621 -0.40556130771334759 0 0.24978898330324689 -0.40916651161004941 0 0.22309265125416811 -0.40332508482818807 0 0.25157189961603621 -0.40556130771334759 0 0.22309265125416811 -0.40332508482818807 0 0.241068985204971 -0.39759556978275301 0 0.25290265537557088 -0.40287040976406652 0 0.241068985204971 -0.39759556978275301 0 0.23670873457410921 -0.37862547682540998 0 0.25290265537557088 -0.40287040976406652 0 0.23670873457410921 -0.37862547682540998 0 0.25290265537557088 -0.40287040976406652 0 0.25157189961603621 -0.40556130771334759 0 0.241068985204971 -0.39759556978275301 0 0.26290172883027341 -0.38265145819369878 0 0.24170827130145911 -0.36851600104022741 0 0.23670873457410921 -0.37862547682540998 0 0.21671442970331559 -0.36952189520083739 0 0.23670873457410921 -0.37862547682540998 0 0.20968882108116921 -0.39156278165976471 0 0.21671442970331559 -0.36952189520083739 0 0.20968882108116921 -0.39156278165976471 0 0.20223677674008531 -0.37536150164024062 0 0.2037759855817606 -0.41195349406997528 0 0.22309265125416811 -0.40332508482818807 0 0.19461340289229981 -0.40108886194303012 0 0.22309265125416811 -0.40332508482818807 0 0.20968882108116921 -0.39156278165976471 0 0.19461340289229981 -0.40108886194303012 0 0.22309265125416811 -0.40332508482818807 0 0.19461340289229981 -0.40108886194303012 0 0.20968882108116921 -0.39156278165976471 0 0.19461340289229981 -0.40108886194303012 0 0.18992932394886619 -0.39666052818210112 0 0.1905128901329691 -0.40931664649905869 0 0.19461340289229981 -0.40108886194303012 0 0.18992932394886619 -0.39666052818210112 0 0.20968882108116921 -0.39156278165976471 0 0.18992932394886619 -0.39666052818210112 0 0.20223677674008531 -0.37536150164024062 0 0.18992932394886619 -0.39666052818210112 0 0.20223677674008531 -0.37536150164024062 0 0.18992932394886619 -0.39666052818210112 0 0.20223677674008531 -0.37536150164024062 0 0.18681270099920699 -0.38292925290765389 0 0.18850222486442261 -0.37083334481065872 0 0.20223677674008531 -0.37536150164024062 0 0.18681270099920699 -0.38292925290765389 0 0.17566325228533769 -0.37771211281408068 0 0.1782493912946515 -0.3917726910587877 0 0.17012614292664549 -0.38687820672220707 0 0.18850222486442261 -0.37083334481065872 0 0.17566325228533769 -0.37771211281408068 0 0.18681270099920699 -0.38292925290765389 0 0.18992932394886619 -0.39666052818210112 0 0.18681270099920699 -0.38292925290765389 0 0.1782493912946515 -0.3917726910587877 0 0.17566325228533769 -0.37771211281408068 0 0.18681270099920699 -0.38292925290765389 0 0.1782493912946515 -0.3917726910587877 0 0.18992932394886619 -0.39666052818210112 0 0.17585869821371461 -0.40262021010515608 0 0.1782493912946515 -0.3917726910587877 0 0.18992932394886619 -0.39666052818210112 0 0.17585869821371461 -0.40262021010515608 0 0.1776218711576453 -0.41795955472396051 0 0.17585869821371461 -0.40262021010515608 0 0.1782493912946515 -0.3917726910587877 0 0.16594371311414291 -0.39642779341276491 0 0.16594371311414291 -0.39642779341276491 0 0.16064821501244969 -0.38160022960319528 0 0.14963988802522121 -0.39513145996045912 0 0.1782493912946515 -0.3917726910587877 0 0.16594371311414291 -0.39642779341276491 0 0.17012614292664549 -0.38687820672220707 0 0.16594371311414291 -0.39642779341276491 0 0.15776078216829489 -0.40293835279402729 0 0.14963988802522121 -0.39513145996045912 0 0.17585869821371461 -0.40262021010515608 0 0.16594371311414291 -0.39642779341276491 0 0.1659592332838444 -0.40776497492079672 0 0.16594371311414291 -0.39642779341276491 0 0.15776078216829489 -0.40293835279402729 0 0.1659592332838444 -0.40776497492079672 0 0.16594371311414291 -0.39642779341276491 0 0.17012614292664549 -0.38687820672220707 0 0.16064821501244969 -0.38160022960319528 0 0.17566325228533769 -0.37771211281408068 0 0.17012614292664549 -0.38687820672220707 0 0.16064821501244969 -0.38160022960319528 0 0.14708381304481141 -0.36811750004093857 0 0.16064821501244969 -0.38160022960319528 0 0.1463829152961347 -0.38150174324215208 0 0.1463829152961347 -0.38150174324215208 0 0.1281597451020563 -0.38115778336401568 0 0.14963988802522121 -0.39513145996045912 0 0.16064821501244969 -0.38160022960319528 0 0.1463829152961347 -0.38150174324215208 0 0.14963988802522121 -0.39513145996045912 0 0.14708381304481141 -0.36811750004093857 0 0.1463829152961347 -0.38150174324215208 0 0.1281597451020563 -0.38115778336401568 0 0.1281597451020563 -0.38115778336401568 0 0.13844776812816589 -0.4082699826359002 0 0.1213787173422964 -0.40689881104021719 0 0.1281597451020563 -0.38115778336401568 0 0.14963988802522121 -0.39513145996045912 0 0.13844776812816589 -0.4082699826359002 0 0.1281597451020563 -0.38115778336401568 0 0.13844776812816589 -0.4082699826359002 0 0.14963988802522121 -0.39513145996045912 0 0.14950029424997099 -0.41242918288208852 0 0.13844776812816589 -0.4082699826359002 0 0.15776078216829489 -0.40293835279402729 0 0.14963988802522121 -0.39513145996045912 0 0.14950029424997099 -0.41242918288208852 0 0.14950029424997099 -0.41242918288208852 0 0.15120007909530961 -0.42300577268584588 0 0.15718442722000359 -0.42800128466806059 0 0.14950029424997099 -0.41242918288208852 0 0.14145616510733119 -0.421806866014108 0 0.15120007909530961 -0.42300577268584588 0 0.14950029424997099 -0.41242918288208852 0 0.13844776812816589 -0.4082699826359002 0 0.1213787173422964 -0.40689881104021719 0 0.14950029424997099 -0.41242918288208852 0 0.1307011521678621 -0.41761428033347592 0 0.1213787173422964 -0.40689881104021719 0 0.14950029424997099 -0.41242918288208852 0 0.1213787173422964 -0.40689881104021719 0 0.14950029424997099 -0.41242918288208852 0 0.14145616510733119 -0.421806866014108 0 0.1307011521678621 -0.41761428033347592 0 0.14145616510733119 -0.421806866014108 0 0.1307011521678621 -0.41761428033347592 0 0.12240586545517421 -0.42840982192807592 0 0.14145616510733119 -0.421806866014108 0 0.13000749780347531 -0.43239926751058583 0 0.12240586545517421 -0.42840982192807592 0 0.14145616510733119 -0.421806866014108 0 0.12240586545517421 -0.42840982192807592 0 0.13000749780347531 -0.43239926751058583 0 0.15665942980393291 -0.42978575717912659 0 0.13000749780347531 -0.43239926751058583 0 0.15665942980393291 -0.42978575717912659 0 0.14212561689627659 -0.44048565231620218 0 0.14145616510733119 -0.421806866014108 0 0.13000749780347531 -0.43239926751058583 0 0.15665942980393291 -0.42978575717912659 0 0.14145616510733119 -0.421806866014108 0 0.15120007909530961 -0.42300577268584588 0 0.15665942980393291 -0.42978575717912659 0 0.15120007909530961 -0.42300577268584588 0 0.15665942980393291 -0.42978575717912659 0 0.15718442722000359 -0.42800128466806059 0 0.17163688129826099 -0.42831705599008579 0 0.15718442722000359 -0.42800128466806059 0 0.1776218711576453 -0.41795955472396051 0 0.15665942980393291 -0.42978575717912659 0 0.17163688129826099 -0.42831705599008579 0 0.16336205815939719 -0.44263729598236251 0 0.17163688129826099 -0.42831705599008579 0 0.16336205815939719 -0.44263729598236251 0 0.15665942980393291 -0.42978575717912659 0 0.17163688129826099 -0.42831705599008579 0 0.15665942980393291 -0.42978575717912659 0 0.17163688129826099 -0.42831705599008579 0 0.15718442722000359 -0.42800128466806059 0 0.15665942980393291 -0.42978575717912659 0 0.15718442722000359 -0.42800128466806059 0 0.14950029424997099 -0.41242918288208852 0 0.15718442722000359 -0.42800128466806059 0 0.1776218711576453 -0.41795955472396051 0 0.14950029424997099 -0.41242918288208852 0 0.1776218711576453 -0.41795955472396051 0 0.14950029424997099 -0.41242918288208852 0 0.1659592332838444 -0.40776497492079672 0 0.1776218711576453 -0.41795955472396051 0 0.15776078216829489 -0.40293835279402729 0 0.14950029424997099 -0.41242918288208852 0 0.1659592332838444 -0.40776497492079672 0 0.19419794612697311 -0.42121939532820762 0 0.1776218711576453 -0.41795955472396051 0 0.1905128901329691 -0.40931664649905869 0 0.18992932394886619 -0.39666052818210112 0 0.1776218711576453 -0.41795955472396051 0 0.18992932394886619 -0.39666052818210112 0 0.1776218711576453 -0.41795955472396051 0 0.19419794612697311 -0.42121939532820762 0 0.1905128901329691 -0.40931664649905869 0 0.1776218711576453 -0.41795955472396051 0 0.17585869821371461 -0.40262021010515608 0 0.1659592332838444 -0.40776497492079672 0 0.1776218711576453 -0.41795955472396051 0 0.1912054511972808 -0.42639814596127051 0 0.17163688129826099 -0.42831705599008579 0 0.1776218711576453 -0.41795955472396051 0 0.1912054511972808 -0.42639814596127051 0 0.17163688129826099 -0.42831705599008579 0 0.18455113115686969 -0.44571606751776133 0 0.1912054511972808 -0.42639814596127051 0 0.17163688129826099 -0.42831705599008579 0 0.17163688129826099 -0.42831705599008579 0 0.1776218711576453 -0.41795955472396051 0 0.17163688129826099 -0.42831705599008579 0 0.17206908862532791 -0.44728440026772959 0 0.18455113115686969 -0.44571606751776133 0 0.17206908862532791 -0.44728440026772959 0 0.18455113115686969 -0.44571606751776133 0 0.1741918851623763 -0.45758911975649758 0 0.18455113115686969 -0.44571606751776133 0 0.1868186143285987 -0.46613018820261132 0 0.1741918851623763 -0.45758911975649758 0 0.1868186143285987 -0.46613018820261132 0 0.1741918851623763 -0.45758911975649758 0 0.17447668822239371 -0.4696823882969422 0 0.1741918851623763 -0.45758911975649758 0 0.16562634220448089 -0.45401871040729341 0 0.1634214440547701 -0.46562520005523828 0 0.1741918851623763 -0.45758911975649758 0 0.1634214440547701 -0.46562520005523828 0 0.17447668822239371 -0.4696823882969422 0 0.16562634220448089 -0.45401871040729341 0 0.1634214440547701 -0.46562520005523828 0 0.15508723502053301 -0.45695753597463901 0 0.17163688129826099 -0.42831705599008579 0 0.17206908862532791 -0.44728440026772959 0 0.16336205815939719 -0.44263729598236251 0 0.16562634220448089 -0.45401871040729341 0 0.16336205815939719 -0.44263729598236251 0 0.15508723502053301 -0.45695753597463901 0 0.16336205815939719 -0.44263729598236251 0 0.15508723502053301 -0.45695753597463901 0 0.15665942980393291 -0.42978575717912659 0 0.16336205815939719 -0.44263729598236251 0 0.14977367956611831 -0.45319050478608452 0 0.17206908862532791 -0.44728440026772959 0 0.16562634220448089 -0.45401871040729341 0 0.16336205815939719 -0.44263729598236251 0 0.17206908862532791 -0.44728440026772959 0 0.1741918851623763 -0.45758911975649758 0 0.16562634220448089 -0.45401871040729341 0 0.14212561689627659 -0.44048565231620218 0 0.13206186041158 -0.44656707978901222 0 0.14977367956611831 -0.45319050478608452 0 0.15665942980393291 -0.42978575717912659 0 0.14212561689627659 -0.44048565231620218 0 0.14977367956611831 -0.45319050478608452 0 0.15665942980393291 -0.42978575717912659 0 0.14977367956611831 -0.45319050478608452 0 0.16336205815939719 -0.44263729598236251 0 0.14977367956611831 -0.45319050478608452 0 0.15508723502053301 -0.45695753597463901 0 0.13000749780347531 -0.43239926751058583 0 0.14212561689627659 -0.44048565231620218 0 0.13206186041158 -0.44656707978901222 0 0.13000749780347531 -0.43239926751058583 0 0.13206186041158 -0.44656707978901222 0 0.1207788002162412 -0.44175673465770321 0 0.13493618354559911 -0.46013899705815031 0 0.1231504629112728 -0.46814422870400291 0 0.1176902768468923 -0.45304781348917073 0 0.13493618354559911 -0.46013899705815031 0 0.14288792932830391 -0.47659525239304218 0 0.1231504629112728 -0.46814422870400291 0 0.13206186041158 -0.44656707978901222 0 0.13493618354559911 -0.46013899705815031 0 0.14977367956611831 -0.45319050478608452 0 0.13206186041158 -0.44656707978901222 0 0.13493618354559911 -0.46013899705815031 0 0.1176902768468923 -0.45304781348917073 0 0.1634214440547701 -0.46562520005523828 0 0.15508723502053301 -0.45695753597463901 0 0.14288792932830391 -0.47659525239304218 0 0.13493618354559911 -0.46013899705815031 0 0.14977367956611831 -0.45319050478608452 0 0.14288792932830391 -0.47659525239304218 0 0.14977367956611831 -0.45319050478608452 0 0.15508723502053301 -0.45695753597463901 0 0.14288792932830391 -0.47659525239304218 0 0.14977367956611831 -0.45319050478608452 0 0.14288792932830391 -0.47659525239304218 0 0.14288792932830391 -0.47659525239304218 0 0.1184084192877506 -0.48240790924173738 0 0.1231504629112728 -0.46814422870400291 0 0.14288792932830391 -0.47659525239304218 0 0.13600217909048939 -0.50000000000000011 0 0.14288792932830391 -0.47659525239304218 0 0.13600217909048939 -0.50000000000000011 0 0.1184084192877506 -0.48240790924173738 0 0.14288792932830391 -0.47659525239304218 0 0.13600217909048939 -0.50000000000000011 0 0.16204627859513959 -0.5 0 0.14288792932830391 -0.47659525239304218 0 0.16204627859513959 -0.5 0 0.16524791953451781 -0.47870298167254499 0 0.16204627859513959 -0.5 0 0.16524791953451781 -0.47870298167254499 0 0.18222678381117521 -0.48279505628326641 0 0.1634214440547701 -0.46562520005523828 0 0.14288792932830391 -0.47659525239304218 0 0.16524791953451781 -0.47870298167254499 0 0.1634214440547701 -0.46562520005523828 0 0.16524791953451781 -0.47870298167254499 0 0.17447668822239371 -0.4696823882969422 0 0.16524791953451781 -0.47870298167254499 0 0.18222678381117521 -0.48279505628326641 0 0.17447668822239371 -0.4696823882969422 0 0.1868186143285987 -0.46613018820261132 0 0.18222678381117521 -0.48279505628326641 0 0.17447668822239371 -0.4696823882969422 0 0.18809037809979001 -0.5 0 0.16204627859513959 -0.5 0 0.18222678381117521 -0.48279505628326641 0 0.067898745638923785 -0.48049136652368418 0 0.08290382813878705 -0.5 0 0.056354652662935822 -0.5 0 0.067898745638923785 -0.48049136652368418 0 0.094050710837207563 -0.4823657949190901 0 0.085710077100291812 -0.46342059452150491 0 0.067898745638923785 -0.48049136652368418 0 0.08290382813878705 -0.5 0 0.094050710837207563 -0.4823657949190901 0 0.08290382813878705 -0.5 0 0.10945300361463819 -0.5 0 0.094050710837207563 -0.4823657949190901 0 0.10945300361463819 -0.5 0 0.1184084192877506 -0.48240790924173738 0 0.094050710837207563 -0.4823657949190901 0 0.13600217909048939 -0.50000000000000011 0 0.10945300361463819 -0.5 0 0.1184084192877506 -0.48240790924173738 0 0.1184084192877506 -0.48240790924173738 0 0.10490622994459201 -0.46734217943428957 0 0.1231504629112728 -0.46814422870400291 0 0.094050710837207563 -0.4823657949190901 0 0.10490622994459201 -0.46734217943428957 0 0.085710077100291812 -0.46342059452150491 0 0.1184084192877506 -0.48240790924173738 0 0.094050710837207563 -0.4823657949190901 0 0.10490622994459201 -0.46734217943428957 0 0.10490622994459201 -0.46734217943428957 0 0.1176902768468923 -0.45304781348917073 0 0.099309908031927741 -0.45155660189971752 0 0.10490622994459201 -0.46734217943428957 0 0.099309908031927741 -0.45155660189971752 0 0.085710077100291812 -0.46342059452150491 0 0.10490622994459201 -0.46734217943428957 0 0.1231504629112728 -0.46814422870400291 0 0.1176902768468923 -0.45304781348917073 0 0.1207788002162412 -0.44175673465770321 0 0.1176902768468923 -0.45304781348917073 0 0.1033555658030174 -0.43501277784204412 0 0.13206186041158 -0.44656707978901222 0 0.1207788002162412 -0.44175673465770321 0 0.1176902768468923 -0.45304781348917073 0 0.1176902768468923 -0.45304781348917073 0 0.099309908031927741 -0.45155660189971752 0 0.1033555658030174 -0.43501277784204412 0 0.085893662653112685 -0.44106518535153649 0 0.1033555658030174 -0.43501277784204412 0 0.099309908031927741 -0.45155660189971752 0 0.085893662653112685 -0.44106518535153649 0 0.1033555658030174 -0.43501277784204412 0 0.085893662653112685 -0.44106518535153649 0 0.079625305612804148 -0.43733978663728879 0 0.1033555658030174 -0.43501277784204412 0 0.085893662653112685 -0.44106518535153649 0 0.079605480680394747 -0.45282874724441469 0 0.088167163498292012 -0.45165950940630523 0 0.099309908031927741 -0.45155660189971752 0 0.085893662653112685 -0.44106518535153649 0 0.088167163498292012 -0.45165950940630523 0 0.099309908031927741 -0.45155660189971752 0 0.088167163498292012 -0.45165950940630523 0 0.085710077100291812 -0.46342059452150491 0 0.079605480680394747 -0.45282874724441469 0 0.088167163498292012 -0.45165950940630523 0 0.085710077100291812 -0.46342059452150491 0 0.079605480680394747 -0.45282874724441469 0 0.068481287192418555 -0.46227653620166798 0 0.068431759503208012 -0.44711759286102898 0 0.067898745638923785 -0.48049136652368418 0 0.085710077100291812 -0.46342059452150491 0 0.068481287192418555 -0.46227653620166798 0 0.079605480680394747 -0.45282874724441469 0 0.085710077100291812 -0.46342059452150491 0 0.068481287192418555 -0.46227653620166798 0 0.068481287192418555 -0.46227653620166798 0 0.068431759503208012 -0.44711759286102898 0 0.056977746870917001 -0.45290899183861438 0 0.085893662653112685 -0.44106518535153649 0 0.068431759503208012 -0.44711759286102898 0 0.079625305612804148 -0.43733978663728879 0 0.085893662653112685 -0.44106518535153649 0 0.068431759503208012 -0.44711759286102898 0 0.085893662653112685 -0.44106518535153649 0 0.079605480680394747 -0.45282874724441469 0 0.068431759503208012 -0.44711759286102898 0 0.079625305612804148 -0.43733978663728879 0 0.055895045422590918 -0.43966679543253329 0 0.068431759503208012 -0.44711759286102898 0 0.079625305612804148 -0.43733978663728879 0 0.055895045422590918 -0.43966679543253329 0 0.069634147641787103 -0.43137516427331463 0 0.064608537141081168 -0.4236178432623664 0 0.055895045422590918 -0.43966679543253329 0 0.069634147641787103 -0.43137516427331463 0 0.079625305612804148 -0.43733978663728879 0 0.055895045422590918 -0.43966679543253329 0 0.069634147641787103 -0.43137516427331463 0 0.064608537141081168 -0.4236178432623664 0 0.078407702390672199 -0.4248762317610697 0 0.069634147641787103 -0.43137516427331463 0 0.078407702390672199 -0.4248762317610697 0 0.079625305612804148 -0.43733978663728879 0 0.064608537141081168 -0.4236178432623664 0 0.075464859328515155 -0.4059559435455854 0 0.056369794641065729 -0.41269887955685292 0 0.064608537141081168 -0.4236178432623664 0 0.078407702390672199 -0.4248762317610697 0 0.075464859328515155 -0.4059559435455854 0 0.091848927109479866 -0.4200936481411216 0 0.097839349364797101 -0.40591346807229622 0 0.075464859328515155 -0.4059559435455854 0 0.091848927109479866 -0.4200936481411216 0 0.078407702390672199 -0.4248762317610697 0 0.075464859328515155 -0.4059559435455854 0 0.091848927109479866 -0.4200936481411216 0 0.088309375228993403 -0.42933061109538112 0 0.078407702390672199 -0.4248762317610697 0 0.088309375228993403 -0.42933061109538112 0 0.079625305612804148 -0.43733978663728879 0 0.1033555658030174 -0.43501277784204412 0 0.079625305612804148 -0.43733978663728879 0 0.1033555658030174 -0.43501277784204412 0 0.088309375228993403 -0.42933061109538112 0 0.078407702390672199 -0.4248762317610697 0 0.079625305612804148 -0.43733978663728879 0 0.091848927109479866 -0.4200936481411216 0 0.1033555658030174 -0.43501277784204412 0 0.1086102483546028 -0.41861116289019829 0 0.091848927109479866 -0.4200936481411216 0 0.088309375228993403 -0.42933061109538112 0 0.1033555658030174 -0.43501277784204412 0 0.1033555658030174 -0.43501277784204412 0 0.12240586545517421 -0.42840982192807592 0 0.13000749780347531 -0.43239926751058583 0 0.1207788002162412 -0.44175673465770321 0 0.1033555658030174 -0.43501277784204412 0 0.13000749780347531 -0.43239926751058583 0 0.1033555658030174 -0.43501277784204412 0 0.12240586545517421 -0.42840982192807592 0 0.1033555658030174 -0.43501277784204412 0 0.12240586545517421 -0.42840982192807592 0 0.1086102483546028 -0.41861116289019829 0 0.13000749780347531 -0.43239926751058583 0 0.1033555658030174 -0.43501277784204412 0 0.1307011521678621 -0.41761428033347592 0 0.12240586545517421 -0.42840982192807592 0 0.1207739958299839 -0.41788351904799181 0 0.12240586545517421 -0.42840982192807592 0 0.1207739958299839 -0.41788351904799181 0 0.1086102483546028 -0.41861116289019829 0 0.1307011521678621 -0.41761428033347592 0 0.1213787173422964 -0.40689881104021719 0 0.1207739958299839 -0.41788351904799181 0 0.1213787173422964 -0.40689881104021719 0 0.1207739958299839 -0.41788351904799181 0 0.1086102483546028 -0.41861116289019829 0 0.1213787173422964 -0.40689881104021719 0 0.1086102483546028 -0.41861116289019829 0 0.097839349364797101 -0.40591346807229622 0 0.091848927109479866 -0.4200936481411216 0 0.1086102483546028 -0.41861116289019829 0 0.097839349364797101 -0.40591346807229622 0 0.097839349364797101 -0.40591346807229622 0 0.098763971378861379 -0.38976443816158501 0 0.085862436294045039 -0.39389399616190279 0 0.097839349364797101 -0.40591346807229622 0 0.1133574384188218 -0.39129471479617839 0 0.098763971378861379 -0.38976443816158501 0 0.1213787173422964 -0.40689881104021719 0 0.097839349364797101 -0.40591346807229622 0 0.1133574384188218 -0.39129471479617839 0 0.1281597451020563 -0.38115778336401568 0 0.1213787173422964 -0.40689881104021719 0 0.1133574384188218 -0.39129471479617839 0 0.1281597451020563 -0.38115778336401568 0 0.1133574384188218 -0.39129471479617839 0 0.10427460614818621 -0.37080403533498091 0 0.1133574384188218 -0.39129471479617839 0 0.098763971378861379 -0.38976443816158501 0 0.10427460614818621 -0.37080403533498091 0 0.098763971378861379 -0.38976443816158501 0 0.086807940835058189 -0.37966635199909982 0 0.10427460614818621 -0.37080403533498091 0 0.086807940835058189 -0.37966635199909982 0 0.085862436294045039 -0.39389399616190279 0 0.070436060562993341 -0.38816977903094779 0 0.098763971378861379 -0.38976443816158501 0 0.086807940835058189 -0.37966635199909982 0 0.085862436294045039 -0.39389399616190279 0 0.097839349364797101 -0.40591346807229622 0 0.085862436294045039 -0.39389399616190279 0 0.075464859328515155 -0.4059559435455854 0 0.075464859328515155 -0.4059559435455854 0 0.070436060562993341 -0.38816977903094779 0 0.057356190462530952 -0.39688665176014348 0 0.075464859328515155 -0.4059559435455854 0 0.057356190462530952 -0.39688665176014348 0 0.056369794641065729 -0.41269887955685292 0 0.075464859328515155 -0.4059559435455854 0 0.057356190462530952 -0.39688665176014348 0 0.085862436294045039 -0.39389399616190279 0 0.075464859328515155 -0.4059559435455854 0 0.070436060562993341 -0.38816977903094779 0 0.070436060562993341 -0.38816977903094779 0 0.057356190462530952 -0.39688665176014348 0 0.070436060562993341 -0.38816977903094779 0 0.062764569392891378 -0.37124251162150212 0 0.074591093027164365 -0.37200829716783818 0 0.086807940835058189 -0.37966635199909982 0 0.070436060562993341 -0.38816977903094779 0 0.074591093027164365 -0.37200829716783818 0 0.070436060562993341 -0.38816977903094779 0 0.053538507748874947 -0.3799221680167808 0 0.062764569392891378 -0.37124251162150212 0 0.070436060562993341 -0.38816977903094779 0 0.053538507748874947 -0.3799221680167808 0 0.057356190462530952 -0.39688665176014348 0 0.053538507748874947 -0.3799221680167808 0 0.057356190462530952 -0.39688665176014348 0 0.036165882507228388 -0.38627399506559362 0 0.057356190462530952 -0.39688665176014348 0 0.037191662475882743 -0.41032498277977952 0 0.036165882507228388 -0.38627399506559362 0 0.022746965291575501 -0.39889368359455307 0 0.037191662475882743 -0.41032498277977952 0 0.057356190462530952 -0.39688665176014348 0 0.036165882507228388 -0.38627399506559362 0 0.057356190462530952 -0.39688665176014348 0 0.036165882507228388 -0.38627399506559362 0 0.037191662475882743 -0.41032498277977952 0 0.036165882507228388 -0.38627399506559362 0 0.04195676848564947 -0.3727024963903206 0 0.02873354650264837 -0.36629896187161981 0 0.053538507748874947 -0.3799221680167808 0 0.036165882507228388 -0.38627399506559362 0 0.04195676848564947 -0.3727024963903206 0 0.036165882507228388 -0.38627399506559362 0 0.014975574551926231 -0.37566133837104287 0 0.036165882507228388 -0.38627399506559362 0 0.014975574551926231 -0.37566133837104287 0 0.02873354650264837 -0.36629896187161981 0 0.036165882507228388 -0.38627399506559362 0 0.014975574551926231 -0.37566133837104287 0 0.022746965291575501 -0.39889368359455307 0 -0.003054764863230162 -0.38327110372534579 0 0.014975574551926231 -0.37566133837104287 0 0.0043376777961855089 -0.39967183539507678 0 0.014975574551926231 -0.37566133837104287 0 0.0043376777961855089 -0.39967183539507678 0 0.022746965291575501 -0.39889368359455307 0 0.01702713448923545 -0.42376331379941679 0 0.038421678477129809 -0.43017289736809988 0 0.037191662475882743 -0.41032498277977952 0 0.022746965291575501 -0.39889368359455307 0 0.01702713448923545 -0.42376331379941679 0 0.037191662475882743 -0.41032498277977952 0 0.01702713448923545 -0.42376331379941679 0 0.037191662475882743 -0.41032498277977952 0 -0.0072811505478054747 -0.41683981000625953 0 0.0043376777961855089 -0.39967183539507678 0 0.01702713448923545 -0.42376331379941679 0 0.0043376777961855089 -0.39967183539507678 0 0.022746965291575501 -0.39889368359455307 0 0.01702713448923545 -0.42376331379941679 0 -0.0031373934974118531 -0.4372016448190541 0 0.01702713448923545 -0.42376331379941679 0 -0.0072811505478054747 -0.41683981000625953 0 -0.0031373934974118531 -0.4372016448190541 0 0.01702713448923545 -0.42376331379941679 0 0.01702713448923545 -0.42376331379941679 0 0.038421678477129809 -0.43017289736809988 0 0.027972303983064509 -0.44394256472583898 0 0.038421678477129809 -0.43017289736809988 0 0.037191662475882743 -0.41032498277977952 0 0.05309584143651222 -0.42640322475700532 0 0.057356190462530952 -0.39688665176014348 0 0.037191662475882743 -0.41032498277977952 0 0.056369794641065729 -0.41269887955685292 0 0.037191662475882743 -0.41032498277977952 0 0.056369794641065729 -0.41269887955685292 0 0.05309584143651222 -0.42640322475700532 0 0.064608537141081168 -0.4236178432623664 0 0.056369794641065729 -0.41269887955685292 0 0.05309584143651222 -0.42640322475700532 0 0.038421678477129809 -0.43017289736809988 0 0.05309584143651222 -0.42640322475700532 0 0.055895045422590918 -0.43966679543253329 0 0.064608537141081168 -0.4236178432623664 0 0.05309584143651222 -0.42640322475700532 0 0.055895045422590918 -0.43966679543253329 0 0.055895045422590918 -0.43966679543253329 0 0.056977746870917001 -0.45290899183861438 0 0.043124599130093803 -0.44990600242985612 0 0.068431759503208012 -0.44711759286102898 0 0.055895045422590918 -0.43966679543253329 0 0.056977746870917001 -0.45290899183861438 0 0.056977746870917001 -0.45290899183861438 0 0.048255812076070867 -0.46852389594969868 0 0.043124599130093803 -0.44990600242985612 0 0.068481287192418555 -0.46227653620166798 0 0.056977746870917001 -0.45290899183861438 0 0.048255812076070867 -0.46852389594969868 0 0.048255812076070867 -0.46852389594969868 0 0.043124599130093803 -0.44990600242985612 0 0.031225007950789679 -0.46422086926435152 0 0.038421678477129809 -0.43017289736809988 0 0.043124599130093803 -0.44990600242985612 0 0.027972303983064509 -0.44394256472583898 0 0.043124599130093803 -0.44990600242985612 0 0.027972303983064509 -0.44394256472583898 0 0.031225007950789679 -0.46422086926435152 0 0.038421678477129809 -0.43017289736809988 0 0.055895045422590918 -0.43966679543253329 0 0.043124599130093803 -0.44990600242985612 0 0.01702713448923545 -0.42376331379941679 0 0.027972303983064509 -0.44394256472583898 0 0.0093628688378709132 -0.45459560444918412 0 -0.0031373934974118531 -0.4372016448190541 0 0.01702713448923545 -0.42376331379941679 0 0.0093628688378709132 -0.45459560444918412 0 0.027972303983064509 -0.44394256472583898 0 0.0093628688378709132 -0.45459560444918412 0 0.031225007950789679 -0.46422086926435152 0 0.0093628688378709132 -0.45459560444918412 0 0.031225007950789679 -0.46422086926435152 0 0.01778448512092913 -0.48030573077325989 0 0.031225007950789679 -0.46422086926435152 0 0.01778448512092913 -0.48030573077325989 0 0.042769594942306498 -0.48628160014081218 0 -0.010022809886413971 -0.47531998791934532 0 0.0093628688378709132 -0.45459560444918412 0 0.01778448512092913 -0.48030573077325989 0 -0.010022809886413971 -0.47531998791934532 0 0.01778448512092913 -0.48030573077325989 0 0.003256301711233377 -0.50000000000000111 0 0.01778448512092913 -0.48030573077325989 0 0.029805477187084591 -0.5 0 0.042769594942306498 -0.48628160014081218 0 0.01778448512092913 -0.48030573077325989 0 0.003256301711233377 -0.50000000000000111 0 0.029805477187084591 -0.5 0 0.029805477187084591 -0.5 0 0.042769594942306498 -0.48628160014081218 0 0.056354652662935822 -0.5 0 0.048255812076070867 -0.46852389594969868 0 0.031225007950789679 -0.46422086926435152 0 0.042769594942306498 -0.48628160014081218 0 0.067898745638923785 -0.48049136652368418 0 0.068481287192418555 -0.46227653620166798 0 0.048255812076070867 -0.46852389594969868 0 0.067898745638923785 -0.48049136652368418 0 0.048255812076070867 -0.46852389594969868 0 0.042769594942306498 -0.48628160014081218 0 0.067898745638923785 -0.48049136652368418 0 0.042769594942306498 -0.48628160014081218 0 0.056354652662935822 -0.5 0 0.088065462753907753 -0.29385926794461431 0 0.071177670665117584 -0.28429695378540287 0 0.090889953518468569 -0.27927851446470292 0 0.088065462753907753 -0.29385926794461431 0 0.075146119388156948 -0.29975625129230038 0 0.071177670665117584 -0.28429695378540287 0 0.088065462753907753 -0.29385926794461431 0 0.075146119388156948 -0.29975625129230038 0 0.094249151965831446 -0.30659117736973918 0 0.075146119388156948 -0.29975625129230038 0 0.094249151965831446 -0.30659117736973918 0 0.076158151505467273 -0.31528500416429062 0 0.075146119388156948 -0.29975625129230038 0 0.076158151505467273 -0.31528500416429062 0 0.057316096250853203 -0.30364945300113771 0 0.075146119388156948 -0.29975625129230038 0 0.071177670665117584 -0.28429695378540287 0 0.057316096250853203 -0.30364945300113771 0 0.071177670665117584 -0.28429695378540287 0 0.083579964997909553 -0.25777621200198281 0 0.057949317946716872 -0.26907751766107751 0 0.083579964997909553 -0.25777621200198281 0 0.055945778335013123 -0.25070505853966041 0 0.057949317946716872 -0.26907751766107751 0 0.071177670665117584 -0.28429695378540287 0 0.083579964997909553 -0.25777621200198281 0 0.090889953518468569 -0.27927851446470292 0 0.083579964997909553 -0.25777621200198281 0 0.090889953518468569 -0.27927851446470292 0 0.10460508263913321 -0.26933270524925979 0 0.090889953518468569 -0.27927851446470292 0 0.10460508263913321 -0.26933270524925979 0 0.1085057463161767 -0.29262847490679239 0 0.10460508263913321 -0.26933270524925979 0 0.1162321014502215 -0.25452752110021859 0 0.097500371512230927 -0.24251523744947309 0 0.083579964997909553 -0.25777621200198281 0 0.10460508263913321 -0.26933270524925979 0 0.097500371512230927 -0.24251523744947309 0 0.12936800559182801 -0.27235718855874019 0 0.10460508263913321 -0.26933270524925979 0 0.1162321014502215 -0.25452752110021859 0 0.12936800559182801 -0.27235718855874019 0 0.10460508263913321 -0.26933270524925979 0 0.1085057463161767 -0.29262847490679239 0 0.13508701183200689 -0.29197957117870571 0 0.12936800559182801 -0.27235718855874019 0 0.1085057463161767 -0.29262847490679239 0 0.088065462753907753 -0.29385926794461431 0 0.090889953518468569 -0.27927851446470292 0 0.1085057463161767 -0.29262847490679239 0 0.1085057463161767 -0.29262847490679239 0 0.094249151965831446 -0.30659117736973918 0 0.10893169572998811 -0.31290821652593759 0 0.088065462753907753 -0.29385926794461431 0 0.1085057463161767 -0.29262847490679239 0 0.094249151965831446 -0.30659117736973918 0 0.12642119591326259 -0.30901513411978632 0 0.13508701183200689 -0.29197957117870571 0 0.1085057463161767 -0.29262847490679239 0 0.12642119591326259 -0.30901513411978632 0 0.1085057463161767 -0.29262847490679239 0 0.10893169572998811 -0.31290821652593759 0 0.1243262116942427 -0.33205795057380549 0 0.10893169572998811 -0.31290821652593759 0 0.10758369904983719 -0.3269333848202467 0 0.12642119591326259 -0.30901513411978632 0 0.1243262116942427 -0.33205795057380549 0 0.10893169572998811 -0.31290821652593759 0 0.1243262116942427 -0.33205795057380549 0 0.10758369904983719 -0.3269333848202467 0 0.11787172207594671 -0.35404558409213099 0 0.10758369904983719 -0.3269333848202467 0 0.11787172207594671 -0.35404558409213099 0 0.094158147899250005 -0.33083246569532898 0 0.10758369904983719 -0.3269333848202467 0 0.098131911527981952 -0.34423610169420787 0 0.10758369904983719 -0.3269333848202467 0 0.11787172207594671 -0.35404558409213099 0 0.098131911527981952 -0.34423610169420787 0 0.094158147899250005 -0.33083246569532898 0 0.093783316894622964 -0.31969120462027029 0 0.10758369904983719 -0.3269333848202467 0 0.094249151965831446 -0.30659117736973918 0 0.093783316894622964 -0.31969120462027029 0 0.10893169572998811 -0.31290821652593759 0 0.093783316894622964 -0.31969120462027029 0 0.10893169572998811 -0.31290821652593759 0 0.10758369904983719 -0.3269333848202467 0 0.1281597451020563 -0.38115778336401568 0 0.11787172207594671 -0.35404558409213099 0 0.1281597451020563 -0.38115778336401568 0 0.11787172207594671 -0.35404558409213099 0 0.10427460614818621 -0.37080403533498091 0 0.11787172207594671 -0.35404558409213099 0 0.098131911527981952 -0.34423610169420787 0 0.1016694048852716 -0.35738256217564929 0 0.098131911527981952 -0.34423610169420787 0 0.1016694048852716 -0.35738256217564929 0 0.08639937978897165 -0.36044452758127737 0 0.11787172207594671 -0.35404558409213099 0 0.1016694048852716 -0.35738256217564929 0 0.10427460614818621 -0.37080403533498091 0 0.1016694048852716 -0.35738256217564929 0 0.10427460614818621 -0.37080403533498091 0 0.08639937978897165 -0.36044452758127737 0 0.086807940835058189 -0.37966635199909982 0 0.10427460614818621 -0.37080403533498091 0 0.08639937978897165 -0.36044452758127737 0 0.086807940835058189 -0.37966635199909982 0 0.08639937978897165 -0.36044452758127737 0 0.074591093027164365 -0.37200829716783818 0 0.098131911527981952 -0.34423610169420787 0 0.08639937978897165 -0.36044452758127737 0 0.078454337424435874 -0.34300590822234373 0 0.08639937978897165 -0.36044452758127737 0 0.068874190034892993 -0.35790796680157277 0 0.078454337424435874 -0.34300590822234373 0 0.067635086456119514 -0.34430005953131088 0 0.068874190034892993 -0.35790796680157277 0 0.078454337424435874 -0.34300590822234373 0 0.067635086456119514 -0.34430005953131088 0 0.068874190034892993 -0.35790796680157277 0 0.059002875194557547 -0.34943156079448268 0 0.067635086456119514 -0.34430005953131088 0 0.061495040822218197 -0.33910827047675662 0 0.059002875194557547 -0.34943156079448268 0 0.08639937978897165 -0.36044452758127737 0 0.068874190034892993 -0.35790796680157277 0 0.074591093027164365 -0.37200829716783818 0 0.068874190034892993 -0.35790796680157277 0 0.062764569392891378 -0.37124251162150212 0 0.074591093027164365 -0.37200829716783818 0 0.094249151965831446 -0.30659117736973918 0 0.093783316894622964 -0.31969120462027029 0 0.076158151505467273 -0.31528500416429062 0 0.093783316894622964 -0.31969120462027029 0 0.081619055217363748 -0.32559697914607882 0 0.076158151505467273 -0.31528500416429062 0 0.094158147899250005 -0.33083246569532898 0 0.093783316894622964 -0.31969120462027029 0 0.081619055217363748 -0.32559697914607882 0 0.094158147899250005 -0.33083246569532898 0 0.081619055217363748 -0.32559697914607882 0 0.078454337424435874 -0.34300590822234373 0 0.094158147899250005 -0.33083246569532898 0 0.098131911527981952 -0.34423610169420787 0 0.078454337424435874 -0.34300590822234373 0 0.081619055217363748 -0.32559697914607882 0 0.078454337424435874 -0.34300590822234373 0 0.070348988804492946 -0.33204659136139891 0 0.067635086456119514 -0.34430005953131088 0 0.078454337424435874 -0.34300590822234373 0 0.070348988804492946 -0.33204659136139891 0 0.067635086456119514 -0.34430005953131088 0 0.070348988804492946 -0.33204659136139891 0 0.061495040822218197 -0.33910827047675662 0 0.070348988804492946 -0.33204659136139891 0 0.056881458686524257 -0.3300970897642122 0 0.061495040822218197 -0.33910827047675662 0 0.070348988804492946 -0.33204659136139891 0 0.076158151505467273 -0.31528500416429062 0 0.062318235292702903 -0.32055459237570538 0 0.070348988804492946 -0.33204659136139891 0 0.062318235292702903 -0.32055459237570538 0 0.056881458686524257 -0.3300970897642122 0 0.081619055217363748 -0.32559697914607882 0 0.070348988804492946 -0.33204659136139891 0 0.076158151505467273 -0.31528500416429062 0 0.076158151505467273 -0.31528500416429062 0 0.062318235292702903 -0.32055459237570538 0 0.057316096250853203 -0.30364945300113771 0 0.050528198753783289 -0.3204495476484267 0 0.062318235292702903 -0.32055459237570538 0 0.057316096250853203 -0.30364945300113771 0 0.050528198753783289 -0.3204495476484267 0 0.056881458686524257 -0.3300970897642122 0 0.045710030770160143 -0.33187145076006158 0 0.050528198753783289 -0.3204495476484267 0 0.062318235292702903 -0.32055459237570538 0 0.056881458686524257 -0.3300970897642122 0 0.056881458686524257 -0.3300970897642122 0 0.061495040822218197 -0.33910827047675662 0 0.052625506341312731 -0.34011927873766268 0 0.061495040822218197 -0.33910827047675662 0 0.052625506341312731 -0.34011927873766268 0 0.059002875194557547 -0.34943156079448268 0 0.052625506341312731 -0.34011927873766268 0 0.044347453619621523 -0.34072709291825221 0 0.048316178954794738 -0.34948020771221111 0 0.052625506341312731 -0.34011927873766268 0 0.045710030770160143 -0.33187145076006158 0 0.044347453619621523 -0.34072709291825221 0 0.056881458686524257 -0.3300970897642122 0 0.052625506341312731 -0.34011927873766268 0 0.045710030770160143 -0.33187145076006158 0 0.045710030770160143 -0.33187145076006158 0 0.033218744297860467 -0.33523840555825712 0 0.038918259234970831 -0.32410079876065789 0 0.045710030770160143 -0.33187145076006158 0 0.044347453619621523 -0.34072709291825221 0 0.033218744297860467 -0.33523840555825712 0 0.044347453619621523 -0.34072709291825221 0 0.033218744297860467 -0.33523840555825712 0 0.035858166470003797 -0.34475241645472149 0 0.033218744297860467 -0.33523840555825712 0 0.035858166470003797 -0.34475241645472149 0 0.025616822757234141 -0.33939088772608672 0 0.033218744297860467 -0.33523840555825712 0 0.038918259234970831 -0.32410079876065789 0 0.028572907014037339 -0.32654769115698101 0 0.038918259234970831 -0.32410079876065789 0 0.031828078674337477 -0.31773895852871209 0 0.028572907014037339 -0.32654769115698101 0 0.038918259234970831 -0.32410079876065789 0 0.031828078674337477 -0.31773895852871209 0 0.042025112287488418 -0.31242390122878588 0 0.050528198753783289 -0.3204495476484267 0 0.038918259234970831 -0.32410079876065789 0 0.042025112287488418 -0.31242390122878588 0 0.050528198753783289 -0.3204495476484267 0 0.045710030770160143 -0.33187145076006158 0 0.038918259234970831 -0.32410079876065789 0 0.053538507748874947 -0.3799221680167808 0 0.062764569392891378 -0.37124251162150212 0 0.05313519017349002 -0.36328602633510221 0 0.053538507748874947 -0.3799221680167808 0 0.05313519017349002 -0.36328602633510221 0 0.04195676848564947 -0.3727024963903206 0 0.068874190034892993 -0.35790796680157277 0 0.062764569392891378 -0.37124251162150212 0 0.05313519017349002 -0.36328602633510221 0 0.068874190034892993 -0.35790796680157277 0 0.05313519017349002 -0.36328602633510221 0 0.059002875194557547 -0.34943156079448268 0 0.05313519017349002 -0.36328602633510221 0 0.059002875194557547 -0.34943156079448268 0 0.048316178954794738 -0.34948020771221111 0 0.052625506341312731 -0.34011927873766268 0 0.059002875194557547 -0.34943156079448268 0 0.048316178954794738 -0.34948020771221111 0 0.039155755707113361 -0.35614060958967969 0 0.02873354650264837 -0.36629896187161981 0 0.02611833628908198 -0.34839143607377382 0 0.048316178954794738 -0.34948020771221111 0 0.035858166470003797 -0.34475241645472149 0 0.039155755707113361 -0.35614060958967969 0 0.044347453619621523 -0.34072709291825221 0 0.048316178954794738 -0.34948020771221111 0 0.035858166470003797 -0.34475241645472149 0 0.035858166470003797 -0.34475241645472149 0 0.039155755707113361 -0.35614060958967969 0 0.02611833628908198 -0.34839143607377382 0 0.05313519017349002 -0.36328602633510221 0 0.048316178954794738 -0.34948020771221111 0 0.039155755707113361 -0.35614060958967969 0 0.039155755707113361 -0.35614060958967969 0 0.04195676848564947 -0.3727024963903206 0 0.02873354650264837 -0.36629896187161981 0 0.05313519017349002 -0.36328602633510221 0 0.039155755707113361 -0.35614060958967969 0 0.04195676848564947 -0.3727024963903206 0 0.014975574551926231 -0.37566133837104287 0 0.02873354650264837 -0.36629896187161981 0 0.0138937202026995 -0.35894591570928952 0 0.02873354650264837 -0.36629896187161981 0 0.02611833628908198 -0.34839143607377382 0 0.0138937202026995 -0.35894591570928952 0 0.035858166470003797 -0.34475241645472149 0 0.02611833628908198 -0.34839143607377382 0 0.025616822757234141 -0.33939088772608672 0 0.02611833628908198 -0.34839143607377382 0 0.017302076260758401 -0.34693526920627737 0 0.0138937202026995 -0.35894591570928952 0 0.02611833628908198 -0.34839143607377382 0 0.017302076260758401 -0.34693526920627737 0 0.020098463854754479 -0.34119008784940807 0 0.0138937202026995 -0.35894591570928952 0 0.01137152806108825 -0.33574311560460102 0 0.0041026344107457603 -0.34763671413703978 0 0.0138937202026995 -0.35894591570928952 0 0.01137152806108825 -0.33574311560460102 0 -0.0062147334033759091 -0.36504868167649229 0 0.0041026344107457603 -0.34763671413703978 0 0.0138937202026995 -0.35894591570928952 0 0.017302076260758401 -0.34693526920627737 0 0.0138937202026995 -0.35894591570928952 0 0.01137152806108825 -0.33574311560460102 0 -0.0062147334033759091 -0.36504868167649229 0 -0.003054764863230162 -0.38327110372534579 0 0.014975574551926231 -0.37566133837104287 0 -0.0062147334033759091 -0.36504868167649229 0 0.014975574551926231 -0.37566133837104287 0 -0.0062147334033759091 -0.36504868167649229 0 0.014975574551926231 -0.37566133837104287 0 0.0138937202026995 -0.35894591570928952 0 0.023310218079132351 -0.31845954877869359 0 0.0088493359194770065 -0.31254031549991262 0 0.026313896756058469 -0.30716285271844229 0 0.01894890584257708 -0.32792591579476832 0 0.023310218079132351 -0.31845954877869359 0 0.0088493359194770065 -0.31254031549991262 0 0.031828078674337477 -0.31773895852871209 0 0.023310218079132351 -0.31845954877869359 0 0.026313896756058469 -0.30716285271844229 0 0.031828078674337477 -0.31773895852871209 0 0.023310218079132351 -0.31845954877869359 0 0.028572907014037339 -0.32654769115698101 0 0.01894890584257708 -0.32792591579476832 0 0.023310218079132351 -0.31845954877869359 0 0.028572907014037339 -0.32654769115698101 0 0.033218744297860467 -0.33523840555825712 0 0.025316890498279419 -0.33272261625520122 0 0.025616822757234141 -0.33939088772608672 0 0.01894890584257708 -0.32792591579476832 0 0.028572907014037339 -0.32654769115698101 0 0.025316890498279419 -0.33272261625520122 0 0.033218744297860467 -0.33523840555825712 0 0.028572907014037339 -0.32654769115698101 0 0.025316890498279419 -0.33272261625520122 0 0.025316890498279419 -0.33272261625520122 0 0.025616822757234141 -0.33939088772608672 0 0.020083555905609611 -0.33548973063630161 0 0.02611833628908198 -0.34839143607377382 0 0.025616822757234141 -0.33939088772608672 0 0.020098463854754479 -0.34119008784940807 0 0.020098463854754479 -0.34119008784940807 0 0.020083555905609611 -0.33548973063630161 0 0.01137152806108825 -0.33574311560460102 0 0.017302076260758401 -0.34693526920627737 0 0.020098463854754479 -0.34119008784940807 0 0.01137152806108825 -0.33574311560460102 0 0.025616822757234141 -0.33939088772608672 0 0.020098463854754479 -0.34119008784940807 0 0.020083555905609611 -0.33548973063630161 0 0.01894890584257708 -0.32792591579476832 0 0.020083555905609611 -0.33548973063630161 0 0.01137152806108825 -0.33574311560460102 0 0.01894890584257708 -0.32792591579476832 0 0.025316890498279419 -0.33272261625520122 0 0.020083555905609611 -0.33548973063630161 0 -0.0086474613884536759 -0.3442939608922525 0 0.0041026344107457603 -0.34763671413703978 0 0.010110118581770629 -0.33415189680256352 0 -0.0086474613884536759 -0.3442939608922525 0 0.010110118581770629 -0.33415189680256352 0 0.0041026344107457603 -0.34763671413703978 0 0.01137152806108825 -0.33574311560460102 0 0.010110118581770629 -0.33415189680256352 0 0.01894890584257708 -0.32792591579476832 0 0.01137152806108825 -0.33574311560460102 0 0.0088493359194770065 -0.31254031549991262 0 0.01137152806108825 -0.33574311560460102 0 0.010110118581770629 -0.33415189680256352 0 0.0088493359194770065 -0.31254031549991262 0 0.01137152806108825 -0.33574311560460102 0 0.0088493359194770065 -0.31254031549991262 0 -0.007323121960877416 -0.32432635561407591 0 0.010110118581770629 -0.33415189680256352 0 0.0088493359194770065 -0.31254031549991262 0 0.0088493359194770065 -0.31254031549991262 0 0.00632714377786576 -0.28933751539522412 0 -0.010380234539267411 -0.30297895412728532 0 0.0088493359194770065 -0.31254031549991262 0 0.00632714377786576 -0.28933751539522412 0 0.0088493359194770065 -0.31254031549991262 0 0.00632714377786576 -0.28933751539522412 0 0.026313896756058469 -0.30716285271844229 0 0.00632714377786576 -0.28933751539522412 0 0.030405888420319709 -0.29117863606028571 0 0.026313896756058469 -0.30716285271844229 0 0.00632714377786576 -0.28933751539522412 0 0.030405888420319709 -0.29117863606028571 0 0.031260066928466633 -0.26716864051914369 0 0.026313896756058469 -0.30716285271844229 0 0.042025112287488418 -0.31242390122878588 0 0.041801264131990562 -0.29964251683070048 0 0.031828078674337477 -0.31773895852871209 0 0.026313896756058469 -0.30716285271844229 0 0.042025112287488418 -0.31242390122878588 0 0.030405888420319709 -0.29117863606028571 0 0.026313896756058469 -0.30716285271844229 0 0.041801264131990562 -0.29964251683070048 0 0.030405888420319709 -0.29117863606028571 0 0.047783108807077472 -0.28544072345919808 0 0.031260066928466633 -0.26716864051914369 0 0.030405888420319709 -0.29117863606028571 0 0.041801264131990562 -0.29964251683070048 0 0.047783108807077472 -0.28544072345919808 0 0.071177670665117584 -0.28429695378540287 0 0.047783108807077472 -0.28544072345919808 0 0.057316096250853203 -0.30364945300113771 0 0.041801264131990562 -0.29964251683070048 0 0.047783108807077472 -0.28544072345919808 0 0.057316096250853203 -0.30364945300113771 0 0.050528198753783289 -0.3204495476484267 0 0.042025112287488418 -0.31242390122878588 0 0.057316096250853203 -0.30364945300113771 0 0.042025112287488418 -0.31242390122878588 0 0.041801264131990562 -0.29964251683070048 0 0.057316096250853203 -0.30364945300113771 0 0.055945778335013123 -0.25070505853966041 0 0.057949317946716872 -0.26907751766107751 0 0.031260066928466633 -0.26716864051914369 0 0.071177670665117584 -0.28429695378540287 0 0.047783108807077472 -0.28544072345919808 0 0.057949317946716872 -0.26907751766107751 0 0.047783108807077472 -0.28544072345919808 0 0.057949317946716872 -0.26907751766107751 0 0.031260066928466633 -0.26716864051914369 0 0.055945778335013123 -0.25070505853966041 0 0.031260066928466633 -0.26716864051914369 0 0.055945778335013123 -0.25070505853966041 0 0.031260066928466633 -0.26716864051914369 0 0.031646987544794752 -0.2367285054650588 0 0.031260066928466633 -0.26716864051914369 0 0.015072930435663731 -0.25018781192836409 0 0.031646987544794752 -0.2367285054650588 0 0.031260066928466633 -0.26716864051914369 0 0.0038049516362545122 -0.26613471529053567 0 0.015072930435663731 -0.25018781192836409 0 0.00632714377786576 -0.28933751539522412 0 0.031260066928466633 -0.26716864051914369 0 0.0038049516362545122 -0.26613471529053567 0 0.00632714377786576 -0.28933751539522412 0 0.0038049516362545122 -0.26613471529053567 0 -0.00049652130699871766 -0.2473016026161601 0 0.0038049516362545122 -0.26613471529053567 0 0.015072930435663731 -0.25018781192836409 0 -0.00049652130699871766 -0.2473016026161601 0 0.015072930435663731 -0.25018781192836409 0 0.0091491673758014591 -0.2336055957509223 0 -0.0092359492843370593 -0.21119307813957131 0 0.0091491673758014591 -0.2336055957509223 0 0.01381951473359929 -0.2124175085057759 0 0.0091491673758014591 -0.2336055957509223 0 0.01381951473359929 -0.2124175085057759 0 0.031646987544794752 -0.2367285054650588 0 0.01381951473359929 -0.2124175085057759 0 0.036371631613381958 -0.21036779493664581 0 0.031646987544794752 -0.2367285054650588 0 0.015072930435663731 -0.25018781192836409 0 0.0091491673758014591 -0.2336055957509223 0 0.031646987544794752 -0.2367285054650588 0 -0.00135817117020914 -0.18493631818518841 0 -0.0092359492843370593 -0.21119307813957131 0 0.01381951473359929 -0.2124175085057759 0 -0.00135817117020914 -0.18493631818518841 0 0.01381951473359929 -0.2124175085057759 0 0.02252960124566766 -0.18914355546625619 0 0.01381951473359929 -0.2124175085057759 0 0.02252960124566766 -0.18914355546625619 0 0.036371631613381958 -0.21036779493664581 0 0.02252960124566766 -0.18914355546625619 0 0.04112560050362303 -0.19321540750894911 0 0.036371631613381958 -0.21036779493664581 0 0.04112560050362303 -0.19321540750894911 0 0.036371631613381958 -0.21036779493664581 0 0.057070339662875183 -0.2047492068265932 0 0.036371631613381958 -0.21036779493664581 0 0.057070339662875183 -0.2047492068265932 0 0.058056199852320557 -0.22713062111878141 0 0.04112560050362303 -0.19321540750894911 0 0.057070339662875183 -0.2047492068265932 0 0.055683872965910028 -0.1871965925253978 0 0.036371631613381958 -0.21036779493664581 0 0.031646987544794752 -0.2367285054650588 0 0.058056199852320557 -0.22713062111878141 0 0.055945778335013123 -0.25070505853966041 0 0.031646987544794752 -0.2367285054650588 0 0.058056199852320557 -0.22713062111878141 0 0.055945778335013123 -0.25070505853966041 0 0.058056199852320557 -0.22713062111878141 0 0.080631489741560008 -0.23424147656017791 0 0.083579964997909553 -0.25777621200198281 0 0.055945778335013123 -0.25070505853966041 0 0.080631489741560008 -0.23424147656017791 0 0.055945778335013123 -0.25070505853966041 0 0.080631489741560008 -0.23424147656017791 0 0.083579964997909553 -0.25777621200198281 0 0.080631489741560008 -0.23424147656017791 0 0.097500371512230927 -0.24251523744947309 0 0.083579964997909553 -0.25777621200198281 0 0.080631489741560008 -0.23424147656017791 0 0.080631489741560008 -0.23424147656017791 0 0.078179588527308941 -0.21467039612374211 0 0.095215741274730245 -0.2245148368546635 0 0.080631489741560008 -0.23424147656017791 0 0.097500371512230927 -0.24251523744947309 0 0.095215741274730245 -0.2245148368546635 0 0.080631489741560008 -0.23424147656017791 0 0.078179588527308941 -0.21467039612374211 0 0.080631489741560008 -0.23424147656017791 0 0.095215741274730245 -0.2245148368546635 0 0.058056199852320557 -0.22713062111878141 0 0.080631489741560008 -0.23424147656017791 0 0.078179588527308941 -0.21467039612374211 0 0.075746755580258451 -0.1950969267794658 0 0.078179588527308941 -0.21467039612374211 0 0.057070339662875183 -0.2047492068265932 0 0.075746755580258451 -0.1950969267794658 0 0.078179588527308941 -0.21467039612374211 0 0.057070339662875183 -0.2047492068265932 0 0.058056199852320557 -0.22713062111878141 0 0.078179588527308941 -0.21467039612374211 0 0.057070339662875183 -0.2047492068265932 0 0.075746755580258451 -0.1950969267794658 0 0.055683872965910028 -0.1871965925253978 0 0.075746755580258451 -0.1950969267794658 0 0.092773374194079494 -0.20494256196430929 0 0.08799775421150359 -0.18633891464643829 0 0.075746755580258451 -0.1950969267794658 0 0.092773374194079494 -0.20494256196430929 0 0.078179588527308941 -0.21467039612374211 0 0.092773374194079494 -0.20494256196430929 0 0.095215741274730245 -0.2245148368546635 0 0.075746755580258451 -0.1950969267794658 0 0.078179588527308941 -0.21467039612374211 0 0.092773374194079494 -0.20494256196430929 0 0.092773374194079494 -0.20494256196430929 0 0.1075006573928676 -0.20264948808968331 0 0.10979999280790161 -0.21478819714915079 0 0.092773374194079494 -0.20494256196430929 0 0.10979999280790161 -0.21478819714915079 0 0.092773374194079494 -0.20494256196430929 0 0.10979999280790161 -0.21478819714915079 0 0.095215741274730245 -0.2245148368546635 0 0.092773374194079494 -0.20494256196430929 0 0.1025444234661291 -0.189676276730778 0 0.08799775421150359 -0.18633891464643829 0 0.092773374194079494 -0.20494256196430929 0 0.1075006573928676 -0.20264948808968331 0 0.1025444234661291 -0.189676276730778 0 0.1075006573928676 -0.20264948808968331 0 0.1025444234661291 -0.189676276730778 0 0.11785070636119339 -0.19590325304082329 0 0.1025444234661291 -0.189676276730778 0 0.11785070636119339 -0.19590325304082329 0 0.1153313103540235 -0.18260294008382619 0 0.1075006573928676 -0.20264948808968331 0 0.11785070636119339 -0.19590325304082329 0 0.12020800943974461 -0.20784680371550801 0 0.11785070636119339 -0.19590325304082329 0 0.1153313103540235 -0.18260294008382619 0 0.12988750288688269 -0.18741504762509861 0 0.10979999280790161 -0.21478819714915079 0 0.12020800943974461 -0.20784680371550801 0 0.13275127296145109 -0.22805976542364101 0 0.10979999280790161 -0.21478819714915079 0 0.12020800943974461 -0.20784680371550801 0 0.1075006573928676 -0.20264948808968331 0 0.10979999280790161 -0.21478819714915079 0 0.12020800943974461 -0.20784680371550801 0 0.10979999280790161 -0.21478819714915079 0 0.1154050387073919 -0.2358942627654679 0 0.13275127296145109 -0.22805976542364101 0 0.10979999280790161 -0.21478819714915079 0 0.1154050387073919 -0.2358942627654679 0 0.10448028607556351 -0.22942813355468861 0 0.10979999280790161 -0.21478819714915079 0 0.13275127296145109 -0.22805976542364101 0 0.1162321014502215 -0.25452752110021859 0 0.1154050387073919 -0.2358942627654679 0 0.097500371512230927 -0.24251523744947309 0 0.1162321014502215 -0.25452752110021859 0 0.1154050387073919 -0.2358942627654679 0 0.13475341233392191 -0.24985250807845871 0 0.1154050387073919 -0.2358942627654679 0 0.097500371512230927 -0.24251523744947309 0 0.10448028607556351 -0.22942813355468861 0 0.097500371512230927 -0.24251523744947309 0 0.095215741274730245 -0.2245148368546635 0 0.10448028607556351 -0.22942813355468861 0 0.10979999280790161 -0.21478819714915079 0 0.095215741274730245 -0.2245148368546635 0 0.10448028607556351 -0.22942813355468861 0 0.10979999280790161 -0.21478819714915079 0 0.095215741274730245 -0.2245148368546635 0 0.1069484000070987 -0.14093525902907719 0 0.10955233121650081 -0.1512098661039209 0 0.093713799804063719 -0.1458447579242371 0 0.1013970669273392 -0.1620485836768959 0 0.093713799804063719 -0.1458447579242371 0 0.089587183877266982 -0.1553767925683249 0 0.10955233121650081 -0.1512098661039209 0 0.1013970669273392 -0.1620485836768959 0 0.093713799804063719 -0.1458447579242371 0 0.10955233121650081 -0.1512098661039209 0 0.093713799804063719 -0.1458447579242371 0 0.1010445581553322 -0.1289115022466312 0 0.093713799804063719 -0.1458447579242371 0 0.1069484000070987 -0.14093525902907719 0 0.1010445581553322 -0.1289115022466312 0 0.093713799804063719 -0.1458447579242371 0 0.123482910852498 -0.13777490984151949 0 0.1166627140844461 -0.12317840718842921 0 0.133017444566952 -0.1192180105834534 0 0.1069484000070987 -0.14093525902907719 0 0.1010445581553322 -0.1289115022466312 0 0.123482910852498 -0.13777490984151949 0 0.1010445581553322 -0.1289115022466312 0 0.123482910852498 -0.13777490984151949 0 0.1010445581553322 -0.1289115022466312 0 0.123482910852498 -0.13777490984151949 0 0.1166627140844461 -0.12317840718842921 0 0.10955233121650081 -0.1512098661039209 0 0.125390862628938 -0.15657497428360451 0 0.1069484000070987 -0.14093525902907719 0 0.123482910852498 -0.13777490984151949 0 0.10955233121650081 -0.1512098661039209 0 0.123482910852498 -0.13777490984151949 0 0.10955233121650081 -0.1512098661039209 0 0.125390862628938 -0.15657497428360451 0 0.10955233121650081 -0.1512098661039209 0 0.1140997441942838 -0.16675773657833109 0 0.125390862628938 -0.15657497428360451 0 0.1140997441942838 -0.16675773657833109 0 0.126570689701412 -0.17556766332277421 0 0.125390862628938 -0.15657497428360451 0 0.1140997441942838 -0.16675773657833109 0 0.1153313103540235 -0.18260294008382619 0 0.1030873631314652 -0.1748291280649448 0 0.1140997441942838 -0.16675773657833109 0 0.1153313103540235 -0.18260294008382619 0 0.126570689701412 -0.17556766332277421 0 0.1153313103540235 -0.18260294008382619 0 0.12988750288688269 -0.18741504762509861 0 0.126570689701412 -0.17556766332277421 0 0.1025444234661291 -0.189676276730778 0 0.1153313103540235 -0.18260294008382619 0 0.1030873631314652 -0.1748291280649448 0 0.1030873631314652 -0.1748291280649448 0 0.095394886017323516 -0.18032674352134631 0 0.088710485994322269 -0.17230366351728929 0 0.1025444234661291 -0.189676276730778 0 0.095394886017323516 -0.18032674352134631 0 0.08799775421150359 -0.18633891464643829 0 0.1025444234661291 -0.189676276730778 0 0.1030873631314652 -0.1748291280649448 0 0.095394886017323516 -0.18032674352134631 0 0.10955233121650081 -0.1512098661039209 0 0.1140997441942838 -0.16675773657833109 0 0.1013970669273392 -0.1620485836768959 0 0.1140997441942838 -0.16675773657833109 0 0.1030873631314652 -0.1748291280649448 0 0.1013970669273392 -0.1620485836768959 0 0.1030873631314652 -0.1748291280649448 0 0.092816145306354444 -0.1641777209134731 0 0.088710485994322269 -0.17230366351728929 0 0.1030873631314652 -0.1748291280649448 0 0.1013970669273392 -0.1620485836768959 0 0.092816145306354444 -0.1641777209134731 0 0.1013970669273392 -0.1620485836768959 0 0.092816145306354444 -0.1641777209134731 0 0.089587183877266982 -0.1553767925683249 0 0.092816145306354444 -0.1641777209134731 0 0.082539812120706685 -0.164479965637954 0 0.089587183877266982 -0.1553767925683249 0 0.082539812120706685 -0.164479965637954 0 0.071056684857166194 -0.15781536466526469 0 0.089587183877266982 -0.1553767925683249 0 0.092816145306354444 -0.1641777209134731 0 0.082539812120706685 -0.164479965637954 0 0.088710485994322269 -0.17230366351728929 0 0.082539812120706685 -0.164479965637954 0 0.088710485994322269 -0.17230366351728929 0 0.073392186085111832 -0.17645734017628559 0 0.075746755580258451 -0.1950969267794658 0 0.08799775421150359 -0.18633891464643829 0 0.073392186085111832 -0.17645734017628559 0 0.095394886017323516 -0.18032674352134631 0 0.08799775421150359 -0.18633891464643829 0 0.088710485994322269 -0.17230366351728929 0 0.08799775421150359 -0.18633891464643829 0 0.088710485994322269 -0.17230366351728929 0 0.073392186085111832 -0.17645734017628559 0 0.075746755580258451 -0.1950969267794658 0 0.073392186085111832 -0.17645734017628559 0 0.055683872965910028 -0.1871965925253978 0 0.075746755580258451 -0.1950969267794658 0 0.073392186085111832 -0.17645734017628559 0 0.073392186085111832 -0.17645734017628559 0 0.071056684857166194 -0.15781536466526469 0 0.082539812120706685 -0.164479965637954 0 0.073392186085111832 -0.17645734017628559 0 0.071056684857166194 -0.15781536466526469 0 0.073392186085111832 -0.17645734017628559 0 0.071056684857166194 -0.15781536466526469 0 0.057420332173000632 -0.1703757852835481 0 0.071056684857166194 -0.15781536466526469 0 0.093713799804063719 -0.1458447579242371 0 0.06539429975814362 -0.1362518747594757 0 0.071056684857166194 -0.15781536466526469 0 0.06539429975814362 -0.1362518747594757 0 0.051146932799786417 -0.15466172161657141 0 0.071056684857166194 -0.15781536466526469 0 0.093713799804063719 -0.1458447579242371 0 0.089587183877266982 -0.1553767925683249 0 0.093713799804063719 -0.1458447579242371 0 0.06539429975814362 -0.1362518747594757 0 0.093713799804063719 -0.1458447579242371 0 0.089587183877266982 -0.1553767925683249 0 0.1010445581553322 -0.1289115022466312 0 0.093713799804063719 -0.1458447579242371 0 0.084819913414731163 -0.13194096297007879 0 0.093713799804063719 -0.1458447579242371 0 0.084819913414731163 -0.13194096297007879 0 0.06539429975814362 -0.1362518747594757 0 0.1010445581553322 -0.1289115022466312 0 0.084819913414731163 -0.13194096297007879 0 0.075045371854549542 -0.11864152439087899 0 0.084819913414731163 -0.13194096297007879 0 0.06539429975814362 -0.1362518747594757 0 0.075045371854549542 -0.11864152439087899 0 0.06539429975814362 -0.1362518747594757 0 0.046092813141916232 -0.14171524886792081 0 0.037074799712223577 -0.12665899159471419 0 0.06539429975814362 -0.1362518747594757 0 0.037074799712223577 -0.12665899159471419 0 0.06539429975814362 -0.1362518747594757 0 0.051146932799786417 -0.15466172161657141 0 0.046092813141916232 -0.14171524886792081 0 0.051146932799786417 -0.15466172161657141 0 0.046092813141916232 -0.14171524886792081 0 0.030755220297511331 -0.14928840750092179 0 0.046092813141916232 -0.14171524886792081 0 0.037074799712223577 -0.12665899159471419 0 0.030755220297511331 -0.14928840750092179 0 0.055683872965910028 -0.1871965925253978 0 0.057420332173000632 -0.1703757852835481 0 0.039417642626982073 -0.17298966167237881 0 0.073392186085111832 -0.17645734017628559 0 0.055683872965910028 -0.1871965925253978 0 0.057420332173000632 -0.1703757852835481 0 0.071056684857166194 -0.15781536466526469 0 0.051146932799786417 -0.15466172161657141 0 0.057420332173000632 -0.1703757852835481 0 0.051146932799786417 -0.15466172161657141 0 0.057420332173000632 -0.1703757852835481 0 0.039417642626982073 -0.17298966167237881 0 0.051146932799786417 -0.15466172161657141 0 0.039417642626982073 -0.17298966167237881 0 0.030755220297511331 -0.14928840750092179 0 0.04112560050362303 -0.19321540750894911 0 0.055683872965910028 -0.1871965925253978 0 0.039417642626982073 -0.17298966167237881 0 0.02252960124566766 -0.18914355546625619 0 0.04112560050362303 -0.19321540750894911 0 0.039417642626982073 -0.17298966167237881 0 0.02252960124566766 -0.18914355546625619 0 0.039417642626982073 -0.17298966167237881 0 0.019572779988774141 -0.17100750021111019 0 0.019572779988774141 -0.17100750021111019 0 0.0065196069439187616 -0.1586795582308056 0 0.030755220297511331 -0.14928840750092179 0 0.039417642626982073 -0.17298966167237881 0 0.019572779988774141 -0.17100750021111019 0 0.030755220297511331 -0.14928840750092179 0 -0.00135817117020914 -0.18493631818518841 0 0.0065196069439187616 -0.1586795582308056 0 -0.00135817117020914 -0.18493631818518841 0 0.019572779988774141 -0.17100750021111019 0 0.0065196069439187616 -0.1586795582308056 0 -0.00135817117020914 -0.18493631818518841 0 0.02252960124566766 -0.18914355546625619 0 0.019572779988774141 -0.17100750021111019 0 0.037074799712223577 -0.12665899159471419 0 0.030755220297511331 -0.14928840750092179 0 0.01439738505804666 -0.13242279827642281 0 0.037074799712223577 -0.12665899159471419 0 0.01439738505804666 -0.13242279827642281 0 0.008755299666303458 -0.11706610842995251 0 0.0065196069439187616 -0.1586795582308056 0 0.030755220297511331 -0.14928840750092179 0 0.01439738505804666 -0.13242279827642281 0 0.0065196069439187616 -0.1586795582308056 0 0.01439738505804666 -0.13242279827642281 0 -0.0061755514744574747 -0.13939955945566099 0 0.0065196069439187616 -0.1586795582308056 0 0.01439738505804666 -0.13242279827642281 0 -0.0061755514744574747 -0.13939955945566099 0 0.01439738505804666 -0.13242279827642281 0 0.0016256503768235129 -0.1281843828229571 0 0.01439738505804666 -0.13242279827642281 0 0.0016256503768235129 -0.1281843828229571 0 0.008755299666303458 -0.11706610842995251 0 -0.0055829579384821266 -0.089872009817903206 0 0.008755299666303458 -0.11706610842995251 0 0.016212496612642398 -0.084060759113546185 0 0.008755299666303458 -0.11706610842995251 0 0.02836019599530519 -0.1070919994238364 0 0.016212496612642398 -0.084060759113546185 0 0.037074799712223577 -0.12665899159471419 0 0.008755299666303458 -0.11706610842995251 0 0.037074799712223577 -0.12665899159471419 0 0.008755299666303458 -0.11706610842995251 0 0.02836019599530519 -0.1070919994238364 0 0.02836019599530519 -0.1070919994238364 0 0.016212496612642398 -0.084060759113546185 0 0.038899403745220808 -0.092096605735679252 0 0.016212496612642398 -0.084060759113546185 0 0.043650520356827871 -0.071783524763296302 0 0.023836074087011438 -0.051820298518144438 0 -0.0058232936852503636 -0.056471612802719749 0 -0.0055829579384821266 -0.089872009817903206 0 0.016212496612642398 -0.084060759113546185 0 -0.0058232936852503636 -0.056471612802719749 0 0.016212496612642398 -0.084060759113546185 0 0.023836074087011438 -0.051820298518144438 0 0.038899403745220808 -0.092096605735679252 0 0.043650520356827871 -0.071783524763296302 0 0.057227620207562793 -0.089175198842587372 0 0.016212496612642398 -0.084060759113546185 0 0.038899403745220808 -0.092096605735679252 0 0.043650520356827871 -0.071783524763296302 0 0.043650520356827871 -0.071783524763296302 0 0.053495441859273407 -0.047168984233569092 0 0.06801370483239344 -0.068964613370199296 0 0.043650520356827871 -0.071783524763296302 0 0.057227620207562793 -0.089175198842587372 0 0.06801370483239344 -0.068964613370199296 0 0.038899403745220808 -0.092096605735679252 0 0.057227620207562793 -0.089175198842587372 0 0.049046185553765803 -0.10837154653513 0 0.057227620207562793 -0.089175198842587372 0 0.049046185553765803 -0.10837154653513 0 0.067864589001429942 -0.1022978030337927 0 0.049046185553765803 -0.10837154653513 0 0.075045371854549542 -0.11864152439087899 0 0.06539429975814362 -0.1362518747594757 0 0.037074799712223577 -0.12665899159471419 0 0.049046185553765803 -0.10837154653513 0 0.037074799712223577 -0.12665899159471419 0 0.02836019599530519 -0.1070919994238364 0 0.049046185553765803 -0.10837154653513 0 0.02836019599530519 -0.1070919994238364 0 0.038899403745220808 -0.092096605735679252 0 0.049046185553765803 -0.10837154653513 0 0.021366706330957049 0.005356196585448475 0 0.01242755905656337 -0.015740938746889348 0 0.03083982702243088 -0.027363622828163962 0 0.021366706330957049 0.005356196585448475 0 9.2994626588645875e-05 -0.0066853786883017728 0 0.01242755905656337 -0.015740938746889348 0 -0.000196678936145564 -0.020618198175398689 0 9.2994626588645875e-05 -0.0066853786883017728 0 0.01242755905656337 -0.015740938746889348 0 -0.000196678936145564 -0.020618198175398689 0 0.01242755905656337 -0.015740938746889348 0 0.01461041445206694 -0.032040568890790148 0 -0.000196678936145564 -0.020618198175398689 0 -0.0029404273112356889 -0.033348019466363163 0 0.01461041445206694 -0.032040568890790148 0 0.01242755905656337 -0.015740938746889348 0 0.03083982702243088 -0.027363622828163962 0 0.01461041445206694 -0.032040568890790148 0 0.03083982702243088 -0.027363622828163962 0 0.01461041445206694 -0.032040568890790148 0 0.023836074087011438 -0.051820298518144438 0 -0.0058232936852503636 -0.056471612802719749 0 0.01461041445206694 -0.032040568890790148 0 0.023836074087011438 -0.051820298518144438 0 -0.0029404273112356889 -0.033348019466363163 0 -0.0058232936852503636 -0.056471612802719749 0 0.01461041445206694 -0.032040568890790148 0 -0.0058232936852503636 -0.056471612802719749 0 0.023836074087011438 -0.051820298518144438 0 0.023836074087011438 -0.051820298518144438 0 0.053495441859273407 -0.047168984233569092 0 0.043650520356827871 -0.071783524763296302 0 0.023836074087011438 -0.051820298518144438 0 0.053495441859273407 -0.047168984233569092 0 0.03083982702243088 -0.027363622828163962 0 0.023836074087011438 -0.051820298518144438 0 0.053495441859273407 -0.047168984233569092 0 0.03083982702243088 -0.027363622828163962 0 0.053495441859273407 -0.047168984233569092 0 0.049491405824600751 -0.014400546848704451 0 0.053495441859273407 -0.047168984233569092 0 0.049491405824600751 -0.014400546848704451 0 0.07057872529544322 -0.02462674390758245 0 0.021366706330957049 0.005356196585448475 0 0.03083982702243088 -0.027363622828163962 0 0.049491405824600751 -0.014400546848704451 0 0.048574898960063582 0.01105422245065607 0 0.049491405824600751 -0.014400546848704451 0 0.067215553891882635 -0.0011799380945436829 0 0.049491405824600751 -0.014400546848704451 0 0.067215553891882635 -0.0011799380945436829 0 0.07057872529544322 -0.02462674390758245 0 0.085378979920521222 -0.0085271912777543524 0 0.067215553891882635 -0.0011799380945436829 0 0.07057872529544322 -0.02462674390758245 0 0.07057872529544322 -0.02462674390758245 0 0.083154809631535181 -0.04251766994899378 0 0.094787071098584585 -0.0247478980194679 0 0.085378979920521222 -0.0085271912777543524 0 0.07057872529544322 -0.02462674390758245 0 0.094787071098584585 -0.0247478980194679 0 0.053495441859273407 -0.047168984233569092 0 0.083154809631535181 -0.04251766994899378 0 0.053495441859273407 -0.047168984233569092 0 0.07057872529544322 -0.02462674390758245 0 0.083154809631535181 -0.04251766994899378 0 0.053495441859273407 -0.047168984233569092 0 0.083154809631535181 -0.04251766994899378 0 0.06801370483239344 -0.068964613370199296 0 0.083154809631535181 -0.04251766994899378 0 0.06801370483239344 -0.068964613370199296 0 0.092601273338419235 -0.073020043929193243 0 0.083154809631535181 -0.04251766994899378 0 0.1091210111153499 -0.058687350791905853 0 0.092601273338419235 -0.073020043929193243 0 0.1091210111153499 -0.058687350791905853 0 0.11281417740379721 -0.037866355664418441 0 0.13172589994884221 -0.058040934670003222 0 0.083154809631535181 -0.04251766994899378 0 0.11281417740379721 -0.037866355664418441 0 0.083154809631535181 -0.04251766994899378 0 0.11281417740379721 -0.037866355664418441 0 0.094787071098584585 -0.0247478980194679 0 0.083154809631535181 -0.04251766994899378 0 0.1091210111153499 -0.058687350791905853 0 0.11281417740379721 -0.037866355664418441 0 0.11281417740379721 -0.037866355664418441 0 0.094787071098584585 -0.0247478980194679 0 0.10827385914977759 -0.011147169607668071 0 0.11281417740379721 -0.037866355664418441 0 0.10827385914977759 -0.011147169607668071 0 0.1253515901131961 -0.01406323671609276 0 0.1165810207984305 0.0016467845144158069 0 0.10827385914977759 -0.011147169607668071 0 0.1253515901131961 -0.01406323671609276 0 0.099114727496955629 0.0053277131660113639 0 0.085378979920521222 -0.0085271912777543524 0 0.10827385914977759 -0.011147169607668071 0 0.085378979920521222 -0.0085271912777543524 0 0.094787071098584585 -0.0247478980194679 0 0.10827385914977759 -0.011147169607668071 0 0.1165810207984305 0.0016467845144158069 0 0.099114727496955629 0.0053277131660113639 0 0.10827385914977759 -0.011147169607668071 0 0.08052673921532183 -0.1046332541507224 0 0.093009708408021224 -0.098982610040675739 0 0.075788807321622992 -0.090272498831020731 0 0.093009708408021224 -0.098982610040675739 0 0.075788807321622992 -0.090272498831020731 0 0.08052673921532183 -0.1046332541507224 0 0.093009708408021224 -0.098982610040675739 0 0.091876290340570169 -0.11188136896506599 0 0.1010445581553322 -0.1289115022466312 0 0.075045371854549542 -0.11864152439087899 0 0.08052673921532183 -0.1046332541507224 0 0.091876290340570169 -0.11188136896506599 0 0.075045371854549542 -0.11864152439087899 0 0.1010445581553322 -0.1289115022466312 0 0.091876290340570169 -0.11188136896506599 0 0.075045371854549542 -0.11864152439087899 0 0.06539429975814362 -0.1362518747594757 0 0.049046185553765803 -0.10837154653513 0 0.075045371854549542 -0.11864152439087899 0 0.049046185553765803 -0.10837154653513 0 0.075045371854549542 -0.11864152439087899 0 0.067864589001429942 -0.1022978030337927 0 0.08052673921532183 -0.1046332541507224 0 0.075045371854549542 -0.11864152439087899 0 0.067864589001429942 -0.1022978030337927 0 0.057227620207562793 -0.089175198842587372 0 0.067864589001429942 -0.1022978030337927 0 0.075788807321622992 -0.090272498831020731 0 0.08052673921532183 -0.1046332541507224 0 0.067864589001429942 -0.1022978030337927 0 0.075788807321622992 -0.090272498831020731 0 0.057227620207562793 -0.089175198842587372 0 0.075788807321622992 -0.090272498831020731 0 0.06801370483239344 -0.068964613370199296 0 0.075788807321622992 -0.090272498831020731 0 0.06801370483239344 -0.068964613370199296 0 0.092601273338419235 -0.073020043929193243 0 0.093009708408021224 -0.098982610040675739 0 0.075788807321622992 -0.090272498831020731 0 0.092601273338419235 -0.073020043929193243 0 0.093009708408021224 -0.098982610040675739 0 0.092601273338419235 -0.073020043929193243 0 0.12097825472163019 -0.082866827960167977 0 0.1091210111153499 -0.058687350791905853 0 0.092601273338419235 -0.073020043929193243 0 0.12097825472163019 -0.082866827960167977 0 0.1091210111153499 -0.058687350791905853 0 0.12097825472163019 -0.082866827960167977 0 0.13172589994884221 -0.058040934670003222 0 0.12097825472163019 -0.082866827960167977 0 0.1102306094944184 -0.1076927212503327 0 0.12097825472163019 -0.082866827960167977 0 0.1102306094944184 -0.1076927212503327 0 0.1271178087547086 -0.1045219999468068 0 0.093009708408021224 -0.098982610040675739 0 0.091876290340570169 -0.11188136896506599 0 0.1102306094944184 -0.1076927212503327 0 0.093009708408021224 -0.098982610040675739 0 0.12097825472163019 -0.082866827960167977 0 0.1102306094944184 -0.1076927212503327 0 0.093009708408021224 -0.098982610040675739 0 0.1102306094944184 -0.1076927212503327 0 0.1010445581553322 -0.1289115022466312 0 0.1102306094944184 -0.1076927212503327 0 0.1166627140844461 -0.12317840718842921 0 0.1010445581553322 -0.1289115022466312 0 0.1102306094944184 -0.1076927212503327 0 0.1010445581553322 -0.1289115022466312 0 0.091876290340570169 -0.11188136896506599 0 0.1102306094944184 -0.1076927212503327 0 0.1102306094944184 -0.1076927212503327 0 0.133017444566952 -0.1192180105834534 0 0.1271178087547086 -0.1045219999468068 0 0.1102306094944184 -0.1076927212503327 0 0.1166627140844461 -0.12317840718842921 0 0.133017444566952 -0.1192180105834534 0 0.1102306094944184 -0.1076927212503327 0 0.133017444566952 -0.1192180105834534 0 0.133017444566952 -0.1192180105834534 0 0.14623067558927011 -0.111872282789342 0 0.1271178087547086 -0.1045219999468068 0 0.133017444566952 -0.1192180105834534 0 0.15580427963948459 -0.13074329991657599 0 0.133017444566952 -0.1192180105834534 0 0.14623067558927011 -0.111872282789342 0 0.15580427963948459 -0.13074329991657599 0 0.14623067558927011 -0.111872282789342 0 0.16083371385183221 -0.1079607019865878 0 0.15580427963948459 -0.13074329991657599 0 0.14623067558927011 -0.111872282789342 0 0.14055928772980181 -0.097858555568441724 0 0.16083371385183221 -0.1079607019865878 0 0.14055928772980181 -0.097858555568441724 0 0.15312601329342729 -0.089083029737095004 0 0.16083371385183221 -0.1079607019865878 0 0.14623067558927011 -0.111872282789342 0 0.1271178087547086 -0.1045219999468068 0 0.14055928772980181 -0.097858555568441724 0 0.12097825472163019 -0.082866827960167977 0 0.1271178087547086 -0.1045219999468068 0 0.14055928772980181 -0.097858555568441724 0 0.12097825472163019 -0.082866827960167977 0 0.14055928772980181 -0.097858555568441724 0 0.1427415809892903 -0.080563895116889217 0 0.12097825472163019 -0.082866827960167977 0 0.13983341075789141 -0.068785326075662498 0 0.1427415809892903 -0.080563895116889217 0 0.12097825472163019 -0.082866827960167977 0 0.13983341075789141 -0.068785326075662498 0 0.13172589994884221 -0.058040934670003222 0 0.12097825472163019 -0.082866827960167977 0 0.13172589994884221 -0.058040934670003222 0 0.13983341075789141 -0.068785326075662498 0 0.1427415809892903 -0.080563895116889217 0 0.1580912292930067 -0.069220958501148788 0 0.13983341075789141 -0.068785326075662498 0 0.1580912292930067 -0.069220958501148788 0 0.14563008883668771 -0.053234014130103272 0 0.14055928772980181 -0.097858555568441724 0 0.15312601329342729 -0.089083029737095004 0 0.1427415809892903 -0.080563895116889217 0 0.15312601329342729 -0.089083029737095004 0 0.1427415809892903 -0.080563895116889217 0 0.1580912292930067 -0.069220958501148788 0 0.15312601329342729 -0.089083029737095004 0 0.16611768317809661 -0.085235789553424701 0 0.1580912292930067 -0.069220958501148788 0 0.15312601329342729 -0.089083029737095004 0 0.16611768317809661 -0.085235789553424701 0 0.1692871414173982 -0.097197478018371586 0 0.16611768317809661 -0.085235789553424701 0 0.17801554475282419 -0.088913047863099615 0 0.1692871414173982 -0.097197478018371586 0 0.1580912292930067 -0.069220958501148788 0 0.17429076779252869 -0.075574739804748187 0 0.1716897414112411 -0.061723287548456109 0 0.16611768317809661 -0.085235789553424701 0 0.1580912292930067 -0.069220958501148788 0 0.17429076779252869 -0.075574739804748187 0 0.17429076779252869 -0.075574739804748187 0 0.18481170982967171 -0.067676730807396973 0 0.1716897414112411 -0.061723287548456109 0 0.17429076779252869 -0.075574739804748187 0 0.18481170982967171 -0.067676730807396973 0 0.1870186982903321 -0.080678624554962997 0 0.16611768317809661 -0.085235789553424701 0 0.17429076779252869 -0.075574739804748187 0 0.17801554475282419 -0.088913047863099615 0 0.17429076779252869 -0.075574739804748187 0 0.17801554475282419 -0.088913047863099615 0 0.1870186982903321 -0.080678624554962997 0 0.17801554475282419 -0.088913047863099615 0 0.18708874051528279 -0.091313536493609834 0 0.1823941263112423 -0.099771960353851274 0 0.17801554475282419 -0.088913047863099615 0 0.1870186982903321 -0.080678624554962997 0 0.18708874051528279 -0.091313536493609834 0 0.18708874051528279 -0.091313536493609834 0 0.1823941263112423 -0.099771960353851274 0 0.19288381683700581 -0.099013186369109427 0 0.17801554475282419 -0.088913047863099615 0 0.1823941263112423 -0.099771960353851274 0 0.1692871414173982 -0.097197478018371586 0 0.1823941263112423 -0.099771960353851274 0 0.1763428052116352 -0.112427921217657 0 0.1692871414173982 -0.097197478018371586 0 0.1823941263112423 -0.099771960353851274 0 0.1763428052116352 -0.112427921217657 0 0.18826566950959309 -0.1072515470169968 0 0.1763428052116352 -0.112427921217657 0 0.19219412566717939 -0.1176653685476937 0 0.18826566950959309 -0.1072515470169968 0 0.1763428052116352 -0.112427921217657 0 0.19219412566717939 -0.1176653685476937 0 0.182022956505311 -0.1273449289036277 0 0.1763428052116352 -0.112427921217657 0 0.15580427963948459 -0.13074329991657599 0 0.182022956505311 -0.1273449289036277 0 0.1763428052116352 -0.112427921217657 0 0.16083371385183221 -0.1079607019865878 0 0.15580427963948459 -0.13074329991657599 0 0.15312601329342729 -0.089083029737095004 0 0.16083371385183221 -0.1079607019865878 0 0.1692871414173982 -0.097197478018371586 0 0.1763428052116352 -0.112427921217657 0 0.16083371385183221 -0.1079607019865878 0 0.1692871414173982 -0.097197478018371586 0 0.1579507192313461 0.0025355498805747921 0 0.1482479430989522 -0.019876809272412071 0 0.1579507192313461 0.0025355498805747921 0 0.1454750608441174 -0.0051677832411170417 0 0.1482479430989522 -0.019876809272412071 0 0.1454750608441174 -0.0051677832411170417 0 0.1378535172181547 -0.012522851114620179 0 0.1482479430989522 -0.019876809272412071 0 0.1487119162446438 0.0039635729940632582 0 0.135234418882348 0.001091121526172267 0 0.1454750608441174 -0.0051677832411170417 0 0.135234418882348 0.001091121526172267 0 0.1454750608441174 -0.0051677832411170417 0 0.1378535172181547 -0.012522851114620179 0 0.1165810207984305 0.0016467845144158069 0 0.135234418882348 0.001091121526172267 0 0.1253515901131961 -0.01406323671609276 0 0.135234418882348 0.001091121526172267 0 0.1253515901131961 -0.01406323671609276 0 0.1378535172181547 -0.012522851114620179 0 0.1253515901131961 -0.01406323671609276 0 0.1378535172181547 -0.012522851114620179 0 0.13839874016969389 -0.024205398177381911 0 0.11281417740379721 -0.037866355664418441 0 0.1253515901131961 -0.01406323671609276 0 0.13839874016969389 -0.024205398177381911 0 0.1482479430989522 -0.019876809272412071 0 0.14247354517605859 -0.033215041379840479 0 0.1482479430989522 -0.019876809272412071 0 0.14247354517605859 -0.033215041379840479 0 0.1673217154536728 -0.029318240536167849 0 0.13839874016969389 -0.024205398177381911 0 0.1482479430989522 -0.019876809272412071 0 0.14247354517605859 -0.033215041379840479 0 0.13839874016969389 -0.024205398177381911 0 0.1482479430989522 -0.019876809272412071 0 0.1378535172181547 -0.012522851114620179 0 0.13839874016969389 -0.024205398177381911 0 0.1482479430989522 -0.019876809272412071 0 0.1561550467802324 -0.039423528755743231 0 0.14247354517605859 -0.033215041379840479 0 0.1673217154536728 -0.029318240536167849 0 0.14247354517605859 -0.033215041379840479 0 0.1673217154536728 -0.029318240536167849 0 0.1561550467802324 -0.039423528755743231 0 0.14247354517605859 -0.033215041379840479 0 0.14563008883668771 -0.053234014130103272 0 0.11281417740379721 -0.037866355664418441 0 0.14247354517605859 -0.033215041379840479 0 0.11281417740379721 -0.037866355664418441 0 0.14247354517605859 -0.033215041379840479 0 0.13172589994884221 -0.058040934670003222 0 0.11281417740379721 -0.037866355664418441 0 0.13839874016969389 -0.024205398177381911 0 0.14247354517605859 -0.033215041379840479 0 0.14247354517605859 -0.033215041379840479 0 0.13172589994884221 -0.058040934670003222 0 0.14247354517605859 -0.033215041379840479 0 0.13172589994884221 -0.058040934670003222 0 0.14563008883668771 -0.053234014130103272 0 0.13983341075789141 -0.068785326075662498 0 0.13172589994884221 -0.058040934670003222 0 0.14563008883668771 -0.053234014130103272 0 0.1580912292930067 -0.069220958501148788 0 0.14563008883668771 -0.053234014130103272 0 0.1623774474297156 -0.05515902740787778 0 0.14563008883668771 -0.053234014130103272 0 0.16919483765451021 -0.04192681897685871 0 0.14563008883668771 -0.053234014130103272 0 0.1623774474297156 -0.05515902740787778 0 0.16919483765451021 -0.04192681897685871 0 0.1580912292930067 -0.069220958501148788 0 0.1623774474297156 -0.05515902740787778 0 0.1716897414112411 -0.061723287548456109 0 0.1623774474297156 -0.05515902740787778 0 0.17110390253770871 -0.052609278838107697 0 0.16919483765451021 -0.04192681897685871 0 0.1623774474297156 -0.05515902740787778 0 0.17110390253770871 -0.052609278838107697 0 0.1716897414112411 -0.061723287548456109 0 0.17110390253770871 -0.052609278838107697 0 0.1716897414112411 -0.061723287548456109 0 0.18115358365536791 -0.051627981419238252 0 0.18481170982967171 -0.067676730807396973 0 0.1716897414112411 -0.061723287548456109 0 0.18115358365536791 -0.051627981419238252 0 0.18481170982967171 -0.067676730807396973 0 0.18115358365536791 -0.051627981419238252 0 0.19634308251299201 -0.062207971871565688 0 0.17110390253770871 -0.052609278838107697 0 0.18115358365536791 -0.051627981419238252 0 0.16919483765451021 -0.04192681897685871 0 0.18115358365536791 -0.051627981419238252 0 0.16919483765451021 -0.04192681897685871 0 0.19275958647233299 -0.03061962382361447 0 0.16919483765451021 -0.04192681897685871 0 0.1673217154536728 -0.029318240536167849 0 0.19275958647233299 -0.03061962382361447 0 0.16919483765451021 -0.04192681897685871 0 0.19275958647233299 -0.03061962382361447 0 0.1561550467802324 -0.039423528755743231 0 0.16919483765451021 -0.04192681897685871 0 0.1673217154536728 -0.029318240536167849 0 0.1561550467802324 -0.039423528755743231 0 0.14563008883668771 -0.053234014130103272 0 0.16919483765451021 -0.04192681897685871 0 0.1482479430989522 -0.019876809272412071 0 0.1673217154536728 -0.029318240536167849 0 0.168866438714389 -0.01081526469878645 0 0.1673217154536728 -0.029318240536167849 0 0.168866438714389 -0.01081526469878645 0 0.19216988573128629 -0.025421439692492449 0 0.1673217154536728 -0.029318240536167849 0 0.19216988573128629 -0.025421439692492449 0 0.19275958647233299 -0.03061962382361447 0 0.1673217154536728 -0.029318240536167849 0 0.19216988573128629 -0.025421439692492449 0 0.168866438714389 -0.01081526469878645 0 0.1894849343298263 -0.0017537201251617909 0 0.19216988573128629 -0.025421439692492449 0 0.168866438714389 -0.01081526469878645 0 0.1894849343298263 -0.0017537201251617909 0 0.17427265032816189 0.0062943587249405077 0 0.168866438714389 -0.01081526469878645 0 0.1894849343298263 -0.0017537201251617909 0 0.1482479430989522 -0.019876809272412071 0 0.168866438714389 -0.01081526469878645 0 0.17427265032816189 0.0062943587249405077 0 0.1579507192313461 0.0025355498805747921 0 0.168866438714389 -0.01081526469878645 0 0.1579507192313461 0.0025355498805747921 0 0.1482479430989522 -0.019876809272412071 0 0.168866438714389 -0.01081526469878645 0 0.21638436253333779 0.010068207731140181 0 0.2083029964389638 -0.0070788741920749356 0 0.2272738753587025 -0.0034298001956333431 0 0.2083029964389638 -0.0070788741920749356 0 0.21838690647803219 -0.018322734482704651 0 0.2272738753587025 -0.0034298001956333431 0 0.2083029964389638 -0.0070788741920749356 0 0.19977415589163469 -0.014253582951450071 0 0.20913880706646509 -0.02276029779608138 0 0.1894849343298263 -0.0017537201251617909 0 0.19977415589163469 -0.014253582951450071 0 0.19216988573128629 -0.025421439692492449 0 0.2083029964389638 -0.0070788741920749356 0 0.1894849343298263 -0.0017537201251617909 0 0.19977415589163469 -0.014253582951450071 0 0.1894849343298263 -0.0017537201251617909 0 0.19216988573128629 -0.025421439692492449 0 0.19216988573128629 -0.025421439692492449 0 0.20913880706646509 -0.02276029779608138 0 0.19275958647233299 -0.03061962382361447 0 0.20913880706646509 -0.02276029779608138 0 0.20595459348747791 -0.03712145286389805 0 0.19216988573128629 -0.025421439692492449 0 0.19275958647233299 -0.03061962382361447 0 0.20913880706646509 -0.02276029779608138 0 0.19977415589163469 -0.014253582951450071 0 0.19216988573128629 -0.025421439692492449 0 0.20913880706646509 -0.02276029779608138 0 0.19275958647233299 -0.03061962382361447 0 0.20913880706646509 -0.02276029779608138 0 0.19216988573128629 -0.025421439692492449 0 0.19275958647233299 -0.03061962382361447 0 0.2083029964389638 -0.0070788741920749356 0 0.20913880706646509 -0.02276029779608138 0 0.21838690647803219 -0.018322734482704651 0 0.20913880706646509 -0.02276029779608138 0 0.21838690647803219 -0.018322734482704651 0 0.20913880706646509 -0.02276029779608138 0 0.20595459348747791 -0.03712145286389805 0 0.2218984106255398 -0.03674520791791587 0 0.20595459348747791 -0.03712145286389805 0 0.2092026749394417 -0.052750415175054119 0 0.2218984106255398 -0.03674520791791587 0 0.20595459348747791 -0.03712145286389805 0 0.1945513344926631 -0.046413797847590012 0 0.2092026749394417 -0.052750415175054119 0 0.19275958647233299 -0.03061962382361447 0 0.20595459348747791 -0.03712145286389805 0 0.1945513344926631 -0.046413797847590012 0 0.18115358365536791 -0.051627981419238252 0 0.19275958647233299 -0.03061962382361447 0 0.1945513344926631 -0.046413797847590012 0 0.19275958647233299 -0.03061962382361447 0 0.1945513344926631 -0.046413797847590012 0 0.18115358365536791 -0.051627981419238252 0 0.1945513344926631 -0.046413797847590012 0 0.19634308251299201 -0.062207971871565688 0 0.1945513344926631 -0.046413797847590012 0 0.19634308251299201 -0.062207971871565688 0 0.2092026749394417 -0.052750415175054119 0 0.1945513344926631 -0.046413797847590012 0 0.19634308251299201 -0.062207971871565688 0 0.2092026749394417 -0.052750415175054119 0 0.2281935913887615 -0.051438326942707967 0 0.21552096976519991 -0.069375333037005743 0 0.19634308251299201 -0.062207971871565688 0 0.2092026749394417 -0.052750415175054119 0 0.21552096976519991 -0.069375333037005743 0 0.2092026749394417 -0.052750415175054119 0 0.2281935913887615 -0.051438326942707967 0 0.2218984106255398 -0.03674520791791587 0 0.25614171351425058 -0.057605891013993667 0 0.2281935913887615 -0.051438326942707967 0 0.24403893135934571 -0.037256147821468667 0 0.25614171351425058 -0.057605891013993667 0 0.2281935913887615 -0.051438326942707967 0 0.23627725293254651 -0.070464987920239364 0 0.2281935913887615 -0.051438326942707967 0 0.24403893135934571 -0.037256147821468667 0 0.2218984106255398 -0.03674520791791587 0 0.20913880706646509 -0.02276029779608138 0 0.23568338412272111 -0.018597458878268708 0 0.24403893135934571 -0.037256147821468667 0 0.2218984106255398 -0.03674520791791587 0 0.23568338412272111 -0.018597458878268708 0 0.20913880706646509 -0.02276029779608138 0 0.21838690647803219 -0.018322734482704651 0 0.23568338412272111 -0.018597458878268708 0 0.20913880706646509 -0.02276029779608138 0 0.2218984106255398 -0.03674520791791587 0 0.23568338412272111 -0.018597458878268708 0 0.26222796117897867 -0.01443461996046645 0 0.23568338412272111 -0.018597458878268708 0 0.26222796117897867 -0.01443461996046645 0 0.24403893135934571 -0.037256147821468667 0 0.23568338412272111 -0.018597458878268708 0 0.24502883806765671 0.008523642691556723 0 0.26222796117897867 -0.01443461996046645 0 0.23568338412272111 -0.018597458878268708 0 0.24502883806765671 0.008523642691556723 0 0.23568338412272111 -0.018597458878268708 0 0.2272738753587025 -0.0034298001956333431 0 0.21838690647803219 -0.018322734482704651 0 0.23568338412272111 -0.018597458878268708 0 0.2272738753587025 -0.0034298001956333431 0 0.20540889828322151 -0.10142466887451269 0 0.20347837142517819 -0.09216645516700113 0 0.22897962942591391 -0.091776685827334115 0 0.20540889828322151 -0.10142466887451269 0 0.22897962942591391 -0.091776685827334115 0 0.20540889828322151 -0.10142466887451269 0 0.20242655532676829 -0.09879575750060697 0 0.20347837142517819 -0.09216645516700113 0 0.20540889828322151 -0.10142466887451269 0 0.20347837142517819 -0.09216645516700113 0 0.20540889828322151 -0.10142466887451269 0 0.20960941033162209 -0.1215690341616736 0 0.19751347352090301 -0.1073792985966727 0 0.20540889828322151 -0.10142466887451269 0 0.20960941033162209 -0.1215690341616736 0 0.20540889828322151 -0.10142466887451269 0 0.20960941033162209 -0.1215690341616736 0 0.2245211551662093 -0.111110891200297 0 0.20960941033162209 -0.1215690341616736 0 0.19219412566717939 -0.1176653685476937 0 0.19663385095045691 -0.1340444436335366 0 0.20960941033162209 -0.1215690341616736 0 0.19219412566717939 -0.1176653685476937 0 0.19751347352090301 -0.1073792985966727 0 0.19219412566717939 -0.1176653685476937 0 0.18826566950959309 -0.1072515470169968 0 0.19751347352090301 -0.1073792985966727 0 0.18826566950959309 -0.1072515470169968 0 0.19751347352090301 -0.1073792985966727 0 0.19288381683700581 -0.099013186369109427 0 0.1823941263112423 -0.099771960353851274 0 0.18826566950959309 -0.1072515470169968 0 0.19288381683700581 -0.099013186369109427 0 0.19751347352090301 -0.1073792985966727 0 0.19954311593638749 -0.1020108342101758 0 0.19288381683700581 -0.099013186369109427 0 0.20540889828322151 -0.10142466887451269 0 0.19751347352090301 -0.1073792985966727 0 0.19954311593638749 -0.1020108342101758 0 0.19890727225034921 -0.096700927837444647 0 0.19288381683700581 -0.099013186369109427 0 0.1951315163850097 -0.088190863327025804 0 0.20242655532676829 -0.09879575750060697 0 0.19890727225034921 -0.096700927837444647 0 0.20347837142517819 -0.09216645516700113 0 0.19954311593638749 -0.1020108342101758 0 0.20242655532676829 -0.09879575750060697 0 0.19890727225034921 -0.096700927837444647 0 0.20540889828322151 -0.10142466887451269 0 0.19954311593638749 -0.1020108342101758 0 0.20242655532676829 -0.09879575750060697 0 0.19954311593638749 -0.1020108342101758 0 0.19890727225034921 -0.096700927837444647 0 0.19288381683700581 -0.099013186369109427 0 0.1870186982903321 -0.080678624554962997 0 0.18708874051528279 -0.091313536493609834 0 0.1951315163850097 -0.088190863327025804 0 0.18708874051528279 -0.091313536493609834 0 0.19288381683700581 -0.099013186369109427 0 0.1951315163850097 -0.088190863327025804 0 0.1870186982903321 -0.080678624554962997 0 0.1951315163850097 -0.088190863327025804 0 0.20038214361396001 -0.07556911874832746 0 0.1951315163850097 -0.088190863327025804 0 0.20038214361396001 -0.07556911874832746 0 0.2092981835950469 -0.082493302700044152 0 0.19890727225034921 -0.096700927837444647 0 0.1951315163850097 -0.088190863327025804 0 0.20347837142517819 -0.09216645516700113 0 0.1951315163850097 -0.088190863327025804 0 0.20347837142517819 -0.09216645516700113 0 0.2092981835950469 -0.082493302700044152 0 0.18481170982967171 -0.067676730807396973 0 0.19634308251299201 -0.062207971871565688 0 0.20038214361396001 -0.07556911874832746 0 0.18481170982967171 -0.067676730807396973 0 0.1870186982903321 -0.080678624554962997 0 0.20038214361396001 -0.07556911874832746 0 0.19634308251299201 -0.062207971871565688 0 0.20038214361396001 -0.07556911874832746 0 0.21552096976519991 -0.069375333037005743 0 0.20038214361396001 -0.07556911874832746 0 0.21552096976519991 -0.069375333037005743 0 0.2092981835950469 -0.082493302700044152 0 0.20347837142517819 -0.09216645516700113 0 0.2092981835950469 -0.082493302700044152 0 0.22897962942591391 -0.091776685827334115 0 0.21552096976519991 -0.069375333037005743 0 0.2092981835950469 -0.082493302700044152 0 0.22897962942591391 -0.091776685827334115 0 0.2281935913887615 -0.051438326942707967 0 0.21552096976519991 -0.069375333037005743 0 0.23627725293254651 -0.070464987920239364 0 0.21552096976519991 -0.069375333037005743 0 0.22897962942591391 -0.091776685827334115 0 0.23627725293254651 -0.070464987920239364 0 0.25255036056860641 -0.082128702780155355 0 0.25614171351425058 -0.057605891013993667 0 0.23627725293254651 -0.070464987920239364 0 0.25255036056860641 -0.082128702780155355 0 0.22897962942591391 -0.091776685827334115 0 0.23627725293254651 -0.070464987920239364 0 0.25255036056860641 -0.082128702780155355 0 0.22897962942591391 -0.091776685827334115 0 0.25255036056860641 -0.082128702780155355 0 0.22897962942591391 -0.091776685827334115 0 0.24916261720829391 -0.1128410760226309 0 0.22897962942591391 -0.091776685827334115 0 0.2245211551662093 -0.111110891200297 0 0.24916261720829391 -0.1128410760226309 0 0.20540889828322151 -0.10142466887451269 0 0.22897962942591391 -0.091776685827334115 0 0.2245211551662093 -0.111110891200297 0 0.20960941033162209 -0.1215690341616736 0 0.2245211551662093 -0.111110891200297 0 0.2294452205819951 -0.12794299111533369 0 0.2245211551662093 -0.111110891200297 0 0.24916261720829391 -0.1128410760226309 0 0.2294452205819951 -0.12794299111533369 0 0.24916261720829391 -0.1128410760226309 0 0.24384523969761221 -0.14863354701755199 0 0.2294452205819951 -0.12794299111533369 0 0.24384523969761221 -0.14863354701755199 0 0.21380992238002369 -0.1417133994488344 0 0.2180104344284243 -0.16185776473599539 0 0.24384523969761221 -0.14863354701755199 0 0.2180104344284243 -0.16185776473599539 0 0.24384523969761221 -0.14863354701755199 0 0.2294452205819951 -0.12794299111533369 0 0.21380992238002369 -0.1417133994488344 0 0.20960941033162209 -0.1215690341616736 0 0.21380992238002369 -0.1417133994488344 0 0.19663385095045691 -0.1340444436335366 0 0.20960941033162209 -0.1215690341616736 0 0.2294452205819951 -0.12794299111533369 0 0.21380992238002369 -0.1417133994488344 0 0.20960941033162209 -0.1215690341616736 0 0.21380992238002369 -0.1417133994488344 0 0.21380992238002369 -0.1417133994488344 0 0.2013779497845499 -0.15379387858282129 0 0.2180104344284243 -0.16185776473599539 0 0.21380992238002369 -0.1417133994488344 0 0.2180104344284243 -0.16185776473599539 0 0.21380992238002369 -0.1417133994488344 0 0.2013779497845499 -0.15379387858282129 0 0.19663385095045691 -0.1340444436335366 0 0.2013779497845499 -0.15379387858282129 0 0.19663385095045691 -0.1340444436335366 0 0.17859111471201719 -0.14226858924969871 0 0.2013779497845499 -0.15379387858282129 0 0.17859111471201719 -0.14226858924969871 0 0.19219412566717939 -0.1176653685476937 0 0.19663385095045691 -0.1340444436335366 0 0.182022956505311 -0.1273449289036277 0 0.19958609295615001 -0.1712887436193041 0 0.2006224909986751 -0.18986371226117729 0 0.17918744399911579 -0.18386343756749071 0 0.2013779497845499 -0.15379387858282129 0 0.19958609295615001 -0.1712887436193041 0 0.18048734692316329 -0.16221665802066121 0 0.19958609295615001 -0.1712887436193041 0 0.2180104344284243 -0.16185776473599539 0 0.2013779497845499 -0.15379387858282129 0 0.19958609295615001 -0.1712887436193041 0 0.2180104344284243 -0.16185776473599539 0 0.19958609295615001 -0.1712887436193041 0 0.2180104344284243 -0.16185776473599539 0 0.22281003446497841 -0.18487517196028511 0 0.19958609295615001 -0.1712887436193041 0 0.22281003446497841 -0.18487517196028511 0 0.2006224909986751 -0.18986371226117729 0 0.22281003446497841 -0.18487517196028511 0 0.23570096642844829 -0.1722258792539898 0 0.24002367982415451 -0.19374267904470141 0 0.2180104344284243 -0.16185776473599539 0 0.22281003446497841 -0.18487517196028511 0 0.2180104344284243 -0.16185776473599539 0 0.22281003446497841 -0.18487517196028511 0 0.23570096642844829 -0.1722258792539898 0 0.24384523969761221 -0.14863354701755199 0 0.2180104344284243 -0.16185776473599539 0 0.23570096642844829 -0.1722258792539898 0 0.25706624972303532 -0.17543805633142839 0 0.24384523969761221 -0.14863354701755199 0 0.23570096642844829 -0.1722258792539898 0 0.25706624972303532 -0.17543805633142839 0 0.23570096642844829 -0.1722258792539898 0 0.24002367982415451 -0.19374267904470141 0 0.25071911215742437 -0.20927805116274709 0 0.25474998502698032 -0.19691874005317461 0 0.24002367982415451 -0.19374267904470141 0 0.24002367982415451 -0.19374267904470141 0 0.23964594955867069 -0.21305705247066661 0 0.22760963450153149 -0.20789257918457499 0 0.25071911215742437 -0.20927805116274709 0 0.24002367982415451 -0.19374267904470141 0 0.23964594955867069 -0.21305705247066661 0 0.25071911215742437 -0.20927805116274709 0 0.23964594955867069 -0.21305705247066661 0 0.2474680867721589 -0.22346196655244499 0 0.22760963450153149 -0.20789257918457499 0 0.2324092345380846 -0.2309099864088649 0 0.2172926040389781 -0.21383878327938241 0 0.23964594955867069 -0.21305705247066661 0 0.22760963450153149 -0.20789257918457499 0 0.2324092345380846 -0.2309099864088649 0 0.22760963450153149 -0.20789257918457499 0 0.2152960022182086 -0.19845111230496201 0 0.2172926040389781 -0.21383878327938241 0 0.22281003446497841 -0.18487517196028511 0 0.22760963450153149 -0.20789257918457499 0 0.2152960022182086 -0.19845111230496201 0 0.22281003446497841 -0.18487517196028511 0 0.24002367982415451 -0.19374267904470141 0 0.22760963450153149 -0.20789257918457499 0 0.22281003446497841 -0.18487517196028511 0 0.22760963450153149 -0.20789257918457499 0 0.2538276387990735 -0.243986156319283 0 0.2448903888819314 -0.25274008289494182 0 0.24490165686425211 -0.23528228860034259 0 0.2448903888819314 -0.25274008289494182 0 0.2355561727938057 -0.24422168856868201 0 0.24490165686425211 -0.23528228860034259 0 0.2355561727938057 -0.24422168856868201 0 0.24490165686425211 -0.23528228860034259 0 0.2324092345380846 -0.2309099864088649 0 0.23964594955867069 -0.21305705247066661 0 0.2474680867721589 -0.22346196655244499 0 0.2324092345380846 -0.2309099864088649 0 0.24490165686425211 -0.23528228860034259 0 0.2474680867721589 -0.22346196655244499 0 0.2324092345380846 -0.2309099864088649 0 0.25700636866691529 -0.23229792619875059 0 0.24490165686425211 -0.23528228860034259 0 0.2474680867721589 -0.22346196655244499 0 0.22760963450153149 -0.20789257918457499 0 0.2324092345380846 -0.2309099864088649 0 0.2324092345380846 -0.2309099864088649 0 0.21494616059445251 -0.23041102710637271 0 0.2172926040389781 -0.21383878327938241 0 0.2324092345380846 -0.2309099864088649 0 0.22036553595057129 -0.24563164019566869 0 0.21494616059445251 -0.23041102710637271 0 0.2355561727938057 -0.24422168856868201 0 0.2324092345380846 -0.2309099864088649 0 0.22036553595057129 -0.24563164019566869 0 0.23102541472123911 -0.25599355796250051 0 0.2355561727938057 -0.24422168856868201 0 0.22036553595057129 -0.24563164019566869 0 0.22036553595057129 -0.24563164019566869 0 0.21494616059445251 -0.23041102710637271 0 0.20176664847045861 -0.23953523052850459 0 0.20456781783476069 -0.25396670583710529 0 0.22036553595057129 -0.24563164019566869 0 0.20176664847045861 -0.23953523052850459 0 0.21494616059445251 -0.23041102710637271 0 0.2028374203940165 -0.22282397125293019 0 0.20176664847045861 -0.23953523052850459 0 0.21494616059445251 -0.23041102710637271 0 0.2028374203940165 -0.22282397125293019 0 0.2172926040389781 -0.21383878327938241 0 0.2028374203940165 -0.22282397125293019 0 0.20176664847045861 -0.23953523052850459 0 0.180860691138753 -0.229284827934296 0 0.2028374203940165 -0.22282397125293019 0 0.19243212961953191 -0.20935490071974269 0 0.180860691138753 -0.229284827934296 0 0.20456781783476069 -0.25396670583710529 0 0.1786538332685523 -0.25460290197261742 0 0.20176664847045861 -0.23953523052850459 0 0.22281003446497841 -0.18487517196028511 0 0.2152960022182086 -0.19845111230496201 0 0.2006224909986751 -0.18986371226117729 0 0.2172926040389781 -0.21383878327938241 0 0.19243212961953191 -0.20935490071974269 0 0.2152960022182086 -0.19845111230496201 0 0.2172926040389781 -0.21383878327938241 0 0.19243212961953191 -0.20935490071974269 0 0.2028374203940165 -0.22282397125293019 0 0.2172926040389781 -0.21383878327938241 0 0.19243212961953191 -0.20935490071974269 0 0.19243212961953191 -0.20935490071974269 0 0.2006224909986751 -0.18986371226117729 0 0.17918744399911579 -0.18386343756749071 0 0.2152960022182086 -0.19845111230496201 0 0.19243212961953191 -0.20935490071974269 0 0.2006224909986751 -0.18986371226117729 0 0.19243212961953191 -0.20935490071974269 0 0.1675716552000856 -0.20487101816010289 0 0.17918744399911579 -0.18386343756749071 0 0.19243212961953191 -0.20935490071974269 0 0.1675716552000856 -0.20487101816010289 0 0.180860691138753 -0.229284827934296 0 0.19243212961953191 -0.20935490071974269 0 0.1675716552000856 -0.20487101816010289 0 0.1675716552000856 -0.20487101816010289 0 0.180860691138753 -0.229284827934296 0 0.15233523535079951 -0.21949393654088839 0 0.1675716552000856 -0.20487101816010289 0 0.15865281233934739 -0.1879987783120862 0 0.14271118078063949 -0.20038713560046309 0 0.1675716552000856 -0.20487101816010289 0 0.15865281233934739 -0.1879987783120862 0 0.17918744399911579 -0.18386343756749071 0 0.1786538332685523 -0.25460290197261742 0 0.20176664847045861 -0.23953523052850459 0 0.180860691138753 -0.229284827934296 0 0.180860691138753 -0.229284827934296 0 0.1557025531150017 -0.2413313336981292 0 0.15233523535079951 -0.21949393654088839 0 0.1786538332685523 -0.25460290197261742 0 0.180860691138753 -0.229284827934296 0 0.1557025531150017 -0.2413313336981292 0 0.1786538332685523 -0.25460290197261742 0 0.1557025531150017 -0.2413313336981292 0 0.1557025531150017 -0.2413313336981292 0 0.13275127296145109 -0.22805976542364101 0 0.13475341233392191 -0.24985250807845871 0 0.1557025531150017 -0.2413313336981292 0 0.13275127296145109 -0.22805976542364101 0 0.1557025531150017 -0.2413313336981292 0 0.15233523535079951 -0.21949393654088839 0 0.13275127296145109 -0.22805976542364101 0 0.15233523535079951 -0.21949393654088839 0 0.13275127296145109 -0.22805976542364101 0 0.1370014246331587 -0.21394691032012511 0 0.1154050387073919 -0.2358942627654679 0 0.13275127296145109 -0.22805976542364101 0 0.13475341233392191 -0.24985250807845871 0 0.1675716552000856 -0.20487101816010289 0 0.14271118078063949 -0.20038713560046309 0 0.15865281233934739 -0.1879987783120862 0 0.14271118078063949 -0.20038713560046309 0 0.1436852153571099 -0.18149983091375249 0 0.1675716552000856 -0.20487101816010289 0 0.15233523535079951 -0.21949393654088839 0 0.14271118078063949 -0.20038713560046309 0 0.15233523535079951 -0.21949393654088839 0 0.14271118078063949 -0.20038713560046309 0 0.1370014246331587 -0.21394691032012511 0 0.12020800943974461 -0.20784680371550801 0 0.14271118078063949 -0.20038713560046309 0 0.1370014246331587 -0.21394691032012511 0 0.12020800943974461 -0.20784680371550801 0 0.13275127296145109 -0.22805976542364101 0 0.1370014246331587 -0.21394691032012511 0 0.11785070636119339 -0.19590325304082329 0 0.12020800943974461 -0.20784680371550801 0 0.14271118078063949 -0.20038713560046309 0 0.11785070636119339 -0.19590325304082329 0 0.14271118078063949 -0.20038713560046309 0 0.11785070636119339 -0.19590325304082329 0 0.14271118078063949 -0.20038713560046309 0 0.12988750288688269 -0.18741504762509861 0 0.14271118078063949 -0.20038713560046309 0 0.12988750288688269 -0.18741504762509861 0 0.1436852153571099 -0.18149983091375249 0 0.12988750288688269 -0.18741504762509861 0 0.126570689701412 -0.17556766332277421 0 0.1436852153571099 -0.18149983091375249 0 0.126570689701412 -0.17556766332277421 0 0.1436852153571099 -0.18149983091375249 0 0.14041619973235189 -0.16727514079493491 0 0.1436852153571099 -0.18149983091375249 0 0.14041619973235189 -0.16727514079493491 0 0.16010856635978629 -0.16937246931862179 0 0.15865281233934739 -0.1879987783120862 0 0.1436852153571099 -0.18149983091375249 0 0.16010856635978629 -0.16937246931862179 0 0.14041619973235189 -0.16727514079493491 0 0.1471208766721411 -0.15145285098596889 0 0.16010856635978629 -0.16937246931862179 0 0.126570689701412 -0.17556766332277421 0 0.125390862628938 -0.15657497428360451 0 0.14041619973235189 -0.16727514079493491 0 0.125390862628938 -0.15657497428360451 0 0.14041619973235189 -0.16727514079493491 0 0.1471208766721411 -0.15145285098596889 0 0.123482910852498 -0.13777490984151949 0 0.125390862628938 -0.15657497428360451 0 0.13773546937481559 -0.13778397400650461 0 0.125390862628938 -0.15657497428360451 0 0.13773546937481559 -0.13778397400650461 0 0.1471208766721411 -0.15145285098596889 0 0.123482910852498 -0.13777490984151949 0 0.133017444566952 -0.1192180105834534 0 0.13773546937481559 -0.13778397400650461 0 0.133017444566952 -0.1192180105834534 0 0.13773546937481559 -0.13778397400650461 0 0.15580427963948459 -0.13074329991657599 0 0.13773546937481559 -0.13778397400650461 0 0.15580427963948459 -0.13074329991657599 0 0.1471208766721411 -0.15145285098596889 0 0.15580427963948459 -0.13074329991657599 0 0.1471208766721411 -0.15145285098596889 0 0.16407291372736091 -0.1527128297860304 0 0.15580427963948459 -0.13074329991657599 0 0.16407291372736091 -0.1527128297860304 0 0.17859111471201719 -0.14226858924969871 0 0.15580427963948459 -0.13074329991657599 0 0.17859111471201719 -0.14226858924969871 0 0.15580427963948459 -0.13074329991657599 0 0.182022956505311 -0.1273449289036277 0 0.17859111471201719 -0.14226858924969871 0 0.19663385095045691 -0.1340444436335366 0 0.182022956505311 -0.1273449289036277 0 0.17859111471201719 -0.14226858924969871 0 0.2013779497845499 -0.15379387858282129 0 0.17859111471201719 -0.14226858924969871 0 0.18048734692316329 -0.16221665802066121 0 0.16407291372736091 -0.1527128297860304 0 0.17859111471201719 -0.14226858924969871 0 0.18048734692316329 -0.16221665802066121 0 0.18048734692316329 -0.16221665802066121 0 0.17918744399911579 -0.18386343756749071 0 0.16010856635978629 -0.16937246931862179 0 0.19958609295615001 -0.1712887436193041 0 0.18048734692316329 -0.16221665802066121 0 0.17918744399911579 -0.18386343756749071 0 0.15865281233934739 -0.1879987783120862 0 0.17918744399911579 -0.18386343756749071 0 0.16010856635978629 -0.16937246931862179 0 0.1471208766721411 -0.15145285098596889 0 0.16407291372736091 -0.1527128297860304 0 0.16010856635978629 -0.16937246931862179 0 0.16407291372736091 -0.1527128297860304 0 0.18048734692316329 -0.16221665802066121 0 0.16010856635978629 -0.16937246931862179 0 
</DataArray>
</Points>
<Cells>
<DataArray type="UInt32" Name="connectivity" format="ascii">
0 1 2 3 4 5 6 7 8 9 10 11 12 13 14 15 16 17 18 19 20 21 22 23 24 25 26 27 28 29 30 31 32 33 34 35 36 37 38 39 40 41 42 43 44 45 46 47 48 49 50 51 52 53 54 55 56 57 58 59 60 61 62 63 64 65 66 67 68 69 70 71 72 73 74 75 76 77 78 79 80 81 82 83 84 85 86 87 88 89 90 91 92 93 94 95 96 97 98 99 100 101 102 103 104 105 106 107 108 109 110 111 112 113 114 115 116 117 118 119 120 121 122 123 124 125 126 127 128 129 130 131 132 133 134 135 136 137 138 139 140 141 142 143 144 145 146 147 148 149 150 151 152 153 154 155 156 157 158 159 160 161 162 163 164 165 166 167 168 169 170 171 172 173 174 175 176 177 178 179 180 181 182 183 184 185 186 187 188 189 190 191 192 193 194 195 196 197 198 199 200 201 202 203 204 205 206 207 208 209 210 211 212 213 214 215 216 217 218 219 220 221 222 223 224 225 226 227 228 229 230 231 232 233 234 235 236 237 238 239 240 241 242 243 244 245 246 247 248 249 250 251 252 253 254 255 256 257 258 259 260 261 262 263 264 265 266 267 268 269 270 271 272 273 274 275 276 277 278 279 280 281 282 283 284 285 286 287 288 289 290 291 292 293 294 295 296 297 298 299 300 301 302 303 304 305 306 307 308 309 310 311 312 313 314 315 316 317 318 319 320 321 322 323 324 325 326 327 328 329 330 331 332 333 334 335 336 337 338 339 340 341 342 343 344 345 346 347 348 349 350 351 352 353 354 355 356 357 358 359 360 361 362 363 364 365 366 367 368 369 370 371 372 373 374 375 376 377 378 379 380 381 382 383 384 385 386 387 388 389 390 391 392 393 394 395 396 397 398 399 400 401 402 403 404 405 406 407 408 409 410 411 412 413 414 415 416 417 418 419 420 421 422 423 424 425 426 427 428 429 430 431 432 433 434 435 436 437 438 439 440 441 442 443 444 445 446 447 448 449 450 451 452 453 454 455 456 457 458 459 460 461 462 463 464 465 466 467 468 469 470 471 472 473 474 475 476 477 478 479 480 481 482 483 484 485 486 487 488 489 490 491 492 493 494 495 496 497 498 499 500 501 502 503 504 505 506 507 508 509 510 511 512 513 514 515 516 517 518 519 520 521 522 523 524 525 526 527 528 529 530 531 532 533 534 535 536 537 538 539 540 541 542 543 544 545 546 547 548 549 550 551 552 553 554 555 556 557 558 559 560 561 562 563 564 565 566 567 568 569 570 571 572 573 574 575 576 577 578 579 580 581 582 583 584 585 586 587 588 589 590 591 592 593 594 595 596 597 598 599 600 601 602 603 604 605 606 607 608 609 610 611 612 613 614 615 616 617 618 619 620 621 622 623 624 625 626 627 628 629 630 631 632 633 634 635 636 637 638 639 640 641 642 643 644 645 646 647 648 649 650 651 652 653 654 655 656 657 658 659 660 661 662 663 664 665 666 667 668 669 670 671 672 673 674 675 676 677 678 679 680 681 682 683 684 685 686 687 688 689 690 691 692 693 694 695 696 697 698 699 700 701 702 703 704 705 706 707 708 709 710 711 712 713 714 715 716 717 718 719 720 721 722 723 724 725 726 727 728 729 730 731 732 733 734 735 736 737 738 739 740 741 742 743 744 745 746 747 748 749 750 751 752 753 754 755 756 757 758 759 760 761 762 763 764 765 766 767 768 769 770 771 772 773 774 775 776 777 778 779 780 781 782 783 784 785 786 787 788 789 790 791 792 793 794 795 796 797 798 799 800 801 802 803 804 805 806 807 808 809 810 811 812 813 814 815 816 817 818 819 820 821 822 823 824 825 826 827 828 829 830 831 832 833 834 835 836 837 838 839 840 841 842 843 844 845 846 847 848 849 850 851 852 853 854 855 856 857 858 859 860 861 862 863 864 865 866 867 868 869 870 871 872 873 874 875 876 877 878 879 880 881 882 883 884 885 886 887 888 889 890 891 892 893 894 895 896 897 898 899 900 901 902 903 904 905 906 907 908 909 910 911 912 913 914 915 916 917 918 919 920 921 922 923 924 925 926 927 928 929 930 931 932 933 934 935 936 937 938 939 940 941 942 943 944 945 946 947 948 949 950 951 952 953 954 955 956 957 958 959 960 961 962 963 964 965 966 967 968 969 970 971 972 973 974 975 976 977 978 979 980 981 982 983 984 985 986 987 988 989 990 991 992 993 994 995 996 997 998 999 1000 1001 1002 1003 1004 1005 1006 1007 1008 1009 1010 1011 1012 1013 1014 1015 1016 1017 1018 1019 1020 1021 1022 1023 1024 1025 1026 1027 1028 1029 1030 1031 1032 1033 1034 1035 1036 1037 1038 1039 1040 1041 1042 1043 1044 1045 1046 1047 1048 1049 1050 1051 1052 1053 1054 1055 1056 1057 1058 1059 1060 1061 1062 1063 1064 1065 1066 1067 1068 1069 1070 1071 1072 1073 1074 1075 1076 1077 1078 1079 1080 1081 1082 1083 1084 1085 1086 1087 1088 1089 1090 1091 1092 1093 1094 1095 1096 1097 1098 1099 1100 1101 1102 1103 1104 1105 1106 1107 1108 1109 1110 1111 1112 1113 1114 1115 1116 1117 1118 1119 1120 1121 1122 1123 1124 1125 1126 1127 1128 1129 1130 1131 1132 1133 1134 1135 1136 1137 1138 1139 1140 1141 1142 1143 1144 1145 1146 1147 1148 1149 1150 1151 1152 1153 1154 1155 1156 1157 1158 1159 1160 1161 1162 1163 1164 1165 1166 1167 1168 1169 1170 1171 1172 1173 1174 1175 1176 1177 1178 1179 1180 1181 1182 1183 1184 1185 1186 1187 1188 1189 1190 1191 1192 1193 1194 1195 1196 1197 1198 1199 1200 1201 1202 1203 1204 1205 1206 1207 1208 1209 1210 1211 1212 1213 1214 1215 1216 1217 1218 1219 1220 1221 1222 1223 1224 1225 1226 1227 1228 1229 1230 1231 1232 1233 1234 1235 1236 1237 1238 1239 1240 1241 1242 1243 1244 1245 1246 1247 1248 1249 1250 1251 1252 1253 1254 1255 1256 1257 1258 1259 1260 1261 1262 1263 1264 1265 1266 1267 1268 1269 1270 1271 1272 1273 1274 1275 1276 1277 1278 1279 1280 1281 1282 1283 1284 1285 1286 1287 1288 1289 1290 1291 1292 1293 1294 1295 1296 1297 1298 1299 1300 1301 1302 1303 1304 1305 1306 1307 1308 1309 1310 1311 1312 1313 1314 1315 1316 1317 1318 1319 1320 1321 1322 1323 1324 1325 1326 1327 1328 1329 1330 1331 1332 1333 1334 1335 1336 1337 1338 1339 1340 1341 1342 1343 1344 1345 1346 1347 1348 1349 1350 1351 1352 1353 1354 1355 1356 1357 1358 1359 1360 1361 1362 1363 1364 1365 1366 1367 1368 1369 1370 1371 1372 1373 1374 1375 1376 1377 1378 1379 1380 1381 1382 1383 1384 1385 1386 1387 1388 1389 1390 1391 1392 1393 1394 1395 1396 1397 1398 1399 1400 1401 1402 1403 1404 1405 1406 1407 1408 1409 1410 1411 1412 1413 1414 1415 1416 1417 1418 1419 1420 1421 1422 1423 1424 1425 1426 1427 1428 1429 1430 1431 1432 1433 1434 1435 1436 1437 1438 1439 1440 1441 1442 1443 1444 1445 1446 1447 1448 1449 1450 1451 1452 1453 1454 1455 1456 1457 1458 1459 1460 1461 1462 1463 1464 1465 1466 1467 1468 1469 1470 1471 1472 1473 1474 1475 1476 1477 1478 1479 1480 1481 1482 1483 1484 1485 1486 1487 1488 1489 1490 1491 1492 1493 1494 1495 1496 1497 1498 1499 1500 1501 1502 1503 1504 1505 1506 1507 1508 1509 1510 1511 1512 1513 1514 1515 1516 1517 1518 1519 1520 1521 1522 1523 1524 1525 1526 1527 1528 1529 1530 1531 1532 1533 1534 1535 1536 1537 1538 1539 1540 1541 1542 1543 1544 1545 1546 1547 1548 1549 1550 1551 1552 1553 1554 1555 1556 1557 1558 1559 1560 1561 1562 1563 1564 1565 1566 1567 1568 1569 1570 1571 1572 1573 1574 1575 1576 1577 1578 1579 1580 1581 1582 1583 1584 1585 1586 1587 1588 1589 1590 1591 1592 1593 1594 1595 1596 1597 1598 1599 1600 1601 1602 1603 1604 1605 1606 1607 1608 1609 1610 1611 1612 1613 1614 1615 1616 1617 1618 1619 1620 1621 1622 1623 1624 1625 1626 1627 1628 1629 1630 1631 1632 1633 1634 1635 1636 1637 1638 1639 1640 1641 1642 1643 1644 1645 1646 1647 1648 1649 1650 1651 1652 1653 1654 1655 1656 1657 1658 1659 1660 1661 1662 1663 1664 1665 1666 1667 1668 1669 1670 1671 1672 1673 1674 1675 1676 1677 1678 1679 1680 1681 1682 1683 1684 1685 1686 1687 1688 1689 1690 1691 1692 1693 1694 1695 1696 1697 1698 1699 1700 1701 1702 1703 1704 1705 1706 1707 1708 1709 1710 1711 1712 1713 1714 1715 1716 1717 1718 1719 1720 1721 1722 1723 1724 1725 1726 1727 1728 1729 1730 1731 1732 1733 1734 1735 1736 1737 1738 1739 1740 1741 1742 1743 1744 1745 1746 1747 1748 1749 1750 1751 1752 1753 1754 1755 1756 1757 1758 1759 1760 1761 1762 1763 1764 1765 1766 1767 1768 1769 1770 1771 1772 1773 1774 1775 1776 1777 1778 1779 1780 1781 1782 1783 1784 1785 1786 1787 1788 1789 1790 1791 1792 1793 1794 1795 1796 1797 1798 1799 1800 1801 1802 1803 1804 1805 1806 1807 1808 1809 1810 1811 1812 1813 1814 1815 1816 1817 1818 1819 1820 1821 1822 1823 1824 1825 1826 1827 1828 1829 1830 1831 1832 1833 1834 1835 1836 1837 1838 1839 1840 1841 1842 1843 1844 1845 1846 1847 1848 1849 1850 1851 1852 1853 1854 1855 1856 1857 1858 1859 1860 1861 1862 1863 1864 1865 1866 1867 1868 1869 1870 1871 1872 1873 1874 1875 1876 1877 1878 1879 1880 1881 1882 1883 1884 1885 1886 1887 1888 1889 1890 1891 1892 1893 1894 1895 1896 1897 1898 1899 1900 1901 1902 1903 1904 1905 1906 1907 1908 1909 1910 1911 1912 1913 1914 1915 1916 1917 1918 1919 1920 1921 1922 1923 1924 1925 1926 1927 1928 1929 1930 1931 1932 1933 1934 1935 1936 1937 1938 1939 1940 1941 1942 1943 1944 1945 1946 1947 1948 1949 1950 1951 1952 1953 1954 1955 1956 1957 1958 1959 1960 1961 1962 1963 1964 1965 1966 1967 1968 1969 1970 1971 1972 1973 1974 1975 1976 1977 1978 1979 1980 1981 1982 1983 1984 1985 1986 1987 1988 1989 1990 1991 1992 1993 1994 1995 1996 1997 1998 1999 2000 2001 2002 2003 2004 2005 2006 2007 2008 2009 2010 2011 2012 2013 2014 2015 2016 2017 2018 2019 2020 2021 2022 2023 2024 2025 2026 2027 2028 2029 2030 2031 2032 2033 2034 2035 2036 2037 2038 2039 2040 2041 2042 2043 2044 2045 2046 2047 2048 2049 2050 2051 2052 2053 2054 2055 2056 2057 2058 2059 2060 2061 2062 2063 2064 2065 2066 2067 2068 2069 2070 2071 2072 2073 2074 2075 2076 2077 2078 2079 2080 2081 2082 2083 2084 2085 2086 2087 2088 2089 2090 2091 2092 2093 2094 2095 2096 2097 2098 2099 2100 2101 2102 2103 2104 2105 2106 2107 2108 2109 2110 2111 2112 2113 2114 2115 2116 2117 2118 2119 2120 2121 2122 2123 2124 2125 2126 2127 2128 2129 2130 2131 2132 2133 2134 2135 2136 2137 2138 2139 2140 2141 2142 2143 2144 2145 2146 2147 2148 2149 2150 2151 2152 2153 2154 2155 2156 2157 2158 2159 2160 2161 2162 2163 2164 2165 2166 2167 2168 2169 2170 2171 2172 2173 2174 2175 2176 2177 2178 2179 2180 2181 2182 2183 2184 2185 2186 2187 2188 2189 2190 2191 2192 2193 2194 2195 2196 2197 2198 2199 2200 2201 2202 2203 2204 2205 2206 2207 2208 2209 2210 2211 2212 2213 2214 2215 2216 2217 2218 2219 2220 2221 2222 2223 2224 2225 2226 2227 2228 2229 2230 2231 2232 2233 2234 2235 2236 2237 2238 2239 2240 2241 2242 2243 2244 2245 2246 2247 2248 2249 2250 2251 2252 2253 2254 2255 2256 2257 2258 2259 2260 2261 2262 2263 2264 2265 2266 2267 2268 2269 2270 2271 2272 2273 2274 2275 2276 2277 2278 2279 2280 2281 2282 2283 2284 2285 2286 2287 2288 2289 2290 2291 2292 2293 2294 2295 2296 2297 2298 2299 2300 2301 2302 2303 2304 2305 2306 2307 2308 2309 2310 2311 2312 2313 2314 2315 2316 2317 2318 2319 2320 2321 2322 2323 2324 2325 2326 2327 2328 2329 2330 2331 2332 2333 2334 2335 2336 2337 2338 2339 2340 2341 2342 2343 2344 2345 2346 2347 2348 2349 2350 2351 2352 2353 2354 2355 2356 2357 2358 2359 2360 2361 2362 2363 2364 2365 2366 2367 2368 2369 2370 2371 2372 2373 2374 2375 2376 2377 2378 2379 2380 2381 2382 2383 2384 2385 2386 2387 2388 2389 2390 2391 2392 2393 2394 2395 2396 2397 2398 2399 2400 2401 2402 2403 2404 2405 2406 2407 2408 2409 2410 2411 2412 2413 2414 2415 2416 2417 2418 2419 2420 2421 2422 2423 2424 2425 2426 2427 2428 2429 2430 2431 2432 2433 2434 2435 2436 2437 2438 2439 2440 2441 2442 2443 2444 2445 2446 2447 2448 2449 2450 2451 2452 2453 2454 2455 2456 2457 2458 2459 2460 2461 2462 2463 2464 2465 2466 2467 2468 2469 2470 2471 2472 2473 2474 2475 2476 2477 2478 2479 2480 2481 2482 2483 2484 2485 2486 2487 2488 2489 2490 2491 2492 2493 2494 2495 2496 2497 2498 2499 2500 2501 2502 2503 2504 2505 2506 2507 2508 2509 2510 2511 2512 2513 2514 2515 2516 2517 2518 2519 2520 2521 2522 2523 2524 2525 2526 2527 2528 2529 2530 2531 2532 2533 2534 2535 2536 2537 2538 2539 2540 2541 2542 2543 2544 2545 2546 2547 2548 2549 2550 2551 2552 2553 2554 2555 2556 2557 2558 2559 2560 2561 2562 2563 2564 2565 2566 2567 2568 2569 2570 2571 2572 2573 2574 2575 2576 2577 2578 2579 2580 2581 2582 2583 2584 2585 2586 2587 2588 2589 2590 2591 2592 2593 2594 2595 2596 2597 2598 2599 2600 2601 2602 2603 2604 2605 2606 2607 2608 2609 2610 2611 2612 2613 2614 2615 2616 2617 2618 2619 2620 2621 2622 2623 2624 2625 2626 2627 2628 2629 2630 2631 2632 2633 2634 2635 2636 2637 2638 2639 2640 2641 2642 2643 2644 2645 2646 2647 2648 2649 2650 2651 2652 2653 2654 2655 2656 2657 2658 2659 2660 2661 2662 2663 2664 2665 2666 2667 2668 2669 2670 2671 2672 2673 2674 2675 2676 2677 2678 2679 2680 2681 2682 2683 2684 2685 2686 2687 2688 2689 2690 2691 2692 2693 2694 2695 2696 2697 2698 2699 2700 2701 2702 2703 2704 2705 2706 2707 2708 2709 2710 2711 2712 2713 2714 2715 2716 2717 2718 2719 2720 2721 2722 2723 2724 2725 2726 2727 2728 2729 2730 2731 2732 2733 2734 2735 2736 2737 2738 2739 2740 2741 2742 2743 2744 2745 2746 2747 2748 2749 2750 2751 2752 2753 2754 2755 2756 2757 2758 2759 2760 2761 2762 2763 2764 2765 2766 2767 2768 2769 2770 2771 2772 2773 2774 2775 2776 2777 2778 2779 2780 2781 2782 2783 2784 2785 2786 2787 2788 2789 2790 2791 2792 2793 2794 2795 2796 2797 2798 2799 2800 2801 2802 2803 2804 2805 2806 2807 2808 2809 2810 2811 2812 2813 2814 2815 2816 2817 2818 2819 2820 2821 2822 2823 2824 2825 2826 2827 2828 2829 2830 2831 2832 2833 2834 2835 2836 2837 2838 2839 2840 2841 2842 2843 2844 2845 2846 2847 2848 2849 2850 2851 2852 2853 2854 2855 2856 2857 2858 2859 2860 2861 2862 2863 2864 2865 2866 2867 2868 2869 2870 2871 2872 2873 2874 2875 2876 2877 2878 2879 2880 2881 2882 2883 2884 2885 2886 2887 2888 2889 2890 2891 2892 2893 2894 2895 2896 2897 2898 2899 2900 2901 2902 2903 2904 2905 2906 2907 2908 2909 2910 2911 2912 2913 2914 2915 2916 2917 2918 2919 2920 2921 2922 2923 2924 2925 2926 2927 2928 2929 2930 2931 2932 2933 2934 2935 2936 2937 2938 2939 2940 2941 2942 2943 2944 2945 2946 2947 2948 2949 2950 2951 2952 2953 2954 2955 2956 2957 2958 2959 2960 2961 2962 2963 2964 2965 2966 2967 2968 2969 2970 2971 2972 2973 2974 2975 2976 2977 2978 2979 2980 2981 2982 2983 2984 2985 2986 2987 2988 2989 2990 2991 2992 2993 2994 2995 2996 2997 2998 2999 3000 3001 3002 3003 3004 3005 3006 3007 3008 3009 3010 3011 3012 3013 3014 3015 3016 3017 3018 3019 3020 3021 3022 3023 3024 3025 3026 3027 3028 3029 3030 3031 3032 3033 3034 3035 3036 3037 3038 3039 3040 3041 3042 3043 3044 3045 3046 3047 3048 3049 3050 3051 3052 3053 3054 3055 3056 3057 3058 3059 3060 3061 3062 3063 3064 3065 3066 3067 3068 3069 3070 3071 3072 3073 3074 3075 3076 3077 3078 3079 3080 3081 3082 3083 3084 3085 3086 3087 3088 3089 3090 3091 3092 3093 3094 3095 3096 3097 3098 3099 3100 3101 3102 3103 3104 3105 3106 3107 3108 3109 3110 3111 3112 3113 3114 3115 3116 3117 3118 3119 3120 3121 3122 3123 3124 3125 3126 3127 3128 3129 3130 3131 3132 3133 3134 3135 3136 3137 3138 3139 3140 3141 3142 3143 3144 3145 3146 3147 3148 3149 3150 3151 3152 3153 3154 3155 3156 3157 3158 3159 3160 3161 3162 3163 3164 3165 3166 3167 3168 3169 3170 3171 3172 3173 3174 3175 3176 3177 3178 3179 3180 3181 3182 3183 3184 3185 3186 3187 3188 3189 3190 3191 3192 3193 3194 3195 3196 3197 3198 3199 3200 3201 3202 3203 3204 3205 3206 3207 3208 3209 3210 3211 3212 3213 3214 3215 3216 3217 3218 3219 3220 3221 3222 3223 3224 3225 3226 3227 3228 3229 3230 3231 3232 3233 3234 3235 3236 3237 3238 3239 3240 3241 3242 3243 3244 3245 3246 3247 3248 3249 3250 3251 3252 3253 3254 3255 3256 3257 3258 3259 3260 3261 3262 3263 3264 3265 3266 3267 3268 3269 3270 3271 3272 3273 3274 3275 3276 3277 3278 3279 3280 3281 3282 3283 3284 3285 3286 3287 3288 3289 3290 3291 3292 3293 3294 3295 3296 3297 3298 3299 3300 3301 3302 3303 3304 3305 3306 3307 3308 3309 3310 3311 3312 3313 3314 3315 3316 3317 3318 3319 3320 3321 3322 3323 3324 3325 3326 3327 3328 3329 3330 3331 3332 3333 3334 3335 3336 3337 3338 3339 3340 3341 3342 3343 3344 3345 3346 3347 3348 3349 3350 3351 3352 3353 3354 3355 3356 3357 3358 3359 3360 3361 3362 3363 3364 3365 3366 3367 3368 3369 3370 3371 3372 3373 3374 3375 3376 3377 3378 3379 3380 3381 3382 3383 3384 3385 3386 3387 3388 3389 3390 3391 3392 3393 3394 3395 3396 3397 3398 3399 3400 3401 3402 3403 3404 3405 3406 3407 3408 3409 3410 3411 3412 3413 3414 3415 3416 3417 3418 3419 3420 3421 3422 3423 3424 3425 3426 3427 3428 3429 3430 3431 3432 3433 3434 3435 3436 3437 3438 3439 3440 3441 3442 3443 3444 3445 3446 3447 3448 3449 3450 3451 3452 3453 3454 3455 3456 3457 3458 3459 3460 3461 3462 3463 3464 3465 3466 3467 3468 3469 3470 3471 3472 3473 3474 3475 3476 3477 3478 3479 3480 3481 3482 3483 3484 3485 3486 3487 3488 3489 3490 3491 3492 3493 3494 3495 3496 3497 3498 3499 3500 3501 3502 3503 3504 3505 3506 3507 3508 3509 3510 3511 3512 3513 3514 3515 3516 3517 3518 3519 3520 3521 3522 3523 3524 3525 3526 3527 3528 3529 3530 3531 3532 3533 3534 3535 3536 3537 3538 3539 3540 3541 3542 3543 3544 3545 3546 3547 3548 3549 3550 3551 3552 3553 3554 3555 3556 3557 3558 3559 3560 3561 3562 3563 3564 3565 3566 3567 3568 3569 3570 3571 3572 3573 3574 3575 3576 3577 3578 3579 3580 3581 3582 3583 3584 3585 3586 3587 3588 3589 3590 3591 3592 3593 3594 3595 3596 3597 3598 3599 3600 3601 3602 3603 3604 3605 3606 3607 3608 3609 3610 3611 3612 3613 3614 3615 3616 3617 3618 3619 3620 3621 3622 3623 3624 3625 3626 3627 3628 3629 3630 3631 3632 3633 3634 3635 3636 3637 3638 3639 3640 3641 3642 3643 3644 3645 3646 3647 3648 3649 3650 3651 3652 3653 3654 3655 3656 3657 3658 3659 3660 3661 3662 3663 3664 3665 3666 3667 3668 3669 3670 3671 3672 3673 3674 3675 3676 3677 3678 3679 3680 3681 3682 3683 3684 3685 3686 3687 3688 3689 3690 3691 3692 3693 3694 3695 3696 3697 3698 3699 3700 3701 3702 3703 3704 3705 3706 3707 3708 3709 3710 3711 3712 3713 3714 3715 3716 3717 3718 3719 3720 3721 3722 3723 3724 3725 3726 3727 3728 3729 3730 3731 3732 3733 3734 3735 3736 3737 3738 3739 3740 3741 3742 3743 3744 3745 3746 3747 3748 3749 3750 3751 3752 3753 3754 3755 3756 3757 3758 3759 3760 3761 3762 3763 3764 3765 3766 3767 3768 3769 3770 3771 3772 3773 3774 3775 3776 3777 3778 3779 3780 3781 3782 3783 3784 3785 3786 3787 3788 3789 3790 3791 3792 3793 3794 3795 3796 3797 3798 3799 3800 3801 3802 3803 3804 3805 3806 3807 3808 3809 3810 3811 3812 3813 3814 3815 3816 3817 3818 3819 3820 3821 3822 3823 3824 3825 3826 3827 3828 3829 3830 3831 3832 3833 3834 3835 3836 3837 3838 3839 3840 3841 3842 3843 3844 3845 3846 3847 3848 3849 3850 3851 3852 3853 3854 3855 3856 3857 3858 3859 3860 3861 3862 3863 3864 3865 3866 3867 3868 3869 3870 3871 3872 3873 3874 3875 3876 3877 3878 3879 3880 3881 3882 3883 3884 3885 3886 3887 3888 3889 3890 3891 3892 3893 3894 3895 3896 3897 3898 3899 3900 3901 3902 3903 3904 3905 3906 3907 3908 3909 3910 3911 3912 3913 3914 3915 3916 3917 3918 3919 3920 3921 3922 3923 3924 3925 3926 3927 3928 3929 3930 3931 3932 3933 3934 3935 3936 3937 3938 3939 3940 3941 3942 3943 3944 3945 3946 3947 3948 3949 3950 3951 3952 3953 3954 3955 3956 3957 3958 3959 3960 3961 3962 3963 3964 3965 3966 3967 3968 3969 3970 3971 3972 3973 3974 3975 3976 3977 3978 3979 3980 3981 3982 3983 3984 3985 3986 3987 3988 3989 3990 3991 3992 3993 3994 3995 3996 3997 3998 3999 4000 4001 4002 4003 4004 4005 4006 4007 4008 4009 4010 4011 4012 4013 4014 4015 4016 4017 4018 4019 4020 4021 4022 4023 4024 4025 4026 4027 4028 4029 4030 4031 4032 4033 4034 4035 4036 4037 4038 4039 4040 4041 4042 4043 4044 4045 4046 4047 4048 4049 4050 4051 4052 4053 4054 4055 4056 4057 4058 4059 4060 4061 4062 4063 4064 4065 4066 4067 4068 4069 4070 4071 4072 4073 4074 4075 4076 4077 4078 4079 4080 4081 4082 4083 4084 4085 4086 4087 4088 4089 4090 4091 4092 4093 4094 4095 4096 4097 4098 4099 4100 4101 4102 4103 4104 4105 4106 4107 4108 4109 4110 4111 4112 4113 4114 4115 4116 4117 4118 4119 4120 4121 4122 4123 4124 4125 4126 4127 4128 4129 4130 4131 4132 4133 4134 4135 4136 4137 4138 4139 4140 4141 4142 4143 4144 4145 4146 4147 4148 4149 4150 4151 4152 4153 4154 4155 4156 4157 4158 4159 4160 4161 4162 4163 4164 4165 4166 4167 4168 4169 4170 4171 4172 4173 4174 4175 4176 4177 4178 4179 4180 4181 4182 4183 4184 4185 4186 4187 4188 4189 4190 4191 4192 4193 4194 4195 4196 4197 4198 4199 4200 4201 4202 4203 4204 4205 4206 4207 4208 4209 4210 4211 4212 4213 4214 4215 4216 4217 4218 4219 4220 4221 4222 4223 4224 4225 4226 4227 4228 4229 4230 4231 4232 4233 4234 4235 4236 4237 4238 4239 4240 4241 4242 4243 4244 4245 4246 4247 4248 4249 4250 4251 4252 4253 4254 4255 4256 4257 4258 4259 4260 4261 4262 4263 4264 4265 4266 4267 4268 4269 4270 4271 4272 4273 4274 4275 4276 4277 4278 4279 4280 4281 4282 4283 4284 4285 4286 4287 4288 4289 4290 4291 4292 4293 4294 4295 4296 4297 4298 4299 4300 4301 4302 4303 4304 4305 4306 4307 4308 4309 4310 4311 4312 4313 4314 4315 4316 4317 4318 4319 4320 4321 4322 4323 4324 4325 4326 4327 4328 4329 4330 4331 4332 4333 4334 4335 4336 4337 4338 4339 4340 4341 4342 4343 4344 4345 4346 4347 4348 4349 4350 4351 4352 4353 4354 4355 4356 4357 4358 4359 4360 4361 4362 4363 4364 4365 4366 4367 4368 4369 4370 4371 4372 4373 4374 4375 4376 4377 4378 4379 4380 4381 4382 4383 4384 4385 4386 4387 4388 4389 4390 4391 4392 4393 4394 4395 4396 4397 4398 4399 4400 4401 4402 4403 4404 4405 4406 4407 4408 4409 4410 4411 4412 4413 4414 4415 4416 4417 4418 4419 4420 4421 4422 4423 4424 4425 4426 4427 4428 4429 4430 4431 4432 4433 4434 4435 4436 4437 4438 4439 4440 4441 4442 4443 4444 4445 4446 4447 4448 4449 4450 4451 4452 4453 4454 4455 4456 4457 4458 4459 4460 4461 4462 4463 4464 4465 4466 4467 4468 4469 4470 4471 4472 4473 4474 4475 4476 4477 4478 4479 4480 4481 4482 4483 4484 4485 4486 4487 4488 4489 4490 4491 4492 4493 4494 4495 4496 4497 4498 4499 4500 4501 4502 4503 4504 4505 4506 4507 4508 4509 4510 4511 4512 4513 4514 4515 4516 4517 4518 4519 4520 4521 4522 4523 4524 4525 4526 4527 4528 4529 4530 4531 4532 4533 4534 4535 4536 4537 4538 4539 4540 4541 4542 4543 4544 4545 4546 4547 4548 4549 4550 4551 4552 4553 4554 4555 4556 4557 4558 4559 4560 4561 4562 4563 4564 4565 4566 4567 4568 4569 4570 4571 4572 4573 4574 4575 4576 4577 4578 4579 4580 4581 4582 4583 4584 4585 4586 4587 4588 4589 4590 4591 4592 4593 4594 4595 4596 4597 4598 4599 4600 4601 4602 4603 4604 4605 4606 4607 4608 4609 4610 4611 4612 4613 4614 4615 4616 4617 4618 4619 4620 4621 4622 4623 4624 4625 4626 4627 4628 4629 4630 4631 4632 4633 4634 4635 4636 4637 4638 4639 4640 4641 4642 4643 4644 4645 4646 4647 4648 4649 4650 4651 4652 4653 4654 4655 4656 4657 4658 4659 4660 4661 4662 4663 4664 4665 4666 4667 4668 4669 4670 4671 4672 4673 4674 4675 4676 4677 4678 4679 4680 4681 4682 4683 4684 4685 4686 4687 4688 4689 4690 4691 4692 4693 4694 4695 4696 4697 4698 4699 4700 4701 4702 4703 4704 4705 4706 4707 4708 4709 4710 4711 4712 4713 4714 4715 4716 4717 4718 4719 4720 4721 4722 4723 4724 4725 4726 4727 4728 4729 4730 4731 4732 4733 4734 4735 4736 4737 4738 4739 4740 4741 4742 4743 4744 4745 4746 4747 4748 4749 4750 4751 4752 4753 4754 4755 4756 4757 4758 4759 4760 4761 4762 4763 4764 4765 4766 4767 4768 4769 4770 4771 4772 4773 4774 4775 4776 4777 4778 4779 4780 4781 4782 4783 4784 4785 4786 4787 4788 4789 4790 4791 4792 4793 4794 4795 4796 4797 4798 4799 4800 4801 4802 4803 4804 4805 4806 4807 4808 4809 4810 4811 4812 4813 4814 4815 4816 4817 4818 4819 4820 4821 4822 4823 4824 4825 4826 4827 4828 4829 4830 4831 4832 4833 4834 4835 4836 4837 4838 4839 4840 4841 4842 4843 4844 4845 4846 4847 4848 4849 4850 4851 4852 4853 4854 4855 4856 4857 4858 4859 4860 4861 4862 4863 4864 4865 4866 4867 4868 4869 4870 4871 4872 4873 4874 4875 4876 4877 4878 4879 4880 4881 4882 4883 4884 4885 4886 4887 4888 4889 4890 4891 4892 4893 4894 4895 4896 4897 4898 4899 4900 4901 4902 4903 4904 4905 4906 4907 4908 4909 4910 4911 4912 4913 4914 4915 4916 4917 4918 4919 4920 4921 4922 4923 4924 4925 4926 4927 4928 4929 4930 4931 4932 4933 4934 4935 4936 4937 4938 4939 4940 4941 4942 4943 4944 4945 4946 4947 4948 4949 4950 4951 4952 4953 4954 4955 4956 4957 4958 4959 4960 4961 4962 4963 4964 4965 4966 4967 4968 4969 4970 4971 4972 4973 4974 4975 4976 4977 4978 4979 4980 4981 4982 4983 4984 4985 4986 4987 4988 4989 4990 4991 4992 4993 4994 4995 4996 4997 4998 4999 5000 5001 5002 5003 5004 5005 5006 5007 5008 5009 5010 5011 5012 5013 5014 5015 5016 5017 5018 5019 5020 5021 5022 5023 5024 5025 5026 5027 5028 5029 5030 5031 5032 5033 5034 5035 5036 5037 5038 5039 5040 5041 5042 5043 5044 5045 5046 5047 5048 5049 5050 5051 5052 5053 5054 5055 5056 5057 5058 5059 5060 5061 5062 5063 5064 5065 5066 5067 5068 5069 5070 5071 5072 5073 5074 5075 5076 5077 5078 5079 5080 5081 5082 5083 5084 5085 5086 5087 5088 5089 5090 5091 5092 5093 5094 5095 5096 5097 5098 5099 5100 5101 5102 5103 5104 5105 5106 5107 5108 5109 5110 5111 5112 5113 5114 5115 5116 5117 5118 5119 5120 5121 5122 5123 5124 5125 5126 5127 5128 5129 5130 5131 5132 5133 5134 5135 5136 5137 5138 5139 5140 5141 5142 5143 5144 5145 5146 5147 5148 5149 5150 5151 5152 5153 5154 5155 5156 5157 5158 5159 5160 5161 5162 5163 5164 5165 5166 5167 5168 5169 5170 5171 5172 5173 5174 5175 5176 5177 5178 5179 5180 5181 5182 5183 5184 5185 5186 5187 5188 5189 5190 5191 5192 5193 5194 5195 5196 5197 5198 5199 5200 5201 5202 5203 5204 5205 5206 5207 5208 5209 5210 5211 5212 5213 5214 5215 5216 5217 5218 5219 5220 5221 5222 5223 5224 5225 5226 5227 5228 5229 5230 5231 5232 5233 5234 5235 5236 5237 5238 5239 5240 5241 5242 5243 5244 5245 5246 5247 5248 5249 5250 5251 5252 5253 5254 5255 5256 5257 5258 5259 5260 5261 5262 5263 5264 5265 5266 5267 5268 5269 5270 5271 5272 5273 5274 5275 5276 5277 5278 5279 5280 5281 5282 5283 5284 5285 5286 5287 5288 5289 5290 5291 5292 5293 5294 5295 5296 5297 5298 5299 5300 5301 5302 5303 5304 5305 5306 5307 5308 5309 5310 5311 5312 5313 5314 5315 5316 5317 5318 5319 5320 5321 5322 5323 5324 5325 5326 5327 5328 5329 5330 5331 5332 5333 5334 5335 5336 5337 5338 5339 5340 5341 5342 5343 5344 5345 5346 5347 5348 5349 5350 5351 5352 5353 5354 5355 5356 5357 5358 5359 5360 5361 5362 5363 5364 5365 5366 5367 5368 5369 5370 5371 5372 5373 5374 5375 5376 5377 5378 5379 5380 5381 5382 5383 5384 5385 5386 5387 5388 5389 5390 5391 5392 5393 5394 5395 5396 5397 5398 5399 5400 5401 5402 5403 5404 5405 5406 5407 5408 5409 5410 5411 5412 5413 5414 5415 5416 5417 5418 5419 5420 5421 5422 5423 5424 5425 5426 5427 5428 5429 5430 5431 5432 5433 5434 5435 5436 5437 5438 5439 5440 5441 5442 5443 5444 5445 5446 5447 5448 5449 5450 5451 5452 5453 5454 5455 5456 5457 5458 5459 5460 5461 5462 5463 5464 5465 5466 5467 5468 5469 5470 5471 5472 5473 5474 5475 5476 5477 5478 5479 5480 5481 5482 5483 5484 5485 5486 5487 5488 5489 5490 5491 5492 5493 5494 5495 5496 5497 5498 5499 5500 5501 5502 5503 5504 5505 5506 5507 5508 5509 5510 5511 5512 5513 5514 5515 5516 5517 5518 5519 5520 5521 5522 5523 5524 5525 5526 5527 5528 5529 5530 5531 5532 5533 5534 5535 5536 5537 5538 5539 5540 5541 5542 5543 5544 5545 5546 5547 5548 5549 5550 5551 5552 5553 5554 5555 5556 5557 5558 5559 5560 5561 5562 5563 5564 5565 5566 5567 5568 5569 5570 5571 5572 5573 5574 5575 5576 5577 5578 5579 5580 5581 5582 5583 5584 5585 5586 5587 5588 5589 5590 5591 5592 5593 5594 5595 5596 5597 5598 5599 5600 5601 5602 5603 5604 5605 5606 5607 5608 5609 5610 5611 5612 5613 5614 5615 5616 5617 5618 5619 5620 5621 5622 5623 5624 5625 5626 5627 5628 5629 5630 5631 5632 5633 5634 5635 5636 5637 5638 5639 5640 5641 5642 5643 5644 5645 5646 5647 5648 5649 5650 5651 5652 5653 5654 5655 5656 5657 5658 5659 5660 5661 5662 5663 5664 5665 5666 5667 5668 5669 5670 5671 5672 5673 5674 5675 5676 5677 5678 5679 5680 5681 5682 5683 5684 5685 5686 5687 5688 5689 5690 5691 5692 5693 5694 5695 5696 5697 5698 5699 5700 5701 5702 5703 5704 5705 5706 5707 5708 5709 5710 5711 5712 5713 5714 5715 5716 5717 5718 5719 5720 5721 5722 5723 5724 5725 5726 5727 5728 5729 5730 5731 5732 5733 5734 5735 5736 5737 5738 5739 5740 5741 5742 5743 5744 5745 5746 5747 5748 5749 5750 5751 5752 5753 5754 5755 5756 5757 5758 5759 5760 5761 5762 5763 5764 5765 5766 5767 5768 5769 5770 5771 5772 5773 5774 5775 5776 5777 5778 5779 5780 5781 5782 5783 5784 5785 5786 5787 5788 5789 5790 5791 5792 5793 5794 5795 5796 5797 5798 5799 5800 5801 5802 5803 5804 5805 5806 5807 5808 5809 5810 5811 5812 5813 5814 5815 5816 5817 5818 5819 5820 5821 5822 5823 5824 5825 5826 5827 5828 5829 5830 5831 5832 5833 5834 5835 5836 5837 5838 5839 5840 5841 5842 5843 5844 5845 5846 5847 5848 5849 5850 5851 5852 5853 5854 5855 5856 5857 5858 5859 5860 5861 5862 5863 5864 5865 5866 5867 5868 5869 5870 5871 5872 5873 5874 5875 5876 5877 5878 5879 5880 5881 5882 5883 5884 5885 5886 5887 5888 5889 5890 5891 5892 5893 5894 5895 5896 5897 5898 5899 5900 5901 5902 5903 5904 5905 5906 5907 5908 5909 5910 5911 5912 5913 5914 5915 5916 5917 5918 5919 5920 5921 5922 5923 5924 5925 5926 5927 5928 5929 5930 5931 5932 5933 5934 5935 5936 5937 5938 5939 5940 5941 5942 5943 5944 5945 5946 5947 5948 5949 5950 5951 5952 5953 5954 5955 5956 5957 5958 5959 5960 5961 5962 5963 5964 5965 5966 5967 5968 5969 5970 5971 5972 5973 5974 5975 5976 5977 5978 5979 5980 5981 5982 5983 5984 5985 5986 5987 5988 5989 5990 5991 5992 5993 5994 5995 5996 5997 5998 5999 6000 6001 6002 6003 6004 6005 6006 6007 6008 6009 6010 6011 6012 6013 6014 6015 6016 6017 6018 6019 6020 6021 6022 6023 6024 6025 6026 6027 6028 6029 6030 6031 6032 6033 6034 6035 6036 6037 6038 6039 6040 6041 6042 6043 6044 6045 6046 6047 6048 6049 6050 6051 6052 6053 6054 6055 6056 6057 6058 6059 6060 6061 6062 6063 6064 6065 6066 6067 6068 6069 6070 6071 6072 6073 6074 6075 6076 6077 6078 6079 6080 6081 6082 6083 6084 6085 6086 6087 6088 6089 6090 6091 6092 6093 6094 6095 6096 6097 6098 6099 6100 6101 6102 6103 6104 6105 6106 6107 6108 6109 6110 6111 6112 6113 6114 6115 6116 6117 6118 6119 6120 6121 6122 6123 6124 6125 6126 6127 6128 6129 6130 6131 6132 6133 6134 6135 6136 6137 6138 6139 6140 6141 6142 6143 6144 6145 6146 6147 6148 6149 6150 6151 6152 6153 6154 6155 6156 6157 6158 6159 6160 6161 6162 6163 6164 6165 6166 6167 6168 6169 6170 6171 6172 6173 6174 6175 6176 6177 6178 6179 6180 6181 6182 6183 6184 6185 6186 6187 6188 6189 6190 6191 6192 6193 6194 6195 6196 6197 6198 6199 6200 6201 6202 6203 6204 6205 6206 6207 6208 6209 6210 6211 6212 6213 6214 6215 6216 6217 6218 6219 6220 6221 6222 6223 6224 6225 6226 6227 6228 6229 6230 6231 6232 6233 6234 6235 6236 6237 6238 6239 6240 6241 6242 6243 6244 6245 6246 6247 6248 6249 6250 6251 6252 6253 6254 6255 6256 6257 6258 6259 6260 6261 6262 6263 6264 6265 6266 6267 6268 6269 6270 6271 6272 6273 6274 6275 6276 6277 6278 6279 6280 6281 6282 6283 6284 6285 6286 6287 6288 6289 6290 6291 6292 6293 6294 6295 6296 6297 6298 6299 6300 6301 6302 6303 6304 6305 6306 6307 6308 6309 6310 6311 6312 6313 6314 6315 6316 6317 6318 6319 6320 6321 6322 6323 6324 6325 6326 6327 6328 6329 6330 6331 6332 6333 6334 6335 6336 6337 6338 6339 6340 6341 6342 6343 6344 6345 6346 6347 6348 6349 6350 6351 6352 6353 6354 6355 6356 6357 6358 6359 6360 6361 6362 6363 6364 6365 6366 6367 6368 6369 6370 6371 6372 6373 6374 6375 6376 6377 6378 6379 6380 6381 6382 6383 6384 6385 6386 6387 6388 6389 6390 6391 6392 6393 6394 6395 6396 6397 6398 6399 6400 6401 6402 6403 6404 6405 6406 6407 6408 6409 6410 6411 6412 6413 6414 6415 6416 6417 6418 6419 6420 6421 6422 6423 6424 6425 6426 6427 6428 6429 6430 6431 6432 6433 6434 6435 6436 6437 6438 6439 6440 6441 6442 6443 6444 6445 6446 6447 6448 6449 6450 6451 6452 6453 6454 6455 6456 6457 6458 6459 6460 6461 6462 6463 6464 6465 6466 6467 6468 6469 6470 6471 6472 6473 6474 6475 6476 6477 6478 6479 6480 6481 6482 6483 6484 6485 6486 6487 6488 6489 6490 6491 6492 6493 6494 6495 6496 6497 6498 6499 6500 6501 6502 6503 6504 6505 6506 6507 6508 6509 6510 6511 6512 6513 6514 6515 6516 6517 6518 6519 6520 6521 6522 6523 6524 6525 6526 6527 6528 6529 6530 6531 6532 6533 6534 6535 6536 6537 6538 6539 6540 6541 6542 6543 6544 6545 6546 6547 6548 6549 6550 6551 6552 6553 6554 6555 6556 6557 6558 6559 6560 6561 6562 6563 6564 6565 6566 6567 6568 6569 6570 6571 6572 6573 6574 6575 6576 6577 6578 6579 6580 6581 6582 6583 6584 6585 6586 6587 6588 6589 6590 6591 6592 6593 6594 6595 6596 6597 6598 6599 6600 6601 6602 6603 6604 6605 6606 6607 6608 6609 6610 6611 6612 6613 6614 6615 6616 6617 6618 6619 6620 6621 6622 6623 6624 6625 6626 6627 6628 6629 6630 6631 6632 6633 6634 6635 6636 6637 6638 6639 6640 6641 6642 6643 6644 6645 6646 6647 6648 6649 6650 6651 6652 6653 6654 6655 6656 6657 6658 6659 6660 6661 6662 6663 6664 6665 6666 6667 6668 6669 6670 6671 6672 6673 6674 6675 6676 6677 6678 6679 6680 6681 6682 6683 6684 6685 6686 6687 6688 6689 6690 6691 6692 6693 6694 6695 6696 6697 6698 6699 6700 6701 6702 6703 6704 6705 6706 6707 6708 6709 6710 6711 6712 6713 6714 6715 6716 6717 6718 6719 6720 6721 6722 6723 6724 6725 6726 6727 6728 6729 6730 6731 6732 6733 6734 6735 6736 6737 6738 6739 6740 6741 6742 6743 6744 6745 6746 6747 6748 6749 6750 6751 6752 6753 6754 6755 6756 6757 6758 6759 6760 6761 6762 6763 6764 6765 6766 6767 6768 6769 6770 6771 6772 6773 6774 6775 6776 6777 6778 6779 6780 6781 6782 6783 6784 6785 6786 6787 6788 6789 6790 6791 6792 6793 6794 6795 6796 6797 6798 6799 6800 6801 6802 6803 6804 6805 6806 6807 6808 6809 6810 6811 6812 6813 6814 6815 6816 6817 6818 6819 6820 6821 6822 6823 6824 6825 6826 6827 6828 6829 6830 6831 6832 6833 6834 6835 6836 6837 6838 6839 6840 6841 6842 6843 6844 6845 6846 6847 6848 6849 6850 6851 6852 6853 6854 6855 6856 6857 6858 6859 6860 6861 6862 6863 6864 6865 6866 6867 6868 6869 6870 6871 6872 6873 6874 6875 6876 6877 6878 6879 6880 6881 6882 6883 6884 6885 6886 6887 6888 6889 6890 6891 6892 6893 6894 6895 6896 6897 6898 6899 6900 6901 6902 6903 6904 6905 6906 6907 6908 6909 6910 6911 6912 6913 6914 6915 6916 6917 6918 6919 6920 6921 6922 6923 6924 6925 6926 6927 6928 6929 6930 6931 6932 6933 6934 6935 6936 6937 6938 6939 6940 6941 6942 6943 6944 6945 6946 6947 6948 6949 6950 6951 6952 6953 6954 6955 6956 6957 6958 6959 6960 6961 6962 6963 6964 6965 6966 6967 6968 6969 6970 6971 6972 6973 6974 6975 6976 6977 6978 6979 6980 6981 6982 6983 6984 6985 6986 6987 6988 6989 6990 6991 6992 6993 6994 6995 6996 6997 6998 6999 7000 7001 7002 7003 7004 7005 7006 7007 7008 7009 7010 7011 7012 7013 7014 7015 7016 7017 7018 7019 7020 7021 7022 7023 7024 7025 7026 7027 7028 7029 7030 7031 7032 7033 7034 7035 7036 7037 7038 7039 7040 7041 7042 7043 7044 7045 7046 7047 7048 7049 7050 7051 7052 7053 7054 7055 7056 7057 7058 7059 7060 7061 7062 7063 7064 7065 7066 7067 7068 7069 7070 7071 7072 7073 7074 7075 7076 7077 7078 7079 7080 7081 7082 7083 7084 7085 7086 7087 7088 7089 7090 7091 7092 7093 7094 7095 7096 7097 7098 7099 7100 7101 7102 7103 7104 7105 7106 7107 7108 7109 7110 7111 7112 7113 7114 7115 7116 7117 7118 7119 7120 7121 7122 7123 7124 7125 7126 7127 7128 7129 7130 7131 7132 7133 7134 7135 7136 7137 7138 7139 7140 7141 7142 7143 7144 7145 7146 7147 7148 7149 7150 7151 7152 7153 7154 7155 7156 7157 7158 7159 7160 7161 7162 7163 7164 7165 7166 7167 7168 7169 7170 7171 7172 7173 7174 7175 7176 7177 7178 7179 7180 7181 7182 7183 7184 7185 7186 7187 7188 7189 7190 7191 7192 7193 7194 7195 7196 7197 7198 7199 7200 7201 7202 7203 7204 7205 7206 7207 7208 7209 7210 7211 7212 7213 7214 7215 7216 7217 7218 7219 7220 7221 7222 7223 7224 7225 7226 7227 7228 7229 7230 7231 7232 7233 7234 7235 7236 7237 7238 7239 7240 7241 7242 7243 7244 7245 7246 7247 7248 7249 7250 7251 7252 7253 7254 7255 7256 7257 7258 7259 7260 7261 7262 7263 7264 7265 7266 7267 7268 7269 7270 7271 7272 7273 7274 7275 7276 7277 7278 7279 7280 7281 7282 7283 7284 7285 7286 7287 7288 7289 7290 7291 7292 7293 7294 7295 7296 7297 7298 7299 7300 7301 7302 7303 7304 7305 7306 7307 7308 7309 7310 7311 7312 7313 7314 7315 7316 7317 7318 7319 7320 7321 7322 7323 7324 7325 7326 7327 7328 7329 7330 7331 7332 7333 7334 7335 7336 7337 7338 7339 7340 7341 7342 7343 7344 7345 7346 7347 7348 7349 7350 7351 7352 7353 7354 7355 7356 7357 7358 7359 7360 7361 7362 7363 7364 7365 7366 7367 7368 7369 7370 7371 7372 7373 7374 7375 7376 7377 7378 7379 7380 7381 7382 7383 7384 7385 7386 7387 7388 7389 7390 7391 7392 7393 7394 7395 7396 7397 7398 7399 7400 7401 7402 7403 7404 7405 7406 7407 7408 7409 7410 7411 7412 7413 7414 7415 7416 7417 7418 7419 7420 7421 7422 7423 7424 7425 7426 7427 7428 7429 7430 7431 7432 7433 7434 7435 7436 7437 7438 7439 7440 7441 7442 7443 7444 7445 7446 7447 7448 7449 7450 7451 7452 7453 7454 7455 7456 7457 7458 7459 7460 7461 7462 7463 7464 7465 7466 7467 7468 7469 7470 7471 7472 7473 7474 7475 7476 7477 7478 7479 7480 7481 7482 7483 7484 7485 7486 7487 7488 7489 7490 7491 7492 7493 7494 7495 7496 7497 7498 7499 7500 7501 7502 7503 7504 7505 7506 7507 7508 7509 7510 7511 7512 7513 7514 7515 7516 7517 7518 7519 7520 7521 7522 7523 7524 7525 7526 7527 7528 7529 7530 7531 7532 7533 7534 7535 7536 7537 7538 7539 7540 7541 7542 7543 7544 7545 7546 7547 7548 7549 7550 7551 7552 7553 7554 7555 7556 7557 7558 7559 7560 7561 7562 7563 7564 7565 7566 7567 7568 7569 7570 7571 7572 7573 7574 7575 7576 7577 7578 7579 7580 7581 7582 7583 7584 7585 7586 7587 7588 7589 7590 7591 7592 7593 7594 7595 7596 7597 7598 7599 7600 7601 7602 7603 7604 7605 7606 7607 7608 7609 7610 7611 7612 7613 7614 7615 7616 7617 7618 7619 7620 7621 7622 7623 7624 7625 7626 7627 7628 7629 7630 7631 7632 7633 7634 7635 7636 7637 7638 7639 7640 7641 7642 7643 7644 7645 7646 7647 7648 7649 7650 7651 7652 7653 7654 7655 7656 7657 7658 7659 7660 7661 7662 7663 7664 7665 7666 7667 7668 7669 7670 7671 7672 7673 7674 7675 7676 7677 7678 7679 7680 7681 7682 7683 7684 7685 7686 7687 7688 7689 7690 7691 7692 7693 7694 7695 7696 7697 7698 7699 7700 7701 7702 7703 7704 7705 7706 7707 7708 7709 7710 7711 7712 7713 7714 7715 7716 7717 7718 7719 7720 7721 7722 7723 7724 7725 7726 7727 7728 7729 7730 7731 7732 7733 7734 7735 7736 7737 7738 7739 7740 7741 7742 7743 7744 7745 7746 7747 7748 7749 7750 7751 7752 7753 7754 7755 7756 7757 7758 7759 7760 7761 7762 7763 7764 7765 7766 7767 7768 7769 7770 7771 7772 7773 7774 7775 7776 7777 7778 7779 7780 7781 7782 7783 7784 7785 7786 7787 7788 7789 7790 7791 7792 7793 7794 7795 7796 7797 7798 7799 7800 7801 7802 7803 7804 7805 7806 7807 7808 7809 7810 7811 7812 7813 7814 7815 7816 7817 7818 7819 7820 7821 7822 7823 7824 7825 7826 7827 7828 7829 7830 7831 7832 7833 7834 7835 7836 7837 7838 7839 7840 7841 7842 7843 7844 7845 7846 7847 7848 7849 7850 7851 7852 7853 7854 7855 7856 7857 7858 7859 7860 7861 7862 7863 7864 7865 7866 7867 7868 7869 7870 7871 7872 7873 7874 7875 7876 7877 7878 7879 7880 7881 7882 7883 7884 7885 7886 7887 7888 7889 7890 7891 7892 7893 7894 7895 7896 7897 7898 7899 7900 7901 7902 7903 7904 7905 7906 7907 7908 7909 7910 7911 7912 7913 7914 7915 7916 7917 7918 7919 7920 7921 7922 7923 7924 7925 7926 7927 7928 7929 7930 7931 7932 7933 7934 7935 7936 7937 7938 7939 7940 7941 7942 7943 7944 7945 7946 7947 7948 7949 7950 7951 7952 7953 7954 7955 7956 7957 7958 7959 7960 7961 7962 7963 7964 7965 7966 7967 7968 7969 7970 7971 7972 7973 7974 7975 7976 7977 7978 7979 7980 7981 7982 7983 7984 7985 7986 7987 7988 7989 7990 7991 7992 7993 7994 7995 7996 7997 7998 7999 8000 8001 8002 8003 8004 8005 8006 8007 8008 8009 8010 8011 8012 8013 8014 8015 8016 8017 8018 8019 8020 8021 8022 8023 8024 8025 8026 8027 8028 8029 8030 8031 8032 8033 8034 8035 8036 8037 8038 8039 8040 8041 8042 8043 8044 8045 8046 8047 8048 8049 8050 8051 8052 8053 8054 8055 8056 8057 8058 8059 8060 8061 8062 8063 8064 8065 8066 8067 8068 8069 8070 8071 8072 8073 8074 8075 8076 8077 8078 8079 8080 8081 8082 8083 8084 8085 8086 8087 8088 8089 8090 8091 8092 8093 8094 8095 8096 8097 8098 8099 8100 8101 8102 8103 8104 8105 8106 8107 8108 8109 8110 8111 8112 8113 8114 8115 8116 8117 8118 8119 8120 8121 8122 8123 8124 8125 8126 8127 8128 8129 8130 8131 8132 8133 8134 8135 8136 8137 8138 8139 8140 8141 8142 8143 8144 8145 8146 8147 8148 8149 8150 8151 8152 8153 8154 8155 8156 8157 8158 8159 8160 8161 8162 8163 8164 8165 8166 8167 8168 8169 8170 8171 8172 8173 8174 8175 8176 8177 8178 8179 8180 8181 8182 8183 8184 8185 8186 8187 8188 8189 8190 8191 8192 8193 8194 8195 8196 8197 8198 8199 8200 8201 8202 8203 8204 8205 8206 8207 8208 8209 8210 8211 8212 8213 8214 8215 8216 8217 8218 8219 8220 8221 8222 8223 8224 8225 8226 8227 8228 8229 8230 8231 8232 8233 8234 8235 8236 8237 8238 8239 8240 8241 8242 8243 8244 8245 8246 8247 8248 8249 8250 8251 8252 8253 8254 8255 8256 8257 8258 8259 8260 8261 8262 8263 8264 8265 8266 8267 8268 8269 8270 8271 8272 8273 8274 8275 8276 8277 8278 8279 8280 8281 8282 8283 8284 8285 8286 8287 8288 8289 8290 8291 8292 8293 8294 8295 8296 8297 8298 8299 8300 8301 8302 8303 8304 8305 8306 8307 8308 8309 8310 8311 8312 8313 8314 8315 8316 8317 8318 8319 8320 8321 8322 8323 8324 8325 8326 8327 8328 8329 8330 8331 8332 8333 8334 8335 8336 8337 8338 8339 8340 8341 8342 8343 8344 8345 8346 8347 8348 8349 8350 8351 8352 8353 8354 8355 8356 8357 8358 8359 8360 8361 8362 8363 8364 8365 8366 8367 8368 8369 8370 8371 8372 8373 8374 8375 8376 8377 8378 8379 8380 8381 8382 8383 8384 8385 8386 8387 8388 8389 8390 8391 8392 8393 8394 8395 8396 8397 8398 8399 8400 8401 8402 8403 8404 8405 8406 8407 8408 8409 8410 8411 8412 8413 8414 8415 8416 8417 8418 8419 8420 8421 8422 8423 8424 8425 8426 8427 8428 8429 8430 8431 8432 8433 8434 8435 8436 8437 8438 8439 8440 8441 8442 8443 8444 8445 8446 8447 8448 8449 8450 8451 8452 8453 8454 8455 8456 8457 8458 8459 8460 8461 8462 8463 8464 8465 8466 8467 8468 8469 8470 8471 8472 8473 8474 8475 8476 8477 8478 8479 8480 8481 8482 8483 8484 8485 8486 8487 8488 8489 8490 8491 8492 8493 8494 8495 8496 8497 8498 8499 8500 8501 8502 8503 8504 8505 8506 8507 8508 8509 8510 8511 8512 8513 8514 8515 8516 8517 8518 8519 8520 8521 8522 8523 8524 8525 8526 8527 8528 8529 8530 8531 8532 8533 8534 8535 8536 8537 8538 8539 8540 8541 8542 8543 8544 8545 8546 8547 8548 8549 8550 8551 8552 8553 8554 8555 8556 8557 8558 8559 8560 8561 8562 8563 8564 8565 8566 8567 8568 8569 8570 8571 8572 8573 8574 8575 8576 8577 8578 8579 8580 8581 8582 8583 8584 8585 8586 8587 8588 8589 8590 8591 8592 8593 8594 8595 8596 8597 8598 8599 8600 8601 8602 8603 8604 8605 8606 8607 8608 8609 8610 8611 8612 8613 8614 8615 8616 8617 8618 8619 8620 8621 8622 8623 8624 8625 8626 8627 8628 8629 8630 8631 8632 8633 8634 8635 8636 8637 8638 8639 8640 8641 8642 8643 8644 8645 8646 8647 8648 8649 8650 8651 8652 8653 8654 8655 8656 8657 8658 8659 8660 8661 8662 8663 8664 8665 8666 8667 8668 8669 8670 8671 8672 8673 8674 8675 8676 8677 8678 8679 8680 8681 8682 8683 8684 8685 8686 8687 8688 8689 8690 8691 8692 8693 8694 8695 8696 8697 8698 8699 8700 8701 8702 8703 8704 8705 8706 8707 8708 8709 8710 8711 8712 8713 8714 8715 8716 8717 8718 8719 8720 8721 8722 8723 8724 8725 8726 8727 8728 8729 8730 8731 8732 8733 8734 8735 8736 8737 8738 8739 8740 8741 8742 8743 8744 8745 8746 8747 8748 8749 8750 8751 8752 8753 8754 8755 8756 8757 8758 8759 8760 8761 8762 8763 8764 8765 8766 8767 8768 8769 8770 8771 8772 8773 8774 8775 8776 8777 8778 8779 8780 8781 8782 8783 8784 8785 8786 8787 8788 8789 8790 8791 8792 8793 8794 8795 8796 8797 8798 8799 8800 8801 8802 8803 8804 8805 8806 8807 8808 8809 8810 8811 8812 8813 8814 8815 8816 8817 8818 8819 8820 8821 8822 8823 8824 8825 8826 8827 8828 8829 8830 8831 8832 8833 8834 8835 8836 8837 8838 8839 8840 8841 8842 8843 8844 8845 8846 8847 8848 8849 8850 8851 8852 8853 8854 8855 8856 8857 8858 8859 8860 8861 8862 8863 8864 8865 8866 8867 8868 8869 8870 8871 8872 8873 8874 8875 8876 8877 8878 8879 8880 8881 8882 8883 8884 8885 8886 8887 8888 8889 8890 8891 8892 8893 8894 8895 8896 8897 8898 8899 8900 8901 8902 8903 8904 8905 8906 8907 8908 8909 8910 8911 8912 8913 8914 8915 8916 8917 8918 8919 8920 8921 8922 8923 8924 8925 8926 8927 8928 8929 8930 8931 8932 8933 8934 8935 8936 8937 8938 8939 8940 8941 8942 8943 8944 8945 8946 8947 8948 8949 8950 8951 8952 8953 8954 8955 8956 8957 8958 8959 8960 8961 8962 8963 8964 8965 8966 8967 8968 8969 8970 8971 8972 8973 8974 8975 8976 8977 8978 8979 8980 8981 8982 8983 8984 8985 8986 8987 8988 8989 8990 8991 8992 8993 8994 8995 8996 8997 8998 8999 9000 9001 9002 9003 9004 9005 9006 9007 9008 9009 9010 9011 9012 9013 9014 9015 9016 9017 9018 9019 9020 9021 9022 9023 9024 9025 9026 9027 9028 9029 9030 9031 9032 9033 9034 9035 9036 9037 9038 9039 9040 9041 9042 9043 9044 9045 9046 9047 9048 9049 9050 9051 9052 9053 9054 9055 9056 9057 9058 9059 9060 9061 9062 9063 9064 9065 9066 9067 9068 9069 9070 9071 9072 9073 9074 9075 9076 9077 9078 9079 9080 9081 9082 9083 9084 9085 9086 9087 9088 9089 9090 9091 9092 9093 9094 9095 9096 9097 9098 9099 9100 9101 9102 9103 9104 9105 9106 9107 9108 9109 9110 9111 9112 9113 9114 9115 9116 9117 9118 9119 9120 9121 9122 9123 9124 9125 9126 9127 9128 9129 9130 9131 9132 9133 9134 9135 9136 9137 9138 9139 9140 9141 9142 9143 9144 9145 9146 9147 9148 9149 9150 9151 9152 9153 9154 9155 9156 9157 9158 9159 9160 9161 9162 9163 9164 9165 9166 9167 9168 9169 9170 9171 9172 9173 9174 9175 9176 9177 9178 9179 9180 9181 9182 9183 9184 9185 9186 9187 9188 9189 9190 9191 9192 9193 9194 9195 9196 9197 9198 9199 9200 9201 9202 9203 9204 9205 9206 9207 9208 9209 9210 9211 9212 9213 9214 9215 9216 9217 9218 9219 9220 9221 9222 9223 9224 9225 9226 9227 9228 9229 9230 9231 9232 9233 9234 9235 9236 9237 9238 9239 9240 9241 9242 9243 9244 9245 9246 9247 9248 9249 9250 9251 9252 9253 9254 9255 9256 9257 9258 9259 9260 9261 9262 9263 9264 9265 9266 9267 9268 9269 9270 9271 9272 9273 9274 9275 9276 9277 9278 9279 9280 9281 9282 9283 9284 9285 9286 9287 9288 9289 9290 9291 9292 9293 9294 9295 9296 9297 9298 9299 9300 9301 9302 9303 9304 9305 9306 9307 9308 9309 9310 9311 9312 9313 9314 9315 9316 9317 9318 9319 9320 9321 9322 9323 9324 9325 9326 9327 9328 9329 9330 9331 9332 9333 9334 9335 9336 9337 9338 9339 9340 9341 9342 9343 9344 9345 9346 9347 9348 9349 9350 9351 9352 9353 9354 9355 9356 9357 9358 9359 9360 9361 9362 9363 9364 9365 9366 9367 9368 9369 9370 9371 9372 9373 9374 9375 9376 9377 9378 9379 9380 9381 9382 9383 9384 9385 9386 9387 9388 9389 9390 9391 9392 9393 9394 9395 9396 9397 9398 9399 9400 9401 9402 9403 9404 9405 9406 9407 9408 9409 9410 9411 9412 9413 9414 9415 9416 9417 9418 9419 9420 9421 9422 9423 9424 9425 9426 9427 9428 9429 9430 9431 9432 9433 9434 9435 9436 9437 9438 9439 9440 9441 9442 9443 9444 9445 9446 9447 9448 9449 9450 9451 9452 9453 9454 9455 9456 9457 9458 9459 9460 9461 9462 9463 9464 9465 9466 9467 9468 9469 9470 9471 9472 9473 9474 9475 9476 9477 9478 9479 9480 9481 9482 9483 9484 9485 9486 9487 9488 9489 9490 9491 9492 9493 9494 9495 9496 9497 9498 9499 9500 9501 9502 9503 9504 9505 9506 9507 9508 9509 9510 9511 9512 9513 9514 9515 9516 9517 9518 9519 9520 9521 9522 9523 9524 9525 9526 9527 9528 9529 9530 9531 9532 9533 9534 9535 9536 9537 9538 9539 9540 9541 9542 9543 9544 9545 9546 9547 9548 9549 9550 9551 9552 9553 9554 9555 9556 9557 9558 9559 9560 9561 9562 9563 9564 9565 9566 9567 9568 9569 9570 9571 9572 9573 9574 9575 9576 9577 9578 9579 9580 9581 9582 9583 9584 9585 9586 9587 9588 9589 9590 9591 9592 9593 9594 9595 9596 9597 9598 9599 9600 9601 9602 9603 9604 9605 9606 9607 9608 9609 9610 9611 9612 9613 9614 9615 9616 9617 9618 9619 9620 9621 9622 9623 9624 9625 9626 9627 9628 9629 9630 9631 9632 9633 9634 9635 9636 9637 9638 9639 9640 9641 9642 9643 9644 9645 9646 9647 9648 9649 9650 9651 9652 9653 9654 9655 9656 9657 9658 9659 9660 9661 9662 9663 9664 9665 9666 9667 9668 9669 9670 9671 9672 9673 9674 9675 9676 9677 9678 9679 9680 9681 9682 9683 9684 9685 9686 9687 9688 9689 9690 9691 9692 9693 9694 9695 9696 9697 9698 9699 9700 9701 9702 9703 9704 9705 9706 9707 9708 9709 9710 9711 9712 9713 9714 9715 9716 9717 9718 9719 9720 9721 9722 9723 9724 9725 9726 9727 9728 9729 9730 9731 9732 9733 9734 9735 9736 9737 9738 9739 9740 9741 9742 9743 9744 9745 9746 9747 9748 9749 9750 9751 9752 9753 9754 9755 9756 9757 9758 9759 9760 9761 9762 9763 9764 9765 9766 9767 9768 9769 9770 9771 9772 9773 9774 9775 9776 9777 9778 9779 9780 9781 9782 9783 9784 9785 9786 9787 9788 9789 9790 9791 9792 9793 9794 9795 9796 9797 9798 9799 9800 9801 9802 9803 9804 9805 9806 9807 9808 9809 9810 9811 9812 9813 9814 9815 9816 9817 9818 9819 9820 9821 9822 9823 9824 9825 9826 9827 9828 9829 9830 9831 9832 9833 9834 9835 9836 9837 9838 9839 9840 9841 9842 9843 9844 9845 9846 9847 9848 9849 9850 9851 9852 9853 9854 9855 9856 9857 9858 9859 9860 9861 9862 9863 9864 9865 9866 9867 9868 9869 9870 9871 9872 9873 9874 9875 9876 9877 9878 9879 9880 9881 9882 9883 9884 9885 9886 9887 9888 9889 9890 9891 9892 9893 9894 9895 9896 9897 9898 9899 9900 9901 9902 9903 9904 9905 9906 9907 9908 9909 9910 9911 9912 9913 9914 9915 9916 9917 9918 9919 9920 9921 9922 9923 9924 9925 9926 9927 9928 9929 9930 9931 9932 9933 9934 9935 9936 9937 9938 9939 9940 9941 9942 9943 9944 9945 9946 9947 9948 9949 9950 9951 9952 9953 9954 9955 9956 9957 9958 9959 9960 9961 9962 9963 9964 9965 9966 9967 9968 9969 9970 9971 9972 9973 9974 9975 9976 9977 9978 9979 9980 9981 9982 9983 9984 9985 9986 9987 9988 9989 9990 9991 9992 9993 9994 9995 9996 9997 9998 9999 10000 10001 10002 10003 10004 10005 10006 10007 10008 10009 10010 10011 10012 10013 10014 10015 10016 10017 10018 10019 10020 10021 10022 10023 10024 10025 10026 10027 10028 10029 10030 10031 10032 10033 10034 10035 10036 10037 10038 10039 10040 10041 10042 10043 10044 10045 10046 10047 10048 10049 10050 10051 10052 10053 10054 10055 10056 10057 10058 10059 10060 10061 10062 10063 10064 10065 10066 10067 10068 10069 10070 10071 10072 10073 10074 10075 10076 10077 10078 10079 10080 10081 10082 10083 10084 10085 10086 10087 10088 10089 10090 10091 10092 10093 10094 10095 10096 10097 10098 10099 10100 10101 10102 10103 10104 10105 10106 10107 10108 10109 10110 10111 10112 10113 10114 10115 10116 10117 10118 10119 10120 10121 10122 10123 10124 10125 10126 10127 10128 10129 10130 10131 10132 10133 10134 10135 10136 10137 10138 10139 10140 10141 10142 10143 10144 10145 10146 10147 10148 10149 10150 10151 10152 10153 10154 10155 10156 10157 10158 10159 10160 10161 10162 10163 10164 10165 10166 10167 10168 10169 10170 10171 10172 10173 10174 10175 10176 10177 10178 10179 10180 10181 10182 10183 10184 10185 10186 10187 10188 10189 10190 10191 10192 10193 10194 10195 10196 10197 10198 10199 10200 10201 10202 10203 10204 10205 10206 10207 10208 10209 10210 10211 10212 10213 10214 10215 10216 10217 10218 10219 10220 10221 10222 10223 10224 10225 10226 10227 10228 10229 10230 10231 10232 10233 10234 10235 10236 10237 10238 10239 10240 10241 10242 10243 10244 10245 10246 10247 10248 10249 10250 10251 10252 10253 10254 10255 10256 10257 10258 10259 10260 10261 10262 10263 10264 10265 10266 10267 10268 10269 10270 10271 10272 10273 10274 10275 10276 10277 10278 10279 10280 10281 10282 10283 10284 10285 10286 10287 10288 10289 10290 10291 10292 10293 10294 10295 10296 10297 10298 10299 10300 10301 10302 10303 10304 10305 10306 10307 10308 10309 10310 10311 10312 10313 10314 10315 10316 10317 10318 10319 10320 10321 10322 10323 10324 10325 10326 10327 10328 10329 10330 10331 10332 10333 10334 10335 10336 10337 10338 10339 10340 10341 10342 10343 10344 10345 10346 10347 10348 10349 10350 10351 10352 10353 10354 10355 10356 10357 10358 10359 10360 10361 10362 10363 10364 10365 10366 10367 10368 10369 10370 10371 10372 10373 10374 10375 10376 10377 10378 10379 10380 10381 10382 10383 10384 10385 10386 10387 10388 10389 10390 10391 10392 10393 10394 10395 10396 10397 10398 10399 10400 10401 10402 10403 10404 10405 10406 10407 10408 10409 10410 10411 10412 10413 10414 10415 10416 10417 10418 10419 10420 10421 10422 10423 10424 10425 10426 10427 10428 10429 10430 10431 10432 10433 10434 10435 10436 10437 10438 10439 10440 10441 10442 10443 10444 10445 10446 10447 10448 10449 10450 10451 10452 10453 10454 10455 10456 10457 10458 10459 10460 10461 10462 10463 10464 10465 10466 10467 10468 10469 10470 10471 10472 10473 10474 10475 10476 10477 10478 10479 10480 10481 10482 10483 10484 10485 10486 10487 10488 10489 10490 10491 10492 10493 10494 10495 10496 10497 10498 10499 10500 10501 10502 10503 10504 10505 10506 10507 10508 10509 10510 10511 10512 10513 10514 10515 10516 10517 10518 10519 10520 10521 10522 10523 10524 10525 10526 10527 10528 10529 10530 10531 10532 10533 10534 10535 10536 10537 10538 10539 10540 10541 10542 10543 10544 10545 10546 10547 10548 10549 10550 10551 10552 10553 10554 10555 10556 10557 10558 10559 10560 10561 10562 10563 10564 10565 10566 10567 10568 10569 10570 10571 10572 10573 10574 10575 10576 10577 10578 10579 10580 10581 10582 10583 10584 10585 10586 10587 10588 10589 10590 10591 10592 10593 10594 10595 10596 10597 10598 10599 10600 10601 10602 10603 10604 10605 10606 10607 10608 10609 10610 10611 10612 10613 10614 10615 10616 10617 10618 10619 10620 10621 10622 10623 10624 10625 10626 10627 10628 10629 10630 10631 10632 10633 10634 10635 10636 10637 10638 10639 10640 10641 10642 10643 10644 10645 10646 10647 10648 10649 10650 10651 10652 10653 10654 10655 10656 10657 10658 10659 10660 10661 10662 10663 10664 10665 10666 10667 10668 10669 10670 10671 10672 10673 10674 10675 10676 10677 10678 10679 10680 10681 10682 10683 10684 10685 10686 10687 10688 10689 10690 10691 10692 10693 10694 10695 10696 10697 10698 10699 10700 10701 10702 10703 10704 10705 10706 10707 10708 10709 10710 10711 10712 10713 10714 10715 10716 10717 10718 10719 10720 10721 10722 10723 10724 10725 10726 10727 10728 10729 10730 10731 10732 10733 10734 10735 10736 10737 10738 10739 10740 10741 10742 10743 10744 10745 10746 10747 10748 10749 10750 10751 10752 10753 10754 10755 10756 10757 10758 10759 10760 10761 10762 10763 10764 10765 10766 10767 10768 10769 10770 10771 10772 10773 10774 10775 10776 10777 10778 10779 10780 10781 10782 10783 10784 10785 10786 10787 10788 10789 10790 10791 10792 10793 10794 10795 10796 10797 10798 10799 10800 10801 10802 10803 10804 10805 10806 10807 10808 10809 10810 10811 10812 10813 10814 10815 10816 10817 10818 10819 10820 10821 10822 10823 10824 10825 10826 10827 10828 10829 10830 10831 10832 10833 10834 10835 10836 10837 10838 10839 10840 10841 10842 10843 10844 10845 10846 10847 10848 10849 10850 10851 10852 10853 10854 10855 10856 10857 10858 10859 10860 10861 10862 10863 10864 10865 10866 10867 10868 10869 10870 10871 10872 10873 10874 10875 10876 10877 10878 10879 10880 10881 10882 10883 10884 10885 10886 10887 10888 10889 10890 10891 10892 10893 10894 10895 10896 10897 10898 10899 10900 10901 10902 10903 10904 10905 10906 10907 10908 10909 10910 10911 10912 10913 10914 10915 10916 10917 10918 10919 10920 10921 10922 10923 10924 10925 10926 10927 10928 10929 10930 10931 10932 10933 10934 10935 10936 10937 10938 10939 10940 10941 10942 10943 10944 10945 10946 10947 10948 10949 10950 10951 10952 10953 10954 10955 10956 10957 10958 10959 10960 10961 10962 10963 10964 10965 10966 10967 10968 10969 10970 10971 10972 10973 10974 10975 10976 10977 10978 10979 10980 10981 10982 10983 10984 10985 10986 10987 10988 10989 10990 10991 10992 10993 10994 10995 10996 10997 10998 10999 11000 11001 11002 11003 11004 11005 11006 11007 11008 11009 11010 11011 11012 11013 11014 11015 11016 11017 11018 11019 11020 11021 11022 11023 11024 11025 11026 11027 11028 11029 11030 11031 11032 11033 11034 11035 11036 11037 11038 11039 11040 11041 11042 11043 11044 11045 11046 11047 11048 11049 11050 11051 11052 11053 11054 11055 11056 11057 11058 11059 11060 11061 11062 11063 11064 11065 11066 11067 11068 11069 11070 11071 11072 11073 11074 11075 11076 11077 11078 11079 11080 11081 11082 11083 11084 11085 11086 11087 11088 11089 11090 11091 11092 11093 11094 11095 11096 11097 11098 11099 11100 11101 11102 11103 11104 11105 11106 11107 11108 11109 11110 11111 11112 11113 11114 11115 11116 11117 11118 11119 11120 11121 11122 11123 11124 11125 11126 11127 11128 11129 11130 11131 11132 11133 11134 11135 11136 11137 11138 11139 11140 11141 11142 11143 11144 11145 11146 11147 11148 11149 11150 11151 11152 11153 11154 11155 11156 11157 11158 11159 11160 11161 11162 11163 11164 11165 11166 11167 11168 11169 11170 11171 11172 11173 11174 11175 11176 11177 11178 11179 11180 11181 11182 11183 11184 11185 11186 11187 11188 11189 11190 11191 11192 11193 11194 11195 11196 11197 11198 11199 11200 11201 11202 11203 11204 11205 11206 11207 11208 11209 11210 11211 11212 11213 11214 11215 11216 11217 11218 11219 11220 11221 11222 11223 11224 11225 11226 11227 11228 11229 11230 11231 11232 11233 11234 11235 11236 11237 11238 11239 11240 11241 11242 11243 11244 11245 11246 11247 11248 11249 11250 11251 11252 11253 11254 11255 11256 11257 11258 11259 11260 11261 11262 11263 11264 11265 11266 11267 11268 11269 11270 11271 11272 11273 11274 11275 11276 11277 11278 11279 11280 11281 11282 11283 11284 11285 11286 11287 11288 11289 11290 11291 11292 11293 11294 11295 11296 11297 11298 11299 11300 11301 11302 11303 11304 11305 11306 11307 11308 11309 11310 11311 11312 11313 11314 11315 11316 11317 11318 11319 11320 11321 11322 11323 11324 11325 11326 11327 11328 11329 11330 11331 11332 11333 11334 11335 11336 11337 11338 11339 11340 11341 11342 11343 11344 11345 11346 11347 11348 11349 11350 11351 11352 11353 11354 11355 11356 11357 11358 11359 11360 11361 11362 11363 11364 11365 11366 11367 11368 11369 11370 11371 11372 11373 11374 11375 11376 11377 11378 11379 11380 11381 11382 11383 11384 11385 11386 11387 11388 11389 11390 11391 11392 11393 11394 11395 11396 11397 11398 11399 11400 11401 11402 11403 11404 11405 11406 11407 11408 11409 11410 11411 11412 11413 11414 11415 11416 11417 11418 11419 11420 11421 11422 11423 11424 11425 11426 11427 11428 11429 11430 11431 11432 11433 11434 11435 11436 11437 11438 11439 11440 11441 11442 11443 11444 11445 11446 11447 11448 11449 11450 11451 11452 11453 11454 11455 11456 11457 11458 11459 11460 11461 11462 11463 11464 11465 11466 11467 11468 11469 11470 11471 11472 11473 11474 11475 11476 11477 11478 11479 11480 11481 11482 11483 11484 11485 11486 11487 11488 11489 11490 11491 11492 11493 11494 11495 11496 11497 11498 11499 11500 11501 11502 11503 11504 11505 11506 11507 11508 11509 11510 11511 11512 11513 11514 11515 11516 11517 11518 11519 11520 11521 11522 11523 11524 11525 11526 11527 11528 11529 11530 11531 11532 11533 11534 11535 11536 11537 11538 11539 11540 11541 11542 11543 11544 11545 11546 11547 11548 11549 11550 11551 11552 11553 11554 11555 11556 11557 11558 11559 11560 11561 11562 11563 11564 11565 11566 11567 11568 11569 11570 11571 11572 11573 11574 11575 11576 11577 11578 11579 11580 11581 11582 11583 11584 11585 11586 11587 11588 11589 11590 11591 11592 11593 11594 11595 11596 11597 11598 11599 11600 11601 11602 11603 11604 11605 11606 11607 11608 11609 11610 11611 11612 11613 11614 11615 11616 11617 11618 11619 11620 11621 11622 11623 11624 11625 11626 11627 11628 11629 11630 11631 11632 11633 11634 11635 11636 11637 11638 11639 11640 11641 11642 11643 11644 11645 11646 11647 11648 11649 11650 11651 11652 11653 11654 11655 11656 11657 11658 11659 11660 11661 11662 11663 11664 11665 11666 11667 11668 11669 11670 11671 11672 11673 11674 11675 11676 11677 11678 11679 11680 11681 11682 11683 11684 11685 11686 11687 11688 11689 11690 11691 11692 11693 11694 11695 11696 11697 11698 11699 11700 11701 11702 11703 11704 11705 11706 11707 11708 11709 11710 11711 11712 11713 11714 11715 11716 11717 11718 11719 11720 11721 11722 11723 11724 11725 11726 11727 11728 11729 11730 11731 11732 11733 11734 11735 11736 11737 11738 11739 11740 11741 11742 11743 11744 11745 11746 11747 11748 11749 11750 11751 11752 11753 11754 11755 11756 11757 11758 11759 11760 11761 11762 11763 11764 11765 11766 11767 11768 11769 11770 11771 11772 11773 11774 11775 11776 11777 11778 11779 11780 11781 11782 11783 11784 11785 11786 11787 11788 11789 11790 11791 11792 11793 11794 11795 11796 11797 11798 11799 11800 11801 11802 11803 11804 11805 11806 11807 11808 11809 11810 11811 11812 11813 11814 11815 11816 11817 11818 11819 11820 11821 11822 11823 11824 11825 11826 11827 11828 11829 11830 11831 11832 11833 11834 11835 11836 11837 11838 11839 11840 11841 11842 11843 11844 11845 11846 11847 11848 11849 11850 11851 11852 11853 11854 11855 11856 11857 11858 11859 11860 11861 11862 11863 11864 11865 11866 11867 11868 11869 11870 11871 11872 11873 11874 11875 11876 11877 11878 11879 11880 11881 11882 11883 11884 11885 11886 11887 11888 11889 11890 11891 11892 11893 11894 11895 11896 11897 11898 11899 11900 11901 11902 11903 11904 11905 11906 11907 11908 11909 11910 11911 11912 11913 11914 11915 11916 11917 11918 11919 11920 11921 11922 11923 11924 11925 11926 11927 11928 11929 11930 11931 11932 11933 11934 11935 11936 11937 11938 11939 11940 11941 11942 11943 11944 11945 11946 11947 11948 11949 11950 11951 11952 11953 11954 11955 11956 11957 11958 11959 11960 11961 11962 11963 11964 11965 11966 11967 11968 11969 11970 11971 11972 11973 11974 11975 11976 11977 11978 11979 11980 11981 11982 11983 11984 11985 11986 11987 11988 11989 11990 11991 11992 11993 11994 11995 11996 11997 11998 11999 12000 12001 12002 12003 12004 12005 12006 12007 12008 12009 12010 12011 12012 12013 12014 12015 12016 12017 12018 12019 12020 12021 12022 12023 12024 12025 12026 12027 12028 12029 12030 12031 12032 12033 12034 12035 12036 12037 12038 12039 12040 12041 12042 12043 12044 12045 12046 12047 12048 12049 12050 12051 12052 12053 12054 12055 12056 12057 12058 12059 12060 12061 12062 12063 12064 12065 12066 12067 12068 12069 12070 12071 12072 12073 12074 12075 12076 12077 12078 12079 12080 12081 12082 12083 12084 12085 12086 12087 12088 12089 12090 12091 12092 12093 12094 12095 12096 12097 12098 12099 12100 12101 12102 12103 12104 12105 12106 12107 12108 12109 12110 12111 12112 12113 12114 12115 12116 12117 12118 12119 12120 12121 12122 12123 12124 12125 12126 12127 12128 12129 12130 12131 12132 12133 12134 12135 12136 12137 12138 12139 12140 12141 12142 12143 12144 12145 12146 12147 12148 12149 12150 12151 12152 12153 12154 12155 12156 12157 12158 12159 12160 12161 12162 12163 12164 12165 12166 12167 12168 12169 12170 12171 12172 12173 12174 12175 12176 12177 12178 12179 12180 12181 12182 12183 12184 12185 12186 12187 12188 12189 12190 12191 12192 12193 12194 12195 12196 12197 12198 12199 12200 12201 12202 12203 12204 12205 12206 12207 12208 12209 12210 12211 12212 12213 12214 12215 12216 12217 12218 12219 12220 12221 12222 12223 12224 12225 12226 12227 12228 12229 12230 12231 12232 12233 12234 12235 12236 12237 12238 12239 12240 12241 12242 12243 12244 12245 12246 12247 12248 12249 12250 12251 12252 12253 12254 12255 12256 12257 12258 12259 12260 12261 12262 12263 12264 12265 12266 12267 12268 12269 12270 12271 12272 12273 12274 12275 12276 12277 12278 12279 12280 12281 12282 12283 12284 12285 12286 12287 12288 12289 12290 12291 12292 12293 12294 12295 12296 12297 12298 12299 12300 12301 12302 12303 12304 12305 12306 12307 12308 12309 12310 12311 12312 12313 12314 12315 12316 12317 12318 12319 12320 12321 12322 12323 12324 12325 12326 12327 12328 12329 12330 12331 12332 12333 12334 12335 12336 12337 12338 12339 12340 12341 12342 12343 12344 12345 12346 12347 12348 12349 12350 12351 12352 12353 12354 12355 12356 12357 12358 12359 12360 12361 12362 12363 12364 12365 12366 12367 12368 12369 12370 12371 12372 12373 12374 12375 12376 12377 12378 12379 12380 12381 12382 12383 12384 12385 12386 12387 12388 12389 12390 12391 12392 12393 12394 12395 12396 12397 12398 12399 12400 12401 12402 12403 12404 12405 12406 12407 12408 12409 12410 12411 12412 12413 12414 12415 12416 12417 12418 12419 12420 12421 12422 12423 12424 12425 12426 12427 12428 12429 12430 12431 12432 12433 12434 12435 12436 12437 12438 12439 12440 12441 12442 12443 12444 12445 12446 12447 12448 12449 12450 12451 12452 12453 12454 12455 12456 12457 12458 12459 12460 12461 12462 12463 12464 12465 12466 12467 12468 12469 12470 12471 12472 12473 12474 12475 12476 12477 12478 12479 12480 12481 12482 12483 12484 12485 12486 12487 12488 12489 12490 12491 12492 12493 12494 12495 12496 12497 12498 12499 12500 12501 12502 12503 12504 12505 12506 12507 12508 12509 12510 12511 12512 12513 12514 12515 12516 12517 12518 12519 12520 12521 12522 12523 12524 12525 12526 12527 12528 12529 12530 12531 12532 12533 12534 12535 12536 12537 12538 12539 12540 12541 12542 12543 12544 12545 12546 12547 12548 12549 12550 12551 12552 12553 12554 12555 12556 12557 12558 12559 12560 12561 12562 12563 12564 12565 12566 12567 12568 12569 12570 12571 12572 12573 12574 12575 12576 12577 12578 12579 12580 12581 12582 12583 12584 12585 12586 12587 12588 12589 12590 12591 12592 12593 12594 12595 12596 12597 12598 12599 12600 12601 12602 12603 12604 12605 12606 12607 12608 12609 12610 12611 12612 12613 12614 12615 12616 12617 12618 12619 12620 12621 12622 12623 12624 12625 12626 12627 12628 12629 12630 12631 12632 12633 12634 12635 12636 12637 12638 12639 12640 12641 12642 12643 12644 12645 12646 12647 12648 12649 12650 12651 12652 12653 12654 12655 12656 12657 12658 12659 12660 12661 12662 12663 12664 12665 12666 12667 12668 12669 12670 12671 12672 12673 12674 12675 12676 12677 12678 12679 12680 12681 12682 12683 12684 12685 12686 12687 12688 12689 12690 12691 12692 12693 12694 12695 12696 12697 12698 12699 12700 12701 12702 12703 12704 12705 12706 12707 12708 12709 12710 12711 12712 12713 12714 12715 12716 12717 12718 12719 12720 12721 12722 12723 12724 12725 12726 12727 12728 12729 12730 12731 12732 12733 12734 12735 12736 12737 12738 12739 12740 12741 12742 12743 12744 12745 12746 12747 12748 12749 12750 12751 12752 12753 12754 12755 12756 12757 12758 12759 12760 12761 12762 12763 12764 12765 12766 12767 12768 12769 12770 12771 12772 12773 12774 12775 12776 12777 12778 12779 12780 12781 12782 12783 12784 12785 12786 12787 12788 12789 12790 12791 12792 12793 12794 12795 12796 12797 12798 12799 12800 12801 12802 12803 12804 12805 12806 12807 12808 12809 12810 12811 12812 12813 12814 12815 12816 12817 12818 12819 12820 12821 12822 12823 12824 12825 12826 12827 12828 12829 12830 12831 12832 12833 12834 12835 12836 12837 12838 12839 12840 12841 12842 12843 12844 12845 12846 12847 12848 12849 12850 12851 12852 12853 12854 12855 12856 12857 12858 12859 12860 12861 12862 12863 12864 12865 12866 12867 12868 12869 12870 12871 12872 12873 12874 12875 12876 12877 12878 12879 12880 12881 12882 12883 12884 12885 12886 12887 12888 12889 12890 12891 12892 12893 12894 12895 12896 12897 12898 12899 12900 12901 12902 12903 12904 12905 12906 12907 12908 12909 12910 12911 12912 12913 12914 12915 12916 12917 12918 12919 12920 12921 12922 12923 12924 12925 12926 12927 12928 12929 12930 12931 12932 12933 12934 12935 12936 12937 12938 12939 12940 12941 12942 12943 12944 12945 12946 12947 12948 12949 12950 12951 12952 12953 12954 12955 12956 12957 12958 12959 12960 12961 12962 12963 12964 12965 12966 12967 12968 12969 12970 12971 12972 12973 12974 12975 12976 12977 12978 12979 12980 12981 12982 12983 12984 12985 12986 12987 12988 12989 12990 12991 12992 12993 12994 12995 12996 12997 12998 12999 13000 13001 13002 13003 13004 13005 13006 13007 13008 13009 13010 13011 13012 13013 13014 13015 13016 13017 13018 13019 13020 13021 13022 13023 13024 13025 13026 13027 13028 13029 13030 13031 13032 13033 13034 13035 13036 13037 13038 13039 13040 13041 13042 13043 13044 13045 13046 13047 13048 13049 13050 13051 13052 13053 13054 13055 13056 13057 13058 13059 13060 13061 13062 13063 13064 13065 13066 13067 13068 13069 13070 13071 13072 13073 13074 13075 13076 13077 13078 13079 13080 13081 13082 13083 13084 13085 13086 13087 13088 13089 13090 13091 13092 13093 13094 13095 13096 13097 13098 13099 13100 13101 13102 13103 13104 13105 13106 13107 13108 13109 13110 13111 13112 13113 13114 13115 13116 13117 13118 13119 13120 13121 13122 13123 13124 13125 13126 13127 13128 13129 13130 13131 13132 13133 13134 13135 13136 13137 13138 13139 13140 13141 13142 13143 13144 13145 13146 13147 13148 13149 13150 13151 13152 13153 13154 13155 13156 13157 13158 13159 13160 13161 13162 13163 13164 13165 13166 13167 13168 13169 13170 13171 13172 13173 13174 13175 13176 13177 13178 13179 13180 13181 13182 13183 13184 13185 13186 13187 13188 13189 13190 13191 13192 13193 13194 13195 13196 13197 13198 13199 13200 13201 13202 13203 13204 13205 13206 13207 13208 13209 13210 13211 13212 13213 13214 13215 13216 13217 13218 13219 13220 13221 13222 13223 13224 13225 13226 13227 13228 13229 13230 13231 13232 13233 13234 13235 13236 13237 13238 13239 13240 13241 13242 13243 13244 13245 13246 13247 13248 13249 13250 13251 13252 13253 13254 13255 13256 13257 13258 13259 13260 13261 13262 13263 13264 13265 13266 13267 13268 13269 13270 13271 13272 13273 13274 13275 13276 13277 13278 13279 13280 13281 13282 13283 13284 13285 13286 13287 13288 13289 13290 13291 13292 13293 13294 13295 13296 13297 13298 13299 13300 13301 13302 13303 13304 13305 13306 13307 13308 13309 13310 13311 13312 13313 13314 13315 13316 13317 13318 13319 13320 13321 13322 13323 13324 13325 13326 13327 13328 13329 13330 13331 13332 13333 13334 13335 13336 13337 13338 13339 13340 13341 13342 13343 13344 13345 13346 13347 13348 13349 13350 13351 13352 13353 13354 13355 13356 13357 13358 13359 13360 13361 13362 13363 13364 13365 13366 13367 13368 13369 13370 13371 13372 13373 13374 13375 13376 13377 13378 13379 13380 13381 13382 13383 13384 13385 13386 13387 13388 13389 13390 13391 13392 13393 13394 13395 13396 13397 13398 13399 13400 13401 13402 13403 13404 13405 13406 13407 13408 13409 13410 13411 13412 13413 13414 13415 13416 13417 13418 13419 13420 13421 13422 13423 13424 13425 13426 13427 13428 13429 13430 13431 13432 13433 13434 13435 13436 13437 13438 13439 13440 13441 13442 13443 13444 13445 13446 13447 13448 13449 13450 13451 13452 13453 13454 13455 13456 13457 13458 13459 13460 13461 13462 13463 13464 13465 13466 13467 13468 13469 13470 13471 13472 13473 13474 13475 13476 13477 13478 13479 13480 13481 13482 13483 13484 13485 13486 13487 13488 13489 13490 13491 13492 13493 13494 13495 13496 13497 13498 13499 13500 13501 13502 13503 13504 13505 13506 13507 13508 13509 13510 13511 13512 13513 13514 13515 13516 13517 13518 13519 13520 13521 13522 13523 13524 13525 13526 13527 13528 13529 13530 13531 13532 13533 13534 13535 13536 13537 13538 13539 13540 13541 13542 13543 13544 13545 13546 13547 13548 13549 13550 13551 13552 13553 13554 13555 13556 13557 13558 13559 13560 13561 13562 13563 13564 13565 13566 13567 13568 13569 13570 13571 13572 13573 13574 13575 13576 13577 13578 13579 13580 13581 13582 13583 13584 13585 13586 13587 13588 13589 13590 13591 13592 13593 13594 13595 13596 13597 13598 13599 13600 13601 13602 13603 13604 13605 13606 13607 13608 13609 13610 13611 13612 13613 13614 13615 13616 13617 13618 13619 13620 13621 13622 13623 13624 13625 13626 13627 13628 13629 13630 13631 13632 13633 13634 13635 13636 13637 13638 13639 13640 13641 13642 13643 13644 13645 13646 13647 13648 13649 13650 13651 13652 13653 13654 13655 13656 13657 13658 13659 13660 13661 13662 13663 13664 13665 13666 13667 13668 13669 13670 13671 13672 13673 13674 13675 13676 13677 13678 13679 13680 13681 13682 13683 13684 13685 13686 13687 13688 13689 13690 13691 13692 13693 13694 13695 13696 13697 13698 13699 13700 13701 13702 13703 13704 13705 13706 13707 13708 13709 13710 13711 13712 13713 13714 13715 13716 13717 13718 13719 13720 13721 13722 13723 13724 13725 13726 13727 13728 13729 13730 13731 13732 13733 13734 13735 13736 13737 13738 13739 13740 13741 13742 13743 13744 13745 13746 13747 13748 13749 13750 13751 13752 13753 13754 13755 13756 13757 13758 13759 13760 13761 13762 13763 13764 13765 13766 13767 13768 13769 13770 13771 13772 13773 13774 13775 13776 13777 13778 13779 13780 13781 13782 13783 13784 13785 13786 13787 13788 13789 13790 13791 13792 13793 13794 13795 13796 13797 13798 13799 13800 13801 13802 13803 13804 13805 13806 13807 13808 13809 13810 13811 13812 13813 13814 13815 13816 13817 13818 13819 13820 13821 13822 13823 13824 13825 13826 13827 13828 13829 13830 13831 13832 13833 13834 13835 13836 13837 13838 13839 13840 13841 13842 13843 13844 13845 13846 13847 13848 13849 13850 13851 13852 13853 13854 13855 13856 13857 13858 13859 13860 13861 13862 13863 13864 13865 13866 13867 13868 13869 13870 13871 13872 13873 13874 13875 13876 13877 13878 13879 13880 13881 13882 13883 13884 13885 13886 13887 13888 13889 13890 13891 13892 13893 13894 13895 13896 13897 13898 13899 13900 13901 13902 13903 13904 13905 13906 13907 13908 13909 13910 13911 13912 13913 13914 13915 13916 13917 13918 13919 13920 13921 13922 13923 13924 13925 13926 13927 13928 13929 13930 13931 13932 13933 13934 13935 13936 13937 13938 13939 13940 13941 13942 13943 13944 13945 13946 13947 13948 13949 13950 13951 13952 13953 13954 13955 13956 13957 13958 13959 13960 13961 13962 13963 13964 13965 13966 13967 13968 13969 13970 13971 13972 13973 13974 13975 13976 13977 13978 13979 13980 13981 13982 13983 13984 13985 13986 13987 13988 13989 13990 13991 13992 13993 13994 13995 13996 13997 13998 13999 14000 14001 14002 14003 14004 14005 14006 14007 14008 14009 14010 14011 14012 14013 14014 14015 14016 14017 14018 14019 14020 14021 14022 14023 14024 14025 14026 14027 14028 14029 14030 14031 14032 14033 14034 14035 14036 14037 14038 14039 14040 14041 14042 14043 14044 14045 14046 14047 14048 14049 14050 14051 14052 14053 14054 14055 14056 14057 14058 14059 14060 14061 14062 14063 14064 14065 14066 14067 14068 14069 14070 14071 14072 14073 14074 14075 14076 14077 14078 14079 14080 14081 14082 14083 14084 14085 14086 14087 14088 14089 14090 14091 14092 14093 14094 14095 14096 14097 14098 14099 14100 14101 14102 14103 14104 14105 14106 14107 14108 14109 14110 14111 14112 14113 14114 14115 14116 14117 14118 14119 14120 14121 14122 14123 14124 14125 14126 14127 14128 14129 14130 14131 14132 14133 14134 14135 14136 14137 14138 14139 14140 14141 14142 14143 14144 14145 14146 14147 14148 14149 14150 14151 14152 14153 14154 14155 14156 14157 14158 14159 14160 14161 14162 14163 14164 14165 14166 14167 14168 14169 14170 14171 14172 14173 14174 14175 14176 14177 14178 14179 14180 14181 14182 14183 14184 14185 14186 14187 14188 14189 14190 14191 14192 14193 14194 14195 14196 14197 14198 14199 14200 14201 14202 14203 14204 14205 14206 14207 14208 14209 14210 14211 14212 14213 14214 14215 14216 14217 14218 14219 14220 14221 14222 14223 14224 14225 14226 14227 14228 14229 14230 14231 14232 14233 14234 14235 14236 14237 14238 14239 14240 14241 14242 14243 14244 14245 14246 14247 14248 14249 14250 14251 14252 14253 14254 14255 14256 14257 14258 14259 14260 14261 14262 14263 14264 14265 14266 14267 14268 14269 14270 14271 14272 14273 14274 14275 14276 14277 14278 14279 14280 14281 14282 14283 14284 14285 14286 14287 14288 14289 14290 14291 14292 14293 14294 14295 14296 14297 14298 14299 14300 14301 14302 14303 14304 14305 14306 14307 14308 14309 14310 14311 14312 14313 14314 14315 14316 14317 14318 14319 14320 14321 14322 14323 14324 14325 14326 14327 14328 14329 14330 14331 14332 14333 14334 14335 14336 14337 14338 14339 14340 14341 14342 14343 14344 14345 14346 14347 14348 14349 14350 14351 14352 14353 14354 14355 14356 14357 14358 14359 14360 14361 14362 14363 14364 14365 14366 14367 14368 14369 14370 14371 14372 14373 14374 14375 14376 14377 14378 14379 14380 14381 14382 14383 14384 14385 14386 14387 14388 14389 14390 14391 14392 14393 14394 14395 14396 14397 14398 14399 14400 14401 14402 14403 14404 14405 14406 14407 14408 14409 14410 14411 14412 14413 14414 14415 14416 14417 14418 14419 14420 14421 14422 14423 14424 14425 14426 14427 14428 14429 14430 14431 14432 14433 14434 14435 14436 14437 14438 14439 14440 14441 14442 14443 14444 14445 14446 14447 14448 14449 14450 14451 14452 14453 14454 14455 14456 14457 14458 14459 14460 14461 14462 14463 14464 14465 14466 14467 14468 14469 14470 14471 14472 14473 14474 14475 14476 14477 14478 14479 14480 14481 14482 14483 14484 14485 14486 14487 14488 14489 14490 14491 14492 14493 14494 14495 14496 14497 14498 14499 14500 14501 14502 14503 14504 14505 14506 14507 14508 14509 14510 14511 14512 14513 14514 14515 14516 14517 14518 14519 14520 14521 14522 14523 14524 14525 14526 14527 14528 14529 14530 14531 14532 14533 14534 14535 14536 14537 14538 14539 14540 14541 14542 14543 14544 14545 14546 14547 14548 14549 14550 14551 14552 14553 14554 14555 14556 14557 14558 14559 14560 14561 14562 14563 14564 14565 14566 14567 14568 14569 14570 14571 14572 14573 14574 14575 14576 14577 14578 14579 14580 14581 14582 14583 14584 14585 14586 14587 14588 14589 14590 14591 14592 14593 14594 14595 14596 14597 14598 14599 14600 14601 14602 14603 14604 14605 14606 14607 14608 14609 14610 14611 14612 14613 14614 14615 14616 14617 14618 14619 14620 14621 14622 14623 14624 14625 14626 14627 14628 14629 14630 14631 14632 14633 14634 14635 14636 14637 14638 14639 14640 14641 14642 14643 14644 14645 14646 14647 14648 14649 14650 14651 14652 14653 14654 14655 14656 14657 14658 14659 14660 14661 14662 14663 14664 14665 14666 14667 14668 14669 14670 14671 14672 14673 14674 14675 14676 14677 14678 14679 14680 14681 14682 14683 14684 14685 14686 14687 14688 14689 14690 14691 14692 14693 14694 14695 14696 14697 14698 14699 14700 14701 14702 14703 14704 14705 14706 14707 14708 14709 14710 14711 14712 14713 14714 14715 14716 14717 14718 14719 14720 14721 14722 14723 14724 14725 14726 14727 14728 14729 14730 14731 14732 14733 14734 14735 14736 14737 14738 14739 14740 14741 14742 14743 14744 14745 14746 14747 14748 14749 14750 14751 14752 14753 14754 14755 14756 14757 14758 14759 14760 14761 14762 14763 14764 14765 14766 14767 14768 14769 14770 14771 14772 14773 14774 14775 14776 14777 14778 14779 14780 14781 14782 14783 14784 14785 14786 14787 14788 14789 14790 14791 14792 14793 14794 14795 14796 14797 14798 14799 14800 14801 14802 14803 14804 14805 14806 14807 14808 14809 14810 14811 14812 14813 14814 14815 14816 14817 14818 14819 14820 14821 14822 14823 14824 14825 14826 14827 14828 14829 14830 14831 14832 14833 14834 14835 14836 14837 14838 14839 14840 14841 14842 14843 14844 14845 14846 14847 14848 14849 14850 14851 14852 14853 14854 14855 14856 14857 14858 14859 14860 14861 14862 14863 14864 14865 14866 14867 14868 14869 14870 14871 14872 14873 14874 14875 14876 14877 14878 14879 14880 14881 14882 14883 14884 14885 14886 14887 14888 14889 14890 14891 14892 14893 14894 14895 14896 14897 14898 14899 14900 14901 14902 14903 14904 14905 14906 14907 14908 14909 14910 14911 14912 14913 14914 14915 14916 14917 14918 14919 14920 14921 14922 14923 14924 14925 14926 14927 14928 14929 14930 14931 14932 14933 14934 14935 14936 14937 14938 14939 14940 14941 14942 14943 14944 14945 14946 14947 14948 14949 14950 14951 14952 14953 14954 14955 14956 14957 14958 14959 14960 14961 14962 14963 14964 14965 14966 14967 14968 14969 14970 14971 14972 14973 14974 14975 14976 14977 14978 14979 14980 14981 14982 14983 14984 14985 14986 14987 14988 14989 14990 14991 14992 14993 14994 14995 14996 14997 14998 14999 15000 15001 15002 15003 15004 15005 15006 15007 15008 15009 15010 15011 15012 15013 15014 15015 15016 15017 15018 15019 15020 15021 15022 15023 15024 15025 15026 15027 15028 15029 15030 15031 15032 15033 15034 15035 15036 15037 15038 15039 15040 15041 15042 15043 15044 15045 15046 15047 15048 15049 15050 15051 15052 15053 15054 15055 15056 15057 15058 15059 15060 15061 15062 15063 15064 15065 15066 15067 15068 15069 15070 15071 15072 15073 15074 15075 15076 15077 15078 15079 15080 15081 15082 15083 15084 15085 15086 15087 15088 15089 15090 15091 15092 15093 15094 15095 15096 15097 15098 15099 15100 15101 15102 15103 15104 15105 15106 15107 15108 15109 15110 15111 15112 15113 15114 15115 15116 15117 15118 15119 15120 15121 15122 15123 15124 15125 15126 15127 15128 15129 15130 15131 15132 15133 15134 15135 15136 15137 15138 15139 15140 15141 15142 15143 15144 15145 15146 15147 15148 15149 15150 15151 15152 15153 15154 15155 15156 15157 15158 15159 15160 15161 15162 15163 15164 15165 15166 15167 15168 15169 15170 15171 15172 15173 15174 15175 15176 15177 15178 15179 15180 15181 15182 15183 15184 15185 15186 15187 15188 15189 15190 15191 15192 15193 15194 15195 15196 15197 15198 15199 15200 15201 15202 15203 15204 15205 15206 15207 15208 15209 15210 15211 15212 15213 15214 15215 15216 15217 15218 15219 15220 15221 15222 15223 15224 15225 15226 15227 15228 15229 15230 15231 15232 15233 15234 15235 15236 15237 15238 15239 15240 15241 15242 15243 15244 15245 15246 15247 15248 15249 15250 15251 15252 15253 15254 15255 15256 15257 15258 15259 15260 15261 15262 15263 15264 15265 15266 15267 15268 15269 15270 15271 15272 15273 15274 15275 15276 15277 15278 15279 15280 15281 15282 15283 15284 15285 15286 15287 15288 15289 15290 15291 15292 15293 15294 15295 15296 15297 15298 15299 15300 15301 15302 15303 15304 15305 15306 15307 15308 15309 15310 15311 15312 15313 15314 15315 15316 15317 15318 15319 15320 15321 15322 15323 15324 15325 15326 15327 15328 15329 15330 15331 15332 15333 15334 15335 15336 15337 15338 15339 15340 15341 15342 15343 15344 15345 15346 15347 15348 15349 15350 15351 15352 15353 15354 15355 15356 15357 15358 15359 15360 15361 15362 15363 15364 15365 15366 15367 15368 15369 15370 15371 15372 15373 15374 15375 15376 15377 15378 15379 15380 15381 15382 15383 15384 15385 15386 15387 15388 15389 15390 15391 15392 15393 15394 15395 15396 15397 15398 15399 15400 15401 15402 15403 15404 15405 15406 15407 15408 15409 15410 15411 15412 15413 15414 15415 15416 15417 15418 15419 15420 15421 15422 15423 15424 15425 15426 15427 15428 15429 15430 15431 15432 15433 15434 15435 15436 15437 15438 15439 15440 15441 15442 15443 15444 15445 15446 15447 15448 15449 15450 15451 15452 15453 15454 15455 15456 15457 15458 15459 15460 15461 15462 15463 15464 15465 15466 15467 15468 15469 15470 15471 15472 15473 15474 15475 15476 15477 15478 15479 15480 15481 15482 15483 15484 15485 15486 15487 15488 15489 15490 15491 15492 15493 15494 15495 15496 15497 15498 15499 15500 15501 15502 15503 15504 15505 15506 15507 15508 15509 15510 15511 15512 15513 15514 15515 15516 15517 15518 15519 15520 15521 15522 15523 15524 15525 15526 15527 15528 15529 15530 15531 15532 15533 15534 15535 15536 15537 15538 15539 15540 15541 15542 15543 15544 15545 15546 15547 15548 15549 15550 15551 15552 15553 15554 15555 15556 15557 15558 15559 15560 15561 15562 15563 15564 15565 15566 15567 15568 15569 15570 15571 15572 15573 15574 15575 15576 15577 15578 15579 15580 15581 15582 15583 15584 15585 15586 15587 15588 15589 15590 15591 15592 15593 15594 15595 15596 15597 15598 15599 15600 15601 15602 15603 15604 15605 15606 15607 15608 15609 15610 15611 15612 15613 15614 15615 15616 15617 15618 15619 15620 15621 15622 15623 15624 15625 15626 15627 15628 15629 15630 15631 15632 15633 15634 15635 15636 15637 15638 15639 15640 15641 15642 15643 15644 15645 15646 15647 15648 15649 15650 15651 15652 15653 15654 15655 15656 15657 15658 15659 15660 15661 15662 15663 15664 15665 15666 15667 15668 15669 15670 15671 15672 15673 15674 15675 15676 15677 15678 15679 15680 15681 15682 15683 15684 15685 15686 15687 15688 15689 15690 15691 15692 15693 15694 15695 15696 15697 15698 15699 15700 15701 15702 15703 15704 15705 15706 15707 15708 15709 15710 15711 15712 15713 15714 15715 15716 15717 15718 15719 15720 15721 15722 15723 15724 15725 15726 15727 15728 15729 15730 15731 15732 15733 15734 15735 15736 15737 15738 15739 15740 15741 15742 15743 15744 15745 15746 15747 15748 15749 15750 15751 15752 15753 15754 15755 15756 15757 15758 15759 15760 15761 15762 15763 15764 15765 15766 15767 15768 15769 15770 15771 15772 15773 15774 15775 15776 15777 15778 15779 15780 15781 15782 15783 15784 15785 15786 15787 15788 15789 15790 15791 15792 15793 15794 15795 15796 15797 15798 15799 15800 15801 15802 15803 15804 15805 15806 15807 15808 15809 15810 15811 15812 15813 15814 15815 15816 15817 15818 15819 15820 15821 15822 15823 15824 15825 15826 15827 15828 15829 15830 15831 15832 15833 15834 15835 15836 15837 15838 15839 15840 15841 15842 15843 15844 15845 15846 15847 15848 15849 15850 15851 15852 15853 15854 15855 15856 15857 15858 15859 15860 15861 15862 15863 15864 15865 15866 15867 15868 15869 15870 15871 15872 15873 15874 15875 15876 15877 15878 15879 15880 15881 15882 15883 15884 15885 15886 15887 15888 15889 15890 15891 15892 15893 15894 15895 15896 15897 15898 15899 15900 15901 15902 15903 15904 15905 15906 15907 15908 15909 15910 15911 15912 15913 15914 15915 15916 15917 15918 15919 15920 15921 15922 15923 15924 15925 15926 15927 15928 15929 15930 15931 15932 15933 15934 15935 15936 15937 15938 15939 15940 15941 15942 15943 15944 15945 15946 15947 15948 15949 15950 15951 15952 15953 15954 15955 15956 15957 15958 15959 15960 15961 15962 15963 15964 15965 15966 15967 15968 15969 15970 15971 15972 15973 15974 15975 15976 15977 15978 15979 15980 15981 15982 15983 15984 15985 15986 15987 15988 15989 15990 15991 15992 15993 15994 15995 15996 15997 15998 15999 16000 16001 16002 16003 16004 16005 16006 16007 16008 16009 16010 16011 16012 16013 16014 16015 16016 16017 16018 16019 16020 16021 16022 16023 16024 16025 16026 16027 16028 16029 16030 16031 16032 16033 16034 16035 16036 16037 16038 16039 16040 16041 16042 16043 16044 16045 16046 16047 16048 16049 16050 16051 16052 16053 16054 16055 16056 16057 16058 16059 16060 16061 16062 16063 16064 16065 16066 16067 16068 16069 16070 16071 16072 16073 16074 16075 16076 16077 16078 16079 16080 16081 16082 16083 16084 16085 16086 16087 16088 16089 16090 16091 16092 16093 16094 16095 16096 16097 16098 16099 16100 16101 16102 16103 16104 16105 16106 16107 16108 16109 16110 16111 16112 16113 16114 16115 16116 16117 16118 16119 16120 16121 16122 16123 16124 16125 16126 16127 16128 16129 16130 16131 16132 16133 16134 16135 16136 16137 16138 16139 16140 16141 16142 16143 16144 16145 16146 16147 16148 16149 16150 16151 16152 16153 16154 16155 16156 16157 16158 16159 16160 16161 16162 16163 16164 16165 16166 16167 16168 16169 16170 16171 16172 16173 16174 16175 16176 16177 16178 16179 16180 16181 16182 16183 16184 16185 16186 16187 16188 16189 16190 16191 16192 16193 16194 16195 16196 16197 16198 16199 16200 16201 16202 16203 16204 16205 16206 16207 16208 16209 16210 16211 16212 16213 16214 16215 16216 16217 16218 16219 16220 16221 16222 16223 16224 16225 16226 16227 16228 16229 16230 16231 16232 16233 16234 16235 16236 16237 16238 16239 16240 16241 16242 16243 16244 16245 16246 16247 16248 16249 16250 16251 16252 16253 16254 16255 16256 16257 16258 16259 16260 16261 16262 16263 16264 16265 16266 16267 16268 16269 16270 16271 16272 16273 16274 16275 16276 16277 16278 16279 16280 16281 16282 16283 16284 16285 16286 16287 16288 16289 16290 16291 16292 16293 16294 16295 16296 16297 16298 16299 16300 16301 16302 16303 16304 16305 16306 16307 16308 16309 16310 16311 16312 16313 16314 16315 16316 16317 16318 16319 16320 16321 16322 16323 16324 16325 16326 16327 16328 16329 16330 16331 16332 16333 16334 16335 16336 16337 16338 16339 16340 16341 16342 16343 16344 16345 16346 16347 16348 16349 16350 16351 16352 16353 16354 16355 16356 16357 16358 16359 16360 16361 16362 16363 16364 16365 16366 16367 16368 16369 16370 16371 16372 16373 16374 16375 16376 16377 16378 16379 16380 16381 16382 16383 16384 16385 16386 16387 16388 16389 16390 16391 16392 16393 16394 16395 16396 16397 16398 16399 16400 16401 16402 16403 16404 16405 16406 16407 16408 16409 16410 16411 16412 16413 16414 16415 16416 16417 16418 16419 16420 16421 16422 16423 16424 16425 16426 16427 16428 16429 16430 16431 16432 16433 16434 16435 16436 16437 16438 16439 16440 16441 16442 16443 16444 16445 16446 16447 16448 16449 16450 16451 16452 16453 16454 16455 16456 16457 16458 16459 16460 16461 16462 16463 16464 16465 16466 16467 16468 16469 16470 16471 16472 16473 16474 16475 16476 16477 16478 16479 16480 16481 16482 16483 16484 16485 16486 16487 16488 16489 16490 16491 16492 16493 16494 16495 16496 16497 16498 16499 16500 16501 16502 16503 16504 16505 16506 16507 16508 16509 16510 16511 16512 16513 16514 16515 16516 16517 16518 16519 16520 16521 16522 16523 16524 16525 16526 16527 16528 16529 16530 16531 16532 16533 16534 16535 16536 16537 16538 16539 16540 16541 16542 16543 16544 16545 16546 16547 16548 16549 16550 16551 16552 16553 16554 16555 16556 16557 16558 16559 16560 16561 16562 16563 16564 16565 16566 16567 16568 16569 16570 16571 16572 16573 16574 16575 16576 16577 16578 16579 16580 16581 16582 16583 16584 16585 16586 16587 16588 16589 16590 16591 16592 16593 16594 16595 16596 16597 16598 16599 16600 16601 16602 16603 16604 16605 16606 16607 16608 16609 16610 16611 16612 16613 16614 16615 16616 16617 16618 16619 16620 16621 16622 16623 16624 16625 16626 16627 16628 16629 16630 16631 16632 16633 16634 16635 16636 16637 16638 16639 16640 16641 16642 16643 16644 16645 16646 16647 16648 16649 16650 16651 16652 16653 16654 16655 16656 16657 16658 16659 16660 16661 16662 16663 16664 16665 16666 16667 16668 16669 16670 16671 16672 16673 16674 16675 16676 16677 16678 16679 16680 16681 16682 16683 16684 16685 16686 16687 16688 16689 16690 16691 16692 16693 16694 16695 16696 16697 16698 16699 16700 16701 16702 16703 16704 16705 16706 16707 16708 16709 16710 16711 16712 16713 16714 16715 16716 16717 16718 16719 16720 16721 16722 16723 16724 16725 16726 16727 16728 16729 16730 16731 16732 16733 16734 16735 16736 16737 16738 16739 16740 16741 16742 16743 16744 16745 16746 16747 16748 16749 16750 16751 16752 16753 16754 16755 16756 16757 16758 16759 16760 16761 16762 16763 16764 16765 16766 16767 16768 16769 16770 16771 16772 16773 16774 16775 16776 16777 16778 16779 16780 16781 16782 16783 16784 16785 16786 16787 16788 16789 16790 16791 16792 16793 16794 16795 16796 16797 16798 16799 16800 16801 16802 16803 16804 16805 16806 16807 16808 16809 16810 16811 16812 16813 16814 16815 16816 16817 16818 16819 16820 16821 16822 16823 16824 16825 16826 16827 16828 16829 16830 16831 16832 16833 16834 16835 16836 16837 16838 16839 16840 16841 16842 16843 16844 16845 16846 16847 16848 16849 16850 16851 16852 16853 16854 16855 16856 16857 16858 16859 16860 16861 16862 16863 16864 16865 16866 16867 16868 16869 16870 16871 16872 16873 16874 16875 16876 16877 16878 16879 16880 16881 16882 16883 16884 16885 16886 16887 16888 16889 16890 16891 16892 16893 16894 16895 16896 16897 16898 16899 16900 16901 16902 16903 16904 16905 16906 16907 16908 16909 16910 16911 16912 16913 16914 16915 16916 16917 16918 16919 16920 16921 16922 16923 16924 16925 16926 16927 16928 16929 16930 16931 16932 16933 16934 16935 16936 16937 16938 16939 16940 16941 16942 16943 16944 16945 16946 16947 16948 16949 16950 16951 16952 16953 16954 16955 16956 16957 16958 16959 16960 16961 16962 16963 16964 16965 16966 16967 16968 16969 16970 16971 16972 16973 16974 16975 16976 16977 16978 16979 16980 16981 16982 16983 16984 16985 16986 16987 16988 16989 16990 16991 16992 16993 16994 16995 16996 16997 16998 16999 17000 17001 17002 17003 17004 17005 17006 17007 17008 17009 17010 17011 17012 17013 17014 17015 17016 17017 17018 17019 17020 17021 17022 17023 17024 17025 17026 17027 17028 17029 17030 17031 17032 17033 17034 17035 17036 17037 17038 17039 17040 17041 17042 17043 17044 17045 17046 17047 17048 17049 17050 17051 17052 17053 17054 17055 17056 17057 17058 17059 17060 17061 17062 17063 17064 17065 17066 17067 17068 17069 17070 17071 17072 17073 17074 17075 17076 17077 17078 17079 17080 17081 17082 17083 17084 17085 17086 17087 17088 17089 17090 17091 17092 17093 17094 17095 17096 17097 17098 17099 17100 17101 17102 17103 17104 17105 17106 17107 17108 17109 17110 17111 17112 17113 17114 17115 17116 17117 17118 17119 17120 17121 17122 17123 17124 17125 17126 17127 17128 17129 17130 17131 17132 17133 17134 17135 17136 17137 17138 17139 17140 17141 17142 17143 17144 17145 17146 17147 17148 17149 17150 17151 17152 17153 17154 17155 17156 17157 17158 17159 17160 17161 17162 17163 17164 17165 17166 17167 17168 17169 17170 17171 17172 17173 17174 17175 17176 17177 17178 17179 17180 17181 17182 17183 17184 17185 17186 17187 17188 17189 17190 17191 17192 17193 17194 17195 17196 17197 17198 17199 17200 17201 17202 17203 17204 17205 17206 17207 17208 17209 17210 17211 17212 17213 17214 17215 17216 17217 17218 17219 17220 17221 17222 17223 17224 17225 17226 17227 17228 17229 17230 17231 17232 17233 17234 17235 17236 17237 17238 17239 17240 17241 17242 17243 17244 17245 17246 17247 17248 17249 17250 17251 17252 17253 17254 17255 17256 17257 17258 17259 17260 17261 17262 17263 17264 17265 17266 17267 17268 17269 17270 17271 17272 17273 17274 17275 17276 17277 17278 17279 17280 17281 17282 17283 17284 17285 17286 17287 17288 17289 17290 17291 17292 17293 17294 17295 17296 17297 17298 17299 17300 17301 17302 17303 17304 17305 17306 17307 17308 17309 17310 17311 17312 17313 17314 17315 17316 17317 17318 17319 17320 17321 17322 17323 17324 17325 17326 17327 17328 17329 17330 17331 17332 17333 17334 17335 17336 17337 17338 17339 17340 17341 17342 17343 17344 17345 17346 17347 17348 17349 17350 17351 17352 17353 17354 17355 17356 17357 17358 17359 17360 17361 17362 17363 17364 17365 17366 17367 17368 17369 17370 17371 17372 17373 17374 17375 17376 17377 17378 17379 17380 17381 17382 17383 17384 17385 17386 17387 17388 17389 17390 17391 17392 17393 17394 17395 17396 17397 17398 17399 17400 17401 17402 17403 17404 17405 17406 17407 17408 17409 17410 17411 17412 17413 17414 17415 17416 17417 17418 17419 17420 17421 17422 17423 17424 17425 17426 17427 17428 17429 17430 17431 17432 17433 17434 17435 17436 17437 17438 17439 17440 17441 17442 17443 17444 17445 17446 17447 17448 17449 17450 17451 17452 17453 17454 17455 17456 17457 17458 17459 17460 17461 17462 17463 17464 17465 17466 17467 17468 17469 17470 17471 17472 17473 17474 17475 17476 17477 17478 17479 17480 17481 17482 17483 17484 17485 17486 17487 17488 17489 17490 17491 17492 17493 17494 17495 17496 17497 17498 17499 17500 17501 17502 17503 17504 17505 17506 17507 17508 17509 17510 17511 17512 17513 17514 17515 17516 17517 17518 17519 17520 17521 17522 17523 17524 17525 17526 17527 17528 17529 17530 17531 17532 17533 17534 17535 17536 17537 17538 17539 17540 17541 17542 17543 17544 17545 17546 17547 17548 17549 17550 17551 17552 17553 17554 17555 17556 17557 17558 17559 17560 17561 17562 17563 17564 17565 17566 17567 17568 17569 17570 17571 17572 17573 17574 17575 17576 17577 17578 17579 17580 17581 17582 17583 17584 17585 17586 17587 17588 17589 17590 17591 17592 17593 17594 17595 17596 17597 17598 17599 17600 17601 17602 17603 17604 17605 17606 17607 17608 17609 17610 17611 17612 17613 17614 17615 17616 17617 17618 17619 17620 17621 17622 17623 17624 17625 17626 17627 17628 17629 17630 17631 17632 17633 17634 17635 17636 17637 17638 17639 17640 17641 17642 17643 17644 17645 17646 17647 17648 17649 17650 17651 17652 17653 17654 17655 17656 17657 17658 17659 17660 17661 17662 17663 17664 17665 17666 17667 17668 17669 17670 17671 17672 17673 17674 17675 17676 17677 17678 17679 17680 17681 17682 17683 17684 17685 17686 17687 17688 17689 17690 17691 17692 17693 17694 17695 17696 17697 17698 17699 17700 17701 17702 17703 17704 17705 17706 17707 17708 17709 17710 17711 17712 17713 17714 17715 17716 17717 17718 17719 17720 17721 17722 17723 17724 17725 17726 17727 17728 17729 17730 17731 17732 17733 17734 17735 17736 17737 17738 17739 17740 17741 17742 17743 17744 17745 17746 17747 17748 17749 17750 17751 17752 17753 17754 17755 17756 17757 17758 17759 17760 17761 17762 17763 17764 17765 17766 17767 17768 17769 17770 17771 17772 17773 17774 17775 17776 17777 17778 17779 17780 17781 17782 17783 17784 17785 17786 17787 17788 17789 17790 17791 17792 17793 17794 17795 17796 17797 17798 17799 17800 17801 17802 17803 17804 17805 17806 17807 17808 17809 17810 17811 17812 17813 17814 17815 17816 17817 17818 17819 17820 17821 17822 17823 17824 17825 17826 17827 17828 17829 17830 17831 17832 17833 17834 17835 17836 17837 17838 17839 17840 17841 17842 17843 17844 17845 17846 17847 17848 17849 17850 17851 17852 17853 17854 17855 17856 17857 17858 17859 17860 17861 17862 17863 17864 17865 17866 17867 17868 17869 17870 17871 17872 17873 17874 17875 17876 17877 17878 17879 17880 17881 17882 17883 17884 17885 17886 17887 17888 17889 17890 17891 17892 17893 17894 17895 17896 17897 17898 17899 17900 17901 17902 17903 17904 17905 17906 17907 17908 17909 17910 17911 17912 17913 17914 17915 17916 17917 17918 17919 17920 17921 17922 17923 17924 17925 17926 17927 17928 17929 17930 17931 17932 17933 17934 17935 17936 17937 17938 17939 17940 17941 17942 17943 17944 17945 17946 17947 17948 17949 17950 17951 17952 17953 17954 17955 17956 17957 17958 17959 17960 17961 17962 17963 17964 17965 17966 17967 17968 17969 17970 17971 17972 17973 17974 17975 17976 17977 17978 17979 17980 17981 17982 17983 17984 17985 17986 17987 17988 17989 17990 17991 17992 17993 17994 17995 17996 17997 17998 17999 18000 18001 18002 18003 18004 18005 18006 18007 18008 18009 18010 18011 18012 18013 18014 18015 18016 18017 18018 18019 18020 18021 18022 18023 18024 18025 18026 18027 18028 18029 18030 18031 18032 18033 18034 18035 18036 18037 18038 18039 18040 18041 18042 18043 18044 18045 18046 18047 18048 18049 18050 18051 18052 18053 18054 18055 18056 18057 18058 18059 18060 18061 18062 18063 18064 18065 18066 18067 18068 18069 18070 18071 18072 18073 18074 18075 18076 18077 18078 18079 18080 18081 18082 18083 18084 18085 18086 18087 18088 18089 18090 18091 18092 18093 18094 18095 18096 18097 18098 18099 18100 18101 18102 18103 18104 18105 18106 18107 18108 18109 18110 18111 18112 18113 18114 18115 18116 18117 18118 18119 18120 18121 18122 18123 18124 18125 18126 18127 18128 18129 18130 18131 18132 18133 18134 18135 18136 18137 18138 18139 18140 18141 18142 18143 18144 18145 18146 18147 18148 18149 18150 18151 18152 18153 18154 18155 18156 18157 18158 18159 18160 18161 18162 18163 18164 18165 18166 18167 18168 18169 18170 18171 18172 18173 18174 18175 18176 18177 18178 18179 18180 18181 18182 18183 18184 18185 18186 18187 18188 18189 18190 18191 18192 18193 18194 18195 18196 18197 18198 18199 18200 18201 18202 18203 18204 18205 18206 18207 18208 18209 18210 18211 18212 18213 18214 18215 18216 18217 18218 18219 18220 18221 18222 18223 18224 18225 18226 18227 18228 18229 18230 18231 18232 18233 18234 18235 18236 18237 18238 18239 18240 18241 18242 18243 18244 18245 18246 18247 18248 18249 18250 18251 18252 18253 18254 18255 18256 18257 18258 18259 18260 18261 18262 18263 18264 18265 18266 18267 18268 18269 18270 18271 18272 18273 18274 18275 18276 18277 18278 18279 18280 18281 18282 18283 18284 18285 18286 18287 18288 18289 18290 18291 18292 18293 18294 18295 18296 18297 18298 18299 18300 18301 18302 18303 18304 18305 18306 18307 18308 18309 18310 18311 18312 18313 18314 18315 18316 18317 18318 18319 18320 18321 18322 18323 18324 18325 18326 18327 18328 18329 18330 18331 18332 18333 18334 18335 18336 18337 18338 18339 18340 18341 18342 18343 18344 18345 18346 18347 18348 18349 18350 18351 18352 18353 18354 18355 18356 18357 18358 18359 18360 18361 18362 18363 18364 18365 18366 18367 18368 18369 18370 18371 18372 18373 18374 18375 18376 18377 18378 18379 18380 18381 18382 18383 18384 18385 18386 18387 18388 18389 18390 18391 18392 18393 18394 18395 18396 18397 18398 18399 18400 18401 18402 18403 18404 18405 18406 18407 18408 18409 18410 18411 18412 18413 18414 18415 18416 18417 18418 18419 18420 18421 18422 18423 18424 18425 18426 18427 18428 18429 18430 18431 18432 18433 18434 18435 18436 18437 18438 18439 18440 18441 18442 18443 18444 18445 18446 18447 18448 18449 18450 18451 18452 18453 18454 18455 18456 18457 18458 18459 18460 18461 18462 18463 18464 18465 18466 18467 18468 18469 18470 18471 18472 18473 18474 18475 18476 18477 18478 18479 18480 18481 18482 18483 18484 18485 18486 18487 18488 18489 18490 18491 18492 18493 18494 18495 18496 18497 18498 18499 18500 18501 18502 18503 18504 18505 18506 18507 18508 18509 18510 18511 18512 18513 18514 18515 18516 18517 18518 18519 18520 18521 18522 18523 18524 18525 18526 18527 18528 18529 18530 18531 18532 18533 18534 18535 18536 18537 18538 18539 18540 18541 18542 18543 18544 18545 18546 18547 18548 18549 18550 18551 18552 18553 18554 18555 18556 18557 18558 18559 18560 18561 18562 18563 18564 18565 18566 18567 18568 18569 18570 18571 18572 18573 18574 18575 18576 18577 18578 18579 18580 18581 18582 18583 18584 18585 18586 18587 18588 18589 18590 18591 18592 18593 18594 18595 18596 18597 18598 18599 18600 18601 18602 18603 18604 18605 18606 18607 18608 18609 18610 18611 18612 18613 18614 18615 18616 18617 18618 18619 18620 18621 18622 18623 18624 18625 18626 18627 18628 18629 18630 18631 18632 18633 18634 18635 18636 18637 18638 18639 18640 18641 18642 18643 18644 18645 18646 18647 18648 18649 18650 18651 18652 18653 18654 18655 18656 18657 18658 18659 18660 18661 18662 18663 18664 18665 18666 18667 18668 18669 18670 18671 18672 18673 18674 18675 18676 18677 18678 18679 18680 18681 18682 18683 18684 18685 18686 18687 18688 18689 18690 18691 18692 18693 18694 18695 18696 18697 18698 18699 18700 18701 18702 18703 18704 18705 18706 18707 18708 18709 18710 18711 18712 18713 18714 18715 18716 18717 18718 18719 18720 18721 18722 18723 18724 18725 18726 18727 18728 18729 18730 18731 18732 18733 18734 18735 18736 18737 18738 18739 18740 18741 18742 18743 18744 18745 18746 18747 18748 18749 18750 18751 18752 18753 18754 18755 18756 18757 18758 18759 18760 18761 18762 18763 18764 18765 18766 18767 18768 18769 18770 18771 18772 18773 18774 18775 18776 18777 18778 18779 18780 18781 18782 18783 18784 18785 18786 18787 18788 18789 18790 18791 18792 18793 18794 18795 18796 18797 18798 18799 18800 18801 18802 18803 18804 18805 18806 18807 18808 18809 18810 18811 18812 18813 18814 18815 18816 18817 18818 18819 18820 18821 18822 18823 18824 18825 18826 18827 18828 18829 18830 18831 18832 18833 18834 18835 18836 18837 18838 18839 18840 18841 18842 18843 18844 18845 18846 18847 18848 18849 18850 18851 18852 18853 18854 18855 18856 18857 18858 18859 18860 18861 18862 18863 18864 18865 18866 18867 18868 18869 18870 18871 18872 18873 18874 18875 18876 18877 18878 18879 18880 18881 18882 18883 18884 18885 18886 18887 18888 18889 18890 18891 18892 18893 18894 18895 18896 18897 18898 18899 18900 18901 18902 18903 18904 18905 18906 18907 18908 18909 18910 18911 18912 18913 18914 18915 18916 18917 18918 18919 18920 18921 18922 18923 18924 18925 18926 18927 18928 18929 18930 18931 18932 18933 18934 18935 18936 18937 18938 18939 18940 18941 18942 18943 18944 18945 18946 18947 18948 18949 18950 18951 18952 18953 18954 18955 18956 18957 18958 18959 18960 18961 18962 18963 18964 18965 18966 18967 18968 18969 18970 18971 18972 18973 18974 18975 18976 18977 18978 18979 18980 18981 18982 18983 18984 18985 18986 18987 18988 18989 18990 18991 18992 18993 18994 18995 18996 18997 18998 18999 19000 19001 19002 19003 19004 19005 19006 19007 19008 19009 19010 19011 19012 19013 19014 19015 19016 19017 19018 19019 19020 19021 19022 19023 19024 19025 19026 19027 19028 19029 19030 19031 19032 19033 19034 19035 19036 19037 19038 19039 19040 19041 19042 19043 19044 19045 19046 19047 19048 19049 19050 19051 19052 19053 19054 19055 19056 19057 19058 19059 19060 19061 19062 19063 19064 19065 19066 19067 19068 19069 19070 19071 19072 19073 19074 19075 19076 19077 19078 19079 19080 19081 19082 19083 19084 19085 19086 19087 19088 19089 19090 19091 19092 19093 19094 19095 19096 19097 19098 19099 19100 19101 19102 19103 19104 19105 19106 19107 19108 19109 19110 19111 19112 19113 19114 19115 19116 19117 19118 19119 19120 19121 19122 19123 19124 19125 19126 19127 19128 19129 19130 19131 19132 19133 19134 19135 19136 19137 19138 19139 19140 19141 19142 19143 19144 19145 19146 19147 19148 19149 19150 19151 19152 19153 19154 19155 19156 19157 19158 19159 19160 19161 19162 19163 19164 19165 19166 19167 19168 19169 19170 19171 19172 19173 19174 19175 19176 19177 19178 19179 19180 19181 19182 19183 19184 19185 19186 19187 19188 19189 19190 19191 19192 19193 19194 19195 19196 19197 19198 19199 19200 19201 19202 19203 19204 19205 19206 19207 19208 19209 19210 19211 19212 19213 19214 19215 19216 19217 19218 19219 19220 19221 19222 19223 19224 19225 19226 19227 19228 19229 19230 19231 19232 19233 19234 19235 19236 19237 19238 19239 19240 19241 19242 19243 19244 19245 19246 19247 19248 19249 19250 19251 19252 19253 19254 19255 19256 19257 19258 19259 19260 19261 19262 19263 19264 19265 19266 19267 19268 19269 19270 19271 19272 19273 19274 19275 19276 19277 19278 19279 19280 19281 19282 19283 19284 19285 19286 19287 19288 19289 19290 19291 19292 19293 19294 19295 19296 19297 19298 19299 19300 19301 19302 19303 19304 19305 19306 19307 19308 19309 19310 19311 19312 19313 19314 19315 19316 19317 19318 19319 19320 19321 19322 19323 19324 19325 19326 19327 19328 19329 19330 19331 19332 19333 19334 19335 19336 19337 19338 19339 19340 19341 19342 19343 19344 19345 19346 19347 19348 19349 19350 19351 19352 19353 19354 19355 19356 19357 19358 19359 19360 19361 19362 19363 19364 19365 19366 19367 19368 19369 19370 19371 19372 19373 19374 19375 19376 19377 19378 19379 19380 19381 19382 19383 19384 19385 19386 19387 19388 19389 19390 19391 19392 19393 19394 19395 19396 19397 19398 19399 19400 19401 19402 19403 19404 19405 19406 19407 19408 19409 19410 19411 19412 19413 19414 19415 19416 19417 19418 19419 19420 19421 19422 19423 19424 19425 19426 19427 19428 19429 19430 19431 19432 19433 19434 19435 19436 19437 19438 19439 19440 19441 19442 19443 19444 19445 19446 19447 19448 19449 19450 19451 19452 19453 19454 19455 19456 19457 19458 19459 19460 19461 19462 19463 19464 19465 19466 19467 19468 19469 19470 19471 19472 19473 19474 19475 19476 19477 19478 19479 19480 19481 19482 19483 19484 19485 19486 19487 19488 19489 19490 19491 19492 19493 19494 19495 19496 19497 19498 19499 19500 19501 19502 19503 19504 19505 19506 19507 19508 19509 19510 19511 19512 19513 19514 19515 19516 19517 19518 19519 19520 19521 19522 19523 19524 19525 19526 19527 19528 19529 19530 19531 19532 19533 19534 19535 19536 19537 19538 19539 19540 19541 19542 19543 19544 19545 19546 19547 19548 19549 19550 19551 19552 19553 19554 19555 19556 19557 19558 19559 19560 19561 19562 19563 19564 19565 19566 19567 19568 19569 19570 19571 19572 19573 19574 19575 19576 19577 19578 19579 19580 19581 19582 19583 19584 19585 19586 19587 19588 19589 19590 19591 19592 19593 19594 19595 19596 19597 19598 19599 19600 19601 19602 19603 19604 19605 19606 19607 19608 19609 19610 19611 19612 19613 19614 19615 19616 19617 19618 19619 19620 19621 19622 19623 19624 19625 19626 19627 19628 19629 19630 19631 19632 19633 19634 19635 19636 19637 19638 19639 19640 19641 19642 19643 19644 19645 19646 19647 19648 19649 19650 19651 19652 19653 19654 19655 19656 19657 19658 19659 19660 19661 19662 19663 19664 19665 19666 19667 19668 19669 19670 19671 19672 19673 19674 19675 19676 19677 19678 19679 19680 19681 19682 19683 19684 19685 19686 19687 19688 19689 19690 19691 19692 19693 19694 19695 19696 19697 19698 19699 19700 19701 19702 19703 19704 19705 19706 19707 19708 19709 19710 19711 19712 19713 19714 19715 19716 19717 19718 19719 19720 19721 19722 19723 19724 19725 19726 19727 19728 19729 19730 19731 19732 19733 19734 19735 19736 19737 19738 19739 19740 19741 19742 19743 19744 19745 19746 19747 19748 19749 19750 19751 19752 19753 19754 19755 19756 19757 19758 19759 19760 19761 19762 19763 19764 19765 19766 19767 19768 19769 19770 19771 19772 19773 19774 19775 19776 19777 19778 19779 19780 19781 19782 19783 19784 19785 19786 19787 19788 19789 19790 19791 19792 19793 19794 19795 19796 19797 19798 19799 19800 19801 19802 19803 19804 19805 19806 19807 19808 19809 19810 19811 19812 19813 19814 19815 19816 19817 19818 19819 19820 19821 19822 19823 19824 19825 19826 19827 19828 19829 19830 19831 19832 19833 19834 19835 19836 19837 19838 19839 19840 19841 19842 19843 19844 19845 19846 19847 19848 19849 19850 19851 19852 19853 19854 19855 19856 19857 19858 19859 19860 19861 19862 19863 19864 19865 19866 19867 19868 19869 19870 19871 19872 19873 19874 19875 19876 19877 19878 19879 19880 19881 19882 19883 19884 19885 19886 19887 19888 19889 19890 19891 19892 19893 19894 19895 19896 19897 19898 19899 19900 19901 19902 19903 19904 19905 19906 19907 19908 19909 19910 19911 19912 19913 19914 19915 19916 19917 19918 19919 19920 19921 19922 19923 19924 19925 19926 19927 19928 19929 19930 19931 19932 19933 19934 19935 19936 19937 19938 19939 19940 19941 19942 19943 19944 19945 19946 19947 19948 19949 19950 19951 19952 19953 19954 19955 19956 19957 19958 19959 19960 19961 19962 19963 19964 19965 19966 19967 19968 19969 19970 19971 19972 19973 19974 19975 19976 19977 19978 19979 19980 19981 19982 19983 19984 19985 19986 19987 19988 19989 19990 19991 19992 19993 19994 19995 19996 19997 19998 19999 20000 20001 20002 20003 20004 20005 20006 20007 20008 20009 20010 20011 20012 20013 20014 20015 20016 20017 20018 20019 20020 20021 20022 20023 20024 20025 20026 20027 20028 20029 20030 20031 20032 20033 20034 20035 20036 20037 20038 20039 20040 20041 20042 20043 20044 20045 20046 20047 20048 20049 20050 20051 20052 20053 20054 20055 20056 20057 20058 20059 20060 20061 20062 20063 20064 20065 20066 20067 20068 20069 20070 20071 20072 20073 20074 20075 20076 20077 20078 20079 20080 20081 20082 20083 20084 20085 20086 20087 20088 20089 20090 20091 20092 20093 20094 20095 20096 20097 20098 20099 20100 20101 20102 20103 20104 20105 20106 20107 20108 20109 20110 20111 20112 20113 20114 20115 20116 20117 20118 20119 20120 20121 20122 20123 20124 20125 20126 20127 20128 20129 20130 20131 20132 20133 20134 20135 20136 20137 20138 20139 20140 20141 20142 20143 20144 20145 20146 20147 20148 20149 20150 20151 20152 20153 20154 20155 20156 20157 20158 20159 20160 20161 20162 20163 20164 20165 20166 20167 20168 20169 20170 20171 20172 20173 20174 20175 20176 20177 20178 20179 20180 20181 20182 20183 20184 20185 20186 20187 20188 20189 20190 20191 20192 20193 20194 20195 20196 20197 20198 20199 20200 20201 20202 20203 20204 20205 20206 20207 20208 20209 20210 20211 20212 20213 20214 20215 20216 20217 20218 20219 20220 20221 20222 20223 20224 20225 20226 20227 20228 20229 20230 20231 20232 20233 20234 20235 20236 20237 20238 20239 20240 20241 20242 20243 20244 20245 20246 20247 20248 20249 20250 20251 20252 20253 20254 20255 20256 20257 20258 20259 20260 20261 20262 20263 20264 20265 20266 20267 20268 20269 20270 20271 20272 20273 20274 20275 20276 20277 20278 20279 20280 20281 20282 20283 20284 20285 20286 20287 20288 20289 20290 20291 20292 20293 20294 20295 20296 20297 20298 20299 20300 20301 20302 20303 20304 20305 20306 20307 20308 20309 20310 20311 20312 20313 20314 20315 20316 20317 20318 20319 20320 20321 20322 20323 20324 20325 20326 20327 20328 20329 20330 20331 20332 20333 20334 20335 20336 20337 20338 20339 20340 20341 20342 20343 20344 20345 20346 20347 20348 20349 20350 20351 20352 20353 20354 20355 20356 20357 20358 20359 20360 20361 20362 20363 20364 20365 20366 20367 20368 20369 20370 20371 20372 20373 20374 20375 20376 20377 20378 20379 20380 20381 20382 20383 20384 20385 20386 20387 20388 20389 20390 20391 20392 20393 20394 20395 20396 20397 20398 20399 20400 20401 20402 20403 20404 20405 20406 20407 20408 20409 20410 20411 20412 20413 20414 20415 20416 20417 20418 20419 20420 20421 20422 20423 20424 20425 20426 20427 20428 20429 20430 20431 20432 20433 20434 20435 20436 20437 20438 20439 20440 20441 20442 20443 20444 20445 20446 20447 20448 20449 20450 20451 20452 20453 20454 20455 20456 20457 20458 20459 20460 20461 20462 20463 20464 20465 20466 20467 20468 20469 20470 20471 20472 20473 20474 20475 20476 20477 20478 20479 20480 20481 20482 20483 20484 20485 20486 20487 20488 20489 20490 20491 20492 20493 20494 20495 20496 20497 20498 20499 20500 20501 20502 20503 20504 20505 20506 20507 20508 20509 20510 20511 20512 20513 20514 20515 20516 20517 20518 20519 20520 20521 20522 20523 20524 20525 20526 20527 20528 20529 20530 20531 20532 20533 20534 20535 20536 20537 20538 20539 20540 20541 20542 20543 20544 20545 20546 20547 20548 20549 20550 20551 20552 20553 20554 20555 20556 20557 20558 20559 20560 20561 20562 20563 20564 20565 20566 20567 20568 20569 20570 20571 20572 20573 20574 20575 20576 20577 20578 20579 20580 20581 20582 20583 20584 20585 20586 20587 20588 20589 20590 20591 20592 20593 20594 20595 20596 20597 20598 20599 20600 20601 20602 20603 20604 20605 20606 20607 20608 20609 20610 20611 20612 20613 20614 20615 20616 20617 20618 20619 20620 20621 20622 20623 20624 20625 20626 20627 20628 20629 20630 20631 20632 20633 20634 20635 20636 20637 20638 20639 20640 20641 20642 20643 20644 20645 20646 20647 20648 20649 20650 20651 20652 20653 20654 20655 20656 20657 20658 20659 20660 20661 20662 20663 20664 20665 20666 20667 20668 20669 20670 20671 20672 20673 20674 20675 20676 20677 20678 20679 20680 20681 20682 20683 20684 20685 20686 20687 20688 20689 20690 20691 20692 20693 20694 20695 20696 20697 20698 20699 20700 20701 20702 20703 20704 20705 20706 20707 20708 20709 20710 20711 20712 20713 20714 20715 20716 20717 20718 20719 20720 20721 20722 20723 20724 20725 20726 20727 20728 20729 20730 20731 20732 20733 20734 20735 20736 20737 20738 20739 20740 20741 20742 20743 20744 20745 20746 20747 20748 20749 20750 20751 20752 20753 20754 20755 20756 20757 20758 20759 20760 20761 20762 20763 20764 20765 20766 20767 20768 20769 20770 20771 20772 20773 20774 20775 20776 20777 20778 20779 20780 20781 20782 20783 20784 20785 20786 20787 20788 20789 20790 20791 20792 20793 20794 20795 20796 20797 20798 20799 20800 20801 20802 20803 20804 20805 20806 20807 20808 20809 20810 20811 20812 20813 20814 20815 20816 20817 20818 20819 20820 20821 20822 20823 20824 20825 20826 20827 20828 20829 20830 20831 20832 20833 20834 20835 20836 20837 20838 20839 20840 20841 20842 20843 20844 20845 20846 20847 20848 20849 20850 20851 20852 20853 20854 20855 20856 20857 20858 20859 20860 20861 20862 20863 20864 20865 20866 20867 20868 20869 20870 20871 20872 20873 20874 20875 20876 20877 20878 20879 20880 20881 20882 20883 20884 20885 20886 20887 20888 20889 20890 20891 20892 20893 20894 20895 20896 20897 20898 20899 20900 20901 20902 20903 20904 20905 20906 20907 20908 20909 20910 20911 20912 20913 20914 20915 20916 20917 20918 20919 20920 20921 20922 20923 20924 20925 20926 20927 20928 20929 20930 20931 20932 20933 20934 20935 20936 20937 20938 20939 20940 20941 20942 20943 20944 20945 20946 20947 20948 20949 20950 20951 20952 20953 20954 20955 20956 20957 20958 20959 20960 20961 20962 20963 20964 20965 20966 20967 20968 20969 20970 20971 20972 20973 20974 20975 20976 20977 20978 20979 20980 20981 20982 20983 20984 20985 20986 20987 20988 20989 20990 20991 20992 20993 20994 20995 20996 20997 20998 20999 21000 21001 21002 21003 21004 21005 21006 21007 21008 21009 21010 21011 21012 21013 21014 21015 21016 21017 21018 21019 21020 21021 21022 21023 21024 21025 21026 21027 21028 21029 21030 21031 21032 21033 21034 21035 21036 21037 21038 21039 21040 21041 21042 21043 21044 21045 21046 21047 21048 21049 21050 21051 21052 21053 21054 21055 21056 21057 21058 21059 21060 21061 21062 21063 21064 21065 21066 21067 21068 21069 21070 21071 21072 21073 21074 21075 21076 21077 21078 21079 21080 21081 21082 21083 21084 21085 21086 21087 21088 21089 21090 21091 21092 21093 21094 21095 21096 21097 21098 21099 21100 21101 21102 21103 21104 21105 21106 21107 21108 21109 21110 21111 21112 21113 21114 21115 21116 21117 21118 21119 21120 21121 21122 21123 21124 21125 21126 21127 21128 21129 21130 21131 21132 21133 21134 21135 21136 21137 21138 21139 21140 21141 21142 21143 21144 21145 21146 21147 21148 21149 21150 21151 21152 21153 21154 21155 21156 21157 21158 21159 21160 21161 21162 21163 21164 21165 21166 21167 21168 21169 21170 21171 21172 21173 21174 21175 21176 21177 21178 21179 21180 21181 21182 21183 21184 21185 21186 21187 21188 21189 21190 21191 21192 21193 21194 21195 21196 21197 21198 21199 21200 21201 21202 21203 21204 21205 21206 21207 21208 21209 21210 21211 21212 21213 21214 21215 21216 21217 21218 21219 21220 21221 21222 21223 21224 21225 21226 21227 21228 21229 21230 21231 21232 21233 21234 21235 21236 21237 21238 21239 21240 21241 21242 21243 21244 21245 21246 21247 21248 21249 21250 21251 21252 21253 21254 21255 21256 21257 21258 21259 21260 21261 21262 21263 21264 21265 21266 21267 21268 21269 21270 21271 21272 21273 21274 21275 21276 21277 21278 21279 21280 21281 21282 21283 21284 21285 21286 21287 21288 21289 21290 21291 21292 21293 21294 21295 21296 21297 21298 21299 21300 21301 21302 21303 21304 21305 21306 21307 21308 21309 21310 21311 21312 21313 21314 21315 21316 21317 21318 21319 21320 21321 21322 21323 21324 21325 21326 21327 21328 21329 21330 21331 21332 21333 21334 21335 21336 21337 21338 21339 21340 21341 21342 21343 21344 21345 21346 21347 21348 21349 21350 21351 21352 21353 21354 21355 21356 21357 21358 21359 21360 21361 21362 21363 21364 21365 21366 21367 21368 21369 21370 21371 21372 21373 21374 21375 21376 21377 21378 21379 21380 21381 21382 21383 21384 21385 21386 21387 21388 21389 21390 21391 21392 21393 21394 21395 21396 21397 21398 21399 21400 21401 21402 21403 21404 21405 21406 21407 21408 21409 21410 21411 21412 21413 21414 21415 21416 21417 21418 21419 21420 21421 21422 21423 21424 21425 21426 21427 21428 21429 21430 21431 21432 21433 21434 21435 21436 21437 21438 21439 21440 21441 21442 21443 21444 21445 21446 21447 21448 21449 21450 21451 21452 21453 21454 21455 21456 21457 21458 21459 21460 21461 21462 21463 21464 21465 21466 21467 21468 21469 21470 21471 21472 21473 21474 21475 21476 21477 21478 21479 21480 21481 21482 21483 21484 21485 21486 21487 21488 21489 21490 21491 21492 21493 21494 21495 21496 21497 21498 21499 21500 21501 21502 21503 21504 21505 21506 21507 21508 21509 21510 21511 21512 21513 21514 21515 21516 21517 21518 21519 21520 21521 21522 21523 21524 21525 21526 21527 21528 21529 21530 21531 21532 21533 21534 21535 21536 21537 21538 21539 21540 21541 21542 21543 21544 21545 21546 21547 21548 21549 21550 21551 21552 21553 21554 21555 21556 21557 21558 21559 21560 21561 21562 21563 21564 21565 21566 21567 21568 21569 21570 21571 21572 21573 21574 21575 21576 21577 21578 21579 21580 21581 21582 21583 21584 21585 21586 21587 21588 21589 21590 21591 21592 21593 21594 21595 21596 21597 21598 21599 21600 21601 21602 21603 21604 21605 21606 21607 21608 21609 21610 21611 21612 21613 21614 21615 21616 21617 21618 21619 21620 21621 21622 21623 21624 21625 21626 21627 21628 21629 21630 21631 21632 21633 21634 21635 21636 21637 21638 21639 21640 21641 21642 21643 21644 21645 21646 21647 21648 21649 21650 21651 21652 21653 21654 21655 21656 21657 21658 21659 21660 21661 21662 21663 21664 21665 21666 21667 21668 21669 21670 21671 21672 21673 21674 21675 21676 21677 21678 21679 21680 21681 21682 21683 21684 21685 21686 21687 21688 21689 21690 21691 21692 21693 21694 21695 21696 21697 21698 21699 21700 21701 21702 21703 21704 21705 21706 21707 21708 21709 21710 21711 21712 21713 21714 21715 21716 21717 21718 21719 21720 21721 21722 21723 21724 21725 21726 21727 21728 21729 21730 21731 21732 21733 21734 21735 21736 21737 21738 21739 21740 21741 21742 21743 21744 21745 21746 21747 21748 21749 21750 21751 21752 21753 21754 21755 21756 21757 21758 21759 21760 21761 21762 21763 21764 21765 21766 21767 21768 21769 21770 21771 21772 21773 21774 21775 21776 21777 21778 21779 21780 21781 21782 21783 21784 21785 21786 21787 21788 21789 21790 21791 21792 21793 21794 21795 21796 21797 21798 21799 21800 21801 21802 21803 21804 21805 21806 21807 21808 21809 21810 21811 21812 21813 21814 21815 21816 21817 21818 21819 21820 21821 21822 21823 21824 21825 21826 21827 21828 21829 21830 21831 21832 21833 21834 21835 21836 21837 21838 21839 21840 21841 21842 21843 21844 21845 21846 21847 21848 21849 21850 21851 21852 21853 21854 21855 21856 21857 21858 21859 21860 21861 21862 21863 21864 21865 21866 21867 21868 21869 21870 21871 21872 21873 21874 21875 21876 21877 21878 21879 21880 21881 21882 21883 21884 21885 21886 21887 21888 21889 21890 21891 21892 21893 21894 21895 21896 21897 21898 21899 21900 21901 21902 21903 21904 21905 21906 21907 21908 21909 21910 21911 21912 21913 21914 21915 21916 21917 21918 21919 21920 21921 21922 21923 21924 21925 21926 21927 21928 21929 21930 21931 21932 21933 21934 21935 21936 21937 21938 21939 21940 21941 21942 21943 21944 21945 21946 21947 21948 21949 21950 21951 21952 21953 21954 21955 21956 21957 21958 21959 21960 21961 21962 21963 21964 21965 21966 21967 21968 21969 21970 21971 21972 21973 21974 21975 21976 21977 21978 21979 21980 21981 21982 21983 21984 21985 21986 21987 21988 21989 21990 21991 21992 21993 21994 21995 21996 21997 21998 21999 22000 22001 22002 22003 22004 22005 22006 22007 22008 22009 22010 22011 22012 22013 22014 22015 22016 22017 22018 22019 22020 22021 22022 22023 22024 22025 22026 22027 22028 22029 22030 22031 22032 22033 22034 22035 22036 22037 22038 22039 22040 22041 22042 22043 22044 22045 22046 22047 22048 22049 22050 22051 22052 22053 22054 22055 22056 22057 22058 22059 22060 22061 22062 22063 22064 22065 22066 22067 22068 22069 22070 22071 22072 22073 22074 22075 22076 22077 22078 22079 22080 22081 22082 22083 22084 22085 22086 22087 22088 22089 22090 22091 22092 22093 22094 22095 22096 22097 22098 22099 22100 22101 22102 22103 22104 22105 22106 22107 22108 22109 22110 22111 22112 22113 22114 22115 22116 22117 22118 22119 22120 22121 22122 22123 22124 22125 22126 22127 22128 22129 22130 22131 22132 22133 22134 22135 22136 22137 22138 22139 22140 22141 22142 22143 22144 22145 22146 22147 22148 22149 22150 22151 22152 22153 22154 22155 22156 22157 22158 22159 22160 22161 22162 22163 22164 22165 22166 22167 22168 22169 22170 22171 22172 22173 22174 22175 22176 22177 22178 22179 22180 22181 22182 22183 22184 22185 22186 22187 22188 22189 22190 22191 22192 22193 22194 22195 22196 22197 22198 22199 22200 22201 22202 22203 22204 22205 22206 22207 22208 22209 22210 22211 22212 22213 22214 22215 22216 22217 22218 22219 22220 22221 22222 22223 22224 22225 22226 22227 22228 22229 22230 22231 22232 22233 22234 22235 22236 22237 22238 22239 22240 22241 22242 22243 22244 22245 22246 22247 22248 22249 22250 22251 22252 22253 22254 22255 22256 22257 22258 22259 22260 22261 22262 22263 22264 22265 22266 22267 22268 22269 22270 22271 22272 22273 22274 22275 22276 22277 22278 22279 22280 22281 22282 22283 22284 22285 22286 22287 22288 22289 22290 22291 22292 22293 22294 22295 22296 22297 22298 22299 22300 22301 22302 22303 22304 22305 22306 22307 22308 22309 22310 22311 22312 22313 22314 22315 22316 22317 22318 22319 22320 22321 22322 22323 22324 22325 22326 22327 22328 22329 22330 22331 22332 22333 22334 22335 22336 22337 22338 22339 22340 22341 22342 22343 22344 22345 22346 22347 22348 22349 22350 22351 22352 22353 22354 22355 22356 22357 22358 22359 22360 22361 22362 22363 22364 22365 22366 22367 22368 22369 22370 22371 22372 22373 22374 22375 22376 22377 22378 22379 22380 22381 22382 22383 22384 22385 22386 22387 22388 22389 22390 22391 22392 22393 22394 22395 22396 22397 22398 22399 22400 22401 22402 22403 22404 22405 22406 22407 22408 22409 22410 22411 22412 22413 22414 22415 22416 22417 22418 22419 22420 22421 22422 22423 22424 22425 22426 22427 22428 22429 22430 22431 22432 22433 22434 22435 22436 22437 22438 22439 22440 22441 22442 22443 22444 22445 22446 22447 22448 22449 22450 22451 22452 22453 22454 22455 22456 22457 22458 22459 22460 22461 22462 22463 22464 22465 22466 22467 22468 22469 22470 22471 22472 22473 22474 22475 22476 22477 22478 22479 22480 22481 22482 22483 22484 22485 22486 22487 22488 22489 22490 22491 22492 22493 22494 22495 22496 22497 22498 22499 22500 22501 22502 22503 22504 22505 22506 22507 22508 22509 22510 22511 22512 22513 22514 22515 22516 22517 22518 22519 22520 22521 22522 22523 22524 22525 22526 22527 22528 22529 22530 22531 22532 22533 22534 22535 22536 22537 22538 22539 22540 22541 22542 22543 22544 22545 22546 22547 22548 22549 22550 22551 22552 22553 22554 22555 22556 22557 22558 22559 22560 22561 22562 22563 22564 22565 22566 22567 22568 22569 22570 22571 22572 22573 22574 22575 22576 22577 22578 22579 22580 22581 22582 22583 22584 22585 22586 22587 22588 22589 22590 22591 22592 22593 22594 22595 22596 22597 22598 22599 22600 22601 22602 22603 22604 22605 22606 22607 22608 22609 22610 22611 22612 22613 22614 22615 22616 22617 22618 22619 22620 22621 22622 22623 22624 22625 22626 22627 22628 22629 22630 22631 22632 22633 22634 22635 22636 22637 22638 22639 22640 22641 22642 22643 22644 22645 22646 22647 22648 22649 22650 22651 22652 22653 22654 22655 22656 22657 22658 22659 22660 22661 22662 22663 22664 22665 22666 22667 22668 22669 22670 22671 22672 22673 22674 22675 22676 22677 22678 22679 22680 22681 22682 22683 22684 22685 22686 22687 22688 22689 22690 22691 22692 22693 22694 22695 22696 22697 22698 22699 22700 22701 22702 22703 22704 22705 22706 22707 22708 22709 22710 22711 22712 22713 22714 22715 22716 22717 22718 22719 22720 22721 22722 22723 22724 22725 22726 22727 22728 22729 22730 22731 22732 22733 22734 22735 22736 22737 22738 22739 22740 22741 22742 22743 22744 22745 22746 22747 22748 22749 22750 22751 22752 22753 22754 22755 22756 22757 22758 22759 22760 22761 22762 22763 22764 22765 22766 22767 22768 22769 22770 22771 22772 22773 22774 22775 22776 22777 22778 22779 22780 22781 22782 22783 22784 22785 22786 22787 22788 22789 22790 22791 22792 22793 22794 22795 22796 22797 22798 22799 22800 22801 22802 22803 22804 22805 22806 22807 22808 22809 22810 22811 22812 22813 22814 22815 22816 22817 22818 22819 22820 22821 22822 22823 22824 22825 22826 22827 22828 22829 22830 22831 22832 22833 22834 22835 22836 22837 22838 22839 22840 22841 22842 22843 22844 22845 22846 22847 22848 22849 22850 22851 22852 22853 22854 22855 22856 22857 22858 22859 22860 22861 22862 22863 22864 22865 22866 22867 22868 22869 22870 22871 22872 22873 22874 22875 22876 22877 22878 22879 22880 22881 22882 22883 22884 22885 22886 22887 22888 22889 22890 22891 22892 22893 22894 22895 22896 22897 22898 22899 22900 22901 22902 22903 22904 22905 22906 22907 22908 22909 22910 22911 22912 22913 22914 22915 22916 22917 22918 22919 22920 22921 22922 22923 22924 22925 22926 22927 22928 22929 22930 22931 22932 22933 22934 22935 22936 22937 22938 22939 22940 22941 22942 22943 22944 22945 22946 22947 22948 22949 22950 22951 22952 22953 22954 22955 22956 22957 22958 22959 22960 22961 22962 22963 22964 22965 22966 22967 22968 22969 22970 22971 22972 22973 22974 22975 22976 22977 22978 22979 22980 22981 22982 22983 22984 22985 22986 22987 22988 22989 22990 22991 22992 22993 22994 22995 22996 22997 22998 22999 23000 23001 23002 23003 23004 23005 23006 23007 23008 23009 23010 23011 23012 23013 23014 23015 23016 23017 23018 23019 23020 23021 23022 23023 23024 23025 23026 23027 23028 23029 23030 23031 23032 23033 23034 23035 23036 23037 23038 23039 23040 23041 23042 23043 23044 23045 23046 23047 23048 23049 23050 23051 23052 23053 23054 23055 23056 23057 23058 23059 23060 23061 23062 23063 23064 23065 23066 23067 23068 23069 23070 23071 23072 23073 23074 23075 23076 23077 23078 23079 23080 23081 23082 23083 23084 23085 23086 23087 23088 23089 23090 23091 23092 23093 23094 23095 23096 23097 23098 23099 23100 23101 23102 23103 23104 23105 23106 23107 23108 23109 23110 23111 23112 23113 23114 23115 23116 23117 23118 23119 23120 23121 23122 23123 23124 23125 23126 23127 23128 23129 23130 23131 23132 23133 23134 23135 23136 23137 23138 23139 23140 23141 23142 23143 23144 23145 23146 23147 23148 23149 23150 23151 23152 23153 23154 23155 23156 23157 23158 23159 23160 23161 23162 23163 23164 23165 23166 23167 23168 23169 23170 23171 23172 23173 23174 23175 23176 23177 23178 23179 23180 23181 23182 23183 23184 23185 23186 23187 23188 23189 23190 23191 23192 23193 23194 23195 23196 23197 23198 23199 23200 23201 23202 23203 23204 23205 23206 23207 23208 23209 23210 23211 23212 23213 23214 23215 23216 23217 23218 23219 23220 23221 23222 23223 23224 23225 23226 23227 23228 23229 23230 23231 23232 23233 23234 23235 23236 23237 23238 23239 23240 23241 23242 23243 23244 23245 23246 23247 23248 23249 23250 23251 23252 23253 23254 23255 23256 23257 23258 23259 23260 23261 23262 23263 23264 23265 23266 23267 23268 23269 23270 23271 23272 23273 23274 23275 23276 23277 23278 23279 23280 23281 23282 23283 23284 23285 23286 23287 23288 23289 23290 23291 23292 23293 23294 23295 23296 23297 23298 23299 23300 23301 23302 23303 23304 23305 23306 23307 23308 23309 23310 23311 23312 23313 23314 23315 23316 23317 23318 23319 23320 23321 23322 23323 23324 23325 23326 23327 23328 23329 23330 23331 23332 23333 23334 23335 23336 23337 23338 23339 23340 23341 23342 23343 23344 23345 23346 23347 23348 23349 23350 23351 23352 23353 23354 23355 23356 23357 23358 23359 23360 23361 23362 23363 23364 23365 23366 23367 23368 23369 23370 23371 23372 23373 23374 23375 23376 23377 23378 23379 23380 23381 23382 23383 23384 23385 23386 23387 23388 23389 23390 23391 23392 23393 23394 23395 23396 23397 23398 23399 23400 23401 23402 23403 23404 23405 23406 23407 23408 23409 23410 23411 23412 23413 23414 23415 23416 23417 23418 23419 23420 23421 23422 23423 23424 23425 23426 23427 23428 23429 23430 23431 23432 23433 23434 23435 23436 23437 23438 23439 23440 23441 23442 23443 23444 23445 23446 23447 23448 23449 23450 23451 23452 23453 23454 23455 23456 23457 23458 23459 23460 23461 23462 23463 23464 23465 23466 23467 23468 23469 23470 23471 23472 23473 23474 23475 23476 23477 23478 23479 23480 23481 23482 23483 23484 23485 23486 23487 23488 23489 23490 23491 23492 23493 23494 23495 23496 23497 23498 23499 23500 23501 23502 23503 23504 23505 23506 23507 23508 23509 23510 23511 23512 23513 23514 23515 23516 23517 23518 23519 23520 23521 23522 23523 23524 23525 23526 23527 23528 23529 23530 23531 23532 23533 23534 23535 23536 23537 23538 23539 23540 23541 23542 23543 23544 23545 23546 23547 23548 23549 23550 23551 23552 23553 23554 23555 23556 23557 23558 23559 23560 23561 23562 23563 23564 23565 23566 23567 23568 23569 23570 23571 23572 23573 23574 23575 23576 23577 23578 23579 23580 23581 23582 23583 23584 23585 23586 23587 23588 23589 23590 23591 23592 23593 23594 23595 23596 23597 23598 23599 23600 23601 23602 23603 23604 23605 23606 23607 23608 23609 23610 23611 23612 23613 23614 23615 23616 23617 23618 23619 23620 23621 23622 23623 23624 23625 23626 23627 23628 23629 23630 23631 23632 23633 23634 23635 23636 23637 23638 23639 23640 23641 23642 23643 23644 23645 23646 23647 23648 23649 23650 23651 23652 23653 23654 23655 23656 23657 23658 23659 23660 23661 23662 23663 23664 23665 23666 23667 23668 23669 23670 23671 23672 23673 23674 23675 23676 23677 23678 23679 23680 23681 23682 23683 23684 23685 23686 23687 23688 23689 23690 23691 23692 23693 23694 23695 23696 23697 23698 23699 23700 23701 23702 23703 23704 23705 23706 23707 23708 23709 23710 23711 23712 23713 23714 23715 23716 23717 23718 23719 23720 23721 23722 23723 23724 23725 23726 23727 23728 23729 23730 23731 23732 23733 23734 23735 23736 23737 23738 23739 23740 23741 23742 23743 23744 23745 23746 23747 23748 23749 23750 23751 23752 23753 23754 23755 23756 23757 23758 23759 23760 23761 23762 23763 23764 23765 23766 23767 23768 23769 23770 23771 23772 23773 23774 23775 23776 23777 23778 23779 23780 23781 23782 23783 23784 23785 23786 23787 23788 23789 23790 23791 23792 23793 23794 23795 23796 23797 23798 23799 23800 23801 23802 23803 23804 23805 23806 23807 23808 23809 23810 23811 23812 23813 23814 23815 23816 23817 23818 23819 23820 23821 23822 23823 23824 23825 23826 23827 23828 23829 23830 23831 23832 23833 23834 23835 23836 23837 23838 23839 23840 23841 23842 23843 23844 23845 23846 23847 23848 23849 23850 23851 23852 23853 23854 23855 23856 23857 23858 23859 23860 23861 23862 23863 23864 23865 23866 23867 23868 23869 23870 23871 23872 23873 23874 23875 23876 23877 23878 23879 23880 23881 23882 23883 23884 23885 23886 23887 23888 23889 23890 23891 23892 23893 23894 23895 23896 23897 23898 23899 23900 23901 23902 23903 23904 23905 23906 23907 23908 23909 23910 23911 23912 23913 23914 23915 23916 23917 23918 23919 23920 23921 23922 23923 23924 23925 23926 23927 23928 23929 23930 23931 23932 23933 23934 23935 23936 23937 23938 23939 23940 23941 23942 23943 23944 23945 23946 23947 23948 23949 23950 23951 23952 23953 23954 23955 23956 23957 23958 23959 23960 23961 23962 23963 23964 23965 23966 23967 23968 23969 23970 23971 23972 23973 23974 23975 23976 23977 23978 23979 23980 23981 23982 23983 23984 23985 23986 23987 23988 23989 23990 23991 23992 23993 23994 23995 23996 23997 23998 23999 24000 24001 24002 24003 24004 24005 24006 24007 24008 24009 24010 24011 24012 24013 24014 24015 24016 24017 24018 24019 24020 24021 24022 24023 24024 24025 24026 24027 24028 24029 24030 24031 24032 24033 24034 24035 24036 24037 24038 24039 24040 24041 24042 24043 24044 24045 24046 24047 24048 24049 24050 24051 24052 24053 24054 24055 24056 24057 24058 24059 24060 24061 24062 24063 24064 24065 24066 24067 24068 24069 24070 24071 24072 24073 24074 24075 24076 24077 24078 24079 24080 24081 24082 24083 24084 24085 24086 24087 24088 24089 24090 24091 24092 24093 24094 24095 24096 24097 24098 24099 24100 24101 24102 24103 24104 24105 24106 24107 24108 24109 24110 24111 24112 24113 24114 24115 24116 24117 24118 24119 24120 24121 24122 24123 24124 24125 24126 24127 24128 24129 24130 24131 24132 24133 24134 24135 24136 24137 24138 24139 24140 24141 24142 24143 24144 24145 24146 24147 24148 24149 24150 24151 24152 24153 24154 24155 24156 24157 24158 24159 24160 24161 24162 24163 24164 24165 24166 24167 24168 24169 24170 24171 24172 24173 24174 24175 24176 24177 24178 24179 24180 24181 24182 24183 24184 24185 24186 24187 24188 24189 24190 24191 24192 24193 24194 24195 24196 24197 24198 24199 24200 24201 24202 24203 24204 24205 24206 24207 24208 24209 24210 24211 24212 24213 24214 24215 24216 24217 24218 24219 24220 24221 24222 24223 24224 24225 24226 24227 24228 24229 24230 24231 24232 24233 24234 24235 24236 24237 24238 24239 24240 24241 24242 24243 24244 24245 24246 24247 24248 24249 24250 24251 24252 24253 24254 24255 24256 24257 24258 24259 24260 24261 24262 24263 24264 24265 24266 24267 24268 24269 24270 24271 24272 24273 24274 24275 24276 24277 24278 24279 24280 24281 24282 24283 24284 24285 24286 24287 24288 24289 24290 24291 24292 24293 24294 24295 24296 24297 24298 24299 24300 24301 24302 24303 24304 24305 24306 24307 24308 24309 24310 24311 24312 24313 24314 24315 24316 24317 24318 24319 24320 24321 24322 24323 24324 24325 24326 24327 24328 24329 24330 24331 24332 24333 24334 24335 24336 24337 24338 24339 24340 24341 24342 24343 24344 24345 24346 24347 24348 24349 24350 24351 24352 24353 24354 24355 24356 24357 24358 24359 24360 24361 24362 24363 24364 24365 24366 24367 24368 24369 24370 24371 24372 24373 24374 24375 24376 24377 24378 24379 24380 24381 24382 24383 24384 24385 24386 24387 24388 24389 24390 24391 24392 24393 24394 24395 24396 24397 24398 24399 24400 24401 24402 24403 24404 24405 24406 24407 24408 24409 24410 24411 24412 24413 24414 24415 24416 24417 24418 24419 24420 24421 24422 24423 24424 24425 24426 24427 24428 24429 24430 24431 24432 24433 24434 24435 24436 24437 24438 24439 24440 24441 24442 24443 24444 24445 24446 24447 24448 24449 24450 24451 24452 24453 24454 24455 24456 24457 24458 24459 24460 24461 24462 24463 24464 24465 24466 24467 24468 24469 24470 24471 24472 24473 24474 24475 24476 24477 24478 24479 24480 24481 24482 24483 24484 24485 24486 24487 24488 24489 24490 24491 24492 24493 24494 24495 24496 24497 24498 24499 24500 24501 24502 24503 24504 24505 24506 24507 24508 24509 24510 24511 24512 24513 24514 24515 24516 24517 24518 24519 24520 24521 24522 24523 24524 24525 24526 24527 24528 24529 24530 24531 24532 24533 24534 24535 24536 24537 24538 24539 24540 24541 24542 24543 24544 24545 24546 24547 24548 24549 24550 24551 24552 24553 24554 24555 24556 24557 24558 24559 24560 24561 24562 24563 24564 24565 24566 24567 24568 24569 24570 24571 24572 24573 24574 24575 24576 24577 24578 24579 24580 24581 24582 24583 24584 24585 24586 24587 24588 24589 24590 24591 24592 24593 24594 24595 24596 24597 24598 24599 24600 24601 24602 24603 24604 24605 24606 24607 24608 24609 24610 24611 24612 24613 24614 24615 24616 24617 24618 24619 24620 24621 24622 24623 24624 24625 24626 24627 24628 24629 24630 24631 24632 24633 24634 24635 24636 24637 24638 24639 24640 24641 24642 24643 24644 24645 24646 24647 24648 24649 24650 24651 24652 24653 24654 24655 24656 24657 24658 24659 24660 24661 24662 24663 24664 24665 24666 24667 24668 24669 24670 24671 24672 24673 24674 24675 24676 24677 24678 24679 24680 24681 24682 24683 24684 24685 24686 24687 24688 24689 24690 24691 24692 24693 24694 24695 24696 24697 24698 24699 24700 24701 24702 24703 24704 24705 24706 24707 24708 24709 24710 24711 24712 24713 24714 24715 24716 24717 24718 24719 24720 24721 24722 24723 24724 24725 24726 24727 24728 24729 24730 24731 24732 24733 24734 24735 24736 24737 24738 24739 24740 24741 24742 24743 24744 24745 24746 24747 24748 24749 24750 24751 24752 24753 24754 24755 24756 24757 24758 24759 24760 24761 24762 24763 24764 24765 24766 24767 24768 24769 24770 24771 24772 24773 24774 24775 24776 24777 24778 24779 24780 24781 24782 24783 24784 24785 24786 24787 24788 24789 24790 24791 24792 24793 24794 24795 24796 24797 24798 24799 24800 24801 24802 24803 24804 24805 24806 24807 24808 24809 24810 24811 24812 24813 24814 24815 24816 24817 24818 24819 24820 24821 24822 24823 24824 24825 24826 24827 24828 24829 24830 24831 24832 24833 24834 24835 24836 24837 24838 24839 24840 24841 24842 24843 24844 24845 24846 24847 24848 24849 24850 24851 24852 24853 24854 24855 24856 24857 24858 24859 24860 24861 24862 24863 24864 24865 24866 24867 24868 24869 24870 24871 24872 24873 24874 24875 24876 24877 24878 24879 24880 24881 24882 24883 24884 24885 24886 24887 24888 24889 24890 24891 24892 24893 24894 24895 24896 24897 24898 24899 24900 24901 24902 24903 24904 24905 24906 24907 24908 24909 24910 24911 24912 24913 24914 24915 24916 24917 24918 24919 24920 24921 24922 24923 24924 24925 24926 24927 24928 24929 24930 24931 24932 24933 24934 24935 24936 24937 24938 24939 24940 24941 24942 24943 24944 24945 24946 24947 24948 24949 24950 24951 24952 24953 24954 24955 24956 24957 24958 24959 24960 24961 24962 24963 24964 24965 24966 24967 24968 24969 24970 24971 24972 24973 24974 24975 24976 24977 24978 24979 24980 24981 24982 24983 24984 24985 24986 24987 24988 24989 24990 24991 24992 24993 24994 24995 24996 24997 24998 24999 25000 25001 25002 25003 25004 25005 25006 25007 25008 25009 25010 25011 25012 25013 25014 25015 25016 25017 25018 25019 25020 25021 25022 25023 25024 25025 25026 25027 25028 25029 25030 25031 25032 25033 25034 25035 25036 25037 25038 25039 25040 25041 25042 25043 25044 25045 25046 25047 25048 25049 25050 25051 25052 25053 25054 25055 25056 25057 25058 25059 25060 25061 25062 25063 25064 25065 25066 25067 25068 25069 25070 25071 25072 25073 25074 25075 25076 25077 25078 25079 25080 25081 25082 25083 25084 25085 25086 25087 25088 25089 25090 25091 25092 25093 25094 25095 25096 25097 25098 25099 25100 25101 25102 25103 25104 25105 25106 25107 25108 25109 25110 25111 25112 25113 25114 25115 25116 25117 25118 25119 25120 25121 25122 25123 25124 25125 25126 25127 25128 25129 25130 25131 25132 25133 25134 25135 25136 25137 25138 25139 25140 25141 25142 25143 25144 25145 25146 25147 25148 25149 25150 25151 25152 25153 25154 25155 25156 25157 25158 25159 25160 25161 25162 25163 25164 25165 25166 25167 25168 25169 25170 25171 25172 25173 25174 25175 25176 25177 25178 25179 25180 25181 25182 25183 25184 25185 25186 25187 25188 25189 25190 25191 25192 25193 25194 25195 25196 25197 25198 25199 25200 25201 25202 25203 25204 25205 25206 25207 25208 25209 25210 25211 25212 25213 25214 25215 25216 25217 25218 25219 25220 25221 25222 25223 25224 25225 25226 25227 25228 25229 25230 25231 25232 25233 25234 25235 25236 25237 25238 25239 25240 25241 25242 25243 25244 25245 25246 25247 25248 25249 25250 25251 25252 25253 25254 25255 25256 25257 25258 25259 25260 25261 25262 25263 25264 25265 25266 25267 25268 25269 25270 25271 25272 25273 25274 25275 25276 25277 25278 25279 25280 25281 25282 25283 25284 25285 25286 25287 25288 25289 25290 25291 25292 25293 25294 25295 25296 25297 25298 25299 25300 25301 25302 25303 25304 25305 25306 25307 25308 25309 25310 25311 25312 25313 25314 25315 25316 25317 25318 25319 25320 25321 25322 25323 25324 25325 25326 25327 25328 25329 25330 25331 25332 25333 25334 25335 25336 25337 25338 25339 25340 25341 25342 25343 25344 25345 25346 25347 25348 25349 25350 25351 25352 25353 25354 25355 25356 25357 25358 25359 25360 25361 25362 25363 25364 25365 25366 25367 25368 25369 25370 25371 25372 25373 25374 25375 25376 25377 25378 25379 25380 25381 25382 25383 25384 25385 25386 25387 25388 25389 25390 25391 25392 25393 25394 25395 25396 25397 25398 25399 25400 25401 25402 25403 25404 25405 25406 25407 25408 25409 25410 25411 25412 25413 25414 25415 25416 25417 25418 25419 25420 25421 25422 25423 25424 25425 25426 25427 25428 25429 25430 25431 25432 25433 25434 25435 25436 25437 25438 25439 25440 25441 25442 25443 25444 25445 25446 25447 25448 25449 25450 25451 25452 25453 25454 25455 25456 25457 25458 25459 25460 25461 25462 25463 25464 25465 25466 25467 25468 25469 25470 25471 25472 25473 25474 25475 25476 25477 25478 25479 25480 25481 25482 25483 25484 25485 25486 25487 25488 25489 25490 25491 25492 25493 25494 25495 25496 25497 25498 25499 25500 25501 25502 25503 25504 25505 25506 25507 25508 25509 25510 25511 25512 25513 25514 25515 25516 25517 25518 25519 25520 25521 25522 25523 25524 25525 25526 25527 25528 25529 25530 25531 25532 25533 25534 25535 25536 25537 25538 25539 25540 25541 25542 25543 25544 25545 25546 25547 25548 25549 25550 25551 25552 25553 25554 25555 25556 25557 25558 25559 25560 25561 25562 25563 25564 25565 25566 25567 25568 25569 25570 25571 25572 25573 25574 25575 25576 25577 25578 25579 25580 25581 25582 25583 25584 25585 25586 25587 25588 25589 25590 25591 25592 25593 25594 25595 25596 25597 25598 25599 25600 25601 25602 25603 25604 25605 25606 25607 25608 25609 25610 25611 25612 25613 25614 25615 25616 25617 25618 25619 25620 25621 25622 25623 25624 25625 25626 25627 25628 25629 25630 25631 25632 25633 25634 25635 25636 25637 25638 25639 25640 25641 25642 25643 25644 25645 25646 25647 25648 25649 25650 25651 25652 25653 25654 25655 25656 25657 25658 25659 25660 25661 25662 25663 25664 25665 25666 25667 25668 25669 25670 25671 25672 25673 25674 25675 25676 25677 25678 25679 25680 25681 25682 25683 25684 25685 25686 25687 25688 25689 25690 25691 25692 25693 25694 25695 25696 25697 25698 25699 25700 25701 25702 25703 25704 25705 25706 25707 25708 25709 25710 25711 25712 25713 25714 25715 25716 25717 25718 25719 25720 25721 25722 25723 25724 25725 25726 25727 25728 25729 25730 25731 25732 25733 25734 25735 25736 25737 25738 25739 25740 25741 25742 25743 25744 25745 25746 25747 25748 25749 25750 25751 25752 25753 25754 25755 25756 25757 25758 25759 25760 25761 25762 25763 25764 25765 25766 25767 25768 25769 25770 25771 25772 25773 25774 25775 25776 25777 25778 25779 25780 25781 25782 25783 25784 25785 25786 25787 25788 25789 25790 25791 25792 25793 25794 25795 25796 25797 25798 25799 25800 25801 25802 25803 25804 25805 25806 25807 25808 25809 25810 25811 25812 25813 25814 25815 25816 25817 25818 25819 25820 25821 25822 25823 25824 25825 25826 25827 25828 25829 25830 25831 25832 25833 25834 25835 25836 25837 25838 25839 25840 25841 25842 25843 25844 25845 25846 25847 25848 25849 25850 25851 25852 25853 25854 25855 25856 25857 25858 25859 25860 25861 25862 25863 25864 25865 25866 25867 25868 25869 25870 25871 25872 25873 25874 25875 25876 25877 25878 25879 25880 25881 25882 25883 25884 25885 25886 25887 25888 25889 25890 25891 25892 25893 25894 25895 25896 25897 25898 25899 25900 25901 25902 25903 25904 25905 25906 25907 25908 25909 25910 25911 25912 25913 25914 25915 25916 25917 25918 25919 25920 25921 25922 25923 25924 25925 25926 25927 25928 25929 25930 25931 25932 25933 25934 25935 25936 25937 25938 25939 25940 25941 25942 25943 25944 25945 25946 25947 25948 25949 25950 25951 25952 25953 25954 25955 25956 25957 25958 25959 25960 25961 25962 25963 25964 25965 25966 25967 25968 25969 25970 25971 25972 25973 25974 25975 25976 25977 25978 25979 25980 25981 25982 25983 25984 25985 25986 25987 25988 25989 25990 25991 25992 25993 25994 25995 25996 25997 25998 25999 26000 26001 26002 26003 26004 26005 26006 26007 26008 26009 26010 26011 26012 26013 26014 26015 26016 26017 26018 26019 26020 26021 26022 26023 26024 26025 26026 26027 26028 26029 26030 26031 26032 26033 26034 26035 26036 26037 26038 26039 26040 26041 26042 26043 26044 26045 26046 26047 26048 26049 26050 26051 26052 26053 26054 26055 26056 26057 26058 26059 26060 26061 26062 26063 26064 26065 26066 26067 26068 26069 26070 26071 26072 26073 26074 26075 26076 26077 26078 26079 26080 26081 26082 26083 26084 26085 26086 26087 26088 26089 26090 26091 26092 26093 26094 26095 26096 26097 26098 26099 26100 26101 26102 26103 26104 26105 26106 26107 26108 26109 26110 26111 26112 26113 26114 26115 26116 26117 26118 26119 26120 26121 26122 26123 26124 26125 26126 26127 26128 26129 26130 26131 26132 26133 26134 26135 26136 26137 26138 26139 26140 26141 26142 26143 26144 26145 26146 26147 26148 26149 26150 26151 26152 26153 26154 26155 26156 26157 26158 26159 26160 26161 26162 26163 26164 26165 26166 26167 26168 26169 26170 26171 26172 26173 26174 26175 26176 26177 26178 26179 26180 26181 26182 26183 26184 26185 26186 26187 26188 26189 26190 26191 26192 26193 26194 26195 26196 26197 26198 26199 26200 26201 26202 26203 26204 26205 26206 26207 26208 26209 26210 26211 26212 26213 26214 26215 26216 26217 26218 26219 26220 26221 26222 26223 26224 26225 26226 26227 26228 26229 26230 26231 26232 26233 26234 26235 26236 26237 26238 26239 26240 26241 26242 26243 26244 26245 26246 26247 26248 26249 26250 26251 26252 26253 26254 26255 26256 26257 26258 26259 26260 26261 26262 26263 26264 26265 26266 26267 26268 26269 26270 26271 26272 26273 26274 26275 26276 26277 26278 26279 26280 26281 26282 26283 26284 26285 26286 26287 26288 26289 26290 26291 26292 26293 26294 26295 26296 26297 26298 26299 26300 26301 26302 26303 26304 26305 26306 26307 26308 26309 26310 26311 26312 26313 26314 26315 26316 26317 26318 26319 26320 26321 26322 26323 26324 26325 26326 26327 26328 26329 26330 26331 26332 26333 26334 26335 26336 26337 26338 26339 26340 26341 26342 26343 26344 26345 26346 26347 26348 26349 26350 26351 26352 26353 26354 26355 26356 26357 26358 26359 26360 26361 26362 26363 26364 26365 26366 26367 26368 26369 26370 26371 26372 26373 26374 26375 26376 26377 26378 26379 26380 26381 26382 26383 26384 26385 26386 26387 26388 26389 26390 26391 26392 26393 26394 26395 26396 26397 26398 26399 26400 26401 26402 26403 26404 26405 26406 26407 26408 26409 26410 26411 26412 26413 26414 26415 26416 26417 26418 26419 26420 26421 26422 26423 26424 26425 26426 26427 26428 26429 26430 26431 26432 26433 26434 26435 26436 26437 26438 26439 26440 26441 26442 26443 26444 26445 26446 26447 26448 26449 26450 26451 26452 26453 26454 26455 26456 26457 26458 26459 26460 26461 26462 26463 26464 26465 26466 26467 26468 26469 26470 26471 26472 26473 26474 26475 26476 26477 26478 26479 26480 26481 26482 26483 26484 26485 26486 26487 26488 26489 26490 26491 26492 26493 26494 26495 26496 26497 26498 26499 26500 26501 26502 26503 26504 26505 26506 26507 26508 26509 26510 26511 26512 26513 26514 26515 26516 26517 26518 26519 26520 26521 26522 26523 26524 26525 26526 26527 26528 26529 26530 26531 26532 26533 26534 26535 26536 26537 26538 26539 26540 26541 26542 26543 26544 26545 26546 26547 26548 26549 26550 26551 26552 26553 26554 26555 26556 26557 26558 26559 26560 26561 26562 26563 26564 26565 26566 26567 26568 26569 26570 26571 26572 26573 26574 26575 26576 26577 26578 26579 26580 26581 26582 26583 26584 26585 26586 26587 26588 26589 26590 26591 26592 26593 26594 26595 26596 26597 26598 26599 26600 26601 26602 26603 26604 26605 26606 26607 26608 26609 26610 26611 26612 26613 26614 26615 26616 26617 26618 26619 26620 26621 26622 26623 26624 26625 26626 26627 26628 26629 26630 26631 26632 26633 26634 26635 26636 26637 26638 26639 26640 26641 26642 26643 26644 26645 26646 26647 26648 26649 26650 26651 26652 26653 26654 26655 26656 26657 26658 26659 26660 26661 26662 26663 26664 26665 26666 26667 26668 26669 26670 26671 26672 26673 26674 26675 26676 26677 26678 26679 26680 26681 26682 26683 26684 26685 26686 26687 26688 26689 26690 26691 26692 26693 26694 26695 26696 26697 26698 26699 26700 26701 26702 26703 26704 26705 26706 26707 26708 26709 26710 26711 26712 26713 26714 26715 26716 26717 26718 26719 26720 26721 26722 26723 26724 26725 26726 26727 26728 26729 26730 26731 26732 26733 26734 26735 26736 26737 26738 26739 26740 26741 26742 26743 26744 26745 26746 26747 26748 26749 26750 26751 26752 26753 26754 26755 26756 26757 26758 26759 26760 26761 26762 26763 26764 26765 26766 26767 26768 26769 26770 26771 26772 26773 26774 26775 26776 26777 26778 26779 26780 26781 26782 26783 26784 26785 26786 26787 26788 26789 26790 26791 26792 26793 26794 26795 26796 26797 26798 26799 26800 26801 26802 26803 26804 26805 26806 26807 26808 26809 26810 26811 26812 26813 26814 26815 26816 26817 26818 26819 26820 26821 26822 26823 26824 26825 26826 26827 26828 26829 26830 26831 26832 26833 26834 26835 26836 26837 26838 26839 26840 26841 26842 26843 26844 26845 26846 26847 26848 26849 26850 26851 26852 26853 26854 26855 26856 26857 26858 26859 26860 26861 26862 26863 26864 26865 26866 26867 26868 26869 26870 26871 26872 26873 26874 26875 26876 26877 26878 26879 26880 26881 26882 26883 26884 26885 26886 26887 26888 26889 26890 26891 26892 26893 26894 26895 26896 26897 26898 26899 26900 26901 26902 26903 26904 26905 26906 26907 26908 26909 26910 26911 26912 26913 26914 26915 26916 26917 26918 26919 26920 26921 26922 26923 26924 26925 26926 26927 26928 26929 26930 26931 26932 26933 26934 26935 26936 26937 26938 26939 26940 26941 26942 26943 26944 26945 26946 26947 26948 26949 26950 26951 26952 26953 26954 26955 26956 26957 26958 26959 26960 26961 26962 26963 26964 26965 26966 26967 26968 26969 26970 26971 26972 26973 26974 26975 26976 26977 26978 26979 26980 26981 26982 26983 26984 26985 26986 26987 26988 26989 26990 26991 26992 26993 26994 26995 26996 26997 26998 26999 27000 27001 27002 27003 27004 27005 27006 27007 27008 27009 27010 27011 27012 27013 27014 27015 27016 27017 27018 27019 27020 27021 27022 27023 27024 27025 27026 27027 27028 27029 27030 27031 27032 27033 27034 27035 27036 27037 27038 27039 27040 27041 27042 27043 27044 27045 27046 27047 27048 27049 27050 27051 27052 27053 27054 27055 27056 27057 27058 27059 27060 27061 27062 27063 27064 27065 27066 27067 27068 27069 27070 27071 27072 27073 27074 27075 27076 27077 27078 27079 27080 27081 27082 27083 27084 27085 27086 27087 27088 27089 27090 27091 27092 27093 27094 27095 27096 27097 27098 27099 27100 27101 27102 27103 27104 27105 27106 27107 27108 27109 27110 27111 27112 27113 27114 27115 27116 27117 27118 27119 27120 27121 27122 27123 27124 27125 27126 27127 27128 27129 27130 27131 27132 27133 27134 27135 27136 27137 27138 27139 27140 27141 27142 27143 27144 27145 27146 27147 27148 27149 27150 27151 27152 27153 27154 27155 27156 27157 27158 27159 27160 27161 27162 27163 27164 27165 27166 27167 27168 27169 27170 27171 27172 27173 27174 27175 27176 27177 27178 27179 27180 27181 27182 27183 27184 27185 27186 27187 27188 27189 27190 27191 27192 27193 27194 27195 27196 27197 27198 27199 27200 27201 27202 27203 27204 27205 27206 27207 27208 27209 27210 27211 27212 27213 27214 27215 27216 27217 27218 27219 27220 27221 27222 27223 27224 27225 27226 27227 27228 27229 27230 27231 27232 27233 27234 27235 27236 27237 27238 27239 27240 27241 27242 27243 27244 27245 27246 27247 27248 27249 27250 27251 27252 27253 27254 27255 27256 27257 27258 27259 27260 27261 27262 27263 27264 27265 27266 27267 27268 27269 27270 27271 27272 27273 27274 27275 27276 27277 27278 27279 27280 27281 27282 27283 27284 27285 27286 27287 27288 27289 27290 27291 27292 27293 27294 27295 27296 27297 27298 27299 27300 27301 27302 27303 27304 27305 27306 27307 27308 27309 27310 27311 27312 27313 27314 27315 27316 27317 27318 27319 27320 27321 27322 27323 27324 27325 27326 27327 27328 27329 27330 27331 27332 27333 27334 27335 27336 27337 27338 27339 27340 27341 27342 27343 27344 27345 27346 27347 27348 27349 27350 27351 27352 27353 27354 27355 27356 27357 27358 27359 27360 27361 27362 27363 27364 27365 27366 27367 27368 27369 27370 27371 27372 27373 27374 27375 27376 27377 27378 27379 27380 27381 27382 27383 27384 27385 27386 27387 27388 27389 27390 27391 27392 27393 27394 27395 27396 27397 27398 27399 27400 27401 27402 27403 27404 27405 27406 27407 27408 27409 27410 27411 27412 27413 27414 27415 27416 27417 27418 27419 27420 27421 27422 27423 27424 27425 27426 27427 27428 27429 27430 27431 27432 27433 27434 27435 27436 27437 27438 27439 27440 27441 27442 27443 27444 27445 27446 27447 27448 27449 27450 27451 27452 27453 27454 27455 27456 27457 27458 27459 27460 27461 27462 27463 27464 27465 27466 27467 27468 27469 27470 27471 27472 27473 27474 27475 27476 27477 27478 27479 27480 27481 27482 27483 27484 27485 27486 27487 27488 27489 27490 27491 27492 27493 27494 27495 27496 27497 27498 27499 27500 27501 27502 27503 27504 27505 27506 27507 27508 27509 27510 27511 27512 27513 27514 27515 27516 27517 27518 27519 27520 27521 27522 27523 27524 27525 27526 27527 27528 27529 27530 27531 27532 27533 27534 27535 27536 27537 27538 27539 27540 27541 27542 27543 27544 27545 27546 27547 27548 27549 27550 27551 27552 27553 27554 27555 27556 27557 27558 27559 27560 27561 27562 27563 27564 27565 27566 27567 27568 27569 27570 27571 27572 27573 27574 27575 27576 27577 27578 27579 27580 27581 27582 27583 27584 27585 27586 27587 27588 27589 27590 27591 27592 27593 27594 27595 27596 27597 27598 27599 27600 27601 27602 27603 27604 27605 27606 27607 27608 27609 27610 27611 27612 27613 27614 27615 27616 27617 27618 27619 27620 27621 27622 27623 27624 27625 27626 27627 27628 27629 27630 27631 27632 27633 27634 27635 27636 27637 27638 27639 27640 27641 27642 27643 27644 27645 27646 27647 27648 27649 27650 27651 27652 27653 27654 27655 27656 27657 27658 27659 27660 27661 27662 27663 27664 27665 27666 27667 27668 27669 27670 27671 27672 27673 27674 27675 27676 27677 27678 27679 27680 27681 27682 27683 27684 27685 27686 27687 27688 27689 27690 27691 27692 27693 27694 27695 27696 27697 27698 27699 27700 27701 27702 27703 27704 27705 27706 27707 27708 27709 27710 27711 27712 27713 27714 27715 27716 27717 27718 27719 27720 27721 27722 27723 27724 27725 27726 27727 27728 27729 27730 27731 27732 27733 27734 27735 27736 27737 27738 27739 27740 27741 27742 27743 27744 27745 27746 27747 27748 27749 27750 27751 27752 27753 27754 27755 27756 27757 27758 27759 27760 27761 27762 27763 27764 27765 27766 27767 27768 27769 27770 27771 27772 27773 27774 27775 27776 27777 27778 27779 27780 27781 27782 27783 27784 27785 27786 27787 27788 27789 27790 27791 27792 27793 27794 27795 27796 27797 27798 27799 27800 27801 27802 27803 27804 27805 27806 27807 27808 27809 27810 27811 27812 27813 27814 27815 27816 27817 27818 27819 27820 27821 27822 27823 27824 27825 27826 27827 27828 27829 27830 27831 27832 27833 27834 27835 27836 27837 27838 27839 27840 27841 27842 27843 27844 27845 27846 27847 27848 27849 27850 27851 27852 27853 27854 27855 27856 27857 27858 27859 27860 27861 27862 27863 27864 27865 27866 27867 27868 27869 27870 27871 27872 27873 27874 27875 27876 27877 27878 27879 27880 27881 27882 27883 27884 27885 27886 27887 27888 27889 27890 27891 27892 27893 27894 27895 27896 27897 27898 27899 27900 27901 27902 27903 27904 27905 27906 27907 27908 27909 27910 27911 27912 27913 27914 27915 27916 27917 27918 27919 27920 27921 27922 27923 27924 27925 27926 27927 27928 27929 27930 27931 27932 27933 27934 27935 27936 27937 27938 27939 27940 27941 27942 27943 27944 27945 27946 27947 27948 27949 27950 27951 27952 27953 27954 27955 27956 27957 27958 27959 27960 27961 27962 27963 27964 27965 27966 27967 27968 27969 27970 27971 27972 27973 27974 27975 27976 27977 27978 27979 27980 27981 27982 27983 27984 27985 27986 27987 27988 27989 27990 27991 27992 27993 27994 27995 27996 27997 27998 27999 28000 28001 28002 28003 28004 28005 28006 28007 28008 28009 28010 28011 28012 28013 28014 28015 28016 28017 28018 28019 28020 28021 28022 28023 28024 28025 28026 28027 28028 28029 28030 28031 28032 28033 28034 28035 28036 28037 28038 28039 28040 28041 28042 28043 28044 28045 28046 28047 28048 28049 28050 28051 28052 28053 28054 28055 28056 28057 28058 28059 28060 28061 28062 28063 28064 28065 28066 28067 28068 28069 28070 28071 28072 28073 28074 28075 28076 28077 28078 28079 28080 28081 28082 28083 28084 28085 28086 28087 28088 28089 28090 28091 28092 28093 28094 28095 28096 28097 28098 28099 28100 28101 28102 28103 28104 28105 28106 28107 28108 28109 28110 28111 28112 28113 28114 28115 28116 28117 28118 28119 28120 28121 28122 28123 28124 28125 28126 28127 28128 28129 28130 28131 28132 28133 28134 28135 28136 28137 28138 28139 28140 28141 28142 28143 28144 28145 28146 28147 28148 28149 28150 28151 28152 28153 28154 28155 28156 28157 28158 28159 28160 28161 28162 28163 28164 28165 28166 28167 28168 28169 28170 28171 28172 28173 28174 28175 28176 28177 28178 28179 28180 28181 28182 28183 28184 28185 28186 28187 28188 28189 28190 28191 28192 28193 28194 28195 28196 28197 28198 28199 28200 28201 28202 28203 28204 28205 28206 28207 28208 28209 28210 28211 28212 28213 28214 28215 28216 28217 28218 28219 28220 28221 28222 28223 28224 28225 28226 28227 28228 28229 28230 28231 28232 28233 28234 28235 28236 28237 28238 28239 28240 28241 28242 28243 28244 28245 28246 28247 28248 28249 28250 28251 28252 28253 28254 28255 28256 28257 28258 28259 28260 28261 28262 28263 28264 28265 28266 28267 28268 28269 28270 28271 28272 28273 28274 28275 28276 28277 28278 28279 28280 28281 28282 28283 28284 28285 28286 28287 28288 28289 28290 28291 28292 28293 28294 28295 28296 28297 28298 28299 28300 28301 28302 28303 28304 28305 28306 28307 28308 28309 28310 28311 28312 28313 28314 28315 28316 28317 28318 28319 28320 28321 28322 28323 28324 28325 28326 28327 28328 28329 28330 28331 28332 28333 28334 28335 28336 28337 28338 28339 28340 28341 28342 28343 28344 28345 28346 28347 28348 28349 28350 28351 28352 28353 28354 28355 28356 28357 28358 28359 28360 28361 28362 28363 28364 28365 28366 28367 28368 28369 28370 28371 28372 28373 28374 28375 28376 28377 28378 28379 28380 28381 28382 28383 28384 28385 28386 28387 28388 28389 28390 28391 28392 28393 28394 28395 28396 28397 28398 28399 28400 28401 28402 28403 28404 28405 28406 28407 28408 28409 28410 28411 28412 28413 28414 28415 28416 28417 28418 28419 28420 28421 28422 28423 28424 28425 28426 28427 28428 28429 28430 28431 28432 28433 28434 28435 28436 28437 28438 28439 28440 28441 28442 28443 28444 28445 28446 28447 28448 28449 28450 28451 28452 28453 28454 28455 28456 28457 28458 28459 28460 28461 28462 28463 28464 28465 28466 28467 28468 28469 28470 28471 28472 28473 28474 28475 28476 28477 28478 28479 28480 28481 28482 28483 28484 28485 28486 28487 28488 28489 28490 28491 28492 28493 28494 28495 28496 28497 28498 28499 28500 28501 28502 28503 28504 28505 28506 28507 28508 28509 28510 28511 28512 28513 28514 28515 28516 28517 28518 28519 28520 28521 28522 28523 28524 28525 28526 28527 28528 28529 28530 28531 28532 28533 28534 28535 28536 28537 28538 28539 28540 28541 28542 28543 28544 28545 28546 28547 28548 28549 28550 28551 28552 28553 28554 28555 28556 28557 28558 28559 28560 28561 28562 28563 28564 28565 28566 28567 28568 28569 28570 28571 28572 28573 28574 28575 28576 28577 28578 28579 28580 28581 28582 28583 28584 28585 28586 28587 28588 28589 28590 28591 28592 28593 28594 28595 28596 28597 28598 28599 28600 28601 28602 28603 28604 28605 28606 28607 28608 28609 28610 28611 28612 28613 28614 28615 28616 28617 28618 28619 28620 28621 28622 28623 28624 28625 28626 28627 28628 28629 28630 28631 28632 28633 28634 28635 28636 28637 28638 28639 28640 28641 28642 28643 28644 28645 28646 28647 28648 28649 28650 28651 28652 28653 28654 28655 28656 28657 28658 28659 28660 28661 28662 28663 28664 28665 28666 28667 28668 28669 28670 28671 28672 28673 28674 28675 28676 28677 28678 28679 28680 28681 28682 28683 28684 28685 28686 28687 28688 28689 28690 28691 28692 28693 28694 28695 28696 28697 28698 28699 28700 28701 28702 28703 28704 28705 28706 28707 28708 28709 28710 28711 28712 28713 28714 28715 28716 28717 28718 28719 28720 28721 28722 28723 28724 28725 28726 28727 28728 28729 28730 28731 28732 28733 28734 28735 28736 28737 28738 28739 28740 28741 28742 28743 28744 28745 28746 28747 28748 28749 28750 28751 28752 28753 28754 28755 28756 28757 28758 28759 28760 28761 28762 28763 28764 28765 28766 28767 28768 28769 28770 28771 28772 28773 28774 28775 28776 28777 28778 28779 28780 28781 28782 28783 28784 28785 28786 28787 28788 28789 28790 28791 28792 28793 28794 28795 28796 28797 28798 28799 28800 28801 28802 28803 28804 28805 28806 28807 28808 28809 28810 28811 28812 28813 28814 28815 28816 28817 28818 28819 28820 28821 28822 28823 28824 28825 28826 28827 28828 28829 28830 28831 28832 28833 28834 28835 28836 28837 28838 28839 28840 28841 28842 28843 28844 28845 28846 28847 28848 28849 28850 28851 28852 28853 28854 28855 28856 28857 28858 28859 28860 28861 28862 28863 28864 28865 28866 28867 28868 28869 28870 28871 28872 28873 28874 28875 28876 28877 28878 28879 28880 28881 28882 28883 28884 28885 28886 28887 28888 28889 28890 28891 28892 28893 28894 28895 28896 28897 28898 28899 28900 28901 28902 28903 28904 28905 28906 28907 28908 28909 28910 28911 28912 28913 28914 28915 28916 28917 28918 28919 28920 28921 28922 28923 28924 28925 28926 28927 28928 28929 28930 28931 28932 28933 28934 28935 28936 28937 28938 28939 28940 28941 28942 28943 28944 28945 28946 28947 28948 28949 28950 28951 28952 28953 28954 28955 28956 28957 28958 28959 28960 28961 28962 28963 28964 28965 28966 28967 28968 28969 28970 28971 28972 28973 28974 28975 28976 28977 28978 28979 28980 28981 28982 28983 28984 28985 28986 28987 28988 28989 28990 28991 28992 28993 28994 28995 28996 28997 28998 28999 29000 29001 29002 29003 29004 29005 29006 29007 29008 29009 29010 29011 29012 29013 29014 29015 29016 29017 29018 29019 29020 29021 29022 29023 29024 29025 29026 29027 29028 29029 29030 29031 29032 29033 29034 29035 29036 29037 29038 29039 29040 29041 29042 29043 29044 29045 29046 29047 29048 29049 29050 29051 29052 29053 29054 29055 29056 29057 29058 29059 29060 29061 29062 29063 29064 29065 29066 29067 29068 29069 29070 29071 29072 29073 29074 29075 29076 29077 29078 29079 29080 29081 29082 29083 29084 29085 29086 29087 29088 29089 29090 29091 29092 29093 29094 29095 29096 29097 29098 29099 29100 29101 29102 29103 29104 29105 29106 29107 29108 29109 29110 29111 29112 29113 29114 29115 29116 29117 29118 29119 29120 29121 29122 29123 29124 29125 29126 29127 29128 29129 29130 29131 29132 29133 29134 29135 29136 29137 29138 29139 29140 29141 29142 29143 29144 29145 29146 29147 29148 29149 29150 29151 29152 29153 29154 29155 29156 29157 29158 29159 29160 29161 29162 29163 29164 29165 29166 29167 29168 29169 29170 29171 29172 29173 29174 29175 29176 29177 29178 29179 29180 29181 29182 29183 29184 29185 29186 29187 29188 29189 29190 29191 29192 29193 29194 29195 29196 29197 29198 29199 29200 29201 29202 29203 29204 29205 29206 29207 29208 29209 29210 29211 29212 29213 29214 29215 29216 29217 29218 29219 29220 29221 29222 29223 29224 29225 29226 29227 29228 29229 29230 29231 29232 29233 29234 29235 29236 29237 29238 29239 29240 29241 29242 29243 29244 29245 29246 29247 29248 29249 29250 29251 29252 29253 29254 29255 29256 29257 29258 29259 29260 29261 29262 29263 29264 29265 29266 29267 29268 29269 29270 29271 29272 29273 29274 29275 29276 29277 29278 29279 29280 29281 29282 29283 29284 29285 29286 29287 29288 29289 29290 29291 29292 29293 29294 29295 29296 29297 29298 29299 29300 29301 29302 29303 29304 29305 29306 29307 29308 29309 29310 29311 29312 29313 29314 29315 29316 29317 29318 29319 29320 29321 29322 29323 29324 29325 29326 29327 29328 29329 29330 29331 29332 29333 29334 29335 29336 29337 29338 29339 29340 29341 29342 29343 29344 29345 29346 29347 29348 29349 29350 29351 29352 29353 29354 29355 29356 29357 29358 29359 29360 29361 29362 29363 29364 29365 29366 29367 29368 29369 29370 29371 29372 29373 29374 29375 29376 29377 29378 29379 29380 29381 29382 29383 29384 29385 29386 29387 29388 29389 29390 29391 29392 29393 29394 29395 29396 29397 29398 29399 29400 29401 29402 29403 29404 29405 29406 29407 29408 29409 29410 29411 29412 29413 29414 29415 29416 29417 29418 29419 29420 29421 29422 29423 29424 29425 29426 29427 29428 29429 29430 29431 29432 29433 29434 29435 29436 29437 29438 29439 29440 29441 29442 29443 29444 29445 29446 29447 29448 29449 29450 29451 29452 29453 29454 29455 29456 29457 29458 29459 29460 29461 29462 29463 29464 29465 29466 29467 29468 29469 29470 29471 29472 29473 29474 29475 29476 29477 29478 29479 29480 29481 29482 29483 29484 29485 29486 29487 29488 29489 29490 29491 29492 29493 29494 29495 29496 29497 29498 29499 29500 29501 29502 29503 29504 29505 29506 29507 29508 29509 29510 29511 29512 29513 29514 29515 29516 29517 29518 29519 29520 29521 29522 29523 29524 29525 29526 29527 29528 29529 29530 29531 29532 29533 29534 29535 29536 29537 29538 29539 29540 29541 29542 29543 29544 29545 29546 29547 29548 29549 29550 29551 29552 29553 29554 29555 29556 29557 29558 29559 29560 29561 29562 29563 29564 29565 29566 29567 29568 29569 29570 29571 29572 29573 29574 29575 29576 29577 29578 29579 29580 29581 29582 29583 29584 29585 29586 29587 29588 29589 29590 29591 29592 29593 29594 29595 29596 29597 29598 29599 29600 29601 29602 29603 29604 29605 29606 29607 29608 29609 29610 29611 29612 29613 29614 29615 29616 29617 29618 29619 29620 29621 
</DataArray>
<DataArray type="UInt32" Name="offsets" format="ascii">
3 6 9 12 15 17 20 23 26 29 32 35 38 41 44 47 49 52 55 57 60 62 65 68 71 74 76 79 82 85 88 91 94 96 99 102 105 108 111 114 116 118 121 124 126 128 131 134 137 140 143 146 149 152 155 158 160 162 165 168 171 173 176 179 182 185 187 190 193 196 199 202 205 208 211 214 217 220 222 225 228 231 233 236 239 242 244 247 250 253 256 258 261 264 267 270 273 276 278 281 284 286 289 292 295 298 300 303 306 309 312 315 317 320 323 326 329 332 335 338 341 344 347 350 353 356 359 362 365 368 371 374 377 380 383 385 388 391 394 396 399 402 405 408 411 414 416 419 422 425 428 431 434 437 440 443 446 449 452 455 458 461 464 467 470 473 476 479 482 485 487 490 492 495 498 501 504 507 510 513 516 519 522 525 528 530 533 536 539 542 545 548 551 554 557 560 563 566 568 571 574 577 580 583 586 589 592 595 598 601 604 606 609 612 615 617 619 622 625 628 631 634 637 640 642 645 648 651 654 657 660 663 666 669 671 674 677 679 682 685 688 691 694 697 700 703 706 709 712 715 718 721 724 727 730 733 735 738 741 744 747 750 753 756 759 762 764 767 770 773 776 779 782 785 788 791 794 797 800 803 806 809 811 814 817 820 823 826 829 832 835 838 841 844 847 850 853 856 859 862 865 867 870 873 876 879 881 884 887 890 893 896 899 902 905 907 910 913 915 918 921 924 927 930 933 936 939 942 945 948 951 954 957 960 963 966 969 972 975 978 981 984 986 989 992 995 998 1000 1003 1006 1009 1012 1015 1017 1019 1022 1025 1027 1029 1032 1035 1038 1041 1044 1047 1050 1052 1055 1058 1061 1064 1067 1070 1073 1076 1078 1081 1084 1087 1090 1093 1096 1099 1102 1104 1107 1110 1113 1116 1118 1121 1124 1127 1130 1133 1136 1138 1141 1144 1147 1150 1153 1156 1159 1162 1165 1168 1171 1174 1177 1180 1183 1186 1189 1192 1195 1198 1201 1204 1207 1210 1213 1216 1219 1222 1225 1227 1230 1233 1236 1239 1242 1245 1248 1251 1253 1256 1259 1262 1264 1267 1270 1272 1275 1278 1281 1284 1287 1290 1293 1296 1298 1301 1304 1307 1309 1312 1314 1317 1320 1323 1326 1328 1331 1334 1336 1339 1342 1344 1347 1350 1353 1355 1358 1361 1364 1367 1370 1373 1376 1379 1382 1385 1388 1391 1394 1397 1400 1403 1406 1409 1412 1415 1418 1421 1424 1426 1429 1432 1435 1438 1441 1444 1447 1450 1452 1455 1458 1461 1464 1467 1470 1473 1476 1479 1482 1485 1488 1491 1493 1496 1499 1502 1505 1508 1511 1514 1517 1520 1523 1526 1529 1532 1535 1538 1541 1544 1547 1550 1553 1556 1558 1561 1564 1567 1569 1572 1575 1577 1580 1583 1586 1589 1591 1594 1597 1600 1603 1606 1609 1612 1614 1617 1619 1622 1625 1628 1631 1634 1637 1640 1643 1646 1649 1652 1655 1658 1661 1664 1667 1670 1673 1676 1679 1682 1685 1687 1690 1692 1695 1697 1700 1703 1705 1707 1710 1713 1716 1719 1722 1725 1728 1731 1734 1737 1740 1743 1746 1749 1752 1755 1758 1760 1763 1766 1769 1772 1774 1777 1780 1783 1786 1788 1790 1793 1795 1798 1801 1804 1807 1810 1813 1816 1819 1822 1825 1828 1831 1834 1837 1840 1843 1846 1849 1852 1855 1858 1861 1864 1867 1870 1873 1875 1878 1881 1884 1887 1890 1893 1896 1899 1902 1905 1908 1911 1913 1916 1919 1922 1924 1927 1929 1932 1935 1938 1941 1944 1947 1950 1953 1956 1959 1961 1964 1967 1970 1972 1975 1978 1981 1984 1987 1990 1993 1996 1999 2001 2004 2007 2010 2013 2015 2018 2021 2024 2027 2030 2033 2036 2039 2042 2044 2047 2050 2052 2055 2058 2061 2064 2067 2069 2072 2075 2078 2081 2083 2086 2089 2092 2095 2098 2101 2104 2106 2108 2111 2114 2117 2120 2123 2126 2128 2131 2133 2136 2139 2141 2144 2146 2149 2152 2155 2157 2160 2163 2166 2169 2171 2174 2177 2179 2182 2184 2186 2189 2191 2193 2196 2199 2201 2204 2206 2209 2212 2215 2217 2219 2222 2225 2228 2231 2234 2236 2239 2242 2245 2248 2251 2254 2257 2260 2262 2265 2267 2270 2273 2276 2279 2281 2283 2286 2289 2291 2294 2297 2300 2303 2306 2308 2311 2314 2316 2319 2321 2324 2326 2328 2331 2333 2336 2338 2340 2342 2345 2348 2350 2353 2355 2358 2361 2363 2366 2369 2372 2375 2378 2380 2383 2386 2388 2391 2394 2397 2400 2402 2405 2408 2411 2414 2417 2420 2423 2425 2428 2430 2433 2436 2439 2441 2444 2447 2450 2453 2456 2459 2462 2465 2468 2471 2474 2477 2480 2483 2486 2489 2492 2495 2497 2500 2503 2506 2509 2512 2515 2518 2521 2524 2526 2529 2532 2535 2538 2541 2544 2547 2550 2553 2556 2559 2562 2565 2567 2570 2573 2576 2579 2582 2585 2588 2591 2594 2597 2600 2603 2606 2609 2612 2615 2618 2621 2624 2627 2630 2633 2636 2639 2642 2645 2648 2651 2654 2657 2660 2663 2666 2669 2672 2675 2678 2681 2684 2687 2689 2692 2695 2698 2701 2704 2707 2710 2713 2716 2719 2722 2725 2728 2731 2734 2736 2738 2741 2744 2746 2749 2752 2755 2758 2761 2764 2767 2770 2773 2776 2779 2782 2785 2788 2791 2794 2797 2800 2803 2806 2808 2811 2813 2816 2819 2822 2825 2828 2830 2832 2835 2838 2841 2844 2847 2850 2853 2856 2859 2862 2865 2868 2871 2874 2877 2880 2883 2886 2889 2892 2895 2898 2901 2904 2907 2910 2913 2916 2919 2922 2925 2928 2931 2934 2937 2940 2943 2946 2949 2952 2955 2958 2961 2964 2967 2970 2973 2976 2979 2982 2985 2988 2991 2994 2997 3000 3002 3005 3008 3011 3014 3017 3020 3023 3025 3028 3031 3034 3037 3039 3042 3045 3048 3051 3054 3057 3060 3063 3066 3069 3072 3075 3078 3081 3084 3086 3089 3092 3095 3098 3100 3103 3106 3109 3112 3114 3117 3120 3122 3125 3128 3130 3133 3136 3139 3142 3144 3147 3150 3153 3156 3159 3162 3165 3168 3171 3174 3177 3180 3183 3186 3189 3192 3195 3198 3201 3204 3207 3210 3213 3216 3218 3221 3223 3226 3229 3232 3235 3238 3241 3244 3247 3250 3253 3256 3259 3261 3264 3267 3270 3273 3276 3278 3281 3284 3287 3290 3293 3296 3299 3302 3305 3308 3311 3313 3315 3318 3321 3323 3326 3329 3332 3335 3337 3340 3343 3345 3348 3351 3354 3357 3360 3363 3365 3368 3371 3374 3377 3380 3383 3386 3389 3392 3395 3398 3401 3404 3407 3410 3413 3416 3418 3421 3424 3426 3429 3432 3435 3437 3440 3442 3445 3448 3451 3454 3456 3459 3462 3465 3468 3471 3474 3477 3479 3482 3485 3488 3491 3493 3495 3498 3501 3503 3506 3509 3512 3514 3517 3520 3522 3525 3528 3530 3533 3536 3538 3541 3544 3547 3549 3552 3555 3558 3561 3564 3567 3570 3573 3576 3579 3582 3584 3587 3590 3593 3595 3597 3600 3603 3605 3608 3611 3613 3616 3619 3621 3624 3626 3629 3632 3635 3637 3639 3641 3644 3647 3649 3652 3655 3658 3661 3664 3666 3669 3672 3675 3678 3680 3683 3686 3688 3691 3694 3696 3698 3701 3704 3707 3710 3712 3715 3718 3721 3723 3726 3728 3731 3734 3737 3740 3743 3746 3749 3752 3754 3757 3760 3763 3765 3768 3771 3774 3777 3780 3783 3786 3789 3792 3795 3798 3800 3803 3806 3809 3812 3815 3817 3819 3822 3824 3826 3829 3832 3835 3837 3840 3842 3845 3848 3850 3853 3856 3859 3862 3865 3868 3871 3874 3877 3879 3882 3885 3888 3891 3893 3896 3899 3902 3905 3908 3911 3914 3917 3920 3922 3925 3928 3931 3934 3937 3939 3941 3944 3947 3949 3952 3955 3958 3961 3964 3966 3969 3971 3974 3977 3980 3982 3985 3988 3991 3994 3997 4000 4003 4006 4009 4011 4013 4016 4019 4022 4024 4027 4030 4032 4034 4037 4040 4043 4045 4048 4051 4054 4057 4060 4063 4065 4068 4071 4074 4076 4078 4081 4084 4087 4089 4091 4094 4097 4099 4102 4105 4108 4110 4113 4115 4118 4121 4124 4126 4129 4132 4135 4138 4141 4144 4146 4148 4151 4153 4156 4159 4161 4164 4166 4168 4171 4174 4176 4179 4182 4185 4188 4191 4193 4196 4199 4202 4205 4207 4210 4213 4216 4219 4222 4225 4228 4230 4233 4236 4239 4242 4244 4247 4250 4253 4256 4259 4262 4265 4268 4271 4274 4276 4279 4282 4284 4286 4289 4292 4295 4298 4301 4304 4307 4309 4312 4315 4318 4320 4322 4325 4328 4331 4334 4337 4340 4343 4346 4348 4351 4354 4357 4360 4362 4365 4368 4371 4374 4377 4379 4382 4385 4388 4391 4394 4397 4400 4403 4406 4409 4412 4415 4418 4421 4424 4427 4430 4433 4436 4439 4442 4444 4447 4450 4452 4455 4458 4461 4464 4466 4469 4472 4475 4478 4481 4484 4487 4490 4493 4496 4499 4502 4505 4508 4511 4514 4517 4520 4523 4526 4529 4532 4535 4538 4541 4544 4547 4550 4553 4556 4559 4562 4565 4568 4571 4574 4577 4580 4583 4586 4589 4592 4595 4598 4601 4604 4607 4610 4613 4615 4618 4621 4624 4627 4630 4633 4635 4638 4641 4644 4647 4649 4652 4654 4657 4660 4662 4665 4668 4671 4674 4677 4680 4683 4686 4689 4692 4695 4698 4701 4703 4706 4709 4711 4714 4717 4719 4722 4724 4727 4730 4733 4736 4739 4742 4745 4748 4751 4754 4757 4760 4763 4766 4769 4772 4775 4778 4781 4784 4787 4790 4792 4795 4798 4801 4804 4807 4810 4813 4816 4819 4822 4825 4828 4831 4834 4837 4840 4843 4846 4849 4852 4855 4858 4861 4864 4867 4870 4873 4876 4879 4882 4885 4888 4891 4894 4896 4899 4902 4905 4908 4911 4914 4916 4919 4922 4924 4926 4929 4932 4935 4938 4941 4944 4947 4949 4952 4955 4957 4960 4963 4966 4969 4972 4975 4977 4980 4983 4986 4988 4991 4993 4996 4999 5002 5004 5007 5010 5013 5015 5018 5021 5024 5027 5030 5032 5035 5038 5040 5043 5045 5047 5050 5053 5055 5058 5060 5063 5066 5069 5072 5075 5077 5080 5083 5085 5088 5090 5093 5096 5098 5101 5104 5107 5110 5113 5115 5117 5119 5122 5125 5128 5131 5134 5137 5140 5143 5146 5149 5151 5154 5157 5159 5162 5165 5167 5169 5171 5174 5176 5179 5182 5185 5188 5190 5193 5195 5198 5201 5204 5206 5209 5211 5214 5216 5219 5222 5225 5227 5230 5233 5235 5238 5240 5242 5244 5247 5250 5252 5255 5257 5259 5262 5265 5268 5271 5274 5277 5280 5283 5286 5289 5292 5295 5297 5300 5303 5306 5309 5311 5314 5317 5320 5322 5324 5326 5329 5332 5335 5337 5340 5342 5345 5347 5350 5353 5356 5359 5362 5365 5367 5370 5373 5375 5377 5379 5382 5385 5388 5390 5393 5395 5398 5401 5404 5407 5410 5413 5416 5418 5421 5424 5427 5430 5432 5435 5438 5441 5443 5446 5448 5450 5453 5455 5458 5461 5464 5467 5470 5473 5476 5479 5482 5485 5488 5491 5494 5497 5499 5502 5505 5508 5511 5514 5517 5520 5523 5526 5529 5532 5534 5537 5540 5543 5546 5549 5552 5555 5558 5561 5564 5567 5570 5573 5576 5579 5582 5585 5587 5590 5593 5596 5599 5601 5604 5607 5610 5613 5616 5619 5622 5625 5628 5631 5634 5637 5640 5643 5646 5649 5651 5654 5656 5659 5662 5665 5668 5670 5673 5676 5678 5681 5684 5686 5689 5692 5694 5696 5699 5702 5704 5707 5710 5712 5715 5718 5721 5723 5726 5729 5732 5735 5737 5740 5742 5745 5748 5751 5754 5757 5760 5763 5766 5769 5772 5775 5778 5781 5784 5787 5790 5793 5796 5799 5802 5805 5808 5811 5814 5817 5819 5822 5825 5827 5830 5833 5836 5839 5842 5845 5848 5851 5854 5857 5860 5862 5865 5868 5871 5874 5876 5879 5882 5884 5887 5890 5893 5896 5899 5901 5904 5906 5909 5912 5915 5918 5921 5924 5927 5930 5933 5936 5939 5942 5945 5948 5951 5954 5957 5960 5963 5966 5969 5972 5975 5978 5981 5983 5986 5988 5991 5993 5995 5998 6001 6004 6007 6010 6012 6015 6018 6021 6024 6027 6030 6032 6035 6038 6041 6044 6047 6050 6052 6054 6057 6060 6063 6066 6068 6071 6074 6077 6080 6083 6086 6089 6092 6095 6098 6101 6104 6107 6110 6113 6116 6119 6122 6124 6127 6129 6131 6134 6137 6140 6143 6146 6149 6152 6154 6157 6160 6163 6165 6167 6170 6173 6176 6179 6182 6185 6188 6191 6194 6197 6200 6203 6206 6209 6212 6215 6218 6221 6224 6227 6230 6233 6236 6239 6242 6245 6248 6251 6253 6256 6259 6262 6265 6267 6270 6273 6276 6279 6282 6285 6288 6291 6294 6297 6300 6303 6306 6309 6312 6315 6318 6321 6323 6326 6329 6332 6335 6338 6341 6344 6347 6349 6351 6354 6356 6359 6362 6365 6368 6371 6374 6377 6380 6383 6386 6389 6391 6394 6396 6399 6402 6405 6408 6411 6414 6417 6420 6423 6425 6428 6431 6434 6436 6438 6441 6444 6447 6449 6451 6454 6456 6459 6462 6465 6468 6471 6474 6477 6480 6483 6485 6488 6491 6494 6497 6500 6503 6506 6508 6511 6514 6517 6520 6523 6526 6528 6531 6534 6537 6540 6543 6546 6548 6551 6554 6557 6560 6563 6566 6569 6572 6575 6578 6581 6584 6587 6590 6593 6595 6598 6601 6604 6607 6610 6613 6616 6619 6622 6625 6628 6631 6634 6637 6640 6642 6645 6648 6651 6654 6657 6660 6663 6666 6669 6672 6674 6677 6680 6683 6685 6688 6691 6694 6697 6700 6703 6706 6708 6711 6714 6717 6719 6722 6725 6727 6730 6733 6736 6738 6740 6743 6746 6749 6751 6754 6757 6760 6763 6766 6769 6772 6774 6777 6780 6783 6786 6789 6791 6794 6797 6800 6803 6805 6808 6811 6814 6817 6820 6823 6826 6829 6831 6834 6837 6840 6843 6846 6849 6852 6855 6858 6861 6864 6867 6870 6873 6876 6879 6882 6885 6888 6891 6894 6897 6900 6903 6906 6909 6912 6915 6918 6921 6924 6927 6930 6932 6935 6938 6940 6943 6946 6949 6951 6953 6956 6959 6962 6965 6967 6969 6972 6975 6978 6981 6984 6986 6989 6992 6995 6998 7001 7004 7007 7009 7012 7015 7018 7021 7024 7026 7029 7032 7035 7037 7040 7043 7046 7049 7052 7054 7056 7059 7062 7065 7068 7071 7074 7077 7080 7083 7086 7089 7091 7094 7097 7099 7102 7105 7108 7111 7114 7117 7120 7123 7126 7129 7132 7135 7138 7140 7142 7145 7148 7151 7154 7157 7160 7163 7166 7169 7172 7175 7178 7181 7184 7186 7189 7192 7195 7197 7200 7203 7206 7209 7212 7215 7218 7221 7224 7227 7230 7233 7236 7239 7241 7244 7246 7249 7251 7254 7257 7260 7263 7266 7268 7270 7273 7276 7279 7282 7285 7287 7290 7293 7296 7299 7302 7305 7308 7311 7314 7317 7319 7322 7325 7328 7331 7334 7337 7340 7343 7346 7349 7352 7355 7358 7361 7364 7367 7370 7373 7376 7379 7381 7384 7387 7390 7393 7396 7399 7402 7405 7408 7411 7414 7417 7420 7423 7426 7429 7432 7435 7438 7441 7444 7447 7450 7453 7456 7458 7461 7464 7467 7470 7473 7476 7479 7481 7484 7487 7490 7492 7495 7498 7501 7504 7506 7509 7511 7514 7517 7520 7523 7526 7529 7531 7534 7537 7540 7542 7545 7548 7551 7554 7556 7559 7561 7564 7566 7569 7572 7575 7577 7580 7582 7585 7588 7591 7594 7597 7600 7603 7606 7608 7611 7614 7617 7620 7623 7626 7628 7631 7634 7637 7640 7643 7645 7647 7649 7652 7655 7658 7661 7664 7667 7670 7673 7676 7679 7682 7685 7688 7690 7693 7695 7698 7701 7704 7707 7710 7713 7716 7719 7722 7724 7727 7730 7732 7734 7737 7740 7742 7745 7748 7751 7754 7756 7759 7762 7765 7768 7770 7773 7776 7779 7782 7785 7787 7790 7793 7796 7799 7801 7804 7807 7810 7812 7815 7818 7821 7824 7827 7829 7832 7835 7838 7841 7844 7847 7850 7853 7856 7858 7861 7864 7867 7870 7873 7876 7879 7882 7885 7887 7890 7893 7896 7899 7902 7905 7908 7911 7914 7917 7919 7922 7925 7927 7930 7932 7935 7938 7941 7944 7947 7950 7953 7956 7959 7962 7964 7967 7969 7972 7975 7978 7981 7984 7987 7990 7993 7996 7999 8002 8004 8007 8010 8013 8015 8018 8021 8024 8027 8029 8032 8035 8037 8040 8043 8046 8049 8052 8055 8058 8061 8064 8067 8070 8073 8076 8079 8082 8085 8088 8091 8094 8097 8100 8103 8106 8109 8112 8115 8118 8120 8123 8126 8129 8132 8134 8137 8139 8141 8144 8147 8150 8153 8156 8158 8160 8163 8166 8169 8172 8175 8178 8181 8184 8187 8190 8193 8196 8199 8202 8205 8208 8211 8214 8217 8219 8222 8225 8228 8231 8233 8236 8239 8242 8245 8248 8251 8254 8256 8258 8261 8264 8266 8269 8272 8274 8277 8279 8282 8284 8287 8290 8293 8296 8299 8301 8304 8307 8309 8312 8314 8317 8320 8323 8326 8329 8332 8335 8338 8341 8344 8347 8350 8353 8356 8359 8362 8364 8367 8369 8372 8375 8378 8381 8384 8387 8390 8393 8396 8399 8402 8405 8408 8411 8414 8417 8420 8423 8426 8429 8432 8435 8438 8441 8444 8447 8450 8453 8456 8459 8462 8465 8468 8471 8474 8476 8479 8482 8485 8488 8490 8493 8496 8499 8502 8505 8508 8511 8514 8517 8520 8523 8526 8529 8531 8534 8536 8539 8542 8545 8547 8549 8552 8555 8558 8561 8564 8566 8569 8572 8575 8578 8580 8583 8586 8588 8591 8594 8597 8600 8603 8606 8609 8612 8615 8618 8621 8624 8627 8630 8633 8636 8639 8642 8645 8648 8651 8654 8657 8660 8663 8666 8669 8672 8675 8678 8681 8684 8687 8690 8693 8696 8698 8701 8704 8707 8710 8713 8716 8719 8722 8725 8728 8731 8734 8737 8740 8743 8746 8749 8752 8755 8758 8761 8764 8767 8770 8773 8776 8779 8782 8785 8788 8791 8794 8796 8799 8801 8804 8807 8810 8813 8815 8818 8821 8824 8827 8829 8832 8835 8838 8841 8844 8847 8850 8853 8856 8859 8862 8865 8868 8871 8874 8877 8880 8883 8886 8888 8891 8894 8897 8900 8903 8906 8908 8911 8914 8917 8920 8923 8925 8928 8931 8934 8937 8940 8943 8946 8949 8952 8955 8958 8960 8963 8966 8969 8972 8975 8978 8981 8984 8986 8989 8992 8995 8998 9001 9004 9007 9009 9012 9015 9018 9021 9024 9027 9030 9033 9036 9039 9042 9045 9048 9051 9054 9057 9060 9063 9066 9069 9071 9074 9076 9079 9082 9085 9088 9091 9094 9097 9100 9103 9105 9107 9110 9113 9115 9118 9121 9124 9126 9129 9132 9135 9138 9140 9143 9146 9149 9151 9154 9157 9160 9163 9166 9169 9172 9175 9178 9181 9184 9186 9189 9192 9194 9197 9200 9203 9206 9208 9211 9214 9216 9219 9222 9225 9228 9231 9234 9237 9240 9243 9246 9249 9252 9255 9257 9260 9263 9266 9269 9272 9275 9277 9280 9283 9286 9288 9291 9294 9297 9300 9303 9306 9309 9312 9314 9317 9320 9323 9325 9328 9331 9334 9336 9339 9341 9344 9347 9350 9353 9356 9359 9362 9365 9368 9371 9373 9376 9378 9381 9383 9386 9388 9391 9394 9397 9400 9403 9406 9409 9412 9414 9417 9419 9422 9425 9428 9431 9433 9436 9439 9442 9445 9448 9450 9453 9456 9459 9462 9464 9467 9470 9473 9476 9479 9481 9484 9486 9489 9491 9493 9496 9499 9502 9505 9507 9510 9513 9516 9519 9522 9525 9528 9531 9534 9537 9540 9543 9546 9549 9552 9555 9558 9561 9564 9567 9570 9573 9575 9578 9580 9583 9585 9588 9591 9594 9596 9599 9601 9604 9607 9610 9612 9615 9618 9621 9624 9627 9630 9633 9636 9639 9642 9645 9648 9651 9654 9657 9660 9663 9666 9669 9672 9675 9678 9681 9684 9687 9690 9693 9696 9699 9702 9705 9708 9711 9714 9717 9720 9723 9726 9729 9732 9735 9738 9741 9744 9747 9750 9753 9756 9759 9762 9765 9768 9771 9774 9777 9780 9783 9786 9789 9792 9795 9798 9801 9804 9807 9810 9813 9816 9819 9822 9825 9828 9831 9834 9837 9840 9843 9846 9849 9851 9854 9857 9860 9863 9866 9869 9871 9874 9877 9880 9883 9886 9889 9891 9894 9897 9900 9903 9906 9908 9911 9914 9917 9919 9922 9925 9928 9931 9934 9937 9939 9942 9945 9947 9950 9952 9954 9957 9960 9963 9965 9968 9971 9974 9977 9980 9983 9986 9989 9992 9995 9998 10001 10004 10007 10010 10013 10016 10019 10022 10025 10028 10031 10034 10037 10040 10043 10046 10049 10052 10055 10058 10061 10064 10067 10070 10073 10075 10078 10081 10084 10087 10090 10092 10095 10098 10101 10104 10107 10110 10113 10116 10119 10121 10123 10126 10129 10131 10134 10136 10139 10142 10144 10146 10149 10152 10154 10157 10160 10163 10166 10169 10172 10175 10178 10181 10184 10187 10190 10193 10195 10198 10201 10204 10207 10210 10213 10216 10219 10222 10225 10228 10231 10234 10237 10240 10243 10246 10249 10252 10255 10257 10260 10263 10266 10269 10271 10274 10277 10279 10282 10285 10288 10291 10294 10297 10300 10303 10306 10309 10312 10314 10317 10320 10323 10326 10329 10332 10335 10338 10341 10344 10347 10350 10353 10356 10358 10361 10364 10367 10370 10372 10375 10378 10381 10384 10387 10389 10392 10395 10398 10401 10404 10407 10410 10413 10416 10419 10422 10425 10428 10430 10433 10436 10439 10442 10445 10448 10451 10454 10457 10460 10463 10466 10469 10472 10475 10478 10481 10484 10486 10488 10491 10494 10497 10500 10503 10506 10509 10512 10515 10518 10520 10523 10526 10529 10532 10535 10538 10541 10544 10547 10550 10553 10555 10558 10561 10564 10567 10569 10572 10575 10578 10581 10584 10587 10590 10593 10596 10599 10602 10605 10607 10610 10613 10616 10619 10622 10625 10628 10631 10634 10637 10640 10643 10646 10649 10652 10655 10658 10661 10664 10667 10670 10672 10674 10677 10680 10683 10686 10689 10692 10695 10698 10701 10704 10707 10709 10711 10714 10717 10720 10723 10726 10728 10731 10734 10737 10740 10742 10744 10747 10749 10752 10755 10757 10760 10762 10765 10768 10771 10773 10776 10779 10782 10785 10787 10790 10793 10796 10799 10802 10804 10807 10810 10813 10815 10818 10821 10824 10827 10830 10832 10835 10838 10841 10844 10847 10849 10852 10855 10857 10860 10863 10865 10868 10871 10874 10876 10879 10882 10885 10887 10890 10893 10896 10898 10901 10904 10907 10909 10912 10914 10917 10920 10923 10926 10929 10932 10935 10937 10940 10943 10946 10948 10951 10954 10957 10960 10963 10966 10969 10972 10975 10978 10981 10984 10987 10990 10993 10996 10999 11002 11005 11008 11011 11014 11017 11020 11023 11026 11029 11032 11035 11038 11041 11044 11047 11050 11053 11056 11059 11062 11065 11068 11071 11074 11077 11080 11083 11086 11089 11092 11095 11098 11101 11104 11107 11110 11113 11116 11119 11122 11125 11128 11131 11134 11137 11140 11143 11146 11149 11152 11155 11158 11161 11164 11167 11170 11173 11176 11179 11182 11184 11187 11190 11192 11195 11198 11201 11204 11207 11210 11213 11216 11219 11222 11225 11228 11231 11234 11236 11239 11242 11244 11247 11250 11252 11255 11258 11261 11264 11267 11270 11273 11276 11279 11282 11285 11288 11291 11294 11297 11300 11303 11306 11309 11312 11315 11318 11321 11324 11327 11330 11333 11336 11339 11342 11345 11348 11351 11353 11356 11359 11362 11365 11368 11371 11374 11377 11380 11383 11386 11389 11392 11395 11398 11401 11404 11407 11410 11413 11416 11419 11422 11425 11428 11431 11434 11437 11440 11443 11446 11449 11452 11455 11458 11461 11464 11466 11469 11472 11475 11478 11481 11484 11487 11490 11493 11496 11499 11502 11505 11508 11511 11514 11517 11520 11523 11526 11529 11532 11535 11538 11541 11544 11547 11550 11553 11556 11559 11562 11565 11568 11571 11574 11577 11580 11583 11586 11589 11592 11595 11598 11601 11604 11607 11610 11613 11616 11619 11622 11625 11628 11631 11634 11637 11640 11642 11645 11648 11651 11654 11657 11660 11663 11666 11669 11672 11675 11678 11681 11684 11687 11690 11692 11695 11698 11700 11703 11705 11707 11710 11713 11716 11719 11722 11725 11728 11731 11734 11737 11740 11743 11746 11749 11752 11755 11758 11761 11764 11767 11770 11773 11776 11779 11782 11785 11788 11791 11794 11797 11800 11803 11806 11809 11812 11815 11818 11821 11824 11827 11829 11832 11835 11838 11841 11843 11846 11849 11852 11855 11858 11860 11862 11865 11868 11871 11873 11875 11877 11880 11883 11886 11889 11892 11895 11898 11900 11903 11906 11908 11911 11914 11916 11919 11922 11924 11927 11930 11933 11936 11939 11942 11944 11947 11950 11952 11955 11958 11961 11964 11967 11970 11973 11976 11979 11982 11985 11988 11991 11994 11997 12000 12003 12006 12009 12012 12015 12018 12021 12024 12027 12030 12032 12035 12038 12041 12044 12047 12050 12053 12056 12059 12062 12065 12068 12071 12074 12077 12080 12083 12086 12089 12092 12095 12098 12101 12104 12107 12110 12113 12116 12119 12122 12125 12128 12131 12134 12137 12140 12143 12146 12149 12152 12155 12158 12161 12164 12167 12170 12173 12176 12179 12182 12185 12188 12191 12194 12197 12200 12202 12205 12208 12210 12212 12215 12218 12220 12222 12225 12228 12231 12233 12236 12238 12241 12244 12247 12249 12252 12255 12258 12261 12264 12267 12270 12273 12276 12279 12282 12285 12288 12291 12293 12296 12299 12302 12305 12308 12310 12313 12316 12319 12322 12325 12328 12331 12334 12336 12339 12342 12345 12348 12351 12353 12356 12359 12362 12365 12368 12371 12374 12377 12380 12383 12386 12389 12392 12395 12397 12400 12403 12406 12408 12410 12413 12416 12419 12422 12425 12428 12431 12434 12436 12439 12441 12444 12446 12449 12451 12454 12457 12459 12462 12464 12467 12470 12473 12476 12479 12482 12485 12488 12491 12494 12497 12499 12502 12505 12508 12511 12514 12517 12520 12523 12526 12529 12531 12534 12537 12540 12543 12546 12549 12552 12555 12558 12561 12564 12567 12570 12573 12576 12578 12581 12584 12587 12590 12593 12596 12599 12602 12604 12607 12610 12612 12614 12617 12619 12621 12624 12626 12629 12632 12634 12637 12639 12642 12644 12647 12649 12652 12655 12658 12661 12664 12666 12669 12672 12675 12677 12680 12683 12686 12689 12692 12695 12698 12701 12704 12706 12709 12712 12715 12718 12721 12724 12727 12730 12733 12736 12739 12742 12745 12748 12751 12754 12757 12760 12763 12765 12768 12771 12774 12777 12780 12783 12786 12788 12791 12793 12796 12799 12802 12805 12807 12810 12813 12816 12819 12822 12825 12827 12830 12833 12836 12839 12842 12845 12848 12851 12854 12857 12860 12863 12866 12869 12872 12875 12878 12880 12883 12886 12889 12892 12894 12897 12899 12902 12905 12908 12910 12912 12915 12918 12921 12924 12927 12929 12932 12935 12938 12940 12943 12946 12949 12951 12953 12956 12959 12962 12965 12968 12970 12972 12975 12977 12980 12983 12986 12989 12992 12995 12998 13001 13004 13007 13010 13013 13016 13019 13022 13025 13027 13030 13033 13036 13039 13041 13044 13047 13049 13052 13055 13058 13061 13064 13067 13070 13073 13076 13079 13082 13085 13088 13091 13094 13097 13100 13103 13105 13108 13111 13114 13117 13120 13123 13126 13129 13131 13134 13137 13139 13142 13145 13148 13151 13153 13156 13159 13162 13165 13168 13171 13173 13175 13178 13181 13184 13187 13190 13192 13195 13198 13201 13204 13206 13209 13212 13214 13217 13220 13223 13226 13228 13230 13233 13236 13239 13242 13244 13246 13249 13252 13255 13258 13261 13264 13267 13270 13273 13276 13278 13281 13284 13287 13290 13293 13295 13297 13300 13303 13306 13309 13312 13315 13318 13321 13324 13327 13330 13333 13335 13338 13341 13344 13347 13350 13353 13356 13359 13361 13364 13367 13370 13372 13375 13378 13381 13384 13386 13389 13392 13394 13397 13400 13403 13406 13409 13412 13415 13418 13421 13424 13427 13430 13433 13436 13439 13442 13445 13448 13451 13454 13457 13460 13463 13466 13468 13471 13474 13477 13480 13483 13486 13489 13492 13495 13498 13501 13504 13507 13510 13513 13516 13519 13522 13525 13528 13531 13534 13537 13540 13543 13546 13549 13552 13554 13557 13560 13562 13565 13568 13570 13573 13576 13579 13582 13584 13587 13590 13593 13596 13599 13601 13604 13607 13610 13613 13616 13619 13621 13624 13627 13630 13633 13636 13639 13642 13645 13647 13650 13653 13656 13659 13662 13665 13668 13671 13674 13677 13680 13683 13686 13689 13692 13695 13698 13701 13703 13706 13709 13711 13714 13716 13719 13722 13724 13727 13730 13733 13736 13739 13742 13745 13748 13751 13754 13757 13760 13763 13766 13769 13772 13775 13778 13781 13784 13787 13790 13793 13796 13799 13802 13805 13808 13811 13814 13817 13819 13822 13825 13827 13830 13833 13835 13837 13840 13843 13846 13849 13852 13855 13858 13861 13864 13867 13870 13873 13876 13879 13882 13885 13888 13891 13894 13897 13900 13903 13906 13909 13912 13915 13918 13921 13924 13927 13930 13933 13936 13938 13941 13943 13946 13948 13951 13954 13957 13960 13963 13965 13968 13971 13974 13977 13980 13982 13985 13987 13990 13992 13995 13998 14001 14004 14007 14010 14013 14016 14018 14021 14023 14026 14029 14031 14034 14037 14040 14043 14046 14049 14051 14054 14056 14058 14061 14064 14067 14070 14073 14076 14079 14082 14084 14087 14090 14092 14095 14098 14100 14103 14105 14108 14111 14114 14116 14118 14121 14123 14126 14129 14132 14135 14138 14141 14144 14147 14150 14153 14156 14159 14162 14165 14168 14171 14174 14177 14180 14182 14185 14188 14191 14194 14197 14200 14203 14206 14209 14212 14215 14218 14221 14224 14227 14230 14233 14236 14239 14242 14245 14248 14251 14254 14257 14260 14263 14266 14269 14272 14275 14278 14281 14284 14287 14290 14293 14296 14299 14302 14305 14308 14311 14314 14317 14320 14323 14326 14329 14332 14335 14338 14341 14344 14346 14349 14352 14355 14358 14360 14363 14366 14369 14372 14375 14378 14381 14384 14387 14390 14393 14396 14399 14402 14405 14408 14410 14413 14415 14418 14421 14424 14427 14430 14433 14436 14438 14440 14442 14445 14448 14451 14454 14456 14458 14460 14462 14464 14467 14470 14472 14475 14478 14481 14484 14486 14489 14492 14495 14498 14501 14504 14507 14509 14512 14515 14517 14519 14522 14525 14528 14531 14534 14537 14539 14542 14544 14546 14549 14551 14553 14556 14559 14562 14565 14567 14570 14572 14575 14578 14580 14583 14586 14588 14591 14593 14596 14599 14601 14604 14606 14609 14612 14615 14618 14620 14623 14626 14629 14632 14634 14637 14640 14642 14645 14648 14651 14654 14657 14660 14662 14665 14668 14671 14674 14677 14680 14683 14686 14689 14691 14694 14696 14699 14702 14705 14708 14711 14714 14717 14719 14722 14725 14728 14731 14734 14737 14740 14743 14746 14749 14752 14754 14756 14759 14762 14764 14766 14769 14772 14774 14777 14780 14783 14785 14788 14790 14792 14795 14798 14801 14803 14805 14808 14811 14813 14816 14819 14821 14824 14826 14829 14831 14834 14837 14840 14843 14846 14848 14851 14854 14856 14859 14861 14863 14866 14868 14870 14873 14876 14879 14882 14885 14888 14890 14892 14895 14897 14900 14903 14906 14909 14911 14914 14917 14920 14923 14926 14929 14932 14935 14938 14941 14944 14947 14950 14953 14956 14959 14962 14965 14968 14971 14974 14977 14980 14983 14986 14989 14992 14995 14998 15001 15004 15007 15010 15013 15016 15019 15022 15025 15028 15031 15034 15037 15040 15043 15046 15049 15052 15055 15058 15061 15064 15067 15070 15073 15076 15079 15082 15085 15088 15091 15094 15097 15100 15103 15106 15109 15112 15115 15118 15121 15124 15127 15130 15133 15136 15139 15142 15145 15148 15151 15154 15156 15159 15162 15165 15168 15171 15174 15176 15179 15182 15185 15188 15191 15194 15196 15199 15202 15204 15207 15210 15213 15216 15219 15222 15225 15228 15231 15234 15237 15240 15243 15246 15248 15251 15254 15257 15260 15263 15265 15268 15271 15274 15277 15279 15282 15285 15288 15291 15294 15297 15300 15303 15306 15309 15312 15315 15318 15321 15324 15327 15330 15333 15336 15339 15342 15345 15348 15351 15354 15357 15360 15363 15366 15369 15372 15375 15378 15381 15384 15386 15389 15392 15395 15398 15401 15404 15407 15410 15413 15416 15419 15422 15425 15428 15431 15434 15437 15440 15443 15446 15449 15452 15455 15458 15461 15464 15467 15470 15473 15476 15479 15482 15485 15488 15491 15494 15497 15500 15503 15506 15509 15512 15515 15518 15521 15524 15527 15530 15533 15536 15539 15542 15545 15548 15551 15554 15557 15560 15563 15566 15569 15572 15575 15578 15581 15584 15587 15590 15593 15596 15599 15602 15605 15608 15611 15614 15617 15620 15623 15626 15629 15632 15635 15638 15641 15644 15647 15650 15653 15656 15659 15662 15665 15668 15671 15674 15677 15680 15683 15686 15688 15691 15694 15697 15700 15703 15706 15709 15712 15715 15718 15721 15724 15727 15730 15733 15736 15739 15742 15745 15748 15751 15754 15756 15759 15761 15764 15767 15770 15773 15776 15778 15780 15783 15786 15788 15791 15793 15796 15799 15801 15804 15807 15810 15813 15816 15819 15822 15825 15828 15831 15834 15837 15840 15843 15846 15849 15852 15855 15857 15860 15863 15866 15868 15871 15874 15877 15879 15882 15884 15887 15890 15893 15896 15899 15902 15905 15908 15911 15914 15916 15919 15922 15925 15928 15930 15932 15934 15937 15940 15943 15946 15949 15952 15955 15958 15960 15963 15966 15969 15972 15975 15978 15981 15984 15986 15989 15992 15994 15997 16000 16003 16006 16009 16011 16014 16016 16019 16021 16023 16026 16028 16031 16034 16036 16039 16041 16044 16047 16050 16053 16056 16059 16062 16065 16067 16070 16072 16074 16077 16079 16082 16084 16087 16090 16093 16095 16097 16100 16103 16105 16108 16110 16113 16115 16118 16121 16124 16127 16130 16132 16135 16138 16141 16144 16147 16150 16153 16156 16159 16161 16164 16166 16169 16172 16175 16178 16181 16184 16187 16189 16192 16195 16198 16200 16203 16205 16207 16210 16213 16216 16219 16222 16224 16226 16229 16232 16235 16238 16241 16244 16247 16250 16252 16255 16257 16260 16262 16265 16268 16271 16274 16277 16279 16282 16285 16288 16291 16294 16297 16300 16303 16306 16309 16312 16315 16318 16321 16324 16327 16330 16333 16336 16339 16342 16345 16347 16350 16353 16356 16359 16362 16364 16367 16370 16373 16376 16378 16381 16384 16387 16390 16393 16396 16399 16401 16404 16407 16409 16412 16415 16418 16421 16424 16427 16430 16433 16436 16439 16442 16445 16448 16450 16453 16455 16458 16461 16464 16467 16470 16473 16476 16479 16482 16485 16488 16491 16494 16496 16499 16502 16505 16507 16510 16513 16515 16518 16520 16523 16526 16529 16532 16535 16538 16540 16543 16546 16549 16552 16555 16558 16561 16563 16566 16569 16571 16574 16576 16579 16581 16583 16585 16588 16591 16594 16596 16599 16602 16604 16607 16609 16612 16615 16618 16621 16624 16627 16630 16633 16636 16639 16642 16645 16648 16651 16654 16657 16659 16662 16664 16667 16670 16673 16676 16679 16682 16685 16688 16691 16694 16697 16700 16703 16706 16709 16712 16714 16717 16720 16723 16726 16728 16731 16734 16737 16740 16743 16746 16749 16752 16755 16758 16761 16764 16767 16770 16773 16776 16779 16782 16785 16788 16790 16793 16796 16799 16802 16804 16807 16810 16813 16816 16819 16822 16824 16827 16830 16833 16836 16839 16842 16845 16848 16851 16854 16857 16860 16863 16866 16868 16870 16873 16876 16879 16882 16884 16887 16890 16893 16896 16898 16900 16903 16906 16909 16912 16915 16918 16921 16924 16927 16930 16933 16936 16939 16942 16944 16947 16949 16952 16955 16958 16961 16964 16967 16970 16973 16976 16979 16982 16985 16988 16991 16994 16997 17000 17003 17006 17009 17012 17015 17018 17021 17024 17027 17030 17033 17036 17039 17042 17045 17048 17051 17054 17057 17060 17063 17066 17069 17072 17074 17077 17080 17083 17086 17089 17092 17095 17098 17101 17104 17106 17109 17112 17115 17118 17121 17124 17127 17130 17133 17136 17139 17142 17145 17148 17151 17154 17156 17159 17162 17164 17167 17169 17172 17175 17178 17181 17184 17186 17189 17191 17194 17197 17199 17202 17205 17208 17211 17214 17217 17220 17223 17226 17229 17232 17235 17238 17241 17244 17247 17249 17252 17255 17257 17260 17263 17266 17269 17272 17275 17278 17281 17284 17287 17290 17293 17296 17299 17302 17305 17308 17311 17314 17317 17320 17323 17326 17329 17332 17335 17338 17341 17344 17347 17350 17353 17356 17359 17362 17364 17367 17370 17373 17375 17378 17381 17384 17387 17390 17393 17396 17399 17401 17404 17407 17410 17412 17415 17418 17420 17423 17426 17429 17432 17434 17436 17439 17441 17444 17447 17450 17453 17456 17458 17461 17463 17466 17468 17471 17474 17477 17480 17483 17486 17489 17491 17494 17497 17500 17503 17506 17508 17511 17514 17517 17519 17522 17525 17528 17530 17533 17536 17538 17541 17544 17546 17549 17552 17555 17558 17561 17564 17567 17570 17573 17575 17578 17581 17584 17587 17590 17593 17595 17598 17601 17604 17606 17608 17611 17614 17617 17620 17623 17626 17629 17632 17635 17638 17641 17644 17647 17650 17653 17656 17659 17662 17665 17668 17670 17673 17676 17679 17682 17685 17688 17691 17694 17696 17699 17702 17705 17708 17711 17714 17717 17720 17723 17726 17729 17732 17735 17737 17740 17743 17745 17748 17751 17754 17757 17760 17763 17766 17769 17772 17775 17778 17781 17784 17787 17790 17793 17796 17799 17802 17805 17808 17811 17814 17817 17820 17823 17826 17829 17832 17835 17838 17841 17844 17847 17850 17853 17856 17859 17862 17865 17868 17871 17874 17877 17880 17883 17886 17889 17892 17895 17898 17901 17904 17906 17909 17912 17915 17918 17921 17924 17927 17930 17933 17936 17939 17942 17945 17948 17951 17954 17957 17960 17963 17966 17969 17972 17975 17978 17981 17984 17987 17990 17993 17996 17999 18002 18005 18008 18011 18014 18017 18020 18023 18026 18029 18032 18035 18038 18041 18044 18047 18050 18053 18056 18059 18062 18065 18068 18071 18074 18077 18080 18083 18086 18089 18091 18094 18097 18100 18103 18106 18109 18112 18115 18118 18120 18123 18126 18129 18132 18135 18138 18141 18143 18146 18149 18152 18155 18158 18161 18164 18167 18169 18172 18175 18178 18181 18184 18187 18190 18192 18194 18197 18200 18203 18206 18209 18212 18215 18218 18221 18224 18227 18230 18233 18236 18239 18242 18245 18248 18251 18254 18257 18260 18262 18265 18268 18271 18274 18277 18280 18283 18286 18289 18292 18295 18298 18301 18304 18307 18310 18313 18316 18319 18322 18325 18328 18331 18334 18337 18340 18343 18346 18349 18352 18355 18358 18361 18364 18367 18370 18373 18376 18379 18382 18385 18388 18391 18393 18396 18399 18402 18405 18408 18411 18414 18417 18420 18422 18425 18428 18431 18434 18437 18440 18442 18445 18448 18451 18454 18457 18460 18463 18465 18468 18470 18473 18476 18478 18481 18484 18487 18490 18492 18495 18497 18500 18502 18505 18508 18510 18513 18516 18519 18522 18525 18528 18531 18534 18537 18540 18543 18546 18548 18551 18554 18557 18560 18563 18566 18569 18572 18575 18578 18581 18584 18587 18590 18593 18596 18599 18602 18605 18608 18611 18614 18617 18620 18623 18626 18629 18632 18635 18638 18640 18643 18646 18649 18652 18655 18658 18661 18664 18667 18670 18673 18676 18679 18681 18684 18687 18689 18692 18695 18698 18700 18702 18705 18708 18710 18712 18715 18718 18721 18724 18727 18730 18733 18736 18739 18742 18745 18748 18751 18753 18756 18759 18762 18765 18767 18770 18772 18775 18778 18780 18782 18785 18788 18791 18794 18796 18799 18802 18805 18807 18810 18813 18816 18819 18822 18825 18828 18831 18834 18837 18840 18843 18846 18849 18851 18853 18856 18859 18862 18865 18868 18871 18874 18876 18879 18882 18884 18887 18889 18892 18895 18898 18901 18904 18906 18908 18911 18914 18916 18919 18922 18924 18927 18929 18932 18935 18938 18941 18944 18946 18948 18951 18954 18957 18960 18963 18965 18968 18970 18973 18976 18979 18982 18984 18987 18990 18993 18996 18998 19001 19004 19007 19010 19013 19016 19019 19022 19024 19027 19030 19032 19035 19038 19041 19044 19047 19050 19053 19056 19059 19061 19064 19067 19070 19073 19076 19079 19082 19085 19088 19091 19094 19097 19100 19102 19105 19108 19111 19114 19116 19119 19122 19125 19128 19131 19134 19136 19139 19142 19145 19147 19150 19152 19154 19157 19160 19163 19166 19169 19172 19175 19178 19181 19184 19187 19190 19192 19195 19198 19201 19204 19207 19209 19212 19214 19217 19220 19223 19226 19229 19232 19234 19237 19240 19243 19246 19249 19252 19255 19258 19261 19264 19267 19270 19273 19276 19279 19282 19284 19287 19290 19293 19296 19299 19302 19305 19308 19311 19314 19316 19319 19322 19325 19327 19329 19332 19335 19338 19341 19344 19346 19348 19351 19353 19356 19359 19361 19364 19367 19370 19373 19375 19378 19381 19384 19387 19390 19393 19396 19399 19402 19405 19408 19411 19413 19416 19419 19422 19425 19427 19430 19433 19436 19438 19441 19444 19447 19449 19452 19455 19458 19460 19463 19466 19469 19471 19474 19477 19480 19483 19486 19489 19492 19495 19498 19501 19504 19507 19510 19512 19515 19518 19521 19523 19526 19529 19532 19535 19538 19541 19543 19546 19549 19552 19555 19558 19561 19564 19567 19570 19573 19576 19579 19581 19584 19587 19590 19593 19596 19598 19601 19604 19607 19610 19612 19615 19618 19621 19624 19627 19630 19633 19636 19639 19642 19645 19647 19650 19653 19656 19659 19662 19665 19667 19670 19673 19676 19679 19682 19685 19688 19691 19694 19697 19700 19703 19706 19709 19712 19715 19718 19721 19724 19727 19730 19732 19735 19738 19741 19744 19746 19749 19752 19755 19758 19761 19764 19767 19770 19773 19776 19778 19781 19783 19786 19789 19792 19795 19797 19800 19803 19806 19809 19812 19815 19818 19821 19823 19826 19829 19832 19835 19838 19840 19843 19846 19849 19851 19854 19857 19860 19863 19866 19868 19871 19874 19877 19880 19883 19886 19888 19890 19893 19896 19899 19901 19904 19907 19909 19911 19913 19916 19919 19922 19924 19927 19930 19933 19935 19938 19941 19944 19947 19950 19953 19956 19959 19962 19965 19968 19970 19972 19975 19978 19981 19984 19986 19989 19992 19995 19998 20001 20004 20007 20010 20013 20016 20019 20022 20025 20027 20030 20033 20036 20038 20041 20044 20047 20050 20053 20056 20059 20062 20064 20067 20070 20072 20075 20078 20081 20084 20087 20090 20092 20095 20098 20101 20104 20106 20109 20112 20114 20116 20119 20121 20123 20126 20129 20131 20134 20137 20139 20142 20145 20148 20151 20154 20157 20160 20163 20165 20168 20171 20174 20176 20179 20182 20185 20188 20191 20194 20197 20200 20203 20206 20209 20212 20215 20218 20221 20224 20227 20230 20233 20236 20239 20242 20245 20248 20251 20254 20257 20260 20263 20266 20269 20272 20275 20277 20280 20283 20286 20289 20292 20295 20298 20301 20304 20307 20310 20313 20316 20319 20322 20325 20328 20330 20333 20336 20339 20342 20345 20348 20351 20354 20357 20359 20362 20365 20368 20371 20374 20376 20379 20381 20384 20387 20390 20393 20396 20399 20402 20405 20408 20411 20414 20417 20420 20423 20426 20429 20432 20435 20438 20441 20444 20446 20449 20452 20455 20458 20461 20464 20467 20470 20473 20476 20479 20481 20483 20486 20489 20492 20494 20497 20500 20503 20506 20509 20512 20515 20518 20521 20523 20526 20529 20532 20535 20538 20541 20544 20546 20549 20551 20554 20557 20560 20563 20566 20569 20572 20575 20578 20581 20584 20587 20590 20593 20596 20599 20602 20605 20608 20611 20614 20617 20619 20622 20625 20628 20631 20634 20637 20640 20643 20646 20649 20652 20655 20658 20661 20664 20667 20670 20673 20676 20678 20681 20684 20687 20690 20693 20696 20699 20702 20705 20708 20711 20714 20717 20720 20723 20726 20729 20732 20735 20738 20741 20744 20747 20750 20753 20756 20759 20762 20765 20768 20771 20774 20777 20780 20783 20786 20789 20792 20795 20798 20801 20804 20807 20810 20813 20816 20819 20822 20825 20828 20831 20834 20837 20840 20843 20846 20849 20852 20855 20858 20861 20864 20867 20870 20873 20876 20879 20882 20885 20888 20891 20894 20897 20900 20903 20906 20909 20912 20915 20918 20921 20924 20927 20930 20933 20936 20939 20942 20945 20948 20951 20954 20957 20960 20963 20966 20969 20972 20975 20978 20981 20984 20987 20990 20993 20996 20999 21001 21003 21006 21009 21012 21015 21018 21021 21023 21025 21028 21031 21034 21037 21040 21043 21046 21049 21052 21055 21058 21061 21064 21067 21069 21072 21075 21078 21081 21084 21087 21090 21093 21096 21099 21102 21105 21108 21111 21114 21117 21120 21122 21125 21128 21131 21134 21137 21140 21143 21146 21149 21152 21154 21157 21160 21163 21165 21168 21171 21174 21177 21180 21183 21186 21189 21192 21195 21198 21201 21204 21207 21210 21212 21215 21218 21220 21223 21226 21229 21232 21235 21238 21241 21244 21247 21250 21253 21256 21259 21262 21265 21268 21270 21273 21276 21278 21281 21284 21287 21290 21293 21295 21298 21301 21304 21307 21310 21313 21315 21317 21320 21323 21326 21328 21331 21334 21336 21338 21341 21344 21347 21350 21352 21354 21357 21360 21363 21365 21368 21371 21374 21377 21380 21383 21385 21387 21390 21393 21395 21398 21400 21402 21405 21408 21411 21414 21416 21419 21422 21424 21427 21430 21433 21436 21438 21441 21444 21447 21450 21453 21456 21459 21461 21464 21467 21470 21473 21476 21479 21482 21485 21488 21491 21494 21497 21500 21503 21506 21509 21512 21515 21518 21520 21523 21526 21529 21532 21534 21537 21540 21543 21546 21549 21551 21554 21557 21560 21563 21565 21568 21571 21574 21577 21579 21582 21585 21588 21591 21594 21596 21599 21602 21605 21608 21610 21613 21616 21619 21622 21625 21628 21630 21633 21636 21638 21640 21643 21646 21648 21651 21654 21657 21660 21662 21665 21667 21670 21673 21676 21678 21680 21682 21685 21688 21691 21694 21697 21699 21702 21705 21707 21710 21713 21716 21719 21722 21725 21728 21731 21734 21737 21740 21742 21745 21748 21751 21754 21757 21759 21762 21764 21766 21769 21772 21775 21777 21779 21782 21785 21787 21790 21793 21796 21798 21801 21803 21806 21809 21812 21814 21817 21820 21823 21825 21827 21830 21833 21836 21839 21842 21845 21848 21851 21854 21857 21860 21863 21866 21869 21872 21875 21878 21881 21884 21887 21890 21893 21896 21899 21902 21905 21908 21911 21914 21917 21920 21923 21926 21929 21932 21935 21938 21941 21944 21947 21950 21953 21956 21959 21962 21965 21968 21971 21974 21976 21979 21982 21984 21987 21990 21993 21995 21998 22001 22004 22007 22009 22012 22015 22018 22020 22023 22026 22028 22031 22034 22037 22039 22042 22044 22047 22049 22052 22055 22058 22061 22064 22066 22069 22072 22075 22078 22081 22084 22087 22090 22093 22096 22099 22102 22105 22108 22111 22114 22116 22119 22122 22124 22127 22130 22133 22136 22139 22142 22144 22147 22150 22152 22155 22158 22161 22164 22166 22168 22170 22172 22175 22178 22181 22184 22187 22190 22193 22196 22198 22200 22203 22206 22209 22212 22214 22217 22220 22223 22226 22229 22232 22235 22237 22240 22243 22246 22249 22252 22255 22258 22261 22264 22267 22270 22273 22276 22279 22282 22285 22288 22291 22294 22297 22300 22303 22306 22309 22312 22315 22318 22321 22324 22327 22330 22333 22336 22339 22342 22345 22348 22351 22354 22357 22360 22363 22366 22369 22372 22375 22378 22381 22384 22387 22390 22393 22396 22399 22402 22405 22408 22411 22414 22417 22420 22423 22425 22428 22431 22434 22437 22440 22442 22444 22447 22450 22453 22455 22458 22461 22463 22466 22468 22471 22474 22476 22479 22482 22485 22488 22491 22494 22497 22500 22503 22506 22509 22512 22515 22518 22521 22524 22527 22530 22533 22536 22539 22542 22545 22548 22551 22554 22557 22560 22563 22566 22568 22571 22574 22577 22580 22583 22586 22588 22591 22594 22597 22599 22602 22605 22608 22611 22614 22617 22620 22622 22625 22628 22631 22634 22637 22640 22643 22646 22648 22651 22654 22656 22659 22662 22665 22668 22671 22674 22677 22680 22683 22686 22689 22692 22695 22698 22701 22704 22707 22710 22713 22716 22719 22722 22725 22728 22731 22734 22736 22739 22742 22745 22748 22751 22754 22757 22760 22763 22765 22768 22771 22774 22777 22780 22783 22786 22789 22792 22794 22797 22799 22802 22805 22807 22810 22812 22815 22818 22821 22824 22827 22830 22833 22835 22838 22841 22844 22847 22850 22853 22856 22859 22862 22865 22868 22871 22874 22877 22880 22882 22885 22888 22890 22893 22896 22899 22902 22905 22907 22910 22913 22915 22918 22921 22923 22925 22928 22931 22933 22936 22939 22942 22944 22947 22949 22952 22955 22958 22961 22963 22966 22969 22972 22975 22978 22981 22984 22987 22990 22992 22995 22998 23001 23004 23007 23010 23013 23016 23018 23021 23024 23027 23030 23032 23035 23037 23040 23043 23046 23049 23052 23054 23057 23059 23061 23064 23067 23069 23072 23075 23078 23081 23084 23086 23089 23091 23094 23097 23100 23103 23106 23108 23111 23114 23116 23119 23121 23124 23127 23130 23133 23136 23139 23141 23144 23147 23150 23153 23155 23158 23161 23163 23165 23168 23171 23174 23177 23180 23183 23185 23188 23191 23194 23197 23200 23203 23206 23209 23212 23215 23217 23220 23223 23226 23228 23231 23234 23237 23240 23243 23246 23249 23252 23255 23258 23260 23263 23266 23269 23272 23275 23278 23281 23284 23287 23290 23293 23296 23299 23302 23305 23308 23311 23314 23316 23319 23322 23325 23328 23331 23333 23336 23338 23341 23344 23347 23350 23353 23356 23359 23362 23365 23368 23370 23373 23376 23379 23381 23384 23387 23390 23393 23396 23399 23402 23405 23408 23411 23414 23417 23420 23423 23426 23429 23431 23434 23437 23440 23443 23446 23449 23452 23454 23457 23460 23463 23466 23468 23471 23474 23477 23480 23482 23485 23488 23490 23493 23496 23498 23501 23504 23507 23510 23512 23514 23517 23520 23523 23526 23529 23532 23535 23538 23541 23544 23547 23550 23553 23556 23559 23562 23565 23568 23571 23574 23577 23579 23582 23585 23588 23591 23593 23596 23599 23602 23605 23608 23611 23614 23617 23619 23622 23624 23626 23629 23632 23635 23637 23640 23643 23646 23649 23652 23655 23658 23661 23664 23666 23669 23671 23674 23677 23680 23682 23685 23688 23690 23693 23695 23698 23701 23704 23707 23709 23711 23714 23717 23720 23723 23725 23728 23730 23732 23735 23738 23741 23744 23747 23750 23753 23756 23759 23762 23765 23768 23771 23774 23777 23780 23782 23785 23788 23791 23794 23797 23800 23803 23806 23809 23812 23815 23818 23821 23824 23827 23830 23833 23836 23839 23842 23845 23848 23851 23854 23857 23860 23863 23866 23869 23872 23875 23878 23881 23884 23887 23890 23893 23895 23898 23901 23904 23907 23910 23912 23915 23918 23921 23923 23926 23929 23932 23935 23938 23941 23943 23945 23948 23951 23954 23957 23959 23962 23965 23968 23971 23974 23977 23980 23982 23985 23988 23991 23994 23997 23999 24002 24005 24008 24010 24013 24016 24019 24022 24024 24027 24030 24033 24036 24039 24042 24044 24047 24050 24053 24056 24059 24062 24065 24068 24071 24074 24077 24079 24082 24085 24088 24091 24094 24097 24100 24103 24106 24109 24112 24115 24118 24121 24123 24126 24129 24131 24134 24136 24138 24141 24144 24147 24150 24153 24156 24159 24162 24165 24168 24171 24174 24177 24180 24183 24186 24189 24192 24195 24198 24201 24203 24206 24209 24212 24215 24218 24221 24224 24227 24230 24233 24236 24239 24242 24245 24248 24251 24254 24257 24260 24263 24266 24269 24272 24275 24278 24281 24284 24287 24290 24293 24296 24299 24302 24305 24308 24311 24314 24317 24320 24323 24326 24329 24332 24335 24338 24341 24344 24347 24350 24353 24356 24359 24362 24365 24368 24371 24374 24377 24380 24383 24386 24389 24392 24395 24398 24401 24403 24406 24409 24412 24415 24417 24419 24422 24425 24428 24431 24433 24436 24439 24442 24445 24448 24451 24454 24457 24460 24463 24466 24469 24471 24474 24477 24480 24483 24486 24489 24492 24495 24498 24501 24504 24507 24509 24512 24515 24518 24521 24524 24527 24530 24533 24536 24539 24541 24544 24547 24549 24552 24555 24558 24561 24564 24567 24570 24573 24576 24579 24582 24585 24588 24591 24594 24597 24600 24603 24606 24609 24612 24615 24618 24621 24624 24626 24629 24632 24634 24637 24640 24642 24645 24648 24651 24654 24657 24660 24662 24665 24668 24671 24674 24676 24679 24682 24685 24688 24691 24694 24697 24700 24703 24706 24709 24712 24715 24718 24721 24724 24727 24730 24733 24736 24739 24741 24744 24747 24750 24753 24756 24759 24762 24765 24768 24771 24774 24777 24780 24783 24786 24788 24791 24793 24796 24799 24802 24805 24808 24811 24814 24817 24820 24823 24826 24829 24832 24834 24837 24840 24843 24846 24849 24852 24854 24857 24860 24862 24865 24868 24871 24874 24877 24880 24883 24886 24888 24891 24894 24897 24900 24903 24906 24908 24911 24914 24917 24920 24923 24926 24929 24932 24935 24938 24941 24944 24947 24950 24953 24956 24959 24962 24965 24968 24971 24974 24976 24979 24982 24985 24988 24991 24994 24997 25000 25003 25006 25009 25012 25015 25018 25021 25024 25027 25030 25033 25036 25039 25042 25044 25047 25050 25053 25056 25058 25061 25064 25066 25069 25072 25074 25077 25080 25083 25086 25089 25091 25093 25096 25098 25100 25103 25106 25109 25111 25114 25117 25119 25122 25125 25128 25131 25134 25137 25140 25143 25146 25149 25152 25155 25158 25161 25164 25167 25170 25173 25176 25179 25182 25185 25188 25191 25194 25197 25200 25203 25206 25209 25212 25215 25218 25221 25224 25227 25230 25233 25236 25239 25242 25245 25248 25251 25254 25257 25259 25262 25265 25268 25271 25274 25277 25280 25283 25286 25289 25292 25295 25298 25300 25303 25306 25308 25310 25313 25316 25319 25322 25325 25328 25331 25333 25336 25339 25341 25344 25347 25350 25352 25355 25358 25361 25363 25366 25369 25372 25375 25378 25381 25384 25387 25390 25393 25396 25399 25402 25405 25408 25411 25414 25417 25420 25423 25426 25428 25431 25434 25437 25440 25442 25445 25447 25450 25452 25455 25458 25460 25462 25465 25468 25471 25474 25477 25480 25483 25485 25488 25490 25493 25496 25499 25502 25505 25508 25511 25514 25517 25519 25522 25524 25527 25530 25533 25535 25538 25541 25543 25546 25548 25551 25554 25557 25559 25562 25565 25568 25571 25574 25577 25580 25583 25586 25589 25592 25594 25597 25600 25603 25606 25608 25611 25614 25617 25620 25623 25626 25629 25632 25635 25638 25641 25644 25647 25650 25653 25656 25659 25662 25665 25668 25670 25673 25676 25679 25681 25684 25686 25688 25690 25693 25696 25699 25702 25705 25708 25711 25714 25717 25720 25723 25726 25728 25731 25734 25736 25739 25741 25744 25746 25749 25752 25754 25757 25760 25763 25766 25768 25771 25774 25777 25780 25783 25786 25789 25791 25794 25797 25800 25803 25806 25809 25812 25815 25818 25821 25823 25826 25829 25832 25835 25838 25841 25844 25847 25850 25853 25856 25859 25862 25864 25867 25870 25873 25875 25877 25879 25882 25885 25888 25891 25894 25897 25899 25902 25905 25908 25911 25914 25916 25919 25922 25925 25928 25931 25934 25936 25939 25942 25944 25947 25950 25952 25955 25958 25961 25963 25966 25969 25971 25974 25977 25980 25982 25985 25988 25990 25992 25995 25998 26001 26004 26006 26009 26012 26015 26018 26021 26024 26027 26030 26033 26036 26039 26042 26045 26048 26051 26054 26057 26060 26063 26066 26069 26072 26075 26078 26081 26084 26087 26090 26093 26096 26099 26101 26104 26107 26110 26113 26116 26119 26122 26125 26127 26130 26133 26136 26139 26142 26145 26148 26151 26154 26157 26160 26162 26165 26168 26171 26174 26177 26180 26183 26186 26189 26192 26195 26198 26201 26204 26207 26210 26213 26215 26218 26221 26224 26227 26230 26232 26235 26238 26240 26243 26246 26249 26252 26255 26258 26260 26263 26266 26269 26271 26274 26277 26279 26282 26285 26288 26290 26293 26295 26298 26301 26304 26307 26309 26312 26315 26318 26321 26324 26326 26328 26331 26334 26337 26340 26343 26346 26349 26352 26355 26358 26361 26364 26366 26369 26372 26375 26378 26381 26384 26387 26390 26393 26396 26399 26402 26405 26407 26410 26413 26416 26418 26421 26424 26426 26429 26432 26434 26437 26439 26442 26445 26447 26450 26453 26456 26459 26461 26463 26466 26468 26471 26474 26477 26480 26483 26486 26489 26492 26495 26498 26501 26504 26507 26509 26512 26515 26518 26521 26524 26526 26529 26532 26535 26538 26541 26544 26547 26550 26553 26556 26559 26562 26565 26568 26571 26574 26577 26580 26583 26586 26589 26592 26595 26598 26601 26604 26607 26610 26613 26616 26619 26621 26624 26627 26630 26633 26635 26638 26641 26644 26646 26649 26652 26655 26658 26661 26664 26667 26670 26673 26676 26679 26682 26685 26688 26691 26693 26696 26699 26702 26705 26708 26711 26714 26717 26720 26723 26726 26729 26732 26735 26737 26739 26742 26744 26747 26749 26752 26755 26758 26761 26764 26767 26770 26773 26776 26779 26782 26784 26787 26790 26793 26796 26799 26801 26804 26807 26810 26813 26816 26819 26821 26824 26827 26830 26833 26836 26839 26842 26845 26848 26851 26854 26857 26860 26863 26866 26869 26872 26875 26878 26881 26884 26887 26890 26893 26895 26898 26901 26904 26907 26910 26912 26915 26918 26921 26924 26927 26930 26933 26936 26939 26942 26945 26948 26951 26954 26957 26960 26963 26966 26969 26972 26975 26978 26981 26984 26986 26989 26992 26995 26997 27000 27003 27006 27009 27012 27015 27018 27021 27024 27027 27030 27033 27036 27039 27042 27045 27048 27051 27054 27057 27060 27063 27066 27069 27072 27075 27078 27081 27084 27087 27089 27092 27095 27097 27100 27103 27106 27109 27112 27115 27118 27121 27124 27126 27129 27131 27134 27137 27140 27143 27146 27149 27152 27155 27157 27160 27163 27166 27168 27171 27174 27177 27180 27183 27186 27188 27191 27194 27197 27199 27202 27205 27208 27211 27214 27217 27220 27223 27226 27229 27232 27235 27238 27241 27244 27247 27250 27253 27256 27259 27262 27265 27267 27270 27273 27276 27279 27282 27285 27287 27290 27293 27296 27298 27300 27303 27306 27309 27312 27315 27318 27320 27322 27325 27327 27330 27332 27335 27338 27340 27343 27345 27348 27351 27354 27357 27359 27361 27364 27367 27370 27373 27376 27379 27382 27385 27388 27390 27393 27396 27399 27402 27405 27407 27410 27413 27416 27419 27422 27425 27428 27431 27434 27437 27439 27442 27444 27447 27450 27453 27456 27459 27462 27465 27468 27471 27474 27477 27480 27483 27486 27489 27492 27495 27498 27501 27504 27507 27510 27513 27516 27518 27521 27524 27527 27530 27533 27536 27539 27542 27545 27548 27551 27553 27556 27558 27561 27564 27567 27570 27573 27576 27579 27582 27585 27588 27591 27593 27596 27599 27602 27604 27607 27610 27613 27615 27618 27621 27624 27627 27630 27633 27636 27639 27642 27645 27648 27651 27654 27657 27660 27663 27666 27669 27671 27674 27676 27679 27682 27685 27688 27691 27693 27696 27698 27701 27704 27707 27709 27712 27715 27718 27721 27724 27727 27729 27732 27735 27737 27740 27743 27746 27749 27752 27755 27758 27761 27764 27767 27770 27773 27776 27779 27782 27785 27788 27791 27794 27797 27800 27803 27806 27809 27812 27815 27818 27821 27824 27827 27830 27833 27836 27839 27842 27845 27848 27851 27854 27857 27860 27863 27866 27869 27872 27875 27878 27881 27884 27887 27890 27893 27896 27899 27901 27904 27907 27910 27913 27916 27918 27921 27924 27927 27930 27933 27936 27939 27942 27945 27948 27951 27954 27957 27960 27963 27966 27969 27972 27975 27978 27981 27984 27987 27990 27993 27996 27999 28002 28005 28008 28011 28014 28017 28020 28023 28026 28029 28032 28035 28038 28041 28044 28047 28050 28053 28056 28059 28062 28065 28068 28071 28074 28077 28080 28083 28086 28089 28092 28095 28098 28101 28104 28106 28109 28112 28115 28118 28120 28123 28126 28129 28132 28135 28138 28141 28144 28147 28150 28153 28156 28159 28162 28165 28168 28171 28173 28176 28179 28182 28184 28187 28189 28192 28195 28198 28201 28204 28207 28210 28213 28216 28219 28222 28225 28228 28231 28234 28237 28239 28242 28245 28248 28251 28253 28256 28259 28262 28265 28268 28271 28274 28277 28280 28283 28286 28289 28292 28295 28298 28301 28304 28306 28309 28311 28314 28317 28319 28321 28324 28326 28329 28332 28335 28338 28340 28343 28346 28349 28351 28354 28357 28360 28363 28366 28369 28372 28375 28377 28380 28383 28386 28388 28391 28394 28397 28400 28403 28405 28408 28411 28414 28416 28418 28421 28424 28427 28429 28432 28434 28437 28440 28443 28446 28449 28452 28455 28458 28461 28464 28467 28470 28473 28476 28479 28482 28485 28488 28491 28494 28497 28500 28503 28506 28508 28510 28513 28516 28519 28522 28525 28527 28529 28532 28535 28538 28541 28544 28546 28549 28552 28555 28558 28561 28564 28567 28570 28573 28576 28579 28582 28585 28587 28590 28593 28596 28599 28602 28604 28607 28610 28613 28616 28619 28621 28624 28627 28630 28633 28636 28639 28642 28645 28648 28651 28654 28656 28659 28662 28665 28668 28671 28674 28677 28680 28683 28686 28689 28692 28694 28696 28699 28702 28705 28708 28711 28714 28717 28720 28723 28726 28728 28731 28734 28737 28740 28743 28745 28748 28751 28754 28757 28760 28763 28766 28769 28772 28774 28777 28779 28782 28785 28788 28791 28794 28797 28800 28803 28806 28809 28812 28815 28818 28820 28823 28826 28829 28831 28834 28836 28839 28842 28845 28847 28850 28852 28855 28858 28861 28864 28867 28870 28873 28876 28879 28881 28884 28887 28890 28893 28896 28899 28902 28905 28908 28911 28914 28917 28920 28923 28926 28929 28932 28935 28938 28941 28944 28947 28950 28953 28956 28958 28961 28964 28967 28970 28973 28976 28979 28982 28984 28987 28990 28992 28995 28998 29000 29003 29005 29008 29011 29013 29016 29019 29022 29024 29027 29030 29033 29036 29039 29042 29045 29048 29051 29054 29056 29059 29062 29065 29068 29071 29073 29076 29078 29081 29083 29086 29089 29092 29095 29098 29101 29104 29106 29108 29111 29114 29117 29119 29121 29124 29126 29129 29132 29135 29138 29141 29143 29146 29149 29151 29154 29157 29160 29163 29166 29169 29171 29174 29177 29180 29182 29185 29188 29191 29194 29197 29199 29202 29204 29207 29209 29212 29215 29218 29221 29224 29227 29230 29233 29236 29239 29242 29245 29248 29251 29254 29257 29260 29263 29266 29269 29272 29275 29278 29281 29284 29287 29290 29293 29296 29298 29301 29304 29307 29310 29313 29316 29319 29321 29324 29327 29330 29332 29335 29337 29340 29343 29345 29348 29351 29354 29356 29359 29362 29365 29368 29370 29373 29376 29379 29382 29385 29388 29391 29394 29397 29400 29403 29406 29409 29411 29414 29417 29420 29423 29426 29429 29431 29434 29437 29440 29443 29446 29449 29452 29455 29458 29461 29464 29467 29469 29472 29475 29478 29481 29484 29487 29489 29492 29495 29498 29501 29504 29507 29509 29512 29514 29517 29520 29523 29525 29528 29531 29534 29537 29540 29543 29545 29548 29551 29554 29557 29560 29563 29566 29569 29572 29575 29578 29581 29584 29587 29590 29593 29595 29598 29601 29604 29607 29610 29613 29616 29619 29622 
</DataArray>
<DataArray type="UInt32" Name="types" format="ascii">
5 5 5 5 5 3 5 5 5 5 5 5 5 5 5 5 3 5 5 3 5 3 5 5 5 5 3 5 5 5 5 5 5 3 5 5 5 5 5 5 3 3 5 5 3 3 5 5 5 5 5 5 5 5 5 5 3 3 5 5 5 3 5 5 5 5 3 5 5 5 5 5 5 5 5 5 5 5 3 5 5 5 3 5 5 5 3 5 5 5 5 3 5 5 5 5 5 5 3 5 5 3 5 5 5 5 3 5 5 5 5 5 3 5 5 5 5 5 5 5 5 5 5 5 5 5 5 5 5 5 5 5 5 5 5 3 5 5 5 3 5 5 5 5 5 5 3 5 5 5 5 5 5 5 5 5 5 5 5 5 5 5 5 5 5 5 5 5 5 5 3 5 3 5 5 5 5 5 5 5 5 5 5 5 5 3 5 5 5 5 5 5 5 5 5 5 5 5 3 5 5 5 5 5 5 5 5 5 5 5 5 3 5 5 5 3 3 5 5 5 5 5 5 5 3 5 5 5 5 5 5 5 5 5 3 5 5 3 5 5 5 5 5 5 5 5 5 5 5 5 5 5 5 5 5 5 3 5 5 5 5 5 5 5 5 5 3 5 5 5 5 5 5 5 5 5 5 5 5 5 5 5 3 5 5 5 5 5 5 5 5 5 5 5 5 5 5 5 5 5 5 3 5 5 5 5 3 5 5 5 5 5 5 5 5 3 5 5 3 5 5 5 5 5 5 5 5 5 5 5 5 5 5 5 5 5 5 5 5 5 5 5 3 5 5 5 5 3 5 5 5 5 5 3 3 5 5 3 3 5 5 5 5 5 5 5 3 5 5 5 5 5 5 5 5 3 5 5 5 5 5 5 5 5 3 5 5 5 5 3 5 5 5 5 5 5 3 5 5 5 5 5 5 5 5 5 5 5 5 5 5 5 5 5 5 5 5 5 5 5 5 5 5 5 5 5 3 5 5 5 5 5 5 5 5 3 5 5 5 3 5 5 3 5 5 5 5 5 5 5 5 3 5 5 5 3 5 3 5 5 5 5 3 5 5 3 5 5 3 5 5 5 3 5 5 5 5 5 5 5 5 5 5 5 5 5 5 5 5 5 5 5 5 5 5 5 3 5 5 5 5 5 5 5 5 3 5 5 5 5 5 5 5 5 5 5 5 5 5 3 5 5 5 5 5 5 5 5 5 5 5 5 5 5 5 5 5 5 5 5 5 3 5 5 5 3 5 5 3 5 5 5 5 3 5 5 5 5 5 5 5 3 5 3 5 5 5 5 5 5 5 5 5 5 5 5 5 5 5 5 5 5 5 5 5 5 3 5 3 5 3 5 5 3 3 5 5 5 5 5 5 5 5 5 5 5 5 5 5 5 5 5 3 5 5 5 5 3 5 5 5 5 3 3 5 3 5 5 5 5 5 5 5 5 5 5 5 5 5 5 5 5 5 5 5 5 5 5 5 5 5 5 3 5 5 5 5 5 5 5 5 5 5 5 5 3 5 5 5 3 5 3 5 5 5 5 5 5 5 5 5 5 3 5 5 5 3 5 5 5 5 5 5 5 5 5 3 5 5 5 5 3 5 5 5 5 5 5 5 5 5 3 5 5 3 5 5 5 5 5 3 5 5 5 5 3 5 5 5 5 5 5 5 3 3 5 5 5 5 5 5 3 5 3 5 5 3 5 3 5 5 5 3 5 5 5 5 3 5 5 3 5 3 3 5 3 3 5 5 3 5 3 5 5 5 3 3 5 5 5 5 5 3 5 5 5 5 5 5 5 5 3 5 3 5 5 5 5 3 3 5 5 3 5 5 5 5 5 3 5 5 3 5 3 5 3 3 5 3 5 3 3 3 5 5 3 5 3 5 5 3 5 5 5 5 5 3 5 5 3 5 5 5 5 3 5 5 5 5 5 5 5 3 5 3 5 5 5 3 5 5 5 5 5 5 5 5 5 5 5 5 5 5 5 5 5 5 3 5 5 5 5 5 5 5 5 5 3 5 5 5 5 5 5 5 5 5 5 5 5 5 3 5 5 5 5 5 5 5 5 5 5 5 5 5 5 5 5 5 5 5 5 5 5 5 5 5 5 5 5 5 5 5 5 5 5 5 5 5 5 5 5 3 5 5 5 5 5 5 5 5 5 5 5 5 5 5 5 3 3 5 5 3 5 5 5 5 5 5 5 5 5 5 5 5 5 5 5 5 5 5 5 5 3 5 3 5 5 5 5 5 3 3 5 5 5 5 5 5 5 5 5 5 5 5 5 5 5 5 5 5 5 5 5 5 5 5 5 5 5 5 5 5 5 5 5 5 5 5 5 5 5 5 5 5 5 5 5 5 5 5 5 5 5 5 5 5 5 5 3 5 5 5 5 5 5 5 3 5 5 5 5 3 5 5 5 5 5 5 5 5 5 5 5 5 5 5 5 3 5 5 5 5 3 5 5 5 5 3 5 5 3 5 5 3 5 5 5 5 3 5 5 5 5 5 5 5 5 5 5 5 5 5 5 5 5 5 5 5 5 5 5 5 5 3 5 3 5 5 5 5 5 5 5 5 5 5 5 5 3 5 5 5 5 5 3 5 5 5 5 5 5 5 5 5 5 5 3 3 5 5 3 5 5 5 5 3 5 5 3 5 5 5 5 5 5 3 5 5 5 5 5 5 5 5 5 5 5 5 5 5 5 5 5 3 5 5 3 5 5 5 3 5 3 5 5 5 5 3 5 5 5 5 5 5 5 3 5 5 5 5 3 3 5 5 3 5 5 5 3 5 5 3 5 5 3 5 5 3 5 5 5 3 5 5 5 5 5 5 5 5 5 5 5 3 5 5 5 3 3 5 5 3 5 5 3 5 5 3 5 3 5 5 5 3 3 3 5 5 3 5 5 5 5 5 3 5 5 5 5 3 5 5 3 5 5 3 3 5 5 5 5 3 5 5 5 3 5 3 5 5 5 5 5 5 5 5 3 5 5 5 3 5 5 5 5 5 5 5 5 5 5 5 3 5 5 5 5 5 3 3 5 3 3 5 5 5 3 5 3 5 5 3 5 5 5 5 5 5 5 5 5 3 5 5 5 5 3 5 5 5 5 5 5 5 5 5 3 5 5 5 5 5 3 3 5 5 3 5 5 5 5 5 3 5 3 5 5 5 3 5 5 5 5 5 5 5 5 5 3 3 5 5 5 3 5 5 3 3 5 5 5 3 5 5 5 5 5 5 3 5 5 5 3 3 5 5 5 3 3 5 5 3 5 5 5 3 5 3 5 5 5 3 5 5 5 5 5 5 3 3 5 3 5 5 3 5 3 3 5 5 3 5 5 5 5 5 3 5 5 5 5 3 5 5 5 5 5 5 5 3 5 5 5 5 3 5 5 5 5 5 5 5 5 5 5 3 5 5 3 3 5 5 5 5 5 5 5 3 5 5 5 3 3 5 5 5 5 5 5 5 5 3 5 5 5 5 3 5 5 5 5 5 3 5 5 5 5 5 5 5 5 5 5 5 5 5 5 5 5 5 5 5 5 5 3 5 5 3 5 5 5 5 3 5 5 5 5 5 5 5 5 5 5 5 5 5 5 5 5 5 5 5 5 5 5 5 5 5 5 5 5 5 5 5 5 5 5 5 5 5 5 5 5 5 5 5 5 5 5 5 5 5 3 5 5 5 5 5 5 3 5 5 5 5 3 5 3 5 5 3 5 5 5 5 5 5 5 5 5 5 5 5 5 3 5 5 3 5 5 3 5 3 5 5 5 5 5 5 5 5 5 5 5 5 5 5 5 5 5 5 5 5 5 5 3 5 5 5 5 5 5 5 5 5 5 5 5 5 5 5 5 5 5 5 5 5 5 5 5 5 5 5 5 5 5 5 5 5 5 3 5 5 5 5 5 5 3 5 5 3 3 5 5 5 5 5 5 5 3 5 5 3 5 5 5 5 5 5 3 5 5 5 3 5 3 5 5 5 3 5 5 5 3 5 5 5 5 5 3 5 5 3 5 3 3 5 5 3 5 3 5 5 5 5 5 3 5 5 3 5 3 5 5 3 5 5 5 5 5 3 3 3 5 5 5 5 5 5 5 5 5 5 3 5 5 3 5 5 3 3 3 5 3 5 5 5 5 3 5 3 5 5 5 3 5 3 5 3 5 5 5 3 5 5 3 5 3 3 3 5 5 3 5 3 3 5 5 5 5 5 5 5 5 5 5 5 5 3 5 5 5 5 3 5 5 5 3 3 3 5 5 5 3 5 3 5 3 5 5 5 5 5 5 3 5 5 3 3 3 5 5 5 3 5 3 5 5 5 5 5 5 5 3 5 5 5 5 3 5 5 5 3 5 3 3 5 3 5 5 5 5 5 5 5 5 5 5 5 5 5 5 3 5 5 5 5 5 5 5 5 5 5 5 3 5 5 5 5 5 5 5 5 5 5 5 5 5 5 5 5 5 3 5 5 5 5 3 5 5 5 5 5 5 5 5 5 5 5 5 5 5 5 5 3 5 3 5 5 5 5 3 5 5 3 5 5 3 5 5 3 3 5 5 3 5 5 3 5 5 5 3 5 5 5 5 3 5 3 5 5 5 5 5 5 5 5 5 5 5 5 5 5 5 5 5 5 5 5 5 5 5 5 5 3 5 5 3 5 5 5 5 5 5 5 5 5 5 5 3 5 5 5 5 3 5 5 3 5 5 5 5 5 3 5 3 5 5 5 5 5 5 5 5 5 5 5 5 5 5 5 5 5 5 5 5 5 5 5 5 5 3 5 3 5 3 3 5 5 5 5 5 3 5 5 5 5 5 5 3 5 5 5 5 5 5 3 3 5 5 5 5 3 5 5 5 5 5 5 5 5 5 5 5 5 5 5 5 5 5 5 3 5 3 3 5 5 5 5 5 5 5 3 5 5 5 3 3 5 5 5 5 5 5 5 5 5 5 5 5 5 5 5 5 5 5 5 5 5 5 5 5 5 5 5 5 3 5 5 5 5 3 5 5 5 5 5 5 5 5 5 5 5 5 5 5 5 5 5 5 3 5 5 5 5 5 5 5 5 3 3 5 3 5 5 5 5 5 5 5 5 5 5 5 3 5 3 5 5 5 5 5 5 5 5 5 3 5 5 5 3 3 5 5 5 3 3 5 3 5 5 5 5 5 5 5 5 5 3 5 5 5 5 5 5 5 3 5 5 5 5 5 5 3 5 5 5 5 5 5 3 5 5 5 5 5 5 5 5 5 5 5 5 5 5 5 3 5 5 5 5 5 5 5 5 5 5 5 5 5 5 5 3 5 5 5 5 5 5 5 5 5 5 3 5 5 5 3 5 5 5 5 5 5 5 3 5 5 5 3 5 5 3 5 5 5 3 3 5 5 5 3 5 5 5 5 5 5 5 3 5 5 5 5 5 3 5 5 5 5 3 5 5 5 5 5 5 5 5 3 5 5 5 5 5 5 5 5 5 5 5 5 5 5 5 5 5 5 5 5 5 5 5 5 5 5 5 5 5 5 5 5 5 3 5 5 3 5 5 5 3 3 5 5 5 5 3 3 5 5 5 5 5 3 5 5 5 5 5 5 5 3 5 5 5 5 5 3 5 5 5 3 5 5 5 5 5 3 3 5 5 5 5 5 5 5 5 5 5 5 3 5 5 3 5 5 5 5 5 5 5 5 5 5 5 5 5 3 3 5 5 5 5 5 5 5 5 5 5 5 5 5 5 3 5 5 5 3 5 5 5 5 5 5 5 5 5 5 5 5 5 5 3 5 3 5 3 5 5 5 5 5 3 3 5 5 5 5 5 3 5 5 5 5 5 5 5 5 5 5 3 5 5 5 5 5 5 5 5 5 5 5 5 5 5 5 5 5 5 5 5 3 5 5 5 5 5 5 5 5 5 5 5 5 5 5 5 5 5 5 5 5 5 5 5 5 5 3 5 5 5 5 5 5 5 3 5 5 5 3 5 5 5 5 3 5 3 5 5 5 5 5 5 3 5 5 5 3 5 5 5 5 3 5 3 5 3 5 5 5 3 5 3 5 5 5 5 5 5 5 5 3 5 5 5 5 5 5 3 5 5 5 5 5 3 3 3 5 5 5 5 5 5 5 5 5 5 5 5 5 3 5 3 5 5 5 5 5 5 5 5 5 3 5 5 3 3 5 5 3 5 5 5 5 3 5 5 5 5 3 5 5 5 5 5 3 5 5 5 5 3 5 5 5 3 5 5 5 5 5 3 5 5 5 5 5 5 5 5 5 3 5 5 5 5 5 5 5 5 5 3 5 5 5 5 5 5 5 5 5 5 3 5 5 3 5 3 5 5 5 5 5 5 5 5 5 5 3 5 3 5 5 5 5 5 5 5 5 5 5 5 3 5 5 5 3 5 5 5 5 3 5 5 3 5 5 5 5 5 5 5 5 5 5 5 5 5 5 5 5 5 5 5 5 5 5 5 5 5 5 5 3 5 5 5 5 3 5 3 3 5 5 5 5 5 3 3 5 5 5 5 5 5 5 5 5 5 5 5 5 5 5 5 5 5 5 3 5 5 5 5 3 5 5 5 5 5 5 5 3 3 5 5 3 5 5 3 5 3 5 3 5 5 5 5 5 3 5 5 3 5 3 5 5 5 5 5 5 5 5 5 5 5 5 5 5 5 5 3 5 3 5 5 5 5 5 5 5 5 5 5 5 5 5 5 5 5 5 5 5 5 5 5 5 5 5 5 5 5 5 5 5 5 5 5 5 3 5 5 5 5 3 5 5 5 5 5 5 5 5 5 5 5 5 5 3 5 3 5 5 5 3 3 5 5 5 5 5 3 5 5 5 5 3 5 5 3 5 5 5 5 5 5 5 5 5 5 5 5 5 5 5 5 5 5 5 5 5 5 5 5 5 5 5 5 5 5 5 5 5 5 5 5 3 5 5 5 5 5 5 5 5 5 5 5 5 5 5 5 5 5 5 5 5 5 5 5 5 5 5 5 5 5 5 5 5 3 5 3 5 5 5 5 3 5 5 5 5 3 5 5 5 5 5 5 5 5 5 5 5 5 5 5 5 5 5 5 5 3 5 5 5 5 5 5 3 5 5 5 5 5 3 5 5 5 5 5 5 5 5 5 5 5 3 5 5 5 5 5 5 5 5 3 5 5 5 5 5 5 5 3 5 5 5 5 5 5 5 5 5 5 5 5 5 5 5 5 5 5 5 5 3 5 3 5 5 5 5 5 5 5 5 5 3 3 5 5 3 5 5 5 3 5 5 5 5 3 5 5 5 3 5 5 5 5 5 5 5 5 5 5 5 3 5 5 3 5 5 5 5 3 5 5 3 5 5 5 5 5 5 5 5 5 5 5 5 5 3 5 5 5 5 5 5 3 5 5 5 3 5 5 5 5 5 5 5 5 3 5 5 5 3 5 5 5 3 5 3 5 5 5 5 5 5 5 5 5 5 3 5 3 5 3 5 3 5 5 5 5 5 5 5 5 3 5 3 5 5 5 5 3 5 5 5 5 5 3 5 5 5 5 3 5 5 5 5 5 3 5 3 5 3 3 5 5 5 5 3 5 5 5 5 5 5 5 5 5 5 5 5 5 5 5 5 5 5 5 5 5 5 3 5 3 5 3 5 5 5 3 5 3 5 5 5 3 5 5 5 5 5 5 5 5 5 5 5 5 5 5 5 5 5 5 5 5 5 5 5 5 5 5 5 5 5 5 5 5 5 5 5 5 5 5 5 5 5 5 5 5 5 5 5 5 5 5 5 5 5 5 5 5 5 5 5 5 5 5 5 5 5 5 5 5 5 5 5 5 5 5 5 5 5 5 5 3 5 5 5 5 5 5 3 5 5 5 5 5 5 3 5 5 5 5 5 3 5 5 5 3 5 5 5 5 5 5 3 5 5 3 5 3 3 5 5 5 3 5 5 5 5 5 5 5 5 5 5 5 5 5 5 5 5 5 5 5 5 5 5 5 5 5 5 5 5 5 5 5 5 5 5 5 5 3 5 5 5 5 5 3 5 5 5 5 5 5 5 5 5 3 3 5 5 3 5 3 5 5 3 3 5 5 3 5 5 5 5 5 5 5 5 5 5 5 5 5 3 5 5 5 5 5 5 5 5 5 5 5 5 5 5 5 5 5 5 5 5 3 5 5 5 5 3 5 5 3 5 5 5 5 5 5 5 5 5 5 5 3 5 5 5 5 5 5 5 5 5 5 5 5 5 5 3 5 5 5 5 3 5 5 5 5 5 3 5 5 5 5 5 5 5 5 5 5 5 5 5 3 5 5 5 5 5 5 5 5 5 5 5 5 5 5 5 5 5 5 3 3 5 5 5 5 5 5 5 5 5 5 3 5 5 5 5 5 5 5 5 5 5 5 3 5 5 5 5 3 5 5 5 5 5 5 5 5 5 5 5 5 3 5 5 5 5 5 5 5 5 5 5 5 5 5 5 5 5 5 5 5 5 5 3 3 5 5 5 5 5 5 5 5 5 5 5 3 3 5 5 5 5 5 3 5 5 5 5 3 3 5 3 5 5 3 5 3 5 5 5 3 5 5 5 5 3 5 5 5 5 5 3 5 5 5 3 5 5 5 5 5 3 5 5 5 5 5 3 5 5 3 5 5 3 5 5 5 3 5 5 5 3 5 5 5 3 5 5 5 3 5 3 5 5 5 5 5 5 5 3 5 5 5 3 5 5 5 5 5 5 5 5 5 5 5 5 5 5 5 5 5 5 5 5 5 5 5 5 5 5 5 5 5 5 5 5 5 5 5 5 5 5 5 5 5 5 5 5 5 5 5 5 5 5 5 5 5 5 5 5 5 5 5 5 5 5 5 5 5 5 5 5 5 5 5 5 5 5 5 5 5 5 3 5 5 3 5 5 5 5 5 5 5 5 5 5 5 5 5 5 3 5 5 3 5 5 3 5 5 5 5 5 5 5 5 5 5 5 5 5 5 5 5 5 5 5 5 5 5 5 5 5 5 5 5 5 5 5 5 5 3 5 5 5 5 5 5 5 5 5 5 5 5 5 5 5 5 5 5 5 5 5 5 5 5 5 5 5 5 5 5 5 5 5 5 5 5 5 3 5 5 5 5 5 5 5 5 5 5 5 5 5 5 5 5 5 5 5 5 5 5 5 5 5 5 5 5 5 5 5 5 5 5 5 5 5 5 5 5 5 5 5 5 5 5 5 5 5 5 5 5 5 5 5 5 5 5 3 5 5 5 5 5 5 5 5 5 5 5 5 5 5 5 5 3 5 5 3 5 3 3 5 5 5 5 5 5 5 5 5 5 5 5 5 5 5 5 5 5 5 5 5 5 5 5 5 5 5 5 5 5 5 5 5 5 5 5 5 5 5 5 3 5 5 5 5 3 5 5 5 5 5 3 3 5 5 5 3 3 3 5 5 5 5 5 5 5 3 5 5 3 5 5 3 5 5 3 5 5 5 5 5 5 3 5 5 3 5 5 5 5 5 5 5 5 5 5 5 5 5 5 5 5 5 5 5 5 5 5 5 5 5 5 3 5 5 5 5 5 5 5 5 5 5 5 5 5 5 5 5 5 5 5 5 5 5 5 5 5 5 5 5 5 5 5 5 5 5 5 5 5 5 5 5 5 5 5 5 5 5 5 5 5 5 5 5 5 5 5 5 3 5 5 3 3 5 5 3 3 5 5 5 3 5 3 5 5 5 3 5 5 5 5 5 5 5 5 5 5 5 5 5 5 3 5 5 5 5 5 3 5 5 5 5 5 5 5 5 3 5 5 5 5 5 3 5 5 5 5 5 5 5 5 5 5 5 5 5 5 3 5 5 5 3 3 5 5 5 5 5 5 5 5 3 5 3 5 3 5 3 5 5 3 5 3 5 5 5 5 5 5 5 5 5 5 5 3 5 5 5 5 5 5 5 5 5 5 3 5 5 5 5 5 5 5 5 5 5 5 5 5 5 5 3 5 5 5 5 5 5 5 5 3 5 5 3 3 5 3 3 5 3 5 5 3 5 3 5 3 5 3 5 5 5 5 5 3 5 5 5 3 5 5 5 5 5 5 5 5 5 3 5 5 5 5 5 5 5 5 5 5 5 5 5 5 5 5 5 5 5 3 5 5 5 5 5 5 5 3 5 3 5 5 5 5 3 5 5 5 5 5 5 3 5 5 5 5 5 5 5 5 5 5 5 5 5 5 5 5 5 3 5 5 5 5 3 5 3 5 5 5 3 3 5 5 5 5 5 3 5 5 5 3 5 5 5 3 3 5 5 5 5 5 3 3 5 3 5 5 5 5 5 5 5 5 5 5 5 5 5 5 5 5 3 5 5 5 5 3 5 5 3 5 5 5 5 5 5 5 5 5 5 5 5 5 5 5 5 5 5 3 5 5 5 5 5 5 5 5 3 5 5 3 5 5 5 5 3 5 5 5 5 5 5 3 3 5 5 5 5 5 3 5 5 5 5 3 5 5 3 5 5 5 5 3 3 5 5 5 5 3 3 5 5 5 5 5 5 5 5 5 5 3 5 5 5 5 5 3 3 5 5 5 5 5 5 5 5 5 5 5 5 3 5 5 5 5 5 5 5 5 3 5 5 5 3 5 5 5 5 3 5 5 3 5 5 5 5 5 5 5 5 5 5 5 5 5 5 5 5 5 5 5 5 5 5 5 5 3 5 5 5 5 5 5 5 5 5 5 5 5 5 5 5 5 5 5 5 5 5 5 5 5 5 5 5 5 3 5 5 3 5 5 3 5 5 5 5 3 5 5 5 5 5 3 5 5 5 5 5 5 3 5 5 5 5 5 5 5 5 3 5 5 5 5 5 5 5 5 5 5 5 5 5 5 5 5 5 5 3 5 5 3 5 3 5 5 3 5 5 5 5 5 5 5 5 5 5 5 5 5 5 5 5 5 5 5 5 5 5 5 5 5 5 5 5 5 5 5 3 5 5 3 5 5 3 3 5 5 5 5 5 5 5 5 5 5 5 5 5 5 5 5 5 5 5 5 5 5 5 5 5 5 5 5 5 5 5 5 5 3 5 3 5 3 5 5 5 5 5 3 5 5 5 5 5 3 5 3 5 3 5 5 5 5 5 5 5 5 3 5 3 5 5 3 5 5 5 5 5 5 3 5 3 3 5 5 5 5 5 5 5 5 3 5 5 3 5 5 3 5 3 5 5 5 3 3 5 3 5 5 5 5 5 5 5 5 5 5 5 5 5 5 5 5 5 5 5 3 5 5 5 5 5 5 5 5 5 5 5 5 5 5 5 5 5 5 5 5 5 5 5 5 5 5 5 5 5 5 5 5 5 5 5 5 5 5 5 5 5 5 5 5 5 5 5 5 5 5 5 5 5 5 3 5 5 5 5 3 5 5 5 5 5 5 5 5 5 5 5 5 5 5 5 5 3 5 3 5 5 5 5 5 5 5 3 3 3 5 5 5 5 3 3 3 3 3 5 5 3 5 5 5 5 3 5 5 5 5 5 5 5 3 5 5 3 3 5 5 5 5 5 5 3 5 3 3 5 3 3 5 5 5 5 3 5 3 5 5 3 5 5 3 5 3 5 5 3 5 3 5 5 5 5 3 5 5 5 5 3 5 5 3 5 5 5 5 5 5 3 5 5 5 5 5 5 5 5 5 3 5 3 5 5 5 5 5 5 5 3 5 5 5 5 5 5 5 5 5 5 5 3 3 5 5 3 3 5 5 3 5 5 5 3 5 3 3 5 5 5 3 3 5 5 3 5 5 3 5 3 5 3 5 5 5 5 5 3 5 5 3 5 3 3 5 3 3 5 5 5 5 5 5 3 3 5 3 5 5 5 5 3 5 5 5 5 5 5 5 5 5 5 5 5 5 5 5 5 5 5 5 5 5 5 5 5 5 5 5 5 5 5 5 5 5 5 5 5 5 5 5 5 5 5 5 5 5 5 5 5 5 5 5 5 5 5 5 5 5 5 5 5 5 5 5 5 5 5 5 5 5 5 5 5 5 5 5 5 5 5 5 5 5 3 5 5 5 5 5 5 3 5 5 5 5 5 5 3 5 5 3 5 5 5 5 5 5 5 5 5 5 5 5 5 5 3 5 5 5 5 5 3 5 5 5 5 3 5 5 5 5 5 5 5 5 5 5 5 5 5 5 5 5 5 5 5 5 5 5 5 5 5 5 5 5 5 5 5 5 5 5 5 3 5 5 5 5 5 5 5 5 5 5 5 5 5 5 5 5 5 5 5 5 5 5 5 5 5 5 5 5 5 5 5 5 5 5 5 5 5 5 5 5 5 5 5 5 5 5 5 5 5 5 5 5 5 5 5 5 5 5 5 5 5 5 5 5 5 5 5 5 5 5 5 5 5 5 5 5 5 5 5 5 5 5 5 5 5 5 5 5 5 5 5 5 5 5 5 5 5 5 5 5 3 5 5 5 5 5 5 5 5 5 5 5 5 5 5 5 5 5 5 5 5 5 5 3 5 3 5 5 5 5 5 3 3 5 5 3 5 3 5 5 3 5 5 5 5 5 5 5 5 5 5 5 5 5 5 5 5 5 5 3 5 5 5 3 5 5 5 3 5 3 5 5 5 5 5 5 5 5 5 5 3 5 5 5 5 3 3 3 5 5 5 5 5 5 5 5 3 5 5 5 5 5 5 5 5 3 5 5 3 5 5 5 5 5 3 5 3 5 3 3 5 3 5 5 3 5 3 5 5 5 5 5 5 5 5 3 5 3 3 5 3 5 3 5 5 5 3 3 5 5 3 5 3 5 3 5 5 5 5 5 3 5 5 5 5 5 5 5 5 5 3 5 3 5 5 5 5 5 5 5 3 5 5 5 3 5 3 3 5 5 5 5 5 3 3 5 5 5 5 5 5 5 5 3 5 3 5 3 5 5 5 5 5 3 5 5 5 5 5 5 5 5 5 5 5 5 5 5 5 5 5 5 5 5 5 5 3 5 5 5 5 5 3 5 5 5 5 3 5 5 5 5 5 5 5 3 5 5 3 5 5 5 5 5 5 5 5 5 5 5 5 5 3 5 3 5 5 5 5 5 5 5 5 5 5 5 5 5 3 5 5 5 3 5 5 3 5 3 5 5 5 5 5 5 3 5 5 5 5 5 5 5 3 5 5 3 5 3 5 3 3 3 5 5 5 3 5 5 3 5 3 5 5 5 5 5 5 5 5 5 5 5 5 5 5 5 5 3 5 3 5 5 5 5 5 5 5 5 5 5 5 5 5 5 5 5 3 5 5 5 5 3 5 5 5 5 5 5 5 5 5 5 5 5 5 5 5 5 5 5 5 5 3 5 5 5 5 3 5 5 5 5 5 5 3 5 5 5 5 5 5 5 5 5 5 5 5 5 5 3 3 5 5 5 5 3 5 5 5 5 3 3 5 5 5 5 5 5 5 5 5 5 5 5 5 5 3 5 3 5 5 5 5 5 5 5 5 5 5 5 5 5 5 5 5 5 5 5 5 5 5 5 5 5 5 5 5 5 5 5 5 5 5 5 5 5 5 5 5 5 3 5 5 5 5 5 5 5 5 5 5 3 5 5 5 5 5 5 5 5 5 5 5 5 5 5 5 5 3 5 5 3 5 3 5 5 5 5 5 3 5 3 5 5 3 5 5 5 5 5 5 5 5 5 5 5 5 5 5 5 5 3 5 5 3 5 5 5 5 5 5 5 5 5 5 5 5 5 5 5 5 5 5 5 5 5 5 5 5 5 5 5 5 5 5 5 5 5 5 5 3 5 5 5 3 5 5 5 5 5 5 5 5 3 5 5 5 3 5 5 3 5 5 5 5 3 3 5 3 5 5 5 5 5 3 5 3 5 3 5 5 5 5 5 5 5 3 5 5 5 5 5 3 5 5 5 3 5 5 5 3 5 5 3 5 5 3 5 5 5 5 5 5 5 5 5 3 5 5 5 5 5 5 3 5 5 5 3 3 5 5 5 5 5 5 5 5 5 5 5 5 5 5 5 5 5 5 5 5 3 5 5 5 5 5 5 5 5 3 5 5 5 5 5 5 5 5 5 5 5 5 5 3 5 5 3 5 5 5 5 5 5 5 5 5 5 5 5 5 5 5 5 5 5 5 5 5 5 5 5 5 5 5 5 5 5 5 5 5 5 5 5 5 5 5 5 5 5 5 5 5 5 5 5 5 5 5 5 5 3 5 5 5 5 5 5 5 5 5 5 5 5 5 5 5 5 5 5 5 5 5 5 5 5 5 5 5 5 5 5 5 5 5 5 5 5 5 5 5 5 5 5 5 5 5 5 5 5 5 5 5 5 5 5 5 5 5 5 5 5 5 3 5 5 5 5 5 5 5 5 5 3 5 5 5 5 5 5 5 3 5 5 5 5 5 5 5 5 3 5 5 5 5 5 5 5 3 3 5 5 5 5 5 5 5 5 5 5 5 5 5 5 5 5 5 5 5 5 5 5 3 5 5 5 5 5 5 5 5 5 5 5 5 5 5 5 5 5 5 5 5 5 5 5 5 5 5 5 5 5 5 5 5 5 5 5 5 5 5 5 5 5 5 5 3 5 5 5 5 5 5 5 5 5 3 5 5 5 5 5 5 3 5 5 5 5 5 5 5 3 5 3 5 5 3 5 5 5 5 3 5 3 5 3 5 5 3 5 5 5 5 5 5 5 5 5 5 5 5 3 5 5 5 5 5 5 5 5 5 5 5 5 5 5 5 5 5 5 5 5 5 5 5 5 5 5 5 5 5 5 3 5 5 5 5 5 5 5 5 5 5 5 5 5 3 5 5 3 5 5 5 3 3 5 5 3 3 5 5 5 5 5 5 5 5 5 5 5 5 5 3 5 5 5 5 3 5 3 5 5 3 3 5 5 5 5 3 5 5 5 3 5 5 5 5 5 5 5 5 5 5 5 5 5 5 3 3 5 5 5 5 5 5 5 3 5 5 3 5 3 5 5 5 5 5 3 3 5 5 3 5 5 3 5 3 5 5 5 5 5 3 3 5 5 5 5 5 3 5 3 5 5 5 5 3 5 5 5 5 3 5 5 5 5 5 5 5 5 3 5 5 3 5 5 5 5 5 5 5 5 5 3 5 5 5 5 5 5 5 5 5 5 5 5 5 3 5 5 5 5 3 5 5 5 5 5 5 3 5 5 5 3 5 3 3 5 5 5 5 5 5 5 5 5 5 5 5 3 5 5 5 5 5 3 5 3 5 5 5 5 5 5 3 5 5 5 5 5 5 5 5 5 5 5 5 5 5 5 5 3 5 5 5 5 5 5 5 5 5 5 3 5 5 5 3 3 5 5 5 5 5 3 3 5 3 5 5 3 5 5 5 5 3 5 5 5 5 5 5 5 5 5 5 5 5 3 5 5 5 5 3 5 5 5 3 5 5 5 3 5 5 5 3 5 5 5 3 5 5 5 5 5 5 5 5 5 5 5 5 5 3 5 5 5 3 5 5 5 5 5 5 3 5 5 5 5 5 5 5 5 5 5 5 5 3 5 5 5 5 5 3 5 5 5 5 3 5 5 5 5 5 5 5 5 5 5 5 3 5 5 5 5 5 5 3 5 5 5 5 5 5 5 5 5 5 5 5 5 5 5 5 5 5 5 5 5 3 5 5 5 5 3 5 5 5 5 5 5 5 5 5 5 3 5 3 5 5 5 5 3 5 5 5 5 5 5 5 5 3 5 5 5 5 5 3 5 5 5 3 5 5 5 5 5 3 5 5 5 5 5 5 3 3 5 5 5 3 5 5 3 3 3 5 5 5 3 5 5 5 3 5 5 5 5 5 5 5 5 5 5 5 3 3 5 5 5 5 3 5 5 5 5 5 5 5 5 5 5 5 5 5 3 5 5 5 3 5 5 5 5 5 5 5 5 3 5 5 3 5 5 5 5 5 5 3 5 5 5 5 3 5 5 3 3 5 3 3 5 5 3 5 5 3 5 5 5 5 5 5 5 5 3 5 5 5 3 5 5 5 5 5 5 5 5 5 5 5 5 5 5 5 5 5 5 5 5 5 5 5 5 5 5 5 5 5 5 5 5 5 3 5 5 5 5 5 5 5 5 5 5 5 5 5 5 5 5 5 3 5 5 5 5 5 5 5 5 5 3 5 5 5 5 5 3 5 3 5 5 5 5 5 5 5 5 5 5 5 5 5 5 5 5 5 5 5 5 5 3 5 5 5 5 5 5 5 5 5 5 5 3 3 5 5 5 3 5 5 5 5 5 5 5 5 5 3 5 5 5 5 5 5 5 3 5 3 5 5 5 5 5 5 5 5 5 5 5 5 5 5 5 5 5 5 5 5 5 5 3 5 5 5 5 5 5 5 5 5 5 5 5 5 5 5 5 5 5 5 3 5 5 5 5 5 5 5 5 5 5 5 5 5 5 5 5 5 5 5 5 5 5 5 5 5 5 5 5 5 5 5 5 5 5 5 5 5 5 5 5 5 5 5 5 5 5 5 5 5 5 5 5 5 5 5 5 5 5 5 5 5 5 5 5 5 5 5 5 5 5 5 5 5 5 5 5 5 5 5 5 5 5 5 5 5 5 5 5 5 5 5 5 5 5 5 5 5 5 5 5 5 5 5 5 5 5 5 3 3 5 5 5 5 5 5 3 3 5 5 5 5 5 5 5 5 5 5 5 5 5 5 3 5 5 5 5 5 5 5 5 5 5 5 5 5 5 5 5 5 3 5 5 5 5 5 5 5 5 5 5 3 5 5 5 3 5 5 5 5 5 5 5 5 5 5 5 5 5 5 5 3 5 5 3 5 5 5 5 5 5 5 5 5 5 5 5 5 5 5 5 3 5 5 3 5 5 5 5 5 3 5 5 5 5 5 5 3 3 5 5 5 3 5 5 3 3 5 5 5 5 3 3 5 5 5 3 5 5 5 5 5 5 3 3 5 5 3 5 3 3 5 5 5 5 3 5 5 3 5 5 5 5 3 5 5 5 5 5 5 5 3 5 5 5 5 5 5 5 5 5 5 5 5 5 5 5 5 5 5 5 3 5 5 5 5 3 5 5 5 5 5 3 5 5 5 5 3 5 5 5 5 3 5 5 5 5 5 3 5 5 5 5 3 5 5 5 5 5 5 3 5 5 3 3 5 5 3 5 5 5 5 3 5 3 5 5 5 3 3 3 5 5 5 5 5 3 5 5 3 5 5 5 5 5 5 5 5 5 5 5 3 5 5 5 5 5 3 5 3 3 5 5 5 3 3 5 5 3 5 5 5 3 5 3 5 5 5 3 5 5 5 3 3 5 5 5 5 5 5 5 5 5 5 5 5 5 5 5 5 5 5 5 5 5 5 5 5 5 5 5 5 5 5 5 5 5 5 5 5 5 5 5 5 5 5 5 5 5 5 5 5 5 3 5 5 3 5 5 5 3 5 5 5 5 3 5 5 5 3 5 5 3 5 5 5 3 5 3 5 3 5 5 5 5 5 3 5 5 5 5 5 5 5 5 5 5 5 5 5 5 5 5 3 5 5 3 5 5 5 5 5 5 3 5 5 3 5 5 5 5 3 3 3 3 5 5 5 5 5 5 5 5 3 3 5 5 5 5 3 5 5 5 5 5 5 5 3 5 5 5 5 5 5 5 5 5 5 5 5 5 5 5 5 5 5 5 5 5 5 5 5 5 5 5 5 5 5 5 5 5 5 5 5 5 5 5 5 5 5 5 5 5 5 5 5 5 5 5 5 5 5 5 5 5 5 5 5 5 5 3 5 5 5 5 5 3 3 5 5 5 3 5 5 3 5 3 5 5 3 5 5 5 5 5 5 5 5 5 5 5 5 5 5 5 5 5 5 5 5 5 5 5 5 5 5 5 5 5 5 3 5 5 5 5 5 5 3 5 5 5 3 5 5 5 5 5 5 5 3 5 5 5 5 5 5 5 5 3 5 5 3 5 5 5 5 5 5 5 5 5 5 5 5 5 5 5 5 5 5 5 5 5 5 5 5 5 5 3 5 5 5 5 5 5 5 5 5 3 5 5 5 5 5 5 5 5 5 3 5 3 5 5 3 5 3 5 5 5 5 5 5 5 3 5 5 5 5 5 5 5 5 5 5 5 5 5 5 5 3 5 5 3 5 5 5 5 5 3 5 5 3 5 5 3 3 5 5 3 5 5 5 3 5 3 5 5 5 5 3 5 5 5 5 5 5 5 5 5 3 5 5 5 5 5 5 5 5 3 5 5 5 5 3 5 3 5 5 5 5 5 3 5 3 3 5 5 3 5 5 5 5 5 3 5 3 5 5 5 5 5 3 5 5 3 5 3 5 5 5 5 5 5 3 5 5 5 5 3 5 5 3 3 5 5 5 5 5 5 3 5 5 5 5 5 5 5 5 5 5 3 5 5 5 3 5 5 5 5 5 5 5 5 5 5 3 5 5 5 5 5 5 5 5 5 5 5 5 5 5 5 5 5 5 3 5 5 5 5 5 3 5 3 5 5 5 5 5 5 5 5 5 5 3 5 5 5 3 5 5 5 5 5 5 5 5 5 5 5 5 5 5 5 5 3 5 5 5 5 5 5 5 3 5 5 5 5 3 5 5 5 5 3 5 5 3 5 5 3 5 5 5 5 3 3 5 5 5 5 5 5 5 5 5 5 5 5 5 5 5 5 5 5 5 5 5 3 5 5 5 5 3 5 5 5 5 5 5 5 5 3 5 3 3 5 5 5 3 5 5 5 5 5 5 5 5 5 3 5 3 5 5 5 3 5 5 3 5 3 5 5 5 5 3 3 5 5 5 5 3 5 3 3 5 5 5 5 5 5 5 5 5 5 5 5 5 5 5 5 3 5 5 5 5 5 5 5 5 5 5 5 5 5 5 5 5 5 5 5 5 5 5 5 5 5 5 5 5 5 5 5 5 5 5 5 5 5 3 5 5 5 5 5 3 5 5 5 3 5 5 5 5 5 5 3 3 5 5 5 5 3 5 5 5 5 5 5 5 3 5 5 5 5 5 3 5 5 5 3 5 5 5 5 3 5 5 5 5 5 5 3 5 5 5 5 5 5 5 5 5 5 5 3 5 5 5 5 5 5 5 5 5 5 5 5 5 5 3 5 5 3 5 3 3 5 5 5 5 5 5 5 5 5 5 5 5 5 5 5 5 5 5 5 5 5 3 5 5 5 5 5 5 5 5 5 5 5 5 5 5 5 5 5 5 5 5 5 5 5 5 5 5 5 5 5 5 5 5 5 5 5 5 5 5 5 5 5 5 5 5 5 5 5 5 5 5 5 5 5 5 5 5 5 5 5 5 5 5 5 5 5 5 3 5 5 5 5 3 3 5 5 5 5 3 5 5 5 5 5 5 5 5 5 5 5 5 3 5 5 5 5 5 5 5 5 5 5 5 5 3 5 5 5 5 5 5 5 5 5 5 3 5 5 3 5 5 5 5 5 5 5 5 5 5 5 5 5 5 5 5 5 5 5 5 5 5 5 5 5 3 5 5 3 5 5 3 5 5 5 5 5 5 3 5 5 5 5 3 5 5 5 5 5 5 5 5 5 5 5 5 5 5 5 5 5 5 5 5 5 3 5 5 5 5 5 5 5 5 5 5 5 5 5 5 5 3 5 3 5 5 5 5 5 5 5 5 5 5 5 5 5 3 5 5 5 5 5 5 3 5 5 3 5 5 5 5 5 5 5 5 3 5 5 5 5 5 5 3 5 5 5 5 5 5 5 5 5 5 5 5 5 5 5 5 5 5 5 5 5 5 3 5 5 5 5 5 5 5 5 5 5 5 5 5 5 5 5 5 5 5 5 5 5 3 5 5 5 5 3 5 5 3 5 5 3 5 5 5 5 5 3 3 5 3 3 5 5 5 3 5 5 3 5 5 5 5 5 5 5 5 5 5 5 5 5 5 5 5 5 5 5 5 5 5 5 5 5 5 5 5 5 5 5 5 5 5 5 5 5 5 5 5 5 5 5 5 5 5 3 5 5 5 5 5 5 5 5 5 5 5 5 5 3 5 5 3 3 5 5 5 5 5 5 5 3 5 5 3 5 5 5 3 5 5 5 3 5 5 5 5 5 5 5 5 5 5 5 5 5 5 5 5 5 5 5 5 5 3 5 5 5 5 3 5 3 5 3 5 5 3 3 5 5 5 5 5 5 5 3 5 3 5 5 5 5 5 5 5 5 5 3 5 3 5 5 5 3 5 5 3 5 3 5 5 5 3 5 5 5 5 5 5 5 5 5 5 5 3 5 5 5 5 3 5 5 5 5 5 5 5 5 5 5 5 5 5 5 5 5 5 5 5 5 3 5 5 5 3 5 3 3 3 5 5 5 5 5 5 5 5 5 5 5 5 3 5 5 3 5 3 5 3 5 5 3 5 5 5 5 3 5 5 5 5 5 5 5 3 5 5 5 5 5 5 5 5 5 5 3 5 5 5 5 5 5 5 5 5 5 5 5 5 3 5 5 5 3 3 3 5 5 5 5 5 5 3 5 5 5 5 5 3 5 5 5 5 5 5 3 5 5 3 5 5 3 5 5 5 3 5 5 3 5 5 5 3 5 5 3 3 5 5 5 5 3 5 5 5 5 5 5 5 5 5 5 5 5 5 5 5 5 5 5 5 5 5 5 5 5 5 5 5 5 5 5 5 3 5 5 5 5 5 5 5 5 3 5 5 5 5 5 5 5 5 5 5 5 3 5 5 5 5 5 5 5 5 5 5 5 5 5 5 5 5 5 3 5 5 5 5 5 3 5 5 3 5 5 5 5 5 5 3 5 5 5 3 5 5 3 5 5 5 3 5 3 5 5 5 5 3 5 5 5 5 5 3 3 5 5 5 5 5 5 5 5 5 5 5 5 3 5 5 5 5 5 5 5 5 5 5 5 5 5 3 5 5 5 3 5 5 3 5 5 3 5 3 5 5 3 5 5 5 5 3 3 5 3 5 5 5 5 5 5 5 5 5 5 5 5 5 3 5 5 5 5 5 3 5 5 5 5 5 5 5 5 5 5 5 5 5 5 5 5 5 5 5 5 5 5 5 5 5 5 5 5 5 5 5 3 5 5 5 5 3 5 5 5 3 5 5 5 5 5 5 5 5 5 5 5 5 5 5 5 3 5 5 5 5 5 5 5 5 5 5 5 5 5 5 3 3 5 3 5 3 5 5 5 5 5 5 5 5 5 5 5 3 5 5 5 5 5 3 5 5 5 5 5 5 3 5 5 5 5 5 5 5 5 5 5 5 5 5 5 5 5 5 5 5 5 5 5 5 5 3 5 5 5 5 5 3 5 5 5 5 5 5 5 5 5 5 5 5 5 5 5 5 5 5 5 5 5 5 5 5 3 5 5 5 3 5 5 5 5 5 5 5 5 5 5 5 5 5 5 5 5 5 5 5 5 5 5 5 5 5 5 5 5 5 5 3 5 5 3 5 5 5 5 5 5 5 5 5 3 5 3 5 5 5 5 5 5 5 5 3 5 5 5 3 5 5 5 5 5 5 3 5 5 5 3 5 5 5 5 5 5 5 5 5 5 5 5 5 5 5 5 5 5 5 5 5 5 3 5 5 5 5 5 5 3 5 5 5 3 3 5 5 5 5 5 5 3 3 5 3 5 3 5 5 3 5 3 5 5 5 5 3 3 5 5 5 5 5 5 5 5 5 3 5 5 5 5 5 3 5 5 5 5 5 5 5 5 5 5 3 5 3 5 5 5 5 5 5 5 5 5 5 5 5 5 5 5 5 5 5 5 5 5 5 5 5 3 5 5 5 5 5 5 5 5 5 5 5 3 5 3 5 5 5 5 5 5 5 5 5 5 5 3 5 5 5 3 5 5 5 3 5 5 5 5 5 5 5 5 5 5 5 5 5 5 5 5 5 5 3 5 3 5 5 5 5 5 3 5 3 5 5 5 3 5 5 5 5 5 5 3 5 5 3 5 5 5 5 5 5 5 5 5 5 5 5 5 5 5 5 5 5 5 5 5 5 5 5 5 5 5 5 5 5 5 5 5 5 5 5 5 5 5 5 5 5 5 5 5 5 5 5 5 5 5 5 5 5 3 5 5 5 5 5 3 5 5 5 5 5 5 5 5 5 5 5 5 5 5 5 5 5 5 5 5 5 5 5 5 5 5 5 5 5 5 5 5 5 5 5 5 5 5 5 5 5 5 5 5 5 5 5 5 5 5 5 5 5 5 5 5 5 5 5 5 5 5 3 5 5 5 5 3 5 5 5 5 5 5 5 5 5 5 5 5 5 5 5 5 5 3 5 5 5 3 5 3 5 5 5 5 5 5 5 5 5 5 5 5 5 5 5 5 3 5 5 5 5 3 5 5 5 5 5 5 5 5 5 5 5 5 5 5 5 5 5 3 5 3 5 5 3 3 5 3 5 5 5 5 3 5 5 5 3 5 5 5 5 5 5 5 5 3 5 5 5 3 5 5 5 5 5 3 5 5 5 3 3 5 5 5 3 5 3 5 5 5 5 5 5 5 5 5 5 5 5 5 5 5 5 5 5 5 5 5 5 5 5 3 3 5 5 5 5 5 3 3 5 5 5 5 5 3 5 5 5 5 5 5 5 5 5 5 5 5 5 3 5 5 5 5 5 3 5 5 5 5 5 3 5 5 5 5 5 5 5 5 5 5 5 3 5 5 5 5 5 5 5 5 5 5 5 5 3 3 5 5 5 5 5 5 5 5 5 5 3 5 5 5 5 5 3 5 5 5 5 5 5 5 5 5 3 5 3 5 5 5 5 5 5 5 5 5 5 5 5 5 3 5 5 5 3 5 3 5 5 5 3 5 3 5 5 5 5 5 5 5 5 5 3 5 5 5 5 5 5 5 5 5 5 5 5 5 5 5 5 5 5 5 5 5 5 5 5 5 3 5 5 5 5 5 5 5 5 3 5 5 3 5 5 3 5 3 5 5 3 5 5 5 3 5 5 5 5 5 5 5 5 5 5 3 5 5 5 5 5 3 5 3 5 3 5 5 5 5 5 5 5 3 3 5 5 5 3 3 5 3 5 5 5 5 5 3 5 5 3 5 5 5 5 5 5 3 5 5 5 3 5 5 5 5 5 3 5 3 5 3 5 5 5 5 5 5 5 5 5 5 5 5 5 5 5 5 5 5 5 5 5 5 5 5 5 5 5 5 5 3 5 5 5 5 5 5 5 3 5 5 5 3 5 3 5 5 3 5 5 5 3 5 5 5 5 3 5 5 5 5 5 5 5 5 5 5 5 5 5 3 5 5 5 5 5 5 3 5 5 5 5 5 5 5 5 5 5 5 5 3 5 5 5 5 5 5 3 5 5 5 5 5 5 3 5 3 5 5 5 3 5 5 5 5 5 5 3 5 5 5 5 5 5 5 5 5 5 5 5 5 5 5 5 3 5 5 5 5 5 5 5 5 5 
</DataArray>
</Cells>
<PointData Scalars="" Vectors="displacement," Tensors="">
<DataArray type="Float64" Name="displacement" NumberOfComponents="3" format="ascii">
-0.024562650440552156 -0.025066480190484436 0 -0.02515340265484239 -0.02402581958631517 0 -0.024998825041750425 -0.022876195015161995 0 -0.024562650440552156 -0.025066480190484436 0 -0.023469215210591067 -0.025795277207241753 0 -0.019651623791480912 -0.024999603956847551 0 -0.024562650440552156 -0.025066480190484436 0 -0.025000643106382572 -0.024999150541479373 0 -0.019651623791480912 -0.024999603956847551 0 -0.024562650440552156 -0.025066480190484436 0 -0.025000643106382572 -0.024999150541479373 0 -0.024998825041750425 -0.022876195015161995 0 -0.024562650440552156 -0.025066480190484436 0 -0.02515340265484239 -0.02402581958631517 0 -0.025588916232364416 -0.023769736287484904 0 -0.024504204972360201 -0.025035387702212909 0 -0.024549069348456087 -0.024816173453275647 0 -0.02515340265484239 -0.02402581958631517 0 -0.025573377204069242 -0.02358076331135521 0 -0.025588916232364416 -0.023769736287484904 0 -0.02515340265484239 -0.02402581958631517 0 -0.025573377204069242 -0.02358076331135521 0 -0.024998825041750425 -0.022876195015161995 0 -0.024998825041750425 -0.022876195015161995 0 -0.025000353202457755 -0.021310977748740061 0 -0.025623065691161739 -0.021861346878510123 0 -0.025573377204069242 -0.02358076331135521 0 -0.025621359667752291 -0.022671059094388574 0 -0.026295496037161931 -0.022523576722269439 0 -0.025573377204069242 -0.02358076331135521 0 -0.024998825041750425 -0.022876195015161995 0 -0.025621359667752291 -0.022671059094388574 0 -0.025621359667752291 -0.022671059094388574 0 -0.025623065691161739 -0.021861346878510123 0 -0.026138835085830557 -0.021953850265182012 0 -0.024998825041750425 -0.022876195015161995 0 -0.025621359667752291 -0.022671059094388574 0 -0.025623065691161739 -0.021861346878510123 0 -0.023777054611412874 -0.024124216733903178 0 -0.02304557991086419 -0.024564079743895101 0 -0.023770119458497378 -0.025190132079757205 0 -0.023777054611412874 -0.024124216733903178 0 -0.024843492869010511 -0.02413314517643558 0 -0.023770119458497378 -0.025190132079757205 0 -0.025621359667752291 -0.022671059094388574 0 -0.026295496037161931 -0.022523576722269439 0 -0.026138835085830557 -0.021953850265182012 0 -0.025557810885907428 -0.023322439449416889 0 -0.025145293342814665 -0.023470889367562045 0 -0.026295496037161931 -0.022523576722269439 0 -0.026138835085830557 -0.021953850265182012 0 -0.026532309921595682 -0.02170918166639756 0 -0.025573377204069242 -0.02358076331135521 0 -0.024843492869010511 -0.02413314517643558 0 -0.025170197819276163 -0.023593403033693928 0 -0.025574108982096205 -0.02353479243417542 0 -0.025557810885907428 -0.023322439449416889 0 -0.024843492869010511 -0.02413314517643558 0 -0.024562065860695904 -0.023752407615027907 0 -0.025170197819276163 -0.023593403033693928 0 -0.025394828993028015 -0.02365795581606071 0 -0.023258515625716847 -0.024892934275107421 0 -0.024562065860695904 -0.023752407615027907 0 -0.025170197819276163 -0.023593403033693928 0 -0.024045894159883095 -0.023208060276124931 0 -0.023777054611412874 -0.024124216733903178 0 -0.024562065860695904 -0.023752407615027907 0 -0.024045894159883095 -0.023208060276124931 0 -0.023777054611412874 -0.024124216733903178 0 -0.024843492869010511 -0.02413314517643558 0 -0.024562065860695904 -0.023752407615027907 0 -0.023777054611412874 -0.024124216733903178 0 -0.024045894159883095 -0.023208060276124931 0 -0.022487053198637266 -0.023854850111234682 0 -0.023258515625716847 -0.024892934275107421 0 -0.024549069348456087 -0.024816173453275647 0 -0.025170197819276163 -0.023593403033693928 0 -0.024962940404016452 -0.023525961896569716 0 -0.025588916232364416 -0.023769736287484904 0 -0.025573377204069242 -0.02358076331135521 0 -0.025170197819276163 -0.023593403033693928 0 -0.025588916232364416 -0.023769736287484904 0 -0.022372054100251674 -0.02649874757925905 0 -0.019651623791480912 -0.024999603956847551 0 -0.021088483851049031 -0.026506702996320287 0 -0.022372054100251674 -0.02649874757925905 0 -0.023469215210591067 -0.025795277207241753 0 -0.019651623791480912 -0.024999603956847551 0 -0.019651623791480912 -0.024999603956847551 0 -0.019777275918899873 -0.026459736124055826 0 -0.021088483851049031 -0.026506702996320287 0 -0.019651623791480912 -0.024999603956847551 0 -0.019777275918899873 -0.026459736124055826 0 -0.0182961994773021 -0.026220907633963769 0 -0.019637311128364993 -0.026243063610907044 0 -0.01837940075454287 -0.026231437533916394 0 -0.018846015837385571 -0.026626335401494863 0 -0.0194103431153692 -0.026067400325978752 0 -0.0182961994773021 -0.026220907633963769 0 -0.018846015837385571 -0.026626335401494863 0 -0.0194103431153692 -0.026067400325978752 0 -0.020023274304349237 -0.02656632902492485 0 -0.018846015837385571 -0.026626335401494863 0 -0.019686633226710083 -0.027526177163963602 0 -0.020023274304349237 -0.02656632902492485 0 -0.018846015837385571 -0.026626335401494863 0 -0.019686633226710083 -0.027526177163963602 0 -0.018253816889658513 -0.027429508628877171 0 -0.018846015837385571 -0.026626335401494863 0 -0.017924151173887938 -0.02658932767200874 0 -0.018253816889658513 -0.027429508628877171 0 -0.022191179182367984 -0.025995255014551803 0 -0.020887113854252851 -0.026812855720276113 0 -0.020750413261426081 -0.026004003226247383 0 -0.023258515625716847 -0.024892934275107421 0 -0.021662155780351477 -0.025295552302763497 0 -0.023258515625716847 -0.024892934275107421 0 -0.020714730369395678 -0.026397441738192327 0 -0.0194103431153692 -0.026067400325978752 0 -0.020750413261426081 -0.026004003226247383 0 -0.020023274304349237 -0.02656632902492485 0 -0.020887113854252851 -0.026812855720276113 0 -0.020750413261426081 -0.026004003226247383 0 -0.020023274304349237 -0.02656632902492485 0 -0.019637311128364993 -0.026243063610907044 0 -0.020714730369395678 -0.026397441738192327 0 -0.020447729410834909 -0.026135621721945255 0 -0.021662155780351477 -0.025295552302763497 0 -0.019686633226710083 -0.027526177163963602 0 -0.020887113854252851 -0.026812855720276113 0 -0.020023274304349237 -0.02656632902492485 0 -0.021103825612884621 -0.024563477065804515 0 -0.022487053198637266 -0.023854850111234682 0 -0.022349197028201113 -0.025091758159362806 0 -0.022487053198637266 -0.023854850111234682 0 -0.02304557991086419 -0.024564079743895101 0 -0.022349197028201113 -0.025091758159362806 0 -0.023777054611412874 -0.024124216733903178 0 -0.022487053198637266 -0.023854850111234682 0 -0.02304557991086419 -0.024564079743895101 0 -0.02304557991086419 -0.024564079743895101 0 -0.022349197028201113 -0.025091758159362806 0 -0.023770119458497378 -0.025190132079757205 0 -0.022349197028201113 -0.025091758159362806 0 -0.022807137100168458 -0.0261460288145949 0 -0.023770119458497378 -0.025190132079757205 0 -0.021103825612884621 -0.024563477065804515 0 -0.022349197028201113 -0.025091758159362806 0 -0.020887987071286074 -0.02556022153832898 0 -0.02180197463053048 -0.026043909053224634 0 -0.020887987071286074 -0.02556022153832898 0 -0.021067470296807025 -0.026579667806438445 0 -0.022349197028201113 -0.025091758159362806 0 -0.02180197463053048 -0.026043909053224634 0 -0.020887987071286074 -0.02556022153832898 0 -0.022349197028201113 -0.025091758159362806 0 -0.02180197463053048 -0.026043909053224634 0 -0.022807137100168458 -0.0261460288145949 0 -0.020447729410834909 -0.026135621721945255 0 -0.018820737815056318 -0.02608279768383347 0 -0.018820737815056318 -0.02608279768383347 0 -0.017951809487136806 -0.026989557909949339 0 -0.019686633226710083 -0.027526177163963602 0 -0.018549016378907629 -0.028224000637258342 0 -0.018253816889658513 -0.027429508628877171 0 -0.021103825612884621 -0.024563477065804515 0 -0.019909056653250667 -0.025284665093199644 0 -0.020887987071286074 -0.02556022153832898 0 -0.020887987071286074 -0.02556022153832898 0 -0.020252748321354208 -0.026313027283520432 0 -0.021067470296807025 -0.026579667806438445 0 -0.018820737815056318 -0.02608279768383347 0 -0.01989419928588625 -0.026105461445980256 0 -0.019909056653250667 -0.025284665093199644 0 -0.020887987071286074 -0.02556022153832898 0 -0.020252748321354208 -0.026313027283520432 0 -0.019017705872076539 -0.025092229333996918 0 -0.019452995094228997 -0.026141708070937596 0 -0.018585858640589707 -0.026346005770178121 0 -0.019452995094228997 -0.026141708070937596 0 -0.0192910762156112 -0.026930153095793677 0 -0.018585858640589707 -0.026346005770178121 0 -0.020252748321354208 -0.026313027283520432 0 -0.021067470296807025 -0.026579667806438445 0 -0.020242637285289494 -0.027272089201756323 0 -0.01989419928588625 -0.026105461445980256 0 -0.020232688727007304 -0.027297588453202806 0 -0.021067470296807025 -0.026579667806438445 0 -0.021041384251614465 -0.027371432431021143 0 -0.020242637285289494 -0.027272089201756323 0 -0.021041384251614465 -0.027371432431021143 0 -0.020242637285289494 -0.027272089201756323 0 -0.020492444657669313 -0.027847926394307127 0 -0.020242637285289494 -0.027272089201756323 0 -0.019713002443629387 -0.027574417831750516 0 -0.020492444657669313 -0.027847926394307127 0 -0.019452995094228997 -0.026141708070937596 0 -0.020242637285289494 -0.027272089201756323 0 -0.0192910762156112 -0.026930153095793677 0 -0.020242637285289494 -0.027272089201756323 0 -0.01963605633981581 -0.027283734045057441 0 -0.0192910762156112 -0.026930153095793677 0 -0.019713002443629387 -0.027574417831750516 0 -0.01932775427068804 -0.02734195505725413 0 -0.019178455454093333 -0.027616839097758732 0 -0.01963605633981581 -0.027283734045057441 0 -0.01932775427068804 -0.02734195505725413 0 -0.0192910762156112 -0.026930153095793677 0 -0.020242637285289494 -0.027272089201756323 0 -0.01963605633981581 -0.027283734045057441 0 -0.019713002443629387 -0.027574417831750516 0 -0.01963605633981581 -0.027283734045057441 0 -0.019713002443629387 -0.027574417831750516 0 -0.01932775427068804 -0.02734195505725413 0 -0.01932775427068804 -0.02734195505725413 0 -0.018822421210978959 -0.027320140507061087 0 -0.019178455454093333 -0.027616839097758732 0 -0.01932775427068804 -0.02734195505725413 0 -0.0192910762156112 -0.026930153095793677 0 -0.018822421210978959 -0.027320140507061087 0 -0.024777007790348724 -0.023587988774183586 0 -0.024086967430931458 -0.024568136226740762 0 -0.026611514562062795 -0.021253699915086296 0 -0.026674629287766181 -0.021009516625533256 0 -0.02646686582193469 -0.020929060488456361 0 -0.02180197463053048 -0.026043909053224634 0 -0.022807137100168458 -0.0261460288145949 0 -0.021946284394481742 -0.027074585745998886 0 -0.02180197463053048 -0.026043909053224634 0 -0.021067470296807025 -0.026579667806438445 0 -0.021946284394481742 -0.027074585745998886 0 -0.024086967430931458 -0.024568136226740762 0 -0.024659862650121413 -0.021978137800010036 0 -0.021067470296807025 -0.026579667806438445 0 -0.021041384251614465 -0.027371432431021143 0 -0.021946284394481742 -0.027074585745998886 0 -0.021041384251614465 -0.027371432431021143 0 -0.021946284394481742 -0.027074585745998886 0 -0.021117822810461189 -0.028286194191084829 0 -0.026674629287766181 -0.021009516625533256 0 -0.02646686582193469 -0.020929060488456361 0 -0.026625284245889339 -0.020866686351283401 0 -0.027015848676415741 -0.020064799615838225 0 -0.027553358840963563 -0.018521341551154393 0 -0.027680961867434697 -0.018927720096576627 0 -0.027516803570968501 -0.018362125587948475 0 -0.028605055819243726 -0.018184849068221477 0 -0.02646686582193469 -0.020929060488456361 0 -0.02614959437902771 -0.021029450438581704 0 -0.026380588366241835 -0.021237466762491657 0 -0.026611514562062795 -0.021253699915086296 0 -0.02646686582193469 -0.020929060488456361 0 -0.026380588366241835 -0.021237466762491657 0 -0.027680961867434697 -0.018927720096576627 0 -0.026337473763736147 -0.018522068773294875 0 -0.027516803570968501 -0.018362125587948475 0 -0.027015848676415741 -0.020064799615838225 0 -0.026434805549276828 -0.020371803819733879 0 -0.027680961867434697 -0.018927720096576627 0 -0.026707147429530509 -0.019741730111612961 0 -0.026337473763736147 -0.018522068773294875 0 -0.025750109066508643 -0.019412989843874278 0 -0.026337473763736147 -0.018522068773294875 0 -0.024999881615932116 -0.018457872058138137 0 -0.026707147429530509 -0.019741730111612961 0 -0.025750109066508643 -0.019412989843874278 0 -0.026337473763736147 -0.018522068773294875 0 -0.025750109066508643 -0.019412989843874278 0 -0.024999876340677029 -0.019883962179700367 0 -0.024999881615932116 -0.018457872058138137 0 -0.025750109066508643 -0.019412989843874278 0 -0.024999876340677029 -0.019883962179700367 0 -0.025846203369770254 -0.020533010911134585 0 -0.026707147429530509 -0.019741730111612961 0 -0.025750109066508643 -0.019412989843874278 0 -0.025846203369770254 -0.020533010911134585 0 -0.026434805549276828 -0.020371803819733879 0 -0.025712144182326608 -0.020878544420994287 0 -0.02614959437902771 -0.021029450438581704 0 -0.02563020968929041 -0.021197559543205572 0 -0.026095449898275714 -0.021481369246018719 0 -0.024999876340677029 -0.019883962179700367 0 -0.025846203369770254 -0.020533010911134585 0 -0.025000013166470433 -0.021310066583428072 0 -0.025712144182326608 -0.020878544420994287 0 -0.025000123710552165 -0.021310076100301306 0 -0.02563020968929041 -0.021197559543205572 0 -0.025000353202457755 -0.021310977748740061 0 -0.025623065691161739 -0.021861346878510123 0 -0.02563020968929041 -0.021197559543205572 0 -0.025623065691161739 -0.021861346878510123 0 -0.026095449898275714 -0.021481369246018719 0 -0.025623065691161739 -0.021861346878510123 0 -0.026138835085830557 -0.021953850265182012 0 -0.026095449898275714 -0.021481369246018719 0 -0.026138835085830557 -0.021953850265182012 0 -0.026532309921595682 -0.02170918166639756 0 -0.026095449898275714 -0.021481369246018719 0 -0.024777007790348724 -0.023587988774183586 0 -0.025145293342814665 -0.023470889367562045 0 -0.026611514562062795 -0.021253699915086296 0 -0.026532309921595682 -0.02170918166639756 0 -0.026380588366241835 -0.021237466762491657 0 -0.026532309921595682 -0.02170918166639756 0 -0.026380588366241835 -0.021237466762491657 0 -0.026095449898275714 -0.021481369246018719 0 -0.02614959437902771 -0.021029450438581704 0 -0.026380588366241835 -0.021237466762491657 0 -0.026095449898275714 -0.021481369246018719 0 -0.013676963561407079 -0.027357663606295518 0 -0.013492981971183536 -0.027582539990385305 0 -0.012692199944953566 -0.027116087801829371 0 -0.013676963561407079 -0.027357663606295518 0 -0.013897695841714528 -0.026598381573362594 0 -0.012692199944953566 -0.027116087801829371 0 -0.013975607038041023 -0.026613762174057049 0 -0.014471513346443841 -0.027315203562168267 0 -0.013897695841714528 -0.026598381573362594 0 -0.014923934531363148 -0.026869118504831362 0 -0.014661940486611057 -0.027105055231812072 0 -0.013676963561407079 -0.027357663606295518 0 -0.013897695841714528 -0.026598381573362594 0 -0.014331262287338217 -0.027608798467312998 0 -0.013897695841714528 -0.026598381573362594 0 -0.01443120026263712 -0.026005564930947155 0 -0.014923934531363148 -0.026869118504831362 0 -0.013897695841714528 -0.026598381573362594 0 -0.013184727006413351 -0.026091685590966605 0 -0.01443120026263712 -0.026005564930947155 0 -0.013897695841714528 -0.026598381573362594 0 -0.013184727006413351 -0.026091685590966605 0 -0.012692199944953566 -0.027116087801829371 0 -0.013184727006413351 -0.026091685590966605 0 -0.012673938427622931 -0.024999591771573754 0 -0.01443120026263712 -0.026005564930947155 0 -0.012673938427622931 -0.024999591771573754 0 -0.01443120026263712 -0.026005564930947155 0 -0.015627498144550001 -0.024999752266011883 0 -0.01443120026263712 -0.026005564930947155 0 -0.015504039771718192 -0.026524943479602919 0 -0.015627498144550001 -0.024999752266011883 0 -0.01443120026263712 -0.026005564930947155 0 -0.015504039771718192 -0.026524943479602919 0 -0.014923934531363148 -0.026869118504831362 0 -0.015504039771718192 -0.026524943479602919 0 -0.014923934531363148 -0.026869118504831362 0 -0.015423002987963381 -0.027138314079139331 0 -0.015504039771718192 -0.026524943479602919 0 -0.015955284502874482 -0.027020914526768983 0 -0.015423002987963381 -0.027138314079139331 0 -0.019651623791480912 -0.024999603956847551 0 -0.015627498144550001 -0.024999752266011883 0 -0.017595047482613549 -0.026054427440136335 0 -0.015504039771718192 -0.026524943479602919 0 -0.016486703753938549 -0.026459203424599086 0 -0.015955284502874482 -0.027020914526768983 0 -0.016486703753938549 -0.026459203424599086 0 -0.016569390127437519 -0.027221254299818733 0 -0.015955284502874482 -0.027020914526768983 0 -0.016486703753938549 -0.026459203424599086 0 -0.017581336558845348 -0.026591873444886265 0 -0.016569390127437519 -0.027221254299818733 0 -0.015504039771718192 -0.026524943479602919 0 -0.016486703753938549 -0.026459203424599086 0 -0.015627498144550001 -0.024999752266011883 0 -0.016486703753938549 -0.026459203424599086 0 -0.015627498144550001 -0.024999752266011883 0 -0.017595047482613549 -0.026054427440136335 0 -0.019651623791480912 -0.024999603956847551 0 -0.017595047482613549 -0.026054427440136335 0 -0.0182961994773021 -0.026220907633963769 0 -0.017595047482613549 -0.026054427440136335 0 -0.0182961994773021 -0.026220907633963769 0 -0.017924151173887938 -0.02658932767200874 0 -0.017595047482613549 -0.026054427440136335 0 -0.017924151173887938 -0.02658932767200874 0 -0.017581336558845348 -0.026591873444886265 0 -0.018846015837385571 -0.026626335401494863 0 -0.0182961994773021 -0.026220907633963769 0 -0.017924151173887938 -0.02658932767200874 0 -0.016486703753938549 -0.026459203424599086 0 -0.017595047482613549 -0.026054427440136335 0 -0.017581336558845348 -0.026591873444886265 0 -0.017511472341361772 -0.026554929793194397 0 -0.017067890491183159 -0.026577133562139699 0 -0.017581336558845348 -0.026591873444886265 0 -0.017593030859787348 -0.026343584284855708 0 -0.017574472787539357 -0.025935528739304908 0 -0.017924151173887938 -0.02658932767200874 0 -0.017593030859787348 -0.026343584284855708 0 -0.017517797768575726 -0.026350332098718721 0 -0.017924151173887938 -0.02658932767200874 0 -0.017581336558845348 -0.026591873444886265 0 -0.017593030859787348 -0.026343584284855708 0 -0.017867519927279078 -0.02656685253779878 0 -0.017951809487136806 -0.026989557909949339 0 -0.017449605982947421 -0.026112093639285117 0 -0.017517797768575726 -0.026350332098718721 0 -0.017624395202666853 -0.026125852599875286 0 -0.017593030859787348 -0.026343584284855708 0 -0.017517797768575726 -0.026350332098718721 0 -0.017624395202666853 -0.026125852599875286 0 -0.017624395202666853 -0.026125852599875286 0 -0.017750298220174775 -0.026019000968753533 0 -0.017574472787539357 -0.025935528739304908 0 -0.017593030859787348 -0.026343584284855708 0 -0.017624395202666853 -0.026125852599875286 0 -0.017574472787539357 -0.025935528739304908 0 -0.017750298220174775 -0.026019000968753533 0 -0.017194905614459494 -0.026347323015092024 0 -0.017574472787539357 -0.025935528739304908 0 -0.017449605982947421 -0.026112093639285117 0 -0.017624395202666853 -0.026125852599875286 0 -0.017750298220174775 -0.026019000968753533 0 -0.018820737815056318 -0.02608279768383347 0 -0.017584632279818508 -0.025890798251495713 0 -0.019017705872076539 -0.025092229333996918 0 -0.017750298220174775 -0.026019000968753533 0 -0.018585858640589707 -0.026346005770178121 0 -0.018585858640589707 -0.026346005770178121 0 -0.018494621435538296 -0.02689158334589295 0 -0.017746067147860922 -0.026783449108450774 0 -0.017750298220174775 -0.026019000968753533 0 -0.018585858640589707 -0.026346005770178121 0 -0.017746067147860922 -0.026783449108450774 0 -0.0192910762156112 -0.026930153095793677 0 -0.018585858640589707 -0.026346005770178121 0 -0.018494621435538296 -0.02689158334589295 0 -0.0192910762156112 -0.026930153095793677 0 -0.018494621435538296 -0.02689158334589295 0 -0.018822421210978959 -0.027320140507061087 0 -0.018494621435538296 -0.02689158334589295 0 -0.018270866560992728 -0.027172551598764378 0 -0.017746067147860922 -0.026783449108450774 0 -0.018270866560992728 -0.027172551598764378 0 -0.017983943001719245 -0.027428922205393939 0 -0.018528545423355962 -0.027451906427848439 0 -0.018494621435538296 -0.02689158334589295 0 -0.018270866560992728 -0.027172551598764378 0 -0.018822421210978959 -0.027320140507061087 0 -0.018270866560992728 -0.027172551598764378 0 -0.018822421210978959 -0.027320140507061087 0 -0.018528545423355962 -0.027451906427848439 0 -0.017746067147860922 -0.026783449108450774 0 -0.016943792293487712 -0.027108414219025212 0 -0.017368407539974387 -0.027412906579828953 0 -0.017746067147860922 -0.026783449108450774 0 -0.017983943001719245 -0.027428922205393939 0 -0.017368407539974387 -0.027412906579828953 0 -0.018270866560992728 -0.027172551598764378 0 -0.017746067147860922 -0.026783449108450774 0 -0.017983943001719245 -0.027428922205393939 0 -0.017750298220174775 -0.026019000968753533 0 -0.017746067147860922 -0.026783449108450774 0 -0.017194905614459494 -0.026347323015092024 0 -0.017194905614459494 -0.026347323015092024 0 -0.01643328529774029 -0.026933471560407762 0 -0.016789055252061549 -0.026083737376962755 0 -0.017746067147860922 -0.026783449108450774 0 -0.017194905614459494 -0.026347323015092024 0 -0.016943792293487712 -0.027108414219025212 0 -0.016943792293487712 -0.027108414219025212 0 -0.01643328529774029 -0.026933471560407762 0 -0.016399803849421156 -0.027535435231640409 0 -0.017194905614459494 -0.026347323015092024 0 -0.016943792293487712 -0.027108414219025212 0 -0.01643328529774029 -0.026933471560407762 0 -0.016943792293487712 -0.027108414219025212 0 -0.016399803849421156 -0.027535435231640409 0 -0.016971172861626756 -0.027506861953131286 0 -0.016943792293487712 -0.027108414219025212 0 -0.016971172861626756 -0.027506861953131286 0 -0.017368407539974387 -0.027412906579828953 0 -0.01643328529774029 -0.026933471560407762 0 -0.016399803849421156 -0.027535435231640409 0 -0.015792773077827914 -0.027324126541442909 0 -0.01643328529774029 -0.026933471560407762 0 -0.015622084588015561 -0.026992835723700984 0 -0.015792773077827914 -0.027324126541442909 0 -0.015807846428134591 -0.027351234436220003 0 -0.015407727710810341 -0.027170907660477066 0 -0.015622084588015561 -0.026992835723700984 0 -0.01643328529774029 -0.026933471560407762 0 -0.016789055252061549 -0.026083737376962755 0 -0.015622084588015561 -0.026992835723700984 0 -0.016298459434934708 -0.026730483339823204 0 -0.015700013548436413 -0.027006300423773458 0 -0.017194905614459494 -0.026347323015092024 0 -0.016789055252061549 -0.026083737376962755 0 -0.017574472787539357 -0.025935528739304908 0 -0.016298459434934708 -0.026730483339823204 0 -0.017067890491183159 -0.026577133562139699 0 -0.015807846428134591 -0.027351234436220003 0 -0.016569390127437519 -0.027221254299818733 0 -0.015955284502874482 -0.027020914526768983 0 -0.015807846428134591 -0.027351234436220003 0 -0.015955284502874482 -0.027020914526768983 0 -0.015423002987963381 -0.027138314079139331 0 -0.014923934531363148 -0.026869118504831362 0 -0.015122487976295351 -0.027166042550606201 0 -0.014661940486611057 -0.027105055231812072 0 -0.014923934531363148 -0.026869118504831362 0 -0.015423002987963381 -0.027138314079139331 0 -0.015122487976295351 -0.027166042550606201 0 -0.015122487976295351 -0.027166042550606201 0 -0.015156154719765362 -0.027213808435681195 0 -0.015407727710810341 -0.027170907660477066 0 -0.015122487976295351 -0.027166042550606201 0 -0.015156154719765362 -0.027213808435681195 0 -0.014661940486611057 -0.027105055231812072 0 -0.015807846428134591 -0.027351234436220003 0 -0.015423002987963381 -0.027138314079139331 0 -0.015407727710810341 -0.027170907660477066 0 -0.015423002987963381 -0.027138314079139331 0 -0.015122487976295351 -0.027166042550606201 0 -0.015407727710810341 -0.027170907660477066 0 -0.015407727710810341 -0.027170907660477066 0 -0.015622084588015561 -0.026992835723700984 0 -0.015051406720166497 -0.027020458561347729 0 -0.015622084588015561 -0.026992835723700984 0 -0.015051406720166497 -0.027020458561347729 0 -0.015344773570442777 -0.027212394454449746 0 -0.015622084588015561 -0.026992835723700984 0 -0.015344773570442777 -0.027212394454449746 0 -0.015792773077827914 -0.027324126541442909 0 -0.015156154719765362 -0.027213808435681195 0 -0.015407727710810341 -0.027170907660477066 0 -0.015051406720166497 -0.027020458561347729 0 -0.01487599743879974 -0.027481679108918741 0 -0.015017698754273908 -0.02710268544516151 0 -0.014589867307206439 -0.027763710691875988 0 -0.015051406720166497 -0.027020458561347729 0 -0.014804676543075424 -0.027463860128101633 0 -0.014804676543075424 -0.027463860128101633 0 -0.014941125251934365 -0.027451534849864227 0 -0.01449229097255123 -0.027913348383876265 0 -0.014941125251934365 -0.027451534849864227 0 -0.015223913128738428 -0.027446274367707732 0 -0.01449229097255123 -0.027913348383876265 0 -0.014941125251934365 -0.027451534849864227 0 -0.01495622334347034 -0.027149448526421559 0 -0.015160081394339038 -0.027170807142269233 0 -0.014804676543075424 -0.027463860128101633 0 -0.014941125251934365 -0.027451534849864227 0 -0.01495622334347034 -0.027149448526421559 0 -0.015051406720166497 -0.027020458561347729 0 -0.01495622334347034 -0.027149448526421559 0 -0.015000175922042272 -0.026832440497019314 0 -0.015051406720166497 -0.027020458561347729 0 -0.014804676543075424 -0.027463860128101633 0 -0.01495622334347034 -0.027149448526421559 0 -0.01495622334347034 -0.027149448526421559 0 -0.015174284338734275 -0.026801423781018633 0 -0.015160081394339038 -0.027170807142269233 0 -0.01495622334347034 -0.027149448526421559 0 -0.015174284338734275 -0.026801423781018633 0 -0.015000175922042272 -0.026832440497019314 0 -0.015174284338734275 -0.026801423781018633 0 -0.015000175922042272 -0.026832440497019314 0 -0.015234424760368445 -0.026372144439909356 0 -0.015530249163204765 -0.026656003792653059 0 -0.015809887248980081 -0.027423265980874127 0 -0.015590123080573632 -0.025769280923210628 0 -0.015503057674418548 -0.024266330398078208 0 -0.015590123080573632 -0.025769280923210628 0 -0.015326336982480523 -0.025250586707301018 0 -0.014479334920852989 -0.026325903348207041 0 -0.015905086405086522 -0.025583148247746414 0 -0.015174284338734275 -0.026801423781018633 0 -0.015363384762761645 -0.026392100711449037 0 -0.015234424760368445 -0.026372144439909356 0 -0.015174284338734275 -0.026801423781018633 0 -0.015530249163204765 -0.026656003792653059 0 -0.015363384762761645 -0.026392100711449037 0 -0.015174284338734275 -0.026801423781018633 0 -0.015353064617583059 -0.026958537204433253 0 -0.015160081394339038 -0.027170807142269233 0 -0.015174284338734275 -0.026801423781018633 0 -0.015530249163204765 -0.026656003792653059 0 -0.015353064617583059 -0.026958537204433253 0 -0.015353064617583059 -0.026958537204433253 0 -0.015583414429105259 -0.027071455497020867 0 -0.01539927792839251 -0.027229230961795504 0 -0.015353064617583059 -0.026958537204433253 0 -0.015160081394339038 -0.027170807142269233 0 -0.01539927792839251 -0.027229230961795504 0 -0.015530249163204765 -0.026656003792653059 0 -0.015583414429105259 -0.027071455497020867 0 -0.015809887248980081 -0.027423265980874127 0 -0.015530249163204765 -0.026656003792653059 0 -0.015353064617583059 -0.026958537204433253 0 -0.015583414429105259 -0.027071455497020867 0 -0.015782985495909965 -0.027463856642279294 0 -0.015223913128738428 -0.027446274367707732 0 -0.01449229097255123 -0.027913348383876265 0 -0.015579546042199507 -0.027280758268390739 0 -0.015550689978699676 -0.027393226934164981 0 -0.015809887248980081 -0.027423265980874127 0 -0.015550689978699676 -0.027393226934164981 0 -0.015782985495909965 -0.027463856642279294 0 -0.015223913128738428 -0.027446274367707732 0 -0.015583414429105259 -0.027071455497020867 0 -0.015579546042199507 -0.027280758268390739 0 -0.015809887248980081 -0.027423265980874127 0 -0.013976880406793296 -0.026861859548076777 0 -0.014650270962816432 -0.028293956487179008 0 -0.015583414429105259 -0.027071455497020867 0 -0.015579546042199507 -0.027280758268390739 0 -0.01539927792839251 -0.027229230961795504 0 -0.015579546042199507 -0.027280758268390739 0 -0.015550689978699676 -0.027393226934164981 0 -0.01539927792839251 -0.027229230961795504 0 -0.015550689978699676 -0.027393226934164981 0 -0.015782985495909965 -0.027463856642279294 0 -0.015768703100952648 -0.027358015846923392 0 -0.01498105431410918 -0.026440425229803052 0 -0.014479334920852989 -0.026325903348207041 0 -0.013976880406793296 -0.026861859548076777 0 -0.014479334920852989 -0.026325903348207041 0 -0.015160081394339038 -0.027170807142269233 0 -0.01539927792839251 -0.027229230961795504 0 -0.015223913128738428 -0.027446274367707732 0 -0.015550689978699676 -0.027393226934164981 0 -0.01539927792839251 -0.027229230961795504 0 -0.015223913128738428 -0.027446274367707732 0 -0.014941125251934365 -0.027451534849864227 0 -0.015160081394339038 -0.027170807142269233 0 -0.015223913128738428 -0.027446274367707732 0 -0.01349129069582034 -0.028890752612777914 0 -0.013811808317088703 -0.027981383438373607 0 -0.013410572732008139 -0.028099143987715864 0 -0.01349129069582034 -0.028890752612777914 0 -0.013811808317088703 -0.027981383438373607 0 -0.01449229097255123 -0.027913348383876265 0 -0.013811808317088703 -0.027981383438373607 0 -0.013497542427332405 -0.027765535539717001 0 -0.013410572732008139 -0.028099143987715864 0 -0.013811808317088703 -0.027981383438373607 0 -0.01449229097255123 -0.027913348383876265 0 -0.013915156084917663 -0.027695369917995434 0 -0.01487599743879974 -0.027481679108918741 0 -0.014471513346443841 -0.027315203562168267 0 -0.014589867307206439 -0.027763710691875988 0 -0.014804676543075424 -0.027463860128101633 0 -0.01449229097255123 -0.027913348383876265 0 -0.014589867307206439 -0.027763710691875988 0 -0.01449229097255123 -0.027913348383876265 0 -0.014331262287338217 -0.027608798467312998 0 -0.01449229097255123 -0.027913348383876265 0 -0.014331262287338217 -0.027608798467312998 0 -0.013915156084917663 -0.027695369917995434 0 -0.013676963561407079 -0.027357663606295518 0 -0.014331262287338217 -0.027608798467312998 0 -0.013915156084917663 -0.027695369917995434 0 -0.013676963561407079 -0.027357663606295518 0 -0.013492981971183536 -0.027582539990385305 0 -0.013915156084917663 -0.027695369917995434 0 -0.013492981971183536 -0.027582539990385305 0 -0.013497542427332405 -0.027765535539717001 0 -0.013915156084917663 -0.027695369917995434 0 -0.013811808317088703 -0.027981383438373607 0 -0.013497542427332405 -0.027765535539717001 0 -0.013915156084917663 -0.027695369917995434 0 -0.013492981971183536 -0.027582539990385305 0 -0.013497542427332405 -0.027765535539717001 0 -0.013219763472135352 -0.02767152279742794 0 -0.016522074055977897 -0.026639537163960024 0 -0.016063535948737846 -0.026119759198721913 0 -0.015603215979980205 -0.026984444447840372 0 -0.017887268022320112 -0.025859599554116989 0 -0.01476680147254796 -0.02616485196587106 0 -0.01830373477893539 -0.025424035216175759 0 -0.018435865499075645 -0.024628452366081272 0 -0.019121960048787027 -0.025098089377701707 0 -0.01830373477893539 -0.025424035216175759 0 -0.017582806443380793 -0.025725436986520914 0 -0.017708096474621928 -0.024978113759097042 0 -0.017887268022320112 -0.025859599554116989 0 -0.017367956119675221 -0.025870349451198635 0 -0.01830373477893539 -0.025424035216175759 0 -0.017708096474621928 -0.024978113759097042 0 -0.018435865499075645 -0.024628452366081272 0 -0.016522074055977897 -0.026639537163960024 0 -0.017049535676077279 -0.025850930036277742 0 -0.017582806443380793 -0.025725436986520914 0 -0.016522074055977897 -0.026639537163960024 0 -0.016519187214514463 -0.026019012591442917 0 -0.017049535676077279 -0.025850930036277742 0 -0.017049535676077279 -0.025850930036277742 0 -0.017434314974109275 -0.025724354922721286 0 -0.017582806443380793 -0.025725436986520914 0 -0.017049535676077279 -0.025850930036277742 0 -0.016515407254163467 -0.02562046629274118 0 -0.017343117776621671 -0.025508309963515132 0 -0.017049535676077279 -0.025850930036277742 0 -0.017343117776621671 -0.025508309963515132 0 -0.017434314974109275 -0.025724354922721286 0 -0.016519187214514463 -0.026019012591442917 0 -0.017049535676077279 -0.025850930036277742 0 -0.016515407254163467 -0.02562046629274118 0 -0.016519187214514463 -0.026019012591442917 0 -0.016063535948737846 -0.026119759198721913 0 -0.016515407254163467 -0.02562046629274118 0 -0.016063535948737846 -0.026119759198721913 0 -0.015807740534357524 -0.025748443583408036 0 -0.016515407254163467 -0.02562046629274118 0 -0.016522074055977897 -0.026639537163960024 0 -0.016519187214514463 -0.026019012591442917 0 -0.016063535948737846 -0.026119759198721913 0 -0.016063535948737846 -0.026119759198721913 0 -0.015807740534357524 -0.025748443583408036 0 -0.015559092373824893 -0.026126816166569127 0 -0.015807740534357524 -0.025748443583408036 0 -0.01561376798057143 -0.025452596725815554 0 -0.015200261873384829 -0.02564387224110774 0 -0.015807740534357524 -0.025748443583408036 0 -0.01561376798057143 -0.025452596725815554 0 -0.016515407254163467 -0.02562046629274118 0 -0.01561376798057143 -0.025452596725815554 0 -0.015590123080573632 -0.025769280923210628 0 -0.015234424760368445 -0.026372144439909356 0 -0.01561376798057143 -0.025452596725815554 0 -0.015590123080573632 -0.025769280923210628 0 -0.015434023503815278 -0.02552231553205813 0 -0.015590123080573632 -0.025769280923210628 0 -0.015363384762761645 -0.026392100711449037 0 -0.015234424760368445 -0.026372144439909356 0 -0.015530249163204765 -0.026656003792653059 0 -0.015590123080573632 -0.025769280923210628 0 -0.015363384762761645 -0.026392100711449037 0 -0.015590123080573632 -0.025769280923210628 0 -0.015326336982480523 -0.025250586707301018 0 -0.015434023503815278 -0.02552231553205813 0 -0.015734306019152336 -0.025499319220861485 0 -0.016266153960032167 -0.025804033676248977 0 -0.01561376798057143 -0.025452596725815554 0 -0.015234424760368445 -0.026372144439909356 0 -0.014932603781916564 -0.026828277687918456 0 -0.015000175922042272 -0.026832440497019314 0 -0.015234424760368445 -0.026372144439909356 0 -0.014932603781916564 -0.026828277687918456 0 -0.01561376798057143 -0.025452596725815554 0 -0.016515407254163467 -0.02562046629274118 0 -0.017473280221603518 -0.024760843152047605 0 -0.016515407254163467 -0.02562046629274118 0 -0.017343117776621671 -0.025508309963515132 0 -0.017473280221603518 -0.024760843152047605 0 -0.017895314452381676 -0.025237516143373002 0 -0.017473280221603518 -0.024760843152047605 0 -0.018562231071950246 -0.025025663648800725 0 -0.017343117776621671 -0.025508309963515132 0 -0.017895314452381676 -0.025237516143373002 0 -0.017473280221603518 -0.024760843152047605 0 -0.017895314452381676 -0.025237516143373002 0 -0.018276640816340273 -0.025224331554919113 0 -0.018102348764698784 -0.02536193900624524 0 -0.015051406720166497 -0.027020458561347729 0 -0.015000175922042272 -0.026832440497019314 0 -0.014932603781916564 -0.026828277687918456 0 -0.015051406720166497 -0.027020458561347729 0 -0.014932603781916564 -0.026828277687918456 0 -0.015344773570442777 -0.027212394454449746 0 -0.016266153960032167 -0.025804033676248977 0 -0.017094705282860886 -0.02637688867995374 0 -0.014932603781916564 -0.026828277687918456 0 -0.015344773570442777 -0.027212394454449746 0 -0.015648196760650972 -0.027721802225133624 0 -0.015344773570442777 -0.027212394454449746 0 -0.015648196760650972 -0.027721802225133624 0 -0.015792773077827914 -0.027324126541442909 0 -0.017895314452381676 -0.025237516143373002 0 -0.018562231071950246 -0.025025663648800725 0 -0.018276640816340273 -0.025224331554919113 0 -0.018562231071950246 -0.025025663648800725 0 -0.018276640816340273 -0.025224331554919113 0 -0.018482582751365485 -0.025142139947849314 0 -0.018276640816340273 -0.025224331554919113 0 -0.018482582751365485 -0.025142139947849314 0 -0.018499501126949473 -0.025122326141188797 0 -0.018499501126949473 -0.025122326141188797 0 -0.018358039153857766 -0.025277439826515723 0 -0.018543803004490187 -0.0250278712143614 0 -0.018276640816340273 -0.025224331554919113 0 -0.018358039153857766 -0.025277439826515723 0 -0.018102348764698784 -0.02536193900624524 0 -0.018276640816340273 -0.025224331554919113 0 -0.018499501126949473 -0.025122326141188797 0 -0.018358039153857766 -0.025277439826515723 0 -0.018358039153857766 -0.025277439826515723 0 -0.017744240497628291 -0.025684520964028817 0 -0.018684971653155878 -0.024948214035551954 0 -0.018358039153857766 -0.025277439826515723 0 -0.018102348764698784 -0.02536193900624524 0 -0.017744240497628291 -0.025684520964028817 0 -0.017895314452381676 -0.025237516143373002 0 -0.018102348764698784 -0.02536193900624524 0 -0.017744240497628291 -0.025684520964028817 0 -0.017343117776621671 -0.025508309963515132 0 -0.017895314452381676 -0.025237516143373002 0 -0.017744240497628291 -0.025684520964028817 0 -0.017343117776621671 -0.025508309963515132 0 -0.017744240497628291 -0.025684520964028817 0 -0.017434314974109275 -0.025724354922721286 0 -0.017744240497628291 -0.025684520964028817 0 -0.017434314974109275 -0.025724354922721286 0 -0.017582806443380793 -0.025725436986520914 0 -0.017744240497628291 -0.025684520964028817 0 -0.017582806443380793 -0.025725436986520914 0 -0.016928545130095275 -0.025231620654618914 0 -0.017743106033123294 -0.0255355427478859 0 -0.017769108185046963 -0.025070690563392499 0 -0.017582806443380793 -0.025725436986520914 0 -0.016928545130095275 -0.025231620654618914 0 -0.017708096474621928 -0.024978113759097042 0 -0.018684971653155878 -0.024948214035551954 0 -0.018664278909808596 -0.024717010423384842 0 -0.018543803004490187 -0.0250278712143614 0 -0.018358039153857766 -0.025277439826515723 0 -0.018684971653155878 -0.024948214035551954 0 -0.018543803004490187 -0.0250278712143614 0 -0.018664278909808596 -0.024717010423384842 0 -0.018628947164354728 -0.024568892785597582 0 -0.018598898552125247 -0.02483637143823441 0 -0.018664278909808596 -0.024717010423384842 0 -0.018598898552125247 -0.02483637143823441 0 -0.018543803004490187 -0.0250278712143614 0 -0.018628947164354728 -0.024568892785597582 0 -0.018602296096182993 -0.024774212431813634 0 -0.01862029614673788 -0.024592407073536594 0 -0.018628947164354728 -0.024568892785597582 0 -0.018602296096182993 -0.024774212431813634 0 -0.018598898552125247 -0.02483637143823441 0 -0.018602296096182993 -0.024774212431813634 0 -0.018563990008024899 -0.024966876759164886 0 -0.018598898552125247 -0.02483637143823441 0 -0.018602296096182993 -0.024774212431813634 0 -0.018611897800563666 -0.024701772245854299 0 -0.01862029614673788 -0.024592407073536594 0 -0.018602296096182993 -0.024774212431813634 0 -0.01858557374489888 -0.024846198739322228 0 -0.018611897800563666 -0.024701772245854299 0 -0.018602296096182993 -0.024774212431813634 0 -0.018563990008024899 -0.024966876759164886 0 -0.01858557374489888 -0.024846198739322228 0 -0.018563990008024899 -0.024966876759164886 0 -0.018598898552125247 -0.02483637143823441 0 -0.018543803004490187 -0.0250278712143614 0 -0.018499501126949473 -0.025122326141188797 0 -0.018563990008024899 -0.024966876759164886 0 -0.018535720184122782 -0.025134457239605383 0 -0.018499501126949473 -0.025122326141188797 0 -0.018563990008024899 -0.024966876759164886 0 -0.018543803004490187 -0.0250278712143614 0 -0.018562231071950246 -0.025025663648800725 0 -0.018535720184122782 -0.025134457239605383 0 -0.01839099611589769 -0.02603545557813948 0 -0.018482582751365485 -0.025142139947849314 0 -0.018499501126949473 -0.025122326141188797 0 -0.018535720184122782 -0.025134457239605383 0 -0.018563990008024899 -0.024966876759164886 0 -0.018535720184122782 -0.025134457239605383 0 -0.01858557374489888 -0.024846198739322228 0 -0.018562231071950246 -0.025025663648800725 0 -0.018482582751365485 -0.025142139947849314 0 -0.018535720184122782 -0.025134457239605383 0 -0.017094705282860886 -0.02637688867995374 0 -0.017750948198998345 -0.027049742151555537 0 -0.015648196760650972 -0.027721802225133624 0 -0.016399803849421156 -0.027535435231640409 0 -0.017191698790540486 -0.028040691890030747 0 -0.015648196760650972 -0.027721802225133624 0 -0.016399803849421156 -0.027535435231640409 0 -0.015792773077827914 -0.027324126541442909 0 -0.016971172861626756 -0.027506861953131286 0 -0.017191698790540486 -0.028040691890030747 0 -0.017368407539974387 -0.027412906579828953 0 -0.016399803849421156 -0.027535435231640409 0 -0.016971172861626756 -0.027506861953131286 0 -0.017191698790540486 -0.028040691890030747 0 -0.018579417528749909 -0.025175373905061204 0 -0.018640689559229165 -0.025430011011676364 0 -0.018535720184122782 -0.025134457239605383 0 -0.018609277235179359 -0.024750806263593217 0 -0.01858557374489888 -0.024846198739322228 0 -0.018535720184122782 -0.025134457239605383 0 -0.01839099611589769 -0.02603545557813948 0 -0.018405308199795283 -0.026072070120939171 0 -0.01858557374489888 -0.024846198739322228 0 -0.018610267705600248 -0.024746177973795958 0 -0.018611897800563666 -0.024701772245854299 0 -0.018609277235179359 -0.024750806263593217 0 -0.01858557374489888 -0.024846198739322228 0 -0.018610267705600248 -0.024746177973795958 0 -0.018610267705600248 -0.024746177973795958 0 -0.018600597647149986 -0.024693467987222065 0 -0.018611897800563666 -0.024701772245854299 0 -0.018609277235179359 -0.024750806263593217 0 -0.018610267705600248 -0.024746177973795958 0 -0.018600597647149986 -0.024693467987222065 0 -0.018609277235179359 -0.024750806263593217 0 -0.018600597647149986 -0.024693467987222065 0 -0.018577259637873825 -0.02469970218389083 0 -0.01839099611589769 -0.02603545557813948 0 -0.018405308199795283 -0.026072070120939171 0 -0.018683696603810595 -0.02749872013626057 0 -0.018640689559229165 -0.025430011011676364 0 -0.018477701392922454 -0.026115666892978898 0 -0.01839099611589769 -0.02603545557813948 0 -0.018777927608391115 -0.027665287892798332 0 -0.018683696603810595 -0.02749872013626057 0 -0.017191698790540486 -0.028040691890030747 0 -0.017837485028097764 -0.027649652588098251 0 -0.018777927608391115 -0.027665287892798332 0 -0.017750948198998345 -0.027049742151555537 0 -0.018632781428586886 -0.027569970564306493 0 -0.017191698790540486 -0.028040691890030747 0 -0.017837485028097764 -0.027649652588098251 0 -0.017368407539974387 -0.027412906579828953 0 -0.017983943001719245 -0.027428922205393939 0 -0.017837485028097764 -0.027649652588098251 0 -0.017368407539974387 -0.027412906579828953 0 -0.017983943001719245 -0.027428922205393939 0 -0.017837485028097764 -0.027649652588098251 0 -0.018777927608391115 -0.027665287892798332 0 -0.018822421210978959 -0.027320140507061087 0 -0.01885275596483179 -0.027578262804656591 0 -0.018528545423355962 -0.027451906427848439 0 -0.01885275596483179 -0.027578262804656591 0 -0.018528545423355962 -0.027451906427848439 0 -0.018777927608391115 -0.027665287892798332 0 -0.017983943001719245 -0.027428922205393939 0 -0.018528545423355962 -0.027451906427848439 0 -0.018777927608391115 -0.027665287892798332 0 -0.018777927608391115 -0.027665287892798332 0 -0.018683696603810595 -0.02749872013626057 0 -0.018994756547685454 -0.027729825077031412 0 -0.01885275596483179 -0.027578262804656591 0 -0.018777927608391115 -0.027665287892798332 0 -0.018994756547685454 -0.027729825077031412 0 -0.018577259637873825 -0.02469970218389083 0 -0.018546696363261058 -0.024651176699047112 0 -0.018486880706533516 -0.024668027079839491 0 -0.018577259637873825 -0.02469970218389083 0 -0.018572647300135324 -0.02465252874294763 0 -0.018546696363261058 -0.024651176699047112 0 -0.018600597647149986 -0.024693467987222065 0 -0.018577259637873825 -0.02469970218389083 0 -0.018572647300135324 -0.02465252874294763 0 -0.018600597647149986 -0.024693467987222065 0 -0.018572647300135324 -0.02465252874294763 0 -0.0186029944140737 -0.024557322427578136 0 -0.018572647300135324 -0.02465252874294763 0 -0.018546696363261058 -0.024651176699047112 0 -0.018537414338582889 -0.024573356117531048 0 -0.018546696363261058 -0.024651176699047112 0 -0.018537414338582889 -0.024573356117531048 0 -0.018486880706533516 -0.024668027079839491 0 -0.018537414338582889 -0.024573356117531048 0 -0.0186029944140737 -0.024557322427578136 0 -0.018549755829582328 -0.024166594023432138 0 -0.018572647300135324 -0.02465252874294763 0 -0.018537414338582889 -0.024573356117531048 0 -0.0186029944140737 -0.024557322427578136 0 -0.018600597647149986 -0.024693467987222065 0 -0.018611897800563666 -0.024701772245854299 0 -0.0186029944140737 -0.024557322427578136 0 -0.018611897800563666 -0.024701772245854299 0 -0.01862029614673788 -0.024592407073536594 0 -0.0186029944140737 -0.024557322427578136 0 -0.01862029614673788 -0.024592407073536594 0 -0.0186029944140737 -0.024557322427578136 0 -0.018631308540439165 -0.024304994900691611 0 -0.018628947164354728 -0.024568892785597582 0 -0.018631308540439165 -0.024304994900691611 0 -0.01865307822628955 -0.024221446370276532 0 -0.018628947164354728 -0.024568892785597582 0 -0.01862029614673788 -0.024592407073536594 0 -0.018631308540439165 -0.024304994900691611 0 -0.0186029944140737 -0.024557322427578136 0 -0.018631308540439165 -0.024304994900691611 0 -0.018549755829582328 -0.024166594023432138 0 -0.018631308540439165 -0.024304994900691611 0 -0.018680172786870227 -0.023870459242642455 0 -0.018549755829582328 -0.024166594023432138 0 -0.022741210188292896 -0.020409454530934307 0 -0.022050693252438292 -0.021067972848065528 0 -0.02633483668583184 -0.016828102771538688 0 -0.026331246427941969 -0.017262787575364268 0 -0.026367852876130089 -0.016730600962338291 0 -0.018631308540439165 -0.024304994900691611 0 -0.01865307822628955 -0.024221446370276532 0 -0.018680172786870227 -0.023870459242642455 0 -0.018680172786870227 -0.023870459242642455 0 -0.018719671491016981 -0.023755024818953138 0 -0.018672267057601902 -0.02400449186947639 0 -0.01865307822628955 -0.024221446370276532 0 -0.018680172786870227 -0.023870459242642455 0 -0.018672267057601902 -0.02400449186947639 0 -0.022741210188292896 -0.020409454530934307 0 -0.021121340946935453 -0.019261299380812821 0 -0.02633483668583184 -0.016828102771538688 0 -0.026361113522370326 -0.016551005163230065 0 -0.026367852876130089 -0.016730600962338291 0 -0.02633483668583184 -0.016828102771538688 0 -0.026361113522370326 -0.016551005163230065 0 -0.026272846127976916 -0.016708935662799927 0 -0.026361113522370326 -0.016551005163230065 0 -0.026347996741401439 -0.016511718452351554 0 -0.026272846127976916 -0.016708935662799927 0 -0.022365934094725988 -0.012899703597326413 0 -0.021585887411572871 -0.013248919129881019 0 -0.022367170394262222 -0.013313519811402316 0 -0.022365934094725988 -0.012899703597326413 0 -0.021585887411572871 -0.013248919129881019 0 -0.021556935677845949 -0.01260638848470552 0 -0.024647697222527149 -0.014284306845352318 0 -0.021121340946935453 -0.019261299380812821 0 -0.021121340946935453 -0.019261299380812821 0 -0.01789553391714821 -0.024890908369760961 0 -0.017627990782479095 -0.023305093772152115 0 -0.018868768257969473 -0.023396732843304121 0 -0.018734713957745976 -0.0239570480730384 0 -0.021585887411572871 -0.013248919129881019 0 -0.021556935677845949 -0.01260638848470552 0 -0.021023700271412215 -0.013407408451383841 0 -0.017128384741459054 -0.023724636901201423 0 -0.018104240763373972 -0.018136858594730413 0 -0.021121340946935453 -0.019261299380812821 0 -0.018104240763373972 -0.018136858594730413 0 -0.017627990782479095 -0.023305093772152115 0 -0.018868768257969473 -0.023396732843304121 0 -0.018309661425742956 -0.02213462225836425 0 -0.015566595660622899 -0.021790575607694741 0 -0.016107524989121446 -0.022254069027659501 0 -0.016276362679038647 -0.021263417556355777 0 -0.015566595660622899 -0.021790575607694741 0 -0.015484010303265199 -0.022791519108936863 0 -0.014847865618567144 -0.021526678275169769 0 -0.015566595660622899 -0.021790575607694741 0 -0.015484010303265199 -0.022791519108936863 0 -0.016107524989121446 -0.022254069027659501 0 -0.015484010303265199 -0.022791519108936863 0 -0.01593175712921692 -0.023125989521631744 0 -0.016107524989121446 -0.022254069027659501 0 -0.015484010303265199 -0.022791519108936863 0 -0.01593175712921692 -0.023125989521631744 0 -0.016191999105440658 -0.024095863465976027 0 -0.018734713957745976 -0.0239570480730384 0 -0.018682677197726212 -0.024360936678760648 0 -0.018931594919233557 -0.024309249255507835 0 -0.017128384741459054 -0.023724636901201423 0 -0.017524746114622989 -0.024056647190876593 0 -0.018868768257969473 -0.023396732843304121 0 -0.018734713957745976 -0.0239570480730384 0 -0.018931594919233557 -0.024309249255507835 0 -0.018719671491016981 -0.023755024818953138 0 -0.018734713957745976 -0.0239570480730384 0 -0.018672267057601902 -0.02400449186947639 0 -0.018734713957745976 -0.0239570480730384 0 -0.018672267057601902 -0.02400449186947639 0 -0.018682677197726212 -0.024360936678760648 0 -0.01865307822628955 -0.024221446370276532 0 -0.018672267057601902 -0.02400449186947639 0 -0.018682677197726212 -0.024360936678760648 0 -0.018628947164354728 -0.024568892785597582 0 -0.01865307822628955 -0.024221446370276532 0 -0.018682677197726212 -0.024360936678760648 0 -0.018664278909808596 -0.024717010423384842 0 -0.018628947164354728 -0.024568892785597582 0 -0.018682677197726212 -0.024360936678760648 0 -0.018664278909808596 -0.024717010423384842 0 -0.018682677197726212 -0.024360936678760648 0 -0.018931594919233557 -0.024309249255507835 0 -0.016928545130095275 -0.025231620654618914 0 -0.017159351023544066 -0.024243447745884588 0 -0.016191999105440658 -0.024095863465976027 0 -0.017769108185046963 -0.025070690563392499 0 -0.017524746114622989 -0.024056647190876593 0 -0.018684971653155878 -0.024948214035551954 0 -0.018664278909808596 -0.024717010423384842 0 -0.018931594919233557 -0.024309249255507835 0 -0.017159351023544066 -0.024243447745884588 0 -0.017824197551995158 -0.024102685941298631 0 -0.017708096474621928 -0.024978113759097042 0 -0.016928545130095275 -0.025231620654618914 0 -0.017159351023544066 -0.024243447745884588 0 -0.017708096474621928 -0.024978113759097042 0 -0.017159351023544066 -0.024243447745884588 0 -0.017471103023275678 -0.023395819447880089 0 -0.017824197551995158 -0.024102685941298631 0 -0.017159351023544066 -0.024243447745884588 0 -0.016741409467562814 -0.023565292181383344 0 -0.017471103023275678 -0.023395819447880089 0 -0.01593175712921692 -0.023125989521631744 0 -0.016191999105440658 -0.024095863465976027 0 -0.016741409467562814 -0.023565292181383344 0 -0.017159351023544066 -0.024243447745884588 0 -0.016191999105440658 -0.024095863465976027 0 -0.016741409467562814 -0.023565292181383344 0 -0.01593175712921692 -0.023125989521631744 0 -0.016741409467562814 -0.023565292181383344 0 -0.017010658935651349 -0.02282493818935041 0 -0.016022321519781425 -0.023088224076484903 0 -0.016861256031865071 -0.022677583415915869 0 -0.01593175712921692 -0.023125989521631744 0 -0.016107524989121446 -0.022254069027659501 0 -0.016939129863375483 -0.022478235756911526 0 -0.016107524989121446 -0.022254069027659501 0 -0.016939129863375483 -0.022478235756911526 0 -0.016276362679038647 -0.021263417556355777 0 -0.016939129863375483 -0.022478235756911526 0 -0.017347262297633167 -0.021331513867481094 0 -0.016276362679038647 -0.021263417556355777 0 -0.016939129863375483 -0.022478235756911526 0 -0.017805121291543567 -0.021957658016266597 0 -0.017347262297633167 -0.021331513867481094 0 -0.016861256031865071 -0.022677583415915869 0 -0.018286905945994376 -0.02228507811627246 0 -0.017471103023275678 -0.023395819447880089 0 -0.017010658935651349 -0.02282493818935041 0 -0.01792405003231852 -0.022458600538734358 0 -0.016741409467562814 -0.023565292181383344 0 -0.017471103023275678 -0.023395819447880089 0 -0.017010658935651349 -0.02282493818935041 0 -0.017471103023275678 -0.023395819447880089 0 -0.018120435369787104 -0.023269131995396212 0 -0.01792405003231852 -0.022458600538734358 0 -0.018120435369787104 -0.023269131995396212 0 -0.01792405003231852 -0.022458600538734358 0 -0.018546100027364867 -0.022595166420348613 0 -0.017805121291543567 -0.021957658016266597 0 -0.018567607168995023 -0.021529340759992483 0 -0.018248169163848648 -0.02138123926396205 0 -0.018941336003270016 -0.022107752887894083 0 -0.018546100027364867 -0.022595166420348613 0 -0.019026847495696747 -0.023100075285030792 0 -0.018286905945994376 -0.02228507811627246 0 -0.015808987076273533 -0.019619512986369797 0 -0.01792405003231852 -0.022458600538734358 0 -0.018546100027364867 -0.022595166420348613 0 -0.018795255671875247 -0.022039598067011421 0 -0.018941336003270016 -0.022107752887894083 0 -0.018546100027364867 -0.022595166420348613 0 -0.018795255671875247 -0.022039598067011421 0 -0.018120435369787104 -0.023269131995396212 0 -0.018546100027364867 -0.022595166420348613 0 -0.019026847495696747 -0.023100075285030792 0 -0.018120435369787104 -0.023269131995396212 0 -0.018480278082904103 -0.023863307838584188 0 -0.019026847495696747 -0.023100075285030792 0 -0.018480278082904103 -0.023863307838584188 0 -0.019092587209966753 -0.024124328939940671 0 -0.019026847495696747 -0.023100075285030792 0 -0.018480278082904103 -0.023863307838584188 0 -0.018435865499075645 -0.024628452366081272 0 -0.019092587209966753 -0.024124328939940671 0 -0.017471103023275678 -0.023395819447880089 0 -0.018120435369787104 -0.023269131995396212 0 -0.017824197551995158 -0.024102685941298631 0 -0.018120435369787104 -0.023269131995396212 0 -0.018480278082904103 -0.023863307838584188 0 -0.017824197551995158 -0.024102685941298631 0 -0.018480278082904103 -0.023863307838584188 0 -0.017824197551995158 -0.024102685941298631 0 -0.018435865499075645 -0.024628452366081272 0 -0.017824197551995158 -0.024102685941298631 0 -0.017708096474621928 -0.024978113759097042 0 -0.018435865499075645 -0.024628452366081272 0 -0.018435865499075645 -0.024628452366081272 0 -0.019092587209966753 -0.024124328939940671 0 -0.019121960048787027 -0.025098089377701707 0 -0.026714131600972944 -0.016849566941005058 0 -0.026112499461079051 -0.016440796653984152 0 -0.026414948190049258 -0.017332683506818991 0 -0.026714131600972944 -0.016849566941005058 0 -0.026516366292079895 -0.016158418123276622 0 -0.026112499461079051 -0.016440796653984152 0 -0.026714131600972944 -0.016849566941005058 0 -0.026824737434441134 -0.016296118428675187 0 -0.026983480922037686 -0.016590653458106459 0 -0.026714131600972944 -0.016849566941005058 0 -0.026978657212516792 -0.01703979173691093 0 -0.026983480922037686 -0.016590653458106459 0 -0.026824737434441134 -0.016296118428675187 0 -0.02702110023293473 -0.016144629330160764 0 -0.026831624266426799 -0.015873377001724101 0 -0.026714131600972944 -0.016849566941005058 0 -0.026824737434441134 -0.016296118428675187 0 -0.026516366292079895 -0.016158418123276622 0 -0.026824737434441134 -0.016296118428675187 0 -0.026516366292079895 -0.016158418123276622 0 -0.026831624266426799 -0.015873377001724101 0 -0.026516366292079895 -0.016158418123276622 0 -0.026112499461079051 -0.016440796653984152 0 -0.0262229942131748 -0.015444732521723981 0 -0.026112499461079051 -0.016440796653984152 0 -0.024999956465343434 -0.015606418672026763 0 -0.0262229942131748 -0.015444732521723981 0 -0.026112499461079051 -0.016440796653984152 0 -0.024999917845829087 -0.017032031181117568 0 -0.024999956465343434 -0.015606418672026763 0 -0.026112499461079051 -0.016440796653984152 0 -0.02586987252735375 -0.017145474023082655 0 -0.026414948190049258 -0.017332683506818991 0 -0.026112499461079051 -0.016440796653984152 0 -0.024999917845829087 -0.017032031181117568 0 -0.02586987252735375 -0.017145474023082655 0 -0.02586987252735375 -0.017145474023082655 0 -0.025780284885094096 -0.017839429740497424 0 -0.026414948190049258 -0.017332683506818991 0 -0.024999917845829087 -0.017032031181117568 0 -0.02586987252735375 -0.017145474023082655 0 -0.025780284885094096 -0.017839429740497424 0 -0.024999917845829087 -0.017032031181117568 0 -0.024999881615932116 -0.018457872058138137 0 -0.025780284885094096 -0.017839429740497424 0 -0.026337473763736147 -0.018522068773294875 0 -0.025780284885094096 -0.017839429740497424 0 -0.026414948190049258 -0.017332683506818991 0 -0.026337473763736147 -0.018522068773294875 0 -0.024999881615932116 -0.018457872058138137 0 -0.025780284885094096 -0.017839429740497424 0 -0.026337473763736147 -0.018522068773294875 0 -0.02672211062327097 -0.01759683096434576 0 -0.02683028540576405 -0.017908695310974602 0 -0.026330613409785902 -0.018469226415610399 0 -0.027213712637230138 -0.018099791886123824 0 -0.026337473763736147 -0.018522068773294875 0 -0.026414948190049258 -0.017332683506818991 0 -0.02672211062327097 -0.01759683096434576 0 -0.026414948190049258 -0.017332683506818991 0 -0.026782638181878701 -0.01726170769520461 0 -0.02672211062327097 -0.01759683096434576 0 -0.026714131600972944 -0.016849566941005058 0 -0.026414948190049258 -0.017332683506818991 0 -0.026782638181878701 -0.01726170769520461 0 -0.026714131600972944 -0.016849566941005058 0 -0.026782638181878701 -0.01726170769520461 0 -0.026978657212516792 -0.01703979173691093 0 -0.026782638181878701 -0.01726170769520461 0 -0.026968274741998609 -0.017463917796122112 0 -0.02672211062327097 -0.01759683096434576 0 -0.026782638181878701 -0.01726170769520461 0 -0.026968274741998609 -0.017463917796122112 0 -0.026978657212516792 -0.01703979173691093 0 -0.026968274741998609 -0.017463917796122112 0 -0.02672211062327097 -0.01759683096434576 0 -0.02683028540576405 -0.017908695310974602 0 -0.026968274741998609 -0.017463917796122112 0 -0.02683028540576405 -0.017908695310974602 0 -0.027172272821402665 -0.017526408539729928 0 -0.027213712637230138 -0.018099791886123824 0 -0.027553358840963563 -0.018521341551154393 0 -0.026968274741998609 -0.017463917796122112 0 -0.027172272821402665 -0.017526408539729928 0 -0.027118451817090678 -0.017228749404606149 0 -0.027172272821402665 -0.017526408539729928 0 -0.027241106436817254 -0.017331768305259558 0 -0.027118451817090678 -0.017228749404606149 0 -0.027117620780539031 -0.017445180457518444 0 -0.027400079011348354 -0.017370469143249984 0 -0.027241106436817254 -0.017331768305259558 0 -0.027553358840963563 -0.018521341551154393 0 -0.024659862650121413 -0.021978137800010036 0 -0.026674629287766181 -0.021009516625533256 0 -0.026625284245889339 -0.020866686351283401 0 -0.026715281553868847 -0.020867716799005114 0 -0.027400079011348354 -0.017370469143249984 0 -0.027241106436817254 -0.017331768305259558 0 -0.027326484111671219 -0.017002231908967252 0 -0.027553358840963563 -0.018521341551154393 0 -0.027498856050798867 -0.017715867636717876 0 -0.027241106436817254 -0.017331768305259558 0 -0.027326484111671219 -0.017002231908967252 0 -0.027204817165297636 -0.017053172436428621 0 -0.027241106436817254 -0.017331768305259558 0 -0.027204817165297636 -0.017053172436428621 0 -0.027118451817090678 -0.017228749404606149 0 -0.027326484111671219 -0.017002231908967252 0 -0.027204817165297636 -0.017053172436428621 0 -0.027221634514616334 -0.016815802192654189 0 -0.027204817165297636 -0.017053172436428621 0 -0.027102687701336645 -0.016849766892368397 0 -0.027221634514616334 -0.016815802192654189 0 -0.027204817165297636 -0.017053172436428621 0 -0.027118451817090678 -0.017228749404606149 0 -0.027102687701336645 -0.016849766892368397 0 -0.026978657212516792 -0.01703979173691093 0 -0.027118451817090678 -0.017228749404606149 0 -0.027102687701336645 -0.016849766892368397 0 -0.026968274741998609 -0.017463917796122112 0 -0.026978657212516792 -0.01703979173691093 0 -0.027118451817090678 -0.017228749404606149 0 -0.018683696603810595 -0.02749872013626057 0 -0.018994756547685454 -0.027729825077031412 0 -0.019441076093749263 -0.027992092760397203 0 -0.018477701392922454 -0.026115666892978898 0 -0.019888674220674616 -0.025833658096324208 0 -0.018994756547685454 -0.027729825077031412 0 -0.019178455454093333 -0.027616839097758732 0 -0.019441076093749263 -0.027992092760397203 0 -0.018822421210978959 -0.027320140507061087 0 -0.01885275596483179 -0.027578262804656591 0 -0.019178455454093333 -0.027616839097758732 0 -0.01885275596483179 -0.027578262804656591 0 -0.018994756547685454 -0.027729825077031412 0 -0.019178455454093333 -0.027616839097758732 0 -0.019777004658660051 -0.028188493909089368 0 -0.019888674220674616 -0.025833658096324208 0 -0.019713002443629387 -0.027574417831750516 0 -0.019178455454093333 -0.027616839097758732 0 -0.019441076093749263 -0.027992092760397203 0 -0.024659862650121413 -0.021978137800010036 0 -0.019888674220674616 -0.025833658096324208 0 -0.021117822810461189 -0.028286194191084829 0 -0.019847878194000263 -0.028572731308478354 0 -0.020492444657669313 -0.027847926394307127 0 -0.019713002443629387 -0.027574417831750516 0 -0.019847878194000263 -0.028572731308478354 0 -0.020492444657669313 -0.027847926394307127 0 -0.021041384251614465 -0.027371432431021143 0 -0.021117822810461189 -0.028286194191084829 0 -0.020492444657669313 -0.027847926394307127 0 -0.022422094245525905 -0.022892084777123036 0 -0.023425667273246034 -0.022721361751525469 0 -0.023360082439789879 -0.021353981139361603 0 -0.024659862650121413 -0.021978137800010036 0 -0.024093747107302117 -0.019729273243894483 0 -0.027400079011348354 -0.017370469143249984 0 -0.027326484111671219 -0.017002231908967252 0 -0.027571435602580022 -0.016746056889223274 0 -0.018409366525502551 -0.024738657241086873 0 -0.018486880706533516 -0.024668027079839491 0 -0.018371434842369586 -0.024510662509684211 0 -0.019888674220674616 -0.025833658096324208 0 -0.024093747107302117 -0.019729273243894483 0 -0.018577259637873825 -0.02469970218389083 0 -0.018409366525502551 -0.024738657241086873 0 -0.018486880706533516 -0.024668027079839491 0 -0.018537414338582889 -0.024573356117531048 0 -0.018486880706533516 -0.024668027079839491 0 -0.018371434842369586 -0.024510662509684211 0 -0.024093747107302117 -0.019729273243894483 0 -0.022050693252438292 -0.021067972848065528 0 -0.018537414338582889 -0.024573356117531048 0 -0.018371434842369586 -0.024510662509684211 0 -0.018549755829582328 -0.024166594023432138 0 -0.027326484111671219 -0.017002231908967252 0 -0.027571435602580022 -0.016746056889223274 0 -0.027299612570435314 -0.016569493329227695 0 -0.027571435602580022 -0.016746056889223274 0 -0.027299612570435314 -0.016569493329227695 0 -0.02719490562995959 -0.016165195399188165 0 -0.024093747107302117 -0.019729273243894483 0 -0.026900942439464413 -0.016162850583157796 0 -0.02719490562995959 -0.016165195399188165 0 -0.027181948762940479 -0.016264160192868346 0 -0.027087919480785101 -0.016025365577985024 0 -0.027299612570435314 -0.016569493329227695 0 -0.02719490562995959 -0.016165195399188165 0 -0.027181948762940479 -0.016264160192868346 0 -0.025977685141727071 -0.017854632433276233 0 -0.026001054095638992 -0.017149836003200223 0 -0.026331246427941969 -0.017262787575364268 0 -0.026983480922037686 -0.016590653458106459 0 -0.027102687701336645 -0.016849766892368397 0 -0.027145120246100309 -0.016426141264539007 0 -0.026978657212516792 -0.01703979173691093 0 -0.026983480922037686 -0.016590653458106459 0 -0.027102687701336645 -0.016849766892368397 0 -0.027326484111671219 -0.017002231908967252 0 -0.027299612570435314 -0.016569493329227695 0 -0.027221634514616334 -0.016815802192654189 0 -0.027102687701336645 -0.016849766892368397 0 -0.027221634514616334 -0.016815802192654189 0 -0.027145120246100309 -0.016426141264539007 0 -0.027299612570435314 -0.016569493329227695 0 -0.027221634514616334 -0.016815802192654189 0 -0.027145120246100309 -0.016426141264539007 0 -0.027145120246100309 -0.016426141264539007 0 -0.027181948762940479 -0.016264160192868346 0 -0.027087919480785101 -0.016025365577985024 0 -0.027145120246100309 -0.016426141264539007 0 -0.02702110023293473 -0.016144629330160764 0 -0.027087919480785101 -0.016025365577985024 0 -0.027299612570435314 -0.016569493329227695 0 -0.027145120246100309 -0.016426141264539007 0 -0.027181948762940479 -0.016264160192868346 0 -0.026983480922037686 -0.016590653458106459 0 -0.027145120246100309 -0.016426141264539007 0 -0.02702110023293473 -0.016144629330160764 0 -0.026824737434441134 -0.016296118428675187 0 -0.026983480922037686 -0.016590653458106459 0 -0.02702110023293473 -0.016144629330160764 0 -0.02702110023293473 -0.016144629330160764 0 -0.027014627306119005 -0.015790636734725735 0 -0.026831624266426799 -0.015873377001724101 0 -0.027014627306119005 -0.015790636734725735 0 -0.027087919480785101 -0.016025365577985024 0 -0.027021641811006417 -0.015853751874897171 0 -0.02702110023293473 -0.016144629330160764 0 -0.027014627306119005 -0.015790636734725735 0 -0.027087919480785101 -0.016025365577985024 0 -0.027087919480785101 -0.016025365577985024 0 -0.027021641811006417 -0.015853751874897171 0 -0.026549779150373154 -0.01629764080700536 0 -0.027021641811006417 -0.015853751874897171 0 -0.026549779150373154 -0.01629764080700536 0 -0.026892112323929854 -0.015873454782799966 0 -0.027021641811006417 -0.015853751874897171 0 -0.027026034607557793 -0.015518536836149985 0 -0.026892112323929854 -0.015873454782799966 0 -0.027014627306119005 -0.015790636734725735 0 -0.027021641811006417 -0.015853751874897171 0 -0.027026034607557793 -0.015518536836149985 0 -0.026001054095638992 -0.017149836003200223 0 -0.026367852876130089 -0.016730600962338291 0 -0.026549779150373154 -0.01629764080700536 0 -0.026001054095638992 -0.017149836003200223 0 -0.026331246427941969 -0.017262787575364268 0 -0.026367852876130089 -0.016730600962338291 0 -0.02719490562995959 -0.016165195399188165 0 -0.027087919480785101 -0.016025365577985024 0 -0.026549779150373154 -0.01629764080700536 0 -0.026900942439464413 -0.016162850583157796 0 -0.026498597424022097 -0.016606673640365534 0 -0.026549779150373154 -0.01629764080700536 0 -0.026652076843556537 -0.016162172846430064 0 -0.026892112323929854 -0.015873454782799966 0 -0.026361113522370326 -0.016551005163230065 0 -0.026367852876130089 -0.016730600962338291 0 -0.026549779150373154 -0.01629764080700536 0 -0.026361113522370326 -0.016551005163230065 0 -0.026549779150373154 -0.01629764080700536 0 -0.026485942093426623 -0.016354152115123498 0 -0.026361113522370326 -0.016551005163230065 0 -0.026347996741401439 -0.016511718452351554 0 -0.026485942093426623 -0.016354152115123498 0 -0.026549779150373154 -0.01629764080700536 0 -0.026485942093426623 -0.016354152115123498 0 -0.026652076843556537 -0.016162172846430064 0 -0.026485942093426623 -0.016354152115123498 0 -0.026652076843556537 -0.016162172846430064 0 -0.02668040115041306 -0.016215474260602238 0 -0.026485942093426623 -0.016354152115123498 0 -0.02668040115041306 -0.016215474260602238 0 -0.026474692541065201 -0.016412972069386553 0 -0.026347996741401439 -0.016511718452351554 0 -0.026485942093426623 -0.016354152115123498 0 -0.026474692541065201 -0.016412972069386553 0 -0.024647697222527149 -0.014284306845352318 0 -0.024791252360252414 -0.01492967459652555 0 -0.022365934094725988 -0.012899703597326413 0 -0.023201282953915558 -0.013148561637366387 0 -0.022367170394262222 -0.013313519811402316 0 -0.027026034607557793 -0.015518536836149985 0 -0.026845298733426774 -0.01599091031641605 0 -0.027013139367330255 -0.016100591597316433 0 -0.027026034607557793 -0.015518536836149985 0 -0.027013139367330255 -0.016100591597316433 0 -0.027070935017449952 -0.014893940791688501 0 -0.027026034607557793 -0.015518536836149985 0 -0.026892112323929854 -0.015873454782799966 0 -0.026845298733426774 -0.01599091031641605 0 -0.026652076843556537 -0.016162172846430064 0 -0.026892112323929854 -0.015873454782799966 0 -0.026845298733426774 -0.01599091031641605 0 -0.026652076843556537 -0.016162172846430064 0 -0.026845298733426774 -0.01599091031641605 0 -0.02668040115041306 -0.016215474260602238 0 -0.026845298733426774 -0.01599091031641605 0 -0.02668040115041306 -0.016215474260602238 0 -0.027013139367330255 -0.016100591597316433 0 -0.02668040115041306 -0.016215474260602238 0 -0.027013139367330255 -0.016100591597316433 0 -0.026716766116692808 -0.016491179720616422 0 -0.027425803031726679 -0.01354780002088048 0 -0.027169419302088681 -0.013488737818528962 0 -0.027210616426526727 -0.013493635086739885 0 -0.027425803031726679 -0.01354780002088048 0 -0.027169419302088681 -0.013488737818528962 0 -0.027070935017449952 -0.014893940791688501 0 -0.027169419302088681 -0.013488737818528962 0 -0.02601379070406877 -0.013732181167586179 0 -0.02641601831079644 -0.012779682775373601 0 -0.027169419302088681 -0.013488737818528962 0 -0.027070935017449952 -0.014893940791688501 0 -0.02601379070406877 -0.013732181167586179 0 -0.027070935017449952 -0.014893940791688501 0 -0.02635723846882012 -0.014747630011968632 0 -0.02601379070406877 -0.013732181167586179 0 -0.027323843320003652 -0.01497917370124234 0 -0.0269978527110383 -0.014920409565211077 0 -0.027026034607557793 -0.015518536836149985 0 -0.027070935017449952 -0.014893940791688501 0 -0.026895050374617827 -0.015355266319844896 0 -0.027014627306119005 -0.015790636734725735 0 -0.027026034607557793 -0.015518536836149985 0 -0.026895050374617827 -0.015355266319844896 0 -0.026895050374617827 -0.015355266319844896 0 -0.02635723846882012 -0.014747630011968632 0 -0.0262229942131748 -0.015444732521723981 0 -0.027070935017449952 -0.014893940791688501 0 -0.026895050374617827 -0.015355266319844896 0 -0.02635723846882012 -0.014747630011968632 0 -0.026516366292079895 -0.016158418123276622 0 -0.026831624266426799 -0.015873377001724101 0 -0.0262229942131748 -0.015444732521723981 0 -0.026895050374617827 -0.015355266319844896 0 -0.026831624266426799 -0.015873377001724101 0 -0.0262229942131748 -0.015444732521723981 0 -0.027014627306119005 -0.015790636734725735 0 -0.026895050374617827 -0.015355266319844896 0 -0.026831624266426799 -0.015873377001724101 0 -0.024999956465343434 -0.015606418672026763 0 -0.0262229942131748 -0.015444732521723981 0 -0.025685640696990749 -0.014770314696280396 0 -0.02635723846882012 -0.014747630011968632 0 -0.0262229942131748 -0.015444732521723981 0 -0.025685640696990749 -0.014770314696280396 0 -0.024999956465343434 -0.015606418672026763 0 -0.025685640696990749 -0.014770314696280396 0 -0.024999868028756277 -0.014180621385392519 0 -0.024999868028756277 -0.014180621385392519 0 -0.02601379070406877 -0.013732181167586179 0 -0.024999813880069357 -0.012754571840024841 0 -0.025685640696990749 -0.014770314696280396 0 -0.024999868028756277 -0.014180621385392519 0 -0.02601379070406877 -0.013732181167586179 0 -0.02635723846882012 -0.014747630011968632 0 -0.025685640696990749 -0.014770314696280396 0 -0.02601379070406877 -0.013732181167586179 0 -0.02601379070406877 -0.013732181167586179 0 -0.025702016936022656 -0.01201526862738457 0 -0.02641601831079644 -0.012779682775373601 0 -0.02601379070406877 -0.013732181167586179 0 -0.024999813880069357 -0.012754571840024841 0 -0.025702016936022656 -0.01201526862738457 0 -0.024999813880069357 -0.012754571840024841 0 -0.025702016936022656 -0.01201526862738457 0 -0.024999874599890996 -0.01132838292977854 0 -0.025702016936022656 -0.01201526862738457 0 -0.02641601831079644 -0.012779682775373601 0 -0.026557231493233909 -0.011690019159991696 0 -0.025702016936022656 -0.01201526862738457 0 -0.026557231493233909 -0.011690019159991696 0 -0.025838034553139242 -0.01086453486786363 0 -0.025702016936022656 -0.01201526862738457 0 -0.024999874599890996 -0.01132838292977854 0 -0.025838034553139242 -0.01086453486786363 0 -0.027169419302088681 -0.013488737818528962 0 -0.02739985424399994 -0.013538764603550316 0 -0.027210616426526727 -0.013493635086739885 0 -0.027169419302088681 -0.013488737818528962 0 -0.026905146419193907 -0.012447079433446546 0 -0.027527104099741101 -0.011837875876845143 0 -0.027173073376583864 -0.01330572779163465 0 -0.027691271320621529 -0.01304931653529133 0 -0.026905146419193907 -0.012447079433446546 0 -0.026557231493233909 -0.011690019159991696 0 -0.027527104099741101 -0.011837875876845143 0 -0.026905146419193907 -0.012447079433446546 0 -0.02641601831079644 -0.012779682775373601 0 -0.026557231493233909 -0.011690019159991696 0 -0.027169419302088681 -0.013488737818528962 0 -0.026905146419193907 -0.012447079433446546 0 -0.02641601831079644 -0.012779682775373601 0 -0.026573472621257126 -0.011592934008395887 0 -0.026719306446950353 -0.01047542850163765 0 -0.026557231493233909 -0.011690019159991696 0 -0.02708758690155005 -0.011175646157498652 0 -0.02661118439078362 -0.010527577835347362 0 -0.026557231493233909 -0.011690019159991696 0 -0.02708758690155005 -0.011175646157498652 0 -0.027527104099741101 -0.011837875876845143 0 -0.027691271320621529 -0.01304931653529133 0 -0.025086834366548402 -0.011222242417801766 0 -0.02739985424399994 -0.013538764603550316 0 -0.027474451606075354 -0.015025090322590548 0 -0.026942734541579267 -0.013694981245822484 0 -0.02708758690155005 -0.011175646157498652 0 -0.027527104099741101 -0.011837875876845143 0 -0.027503625319922929 -0.01053777961987643 0 -0.027527104099741101 -0.011837875876845143 0 -0.02761221151116271 -0.010458790198186919 0 -0.027503625319922929 -0.01053777961987643 0 -0.027619664004026875 -0.010454151646789613 0 -0.027503625319922929 -0.01053777961987643 0 -0.027352945862653886 -0.010198807469659586 0 -0.025086834366548402 -0.011222242417801766 0 -0.025545840024248111 -0.010962474441054229 0 -0.02708758690155005 -0.011175646157498652 0 -0.027503625319922929 -0.01053777961987643 0 -0.027090137203715395 -0.010657668159353968 0 -0.027503625319922929 -0.01053777961987643 0 -0.027090137203715395 -0.010657668159353968 0 -0.027156522153298657 -0.010387634183707535 0 -0.027503625319922929 -0.01053777961987643 0 -0.027156522153298657 -0.010387634183707535 0 -0.027352945862653886 -0.010198807469659586 0 -0.027090137203715395 -0.010657668159353968 0 -0.027156522153298657 -0.010387634183707535 0 -0.02661118439078362 -0.010527577835347362 0 -0.027156522153298657 -0.010387634183707535 0 -0.02661118439078362 -0.010527577835347362 0 -0.027127643446441894 -0.009883882559035332 0 -0.02708758690155005 -0.011175646157498652 0 -0.027090137203715395 -0.010657668159353968 0 -0.02661118439078362 -0.010527577835347362 0 -0.026847509218051836 -0.010467702086180482 0 -0.026062739057477288 -0.0097623083931963339 0 -0.027016811472485781 -0.009334224326684553 0 -0.026719306446950353 -0.01047542850163765 0 -0.026941019276821077 -0.0094370390609635011 0 -0.02661118439078362 -0.010527577835347362 0 -0.027127643446441894 -0.009883882559035332 0 -0.026696136826953886 -0.0092440494340190072 0 -0.025086834366548402 -0.011222242417801766 0 -0.024418598110462191 -0.0091518664591889749 0 -0.027127643446441894 -0.009883882559035332 0 -0.027694637213653873 -0.0094159117051220084 0 -0.026696136826953886 -0.0092440494340190072 0 -0.027619664004026875 -0.010454151646789613 0 -0.027352945862653886 -0.010198807469659586 0 -0.027694637213653873 -0.0094159117051220084 0 -0.027127643446441894 -0.009883882559035332 0 -0.027352945862653886 -0.010198807469659586 0 -0.027694637213653873 -0.0094159117051220084 0 -0.027156522153298657 -0.010387634183707535 0 -0.027127643446441894 -0.009883882559035332 0 -0.027352945862653886 -0.010198807469659586 0 -0.024999874599890996 -0.01132838292977854 0 -0.025838034553139242 -0.01086453486786363 0 -0.024999924995742565 -0.0099022743708225523 0 -0.026557231493233909 -0.011690019159991696 0 -0.026847509218051836 -0.010467702086180482 0 -0.025838034553139242 -0.01086453486786363 0 -0.026847509218051836 -0.010467702086180482 0 -0.025838034553139242 -0.01086453486786363 0 -0.026062739057477288 -0.0097623083931963339 0 -0.026062739057477288 -0.0097623083931963339 0 -0.024999924995742565 -0.0099022743708225523 0 -0.025639746335745839 -0.0090708157180379705 0 -0.025838034553139242 -0.01086453486786363 0 -0.026062739057477288 -0.0097623083931963339 0 -0.024999924995742565 -0.0099022743708225523 0 -0.025639746335745839 -0.0090708157180379705 0 -0.024999955045710415 -0.0084762117027782635 0 -0.025933064626683724 -0.0082763348651294696 0 -0.024999924995742565 -0.0099022743708225523 0 -0.025639746335745839 -0.0090708157180379705 0 -0.024999955045710415 -0.0084762117027782635 0 -0.024999955045710415 -0.0084762117027782635 0 -0.025933064626683724 -0.0082763348651294696 0 -0.025612657914757288 -0.0076912064254258837 0 -0.026333221293792557 -0.0079418038846266002 0 -0.025933064626683724 -0.0082763348651294696 0 -0.026055581064180759 -0.0077381639441591295 0 -0.025933064626683724 -0.0082763348651294696 0 -0.025612657914757288 -0.0076912064254258837 0 -0.026055581064180759 -0.0077381639441591295 0 -0.025933064626683724 -0.0082763348651294696 0 -0.026217332386489343 -0.0089338840462024685 0 -0.026572421957651832 -0.0083808916820660474 0 -0.026333221293792557 -0.0079418038846266002 0 -0.025933064626683724 -0.0082763348651294696 0 -0.026572421957651832 -0.0083808916820660474 0 -0.025639746335745839 -0.0090708157180379705 0 -0.025933064626683724 -0.0082763348651294696 0 -0.026217332386489343 -0.0089338840462024685 0 -0.026062739057477288 -0.0097623083931963339 0 -0.026217332386489343 -0.0089338840462024685 0 -0.027016811472485781 -0.009334224326684553 0 -0.026062739057477288 -0.0097623083931963339 0 -0.025639746335745839 -0.0090708157180379705 0 -0.026217332386489343 -0.0089338840462024685 0 -0.026217332386489343 -0.0089338840462024685 0 -0.027016811472485781 -0.009334224326684553 0 -0.026572421957651832 -0.0083808916820660474 0 -0.026696136826953886 -0.0092440494340190072 0 -0.027247673470273615 -0.0087363342158674317 0 -0.02683433578650718 -0.0079315343809626369 0 -0.027016811472485781 -0.009334224326684553 0 -0.026572421957651832 -0.0083808916820660474 0 -0.027138178748350106 -0.0082383520935156457 0 -0.026941019276821077 -0.0094370390609635011 0 -0.025614331280175828 -0.0071898060731486043 0 -0.027694637213653873 -0.0094159117051220084 0 -0.027247673470273615 -0.0087363342158674317 0 -0.02776581203574098 -0.0083545255071303254 0 -0.024418598110462191 -0.0091518664591889749 0 -0.020572882106774135 -0.0066434677117014037 0 -0.027694637213653873 -0.0094159117051220084 0 -0.026696136826953886 -0.0092440494340190072 0 -0.027247673470273615 -0.0087363342158674317 0 -0.020572882106774135 -0.0066434677117014037 0 -0.016466954702161179 -0.0045574071209643317 0 -0.021338955074330871 -0.0058862520091483026 0 -0.021363689861424381 -0.0058906494312819732 0 -0.021349729828291624 -0.0058906414464967279 0 -0.027247673470273615 -0.0087363342158674317 0 -0.02776581203574098 -0.0083545255071303254 0 -0.02683433578650718 -0.0079315343809626369 0 -0.020572882106774135 -0.0066434677117014037 0 -0.025614331280175828 -0.0071898060731486043 0 -0.025614331280175828 -0.0071898060731486043 0 -0.02426654958673127 -0.006694806942130321 0 -0.027138178748350106 -0.0082383520935156457 0 -0.026948515673598392 -0.0078317200482268118 0 -0.02720708988012456 -0.0073952714507890364 0 -0.026572421957651832 -0.0083808916820660474 0 -0.027138178748350106 -0.0082383520935156457 0 -0.026833296729116506 -0.0080149967197997215 0 -0.027138178748350106 -0.0082383520935156457 0 -0.026948515673598392 -0.0078317200482268118 0 -0.026833296729116506 -0.0080149967197997215 0 -0.026833296729116506 -0.0080149967197997215 0 -0.026593097066137189 -0.008001071088667773 0 -0.026649927735688698 -0.0077201467366187753 0 -0.026948515673598392 -0.0078317200482268118 0 -0.026833296729116506 -0.0080149967197997215 0 -0.026649927735688698 -0.0077201467366187753 0 -0.026333221293792557 -0.0079418038846266002 0 -0.026572421957651832 -0.0083808916820660474 0 -0.026593097066137189 -0.008001071088667773 0 -0.026572421957651832 -0.0083808916820660474 0 -0.026833296729116506 -0.0080149967197997215 0 -0.026593097066137189 -0.008001071088667773 0 -0.026333221293792557 -0.0079418038846266002 0 -0.026593097066137189 -0.008001071088667773 0 -0.026649927735688698 -0.0077201467366187753 0 -0.026948515673598392 -0.0078317200482268118 0 -0.026649927735688698 -0.0077201467366187753 0 -0.026757961174758142 -0.0074023552390227428 0 -0.026649927735688698 -0.0077201467366187753 0 -0.026757961174758142 -0.0074023552390227428 0 -0.02631627573987191 -0.0075588790744636194 0 -0.026948515673598392 -0.0078317200482268118 0 -0.026757961174758142 -0.0074023552390227428 0 -0.02720708988012456 -0.0073952714507890364 0 -0.026757961174758142 -0.0074023552390227428 0 -0.02720708988012456 -0.0073952714507890364 0 -0.026887530568380821 -0.0069846688856722364 0 -0.026757961174758142 -0.0074023552390227428 0 -0.02631627573987191 -0.0075588790744636194 0 -0.026324549522861146 -0.0071560837796008341 0 -0.026757961174758142 -0.0074023552390227428 0 -0.026887530568380821 -0.0069846688856722364 0 -0.026324549522861146 -0.0071560837796008341 0 -0.021338955074330871 -0.0058862520091483026 0 -0.021349729828291624 -0.0058906414464967279 0 -0.021317264873884547 -0.0058849346209314561 0 -0.021340692172937142 -0.0058967620223787931 0 -0.021317264873884547 -0.0058849346209314561 0 -0.021289161254854649 -0.0059035506628443164 0 -0.021349729828291624 -0.0058906414464967279 0 -0.021340692172937142 -0.0058967620223787931 0 -0.021317264873884547 -0.0058849346209314561 0 -0.02426654958673127 -0.006694806942130321 0 -0.02493987735526219 -0.0061008257157658657 0 -0.02720708988012456 -0.0073952714507890364 0 -0.027288485152857877 -0.0065802667915890699 0 -0.026887530568380821 -0.0069846688856722364 0 -0.027266323550686998 -0.0065981983379124259 0 -0.026235470136540054 -0.0064897327192760925 0 -0.027335532757040946 -0.0060168218112378021 0 -0.027266323550686998 -0.0065981983379124259 0 -0.026887530568380821 -0.0069846688856722364 0 -0.026235470136540054 -0.0064897327192760925 0 -0.026887530568380821 -0.0069846688856722364 0 -0.026235470136540054 -0.0064897327192760925 0 -0.026324549522861146 -0.0071560837796008341 0 -0.02493987735526219 -0.0061008257157658657 0 -0.026840255959973039 -0.0063703167968544583 0 -0.026235470136540054 -0.0064897327192760925 0 -0.025662763972695266 -0.0071752796233206821 0 -0.026324549522861146 -0.0071560837796008341 0 -0.025101919066392787 -0.006410808920509074 0 -0.024949847133410939 -0.006951059342502868 0 -0.025646909947293173 -0.0056655507925705822 0 -0.026235470136540054 -0.0064897327192760925 0 -0.025048608834016797 -0.0069614443247360833 0 -0.025662763972695266 -0.0071752796233206821 0 -0.024595340641678124 -0.0044947337011801945 0 -0.024660720214060874 -0.0044911110004722012 0 -0.024622847030428399 -0.0045259553430111125 0 -0.025458421358460256 -0.0054877581830794723 0 -0.025480651712614925 -0.0055263015245628428 0 -0.025480651712614925 -0.0055263015245628428 0 -0.025061847096981817 -0.0053851741450657601 0 -0.025101919066392787 -0.006410808920509074 0 -0.024949847133410939 -0.006951059342502868 0 -0.024999924212607501 -0.0056077809185883145 0 -0.025480651712614925 -0.0055263015245628428 0 -0.024998735039645448 -0.0070467334036831914 0 -0.025662763972695266 -0.0071752796233206821 0 -0.024999994533932823 -0.0070503504324780277 0 -0.025612657914757288 -0.0076912064254258837 0 -0.024999955045710415 -0.0084762117027782635 0 -0.024999994533932823 -0.0070503504324780277 0 -0.025612657914757288 -0.0076912064254258837 0 -0.025048608834016797 -0.0069614443247360833 0 -0.025662763972695266 -0.0071752796233206821 0 -0.024999994533932823 -0.0070503504324780277 0 -0.025662763972695266 -0.0071752796233206821 0 -0.025612657914757288 -0.0076912064254258837 0 -0.026010278694508494 -0.0074350880179233211 0 -0.025612657914757288 -0.0076912064254258837 0 -0.026010278694508494 -0.0074350880179233211 0 -0.026055581064180759 -0.0077381639441591295 0 -0.026333221293792557 -0.0079418038846266002 0 -0.026055581064180759 -0.0077381639441591295 0 -0.02631627573987191 -0.0075588790744636194 0 -0.026333221293792557 -0.0079418038846266002 0 -0.026649927735688698 -0.0077201467366187753 0 -0.02631627573987191 -0.0075588790744636194 0 -0.026010278694508494 -0.0074350880179233211 0 -0.026055581064180759 -0.0077381639441591295 0 -0.02631627573987191 -0.0075588790744636194 0 -0.026010278694508494 -0.0074350880179233211 0 -0.02631627573987191 -0.0075588790744636194 0 -0.026324549522861146 -0.0071560837796008341 0 -0.025662763972695266 -0.0071752796233206821 0 -0.026010278694508494 -0.0074350880179233211 0 -0.026324549522861146 -0.0071560837796008341 0 -0.013451168141035195 -0.0040688303414892829 0 -0.013483096568621272 -0.0039999803038727839 0 -0.013412854921791983 -0.0039520457711925885 0 -0.013451168141035195 -0.0040688303414892829 0 -0.013412854921791983 -0.0039520457711925885 0 -0.013365468911742048 -0.0040778493800642428 0 -0.013451168141035195 -0.0040688303414892829 0 -0.013365468911742048 -0.0040778493800642428 0 -0.013420466074305174 -0.0041501569819093389 0 -0.013451168141035195 -0.0040688303414892829 0 -0.013420466074305174 -0.0041501569819093389 0 -0.013467040388070143 -0.0041368857022804203 0 -0.013451168141035195 -0.0040688303414892829 0 -0.013477801757970399 -0.0040742786446732043 0 -0.013467040388070143 -0.0041368857022804203 0 -0.013477801757970399 -0.0040742786446732043 0 -0.013467040388070143 -0.0041368857022804203 0 -0.013457240305875267 -0.004118357311003489 0 -0.013477801757970399 -0.0040742786446732043 0 -0.013478394374763999 -0.0040508242451185675 0 -0.013457240305875267 -0.004118357311003489 0 -0.013477801757970399 -0.0040742786446732043 0 -0.013478394374763999 -0.0040508242451185675 0 -0.013483096568621272 -0.0039999803038727839 0 -0.013451168141035195 -0.0040688303414892829 0 -0.013477801757970399 -0.0040742786446732043 0 -0.013483096568621272 -0.0039999803038727839 0 -0.013478394374763999 -0.0040508242451185675 0 -0.013528640036464616 -0.0038165475722815308 0 -0.013483096568621272 -0.0039999803038727839 0 -0.013478394374763999 -0.0040508242451185675 0 -0.013528640036464616 -0.0038165475722815308 0 -0.013428255060847577 -0.0042100400688574926 0 -0.013528640036464616 -0.0038165475722815308 0 -0.013412854921791983 -0.0039520457711925885 0 -0.013295849402859881 -0.00365508772397268 0 -0.013528640036464616 -0.0038165475722815308 0 -0.013483096568621272 -0.0039999803038727839 0 -0.013412854921791983 -0.0039520457711925885 0 -0.013412854921791983 -0.0039520457711925885 0 -0.01327561581451784 -0.0039743965554516784 0 -0.013295849402859881 -0.00365508772397268 0 -0.013020075538747646 -0.0039887175425428259 0 -0.01327561581451784 -0.0039743965554516784 0 -0.013295849402859881 -0.00365508772397268 0 -0.013020075538747646 -0.0039887175425428259 0 -0.012954311681376297 -0.0034951033050206878 0 -0.013295849402859881 -0.00365508772397268 0 -0.016466954702161179 -0.0045574071209643317 0 -0.019017863697943123 -0.0050705859108855231 0 -0.013020075538747646 -0.0039887175425428259 0 -0.01327561581451784 -0.0039743965554516784 0 -0.013255486582861135 -0.0041040747126351125 0 -0.013020075538747646 -0.0039887175425428259 0 -0.013255486582861135 -0.0041040747126351125 0 -0.013187944216391351 -0.0041970025821524261 0 -0.013412854921791983 -0.0039520457711925885 0 -0.01327561581451784 -0.0039743965554516784 0 -0.013365468911742048 -0.0040778493800642428 0 -0.013255486582861135 -0.0041040747126351125 0 -0.013365468911742048 -0.0040778493800642428 0 -0.01334348951090936 -0.0041819002610814652 0 -0.01327561581451784 -0.0039743965554516784 0 -0.013255486582861135 -0.0041040747126351125 0 -0.013365468911742048 -0.0040778493800642428 0 -0.01334348951090936 -0.0041819002610814652 0 -0.013307200015769792 -0.0042704935506273356 0 -0.013187944216391351 -0.0041970025821524261 0 -0.013255486582861135 -0.0041040747126351125 0 -0.01334348951090936 -0.0041819002610814652 0 -0.013187944216391351 -0.0041970025821524261 0 -0.01334348951090936 -0.0041819002610814652 0 -0.013307200015769792 -0.0042704935506273356 0 -0.013404057670806281 -0.0042316546946299764 0 -0.013106635553124411 -0.0043068692089711707 0 -0.013020075538747646 -0.0039887175425428259 0 -0.013187944216391351 -0.0041970025821524261 0 -0.013106635553124411 -0.0043068692089711707 0 -0.013187944216391351 -0.0041970025821524261 0 -0.013227716442667795 -0.0043481225860769876 0 -0.013307200015769792 -0.0042704935506273356 0 -0.013187944216391351 -0.0041970025821524261 0 -0.013227716442667795 -0.0043481225860769876 0 -0.02112173040338754 -0.0088616755585983198 0 -0.021064217806097466 -0.0091574993682312072 0 -0.020798590474817615 -0.0090578596848773923 0 -0.020572882106774135 -0.0066434677117014037 0 -0.016381118709502356 -0.0064099245800190718 0 -0.020798590474817615 -0.0090578596848773923 0 -0.020508398455754164 -0.0089444233431700167 0 -0.020857286746206228 -0.0087462674118610872 0 -0.013307200015769792 -0.0042704935506273356 0 -0.013362013540255152 -0.0043956652823435279 0 -0.013404057670806281 -0.0042316546946299764 0 -0.013307200015769792 -0.0042704935506273356 0 -0.013227716442667795 -0.0043481225860769876 0 -0.013362013540255152 -0.0043956652823435279 0 -0.016381118709502356 -0.0064099245800190718 0 -0.01780818199151504 -0.0085017444032675221 0 -0.011586534057025095 -0.0054534823861165623 0 -0.013035848135406735 -0.0052333576195579441 0 -0.013555362968609453 -0.0040908267829229033 0 -0.01780818199151504 -0.0085017444032675221 0 -0.012712277413490168 -0.0039913482407807049 0 -0.013362013540255152 -0.0043956652823435279 0 -0.013404057670806281 -0.0042316546946299764 0 -0.013475931226790671 -0.0042081664315829249 0 -0.011586534057025095 -0.0054534823861165623 0 -0.013035848135406735 -0.0052333576195579441 0 -0.013373242597481468 -0.0063638595290591102 0 -0.013035848135406735 -0.0052333576195579441 0 -0.013680083984637104 -0.005051775173438057 0 -0.013373242597481468 -0.0063638595290591102 0 -0.013035848135406735 -0.0052333576195579441 0 -0.013555362968609453 -0.0040908267829229033 0 -0.013680083984637104 -0.005051775173438057 0 -0.01334348951090936 -0.0041819002610814652 0 -0.013404057670806281 -0.0042316546946299764 0 -0.013420466074305174 -0.0041501569819093389 0 -0.013404057670806281 -0.0042316546946299764 0 -0.013445155611921755 -0.0041793927344482805 0 -0.013420466074305174 -0.0041501569819093389 0 -0.013445155611921755 -0.0041793927344482805 0 -0.013475931226790671 -0.0042081664315829249 0 -0.013467040388070143 -0.0041368857022804203 0 -0.013404057670806281 -0.0042316546946299764 0 -0.013445155611921755 -0.0041793927344482805 0 -0.013475931226790671 -0.0042081664315829249 0 -0.013445155611921755 -0.0041793927344482805 0 -0.013420466074305174 -0.0041501569819093389 0 -0.013467040388070143 -0.0041368857022804203 0 -0.013365468911742048 -0.0040778493800642428 0 -0.01334348951090936 -0.0041819002610814652 0 -0.013420466074305174 -0.0041501569819093389 0 -0.012712277413490168 -0.0039913482407807049 0 -0.013718010965802854 -0.0040892366864402323 0 -0.013555362968609453 -0.0040908267829229033 0 -0.013551749103048632 -0.0041365927555142654 0 -0.013457240305875267 -0.004118357311003489 0 -0.013475931226790671 -0.0042081664315829249 0 -0.013467040388070143 -0.0041368857022804203 0 -0.013457240305875267 -0.004118357311003489 0 -0.013555362968609453 -0.0040908267829229033 0 -0.013551749103048632 -0.0041365927555142654 0 -0.013690099570786228 -0.0042451600710960817 0 -0.013893735583197045 -0.0042863208750218394 0 -0.014380706353105271 -0.0045974058573212181 0 -0.013551749103048632 -0.0041365927555142654 0 -0.013690099570786228 -0.0042451600710960817 0 -0.013468352475752858 -0.0040385508235710205 0 -0.013690099570786228 -0.0042451600710960817 0 -0.014595790344399054 -0.0052386105918300792 0 -0.016009889298410431 -0.0053141437567681459 0 -0.013690099570786228 -0.0042451600710960817 0 -0.013468352475752858 -0.0040385508235710205 0 -0.013427101597592604 -0.0039022013189265142 0 -0.013690099570786228 -0.0042451600710960817 0 -0.013680083984637104 -0.005051775173438057 0 -0.014595790344399054 -0.0052386105918300792 0 -0.013555362968609453 -0.0040908267829229033 0 -0.013690099570786228 -0.0042451600710960817 0 -0.013680083984637104 -0.005051775173438057 0 -0.013680083984637104 -0.005051775173438057 0 -0.014595790344399054 -0.0052386105918300792 0 -0.014395448075099718 -0.005873530753423761 0 -0.014595790344399054 -0.0052386105918300792 0 -0.015252512047364278 -0.0060435678777773479 0 -0.016009889298410431 -0.0053141437567681459 0 -0.014595790344399054 -0.0052386105918300792 0 -0.015252512047364278 -0.0060435678777773479 0 -0.014395448075099718 -0.005873530753423761 0 -0.014395448075099718 -0.005873530753423761 0 -0.013373242597481468 -0.0063638595290591102 0 -0.015482466436798062 -0.007498374884501724 0 -0.018597935136059451 -0.01149506225938811 0 -0.019087391533800183 -0.011647595411369173 0 -0.015252512047364278 -0.0060435678777773479 0 -0.014395448075099718 -0.005873530753423761 0 -0.015482466436798062 -0.007498374884501724 0 -0.023460402556614485 -0.016209167796236337 0 -0.022975110753571362 -0.014950008899203041 0 -0.022156589006833115 -0.015582474065485843 0 -0.013680083984637104 -0.005051775173438057 0 -0.014395448075099718 -0.005873530753423761 0 -0.013373242597481468 -0.0063638595290591102 0 -0.024914399991990254 -0.016872754879807932 0 -0.023460402556614485 -0.016209167796236337 0 -0.025097874684255894 -0.015660363302600854 0 -0.01780818199151504 -0.0085017444032675221 0 -0.018597935136059451 -0.01149506225938811 0 -0.023460402556614485 -0.016209167796236337 0 -0.024020576273181011 -0.015106073459015729 0 -0.025097874684255894 -0.015660363302600854 0 -0.024020576273181011 -0.015106073459015729 0 -0.025083831690967482 -0.014463904522922727 0 -0.023551777512607563 -0.014170987608709365 0 -0.023460402556614485 -0.016209167796236337 0 -0.024020576273181011 -0.015106073459015729 0 -0.022975110753571362 -0.014950008899203041 0 -0.024020576273181011 -0.015106073459015729 0 -0.022975110753571362 -0.014950008899203041 0 -0.023551777512607563 -0.014170987608709365 0 -0.022975110753571362 -0.014950008899203041 0 -0.022156589006833115 -0.015582474065485843 0 -0.021850967565432412 -0.014648816018937392 0 -0.022975110753571362 -0.014950008899203041 0 -0.022727361237550134 -0.014066957101312359 0 -0.021850967565432412 -0.014648816018937392 0 -0.022975110753571362 -0.014950008899203041 0 -0.022727361237550134 -0.014066957101312359 0 -0.023551777512607563 -0.014170987608709365 0 -0.021187865191479152 -0.0085676856989044814 0 -0.02112173040338754 -0.0088616755585983198 0 -0.020857286746206228 -0.0087462674118610872 0 -0.026260663529805554 -0.016007660196480037 0 -0.025097874684255894 -0.015660363302600854 0 -0.026367264303500938 -0.014765161800521823 0 -0.025086834366548402 -0.011222242417801766 0 -0.023759916825000331 -0.012503806389982337 0 -0.02112173040338754 -0.0088616755585983198 0 -0.020798590474817615 -0.0090578596848773923 0 -0.020857286746206228 -0.0087462674118610872 0 -0.024914399991990254 -0.016872754879807932 0 -0.026260663529805554 -0.016007660196480037 0 -0.025097874684255894 -0.015660363302600854 0 -0.01780818199151504 -0.0085017444032675221 0 -0.023759916825000331 -0.012503806389982337 0 -0.024020576273181011 -0.015106073459015729 0 -0.025097874684255894 -0.015660363302600854 0 -0.025083831690967482 -0.014463904522922727 0 -0.025097874684255894 -0.015660363302600854 0 -0.025083831690967482 -0.014463904522922727 0 -0.026367264303500938 -0.014765161800521823 0 -0.025083831690967482 -0.014463904522922727 0 -0.026367264303500938 -0.014765161800521823 0 -0.025859674539322818 -0.013914959518449545 0 -0.027474451606075354 -0.015025090322590548 0 -0.026260663529805554 -0.016007660196480037 0 -0.026367264303500938 -0.014765161800521823 0 -0.027474451606075354 -0.015025090322590548 0 -0.026367264303500938 -0.014765161800521823 0 -0.026942734541579267 -0.013694981245822484 0 -0.026934839485118364 -0.013446270376993936 0 -0.025724056011301448 -0.014002284482986753 0 -0.02739985424399994 -0.013538764603550316 0 -0.026942734541579267 -0.013694981245822484 0 -0.027210616426526727 -0.013493635086739885 0 -0.026367264303500938 -0.014765161800521823 0 -0.026942734541579267 -0.013694981245822484 0 -0.025859674539322818 -0.013914959518449545 0 -0.026942734541579267 -0.013694981245822484 0 -0.025859674539322818 -0.013914959518449545 0 -0.024978509877733708 -0.012612555011666323 0 -0.025083831690967482 -0.014463904522922727 0 -0.025859674539322818 -0.013914959518449545 0 -0.024978509877733708 -0.012612555011666323 0 -0.027323843320003652 -0.01497917370124234 0 -0.025724056011301448 -0.014002284482986753 0 -0.026942734541579267 -0.013694981245822484 0 -0.027068429654502138 -0.013531684099354799 0 -0.027210616426526727 -0.013493635086739885 0 -0.027425803031726679 -0.01354780002088048 0 -0.027068429654502138 -0.013531684099354799 0 -0.027210616426526727 -0.013493635086739885 0 -0.022727361237550134 -0.014066957101312359 0 -0.02331394578095429 -0.013641641186318186 0 -0.02273896355740997 -0.013481116416242009 0 -0.022727361237550134 -0.014066957101312359 0 -0.02273896355740997 -0.013481116416242009 0 -0.022443704173913507 -0.013818034612027408 0 -0.022727361237550134 -0.014066957101312359 0 -0.023551777512607563 -0.014170987608709365 0 -0.02331394578095429 -0.013641641186318186 0 -0.025083831690967482 -0.014463904522922727 0 -0.024978509877733708 -0.012612555011666323 0 -0.023551777512607563 -0.014170987608709365 0 -0.024062310951579246 -0.013522306364817008 0 -0.023551777512607563 -0.014170987608709365 0 -0.02331394578095429 -0.013641641186318186 0 -0.025724056011301448 -0.014002284482986753 0 -0.023369628104991678 -0.013954665471972922 0 -0.025724056011301448 -0.014002284482986753 0 -0.024791252360252414 -0.01492967459652555 0 -0.02668040115041306 -0.016215474260602238 0 -0.026716766116692808 -0.016491179720616422 0 -0.026474692541065201 -0.016412972069386553 0 -0.024062310951579246 -0.013522306364817008 0 -0.02331394578095429 -0.013641641186318186 0 -0.023201282953915558 -0.013148561637366387 0 -0.023201282953915558 -0.013148561637366387 0 -0.02273896355740997 -0.013481116416242009 0 -0.022367170394262222 -0.013313519811402316 0 -0.02331394578095429 -0.013641641186318186 0 -0.023201282953915558 -0.013148561637366387 0 -0.02273896355740997 -0.013481116416242009 0 -0.02273896355740997 -0.013481116416242009 0 -0.022367170394262222 -0.013313519811402316 0 -0.021966645551442988 -0.013617267653706596 0 -0.02273896355740997 -0.013481116416242009 0 -0.022443704173913507 -0.013818034612027408 0 -0.021822589200986835 -0.013369332777646148 0 -0.022508306954304762 -0.013491313632163521 0 -0.022269519350467438 -0.013437583970019403 0 -0.022727361237550134 -0.014066957101312359 0 -0.021314113660065383 -0.013701679232277929 0 -0.021850967565432412 -0.014648816018937392 0 -0.022470932607712032 -0.014014901236815352 0 -0.022049828440851498 -0.013933450800956385 0 -0.022727361237550134 -0.014066957101312359 0 -0.022443704173913507 -0.013818034612027408 0 -0.022010413647881449 -0.014006296787561387 0 -0.022443704173913507 -0.013818034612027408 0 -0.022010413647881449 -0.014006296787561387 0 -0.021822589200986835 -0.013369332777646148 0 -0.018492362118049353 -0.013171422161416891 0 -0.017759612741613296 -0.011216680812595595 0 -0.022010413647881449 -0.014006296787561387 0 -0.021103301944105392 -0.013869199874303047 0 -0.021822589200986835 -0.013369332777646148 0 -0.022049828440851498 -0.013933450800956385 0 -0.018492362118049353 -0.013171422161416891 0 -0.021314113660065383 -0.013701679232277929 0 -0.01990597262441841 -0.013419268813974074 0 -0.020802311256778509 -0.01501404297056875 0 -0.015824858103118043 -0.010601542067253406 0 -0.015865112310410132 -0.010493543341567933 0 -0.015797575237114291 -0.010474941561912652 0 -0.021103301944105392 -0.013869199874303047 0 -0.021822589200986835 -0.013369332777646148 0 -0.020791272788101087 -0.013321699219379739 0 -0.022269519350467438 -0.013437583970019403 0 -0.01909539888588048 -0.01472963913005945 0 -0.021585887411572871 -0.013248919129881019 0 -0.021966645551442988 -0.013617267653706596 0 -0.021172635378194651 -0.013661483192117034 0 -0.021585887411572871 -0.013248919129881019 0 -0.022367170394262222 -0.013313519811402316 0 -0.021966645551442988 -0.013617267653706596 0 -0.021585887411572871 -0.013248919129881019 0 -0.021023700271412215 -0.013407408451383841 0 -0.021172635378194651 -0.013661483192117034 0 -0.017779883122954625 -0.014704450879610968 0 -0.017289993944579345 -0.013820756182948469 0 -0.016243364638054446 -0.014420090930426297 0 -0.018104240763373972 -0.018136858594730413 0 -0.01909539888588048 -0.01472963913005945 0 -0.017786333364323854 -0.0160117628468168 0 -0.017746559615381744 -0.016064008046711497 0 -0.0178200344687722 -0.016063569770765132 0 -0.015566595660622899 -0.021790575607694741 0 -0.014847865618567144 -0.021526678275169769 0 -0.015081491059327238 -0.021159757603701087 0 -0.018104240763373972 -0.018136858594730413 0 -0.015675888458031077 -0.016320922346184225 0 -0.016637034996136231 -0.01379789139713692 0 -0.017289993944579345 -0.013820756182948469 0 -0.016243364638054446 -0.014420090930426297 0 -0.015675888458031077 -0.016320922346184225 0 -0.01909539888588048 -0.01472963913005945 0 -0.018492362118049353 -0.013171422161416891 0 -0.01909539888588048 -0.01472963913005945 0 -0.014147625419918278 -0.014532999013199982 0 -0.014194306825950657 -0.014439143917321139 0 -0.014386901253984835 -0.014532126947327594 0 -0.015177338930077233 -0.013646696452960818 0 -0.014011893360624859 -0.014460055239002354 0 -0.015675888458031077 -0.016320922346184225 0 -0.015047512271009691 -0.018004317292601824 0 -0.015566595660622899 -0.021790575607694741 0 -0.015081491059327238 -0.021159757603701087 0 -0.016276362679038647 -0.021263417556355777 0 -0.013842636042934078 -0.014292466035714942 0 -0.014168023982005241 -0.014194720330937893 0 -0.014432185010149458 -0.014432670754117256 0 -0.015675888458031077 -0.016320922346184225 0 -0.015177338930077233 -0.013646696452960818 0 -0.013842636042934078 -0.014292466035714942 0 -0.014168023982005241 -0.014194720330937893 0 -0.014114275780873148 -0.013840101067171491 0 -0.015177338930077233 -0.013646696452960818 0 -0.013258190094683899 -0.0096140578652516347 0 -0.015976609018942212 -0.010662119028220889 0 -0.015966477497978485 -0.010549271854315697 0 -0.016072453707227968 -0.010506527519165679 0 -0.015824858103118043 -0.010601542067253406 0 -0.015976609018942212 -0.010662119028220889 0 -0.015966477497978485 -0.010549271854315697 0 -0.015824858103118043 -0.010601542067253406 0 -0.015966477497978485 -0.010549271854315697 0 -0.015865112310410132 -0.010493543341567933 0 -0.018492362118049353 -0.013171422161416891 0 -0.015177338930077233 -0.013646696452960818 0 -0.013031385203814793 -0.0039579261563349004 0 -0.013437277403231951 -0.0041712085759741365 0 -0.013688686359503526 -0.0040994926913170146 0 -0.012978474867816343 -0.0039314685595297771 0 -0.013853344037789785 -0.0044787671442277277 0 -0.012978474867816343 -0.0039314685595297771 0 -0.013019951647451703 -0.003949599483104603 0 -0.013127857618631526 -0.0039162519716456025 0 -0.015966477497978485 -0.010549271854315697 0 -0.015865112310410132 -0.010493543341567933 0 -0.015826808767079849 -0.010320738743702014 0 -0.012914159488213403 -0.0037952785298431971 0 -0.013688686359503526 -0.0040994926913170146 0 -0.012978474867816343 -0.0039314685595297771 0 -0.015966477497978485 -0.010549271854315697 0 -0.016072453707227968 -0.010506527519165679 0 -0.015826808767079849 -0.010320738743702014 0 -0.013258190094683899 -0.0096140578652516347 0 -0.014814569782309278 -0.0069413248239247518 0 -0.012978474867816343 -0.0039314685595297771 0 -0.012940084345126331 -0.0039830291773963727 0 -0.013019951647451703 -0.003949599483104603 0 -0.012940084345126331 -0.0039830291773963727 0 -0.012882149288138014 -0.0040639015352505288 0 -0.012983409645927457 -0.0040228753614721651 0 -0.012940084345126331 -0.0039830291773963727 0 -0.013019951647451703 -0.003949599483104603 0 -0.013025839152924977 -0.00396814713883583 0 -0.012940084345126331 -0.0039830291773963727 0 -0.013025839152924977 -0.00396814713883583 0 -0.012983409645927457 -0.0040228753614721651 0 -0.013019951647451703 -0.003949599483104603 0 -0.013025839152924977 -0.00396814713883583 0 -0.013127857618631526 -0.0039162519716456025 0 -0.013025839152924977 -0.00396814713883583 0 -0.013078814304992541 -0.0039907656692391193 0 -0.013127857618631526 -0.0039162519716456025 0 -0.013025839152924977 -0.00396814713883583 0 -0.013078814304992541 -0.0039907656692391193 0 -0.012983409645927457 -0.0040228753614721651 0 -0.013078814304992541 -0.0039907656692391193 0 -0.013127857618631526 -0.0039162519716456025 0 -0.013140291926443934 -0.0039811588510792716 0 -0.014814569782309278 -0.0069413248239247518 0 -0.015484340284951959 -0.0070538462422063174 0 -0.013127857618631526 -0.0039162519716456025 0 -0.013295988078964724 -0.0039914860407234192 0 -0.013211692727052519 -0.0039862138881372579 0 -0.013437277403231951 -0.0041712085759741365 0 -0.014380706353105271 -0.0045974058573212181 0 -0.013688686359503526 -0.0040994926913170146 0 -0.013853344037789785 -0.0044787671442277277 0 -0.014589024534550039 -0.0045363417225861317 0 -0.013127857618631526 -0.0039162519716456025 0 -0.013416626654047605 -0.0039663878135844334 0 -0.013295988078964724 -0.0039914860407234192 0 -0.013127857618631526 -0.0039162519716456025 0 -0.013211692727052519 -0.0039862138881372579 0 -0.013140291926443934 -0.0039811588510792716 0 -0.013853344037789785 -0.0044787671442277277 0 -0.014589024534550039 -0.0045363417225861317 0 -0.014857267975930946 -0.0050334469459025529 0 -0.015484340284951959 -0.0070538462422063174 0 -0.017759612741613296 -0.011216680812595595 0 -0.015484340284951959 -0.0070538462422063174 0 -0.014380706353105271 -0.0045974058573212181 0 -0.015482466436798062 -0.007498374884501724 0 -0.016949080951438173 -0.0068919690982580887 0 -0.017897676988714147 -0.00865812066022046 0 -0.015252512047364278 -0.0060435678777773479 0 -0.015782023216223743 -0.0063487231505577404 0 -0.015482466436798062 -0.007498374884501724 0 -0.016050741158014682 -0.0068207903187302221 0 -0.015484340284951959 -0.0070538462422063174 0 -0.015782023216223743 -0.0063487231505577404 0 -0.016843691707414312 -0.0068646974859385024 0 -0.016009889298410431 -0.0053141437567681459 0 -0.015252512047364278 -0.0060435678777773479 0 -0.015782023216223743 -0.0063487231505577404 0 -0.016009889298410431 -0.0053141437567681459 0 -0.015782023216223743 -0.0063487231505577404 0 -0.015482466436798062 -0.007498374884501724 0 -0.016949080951438173 -0.0068919690982580887 0 -0.021314113660065383 -0.013701679232277929 0 -0.021850967565432412 -0.014648816018937392 0 -0.020802311256778509 -0.01501404297056875 0 -0.022156589006833115 -0.015582474065485843 0 -0.021850967565432412 -0.014648816018937392 0 -0.020802311256778509 -0.01501404297056875 0 -0.019087391533800183 -0.011647595411369173 0 -0.017759612741613296 -0.011216680812595595 0 -0.015826808767079849 -0.010320738743702014 0 -0.015397514135223257 -0.010037078071429102 0 -0.015532125802775137 -0.010331172679314366 0 -0.015865112310410132 -0.010493543341567933 0 -0.015826808767079849 -0.010320738743702014 0 -0.015532125802775137 -0.010331172679314366 0 -0.015063957614236881 -0.010148351705115355 0 -0.017759612741613296 -0.011216680812595595 0 -0.013296560726979092 -0.010343408630637232 0 -0.012623271524273366 -0.012116004913729545 0 -0.012080828782626334 -0.010778473729390099 0 -0.011608318594654013 -0.011939455943245343 0 -0.012848586627990712 -0.016198864259786332 0 -0.013296560726979092 -0.010343408630637232 0 -0.013433559886561818 -0.012165022333413716 0 -0.012623271524273366 -0.012116004913729545 0 -0.015808987076273533 -0.019619512986369797 0 -0.015181990704656466 -0.016102338121191898 0 -0.012848586627990712 -0.016198864259786332 0 -0.015181990704656466 -0.016102338121191898 0 -0.013822808937118694 -0.017135518656306713 0 -0.014199817272481137 -0.016690541339089229 0 -0.015245096232242144 -0.017178461790276701 0 -0.012873672532889367 -0.019719414929116091 0 -0.013118609837002514 -0.018472758499150494 0 -0.013239046139251542 -0.019504674927713753 0 -0.013153207635734545 -0.019461102941451102 0 -0.013234913615965994 -0.019421384321286615 0 -0.012873672532889367 -0.019719414929116091 0 -0.015808987076273533 -0.019619512986369797 0 -0.015808987076273533 -0.019619512986369797 0 -0.013118609837002514 -0.018472758499150494 0 -0.012848586627990712 -0.016198864259786332 0 -0.013118609837002514 -0.018472758499150494 0 -0.013822808937118694 -0.017135518656306713 0 -0.014199817272481137 -0.016690541339089229 0 -0.013807438398261719 -0.016867506281672929 0 -0.012623271524273366 -0.012116004913729545 0 -0.012080828782626334 -0.010778473729390099 0 -0.010785706435661697 -0.011151747175450061 0 -0.015181990704656466 -0.016102338121191898 0 -0.012244385232899597 -0.012578595165936577 0 -0.017805121291543567 -0.021957658016266597 0 -0.018248169163848648 -0.02138123926396205 0 -0.017347262297633167 -0.021331513867481094 0 -0.015181990704656466 -0.016102338121191898 0 -0.016564223706719595 -0.018123918996564677 0 -0.015565071224290555 -0.014665863816532291 0 -0.014857247525779171 -0.0142622331562231 0 -0.014966378119271357 -0.014605671121813525 0 -0.012080828782626334 -0.010778473729390099 0 -0.010785706435661697 -0.011151747175450061 0 -0.01163073327181062 -0.0095118869220806677 0 -0.016564223706719595 -0.018123918996564677 0 -0.015047512271009691 -0.018004317292601824 0 -0.014857247525779171 -0.0142622331562231 0 -0.014966378119271357 -0.014605671121813525 0 -0.014432185010149458 -0.014432670754117256 0 -0.014194306825950657 -0.014439143917321139 0 -0.014386901253984835 -0.014532126947327594 0 -0.014432185010149458 -0.014432670754117256 0 -0.014966378119271357 -0.014605671121813525 0 -0.014386901253984835 -0.014532126947327594 0 -0.014432185010149458 -0.014432670754117256 0 -0.014168023982005241 -0.014194720330937893 0 -0.014114275780873148 -0.013840101067171491 0 -0.014857247525779171 -0.0142622331562231 0 -0.014168023982005241 -0.014194720330937893 0 -0.014857247525779171 -0.0142622331562231 0 -0.014432185010149458 -0.014432670754117256 0 -0.013258190094683899 -0.0096140578652516347 0 -0.012244385232899597 -0.012578595165936577 0 -0.0090243048019215798 -0.010237421777521695 0 -0.010785706435661697 -0.011151747175450061 0 -0.010323783197069445 -0.0098380352894996675 0 -0.0090243048019215798 -0.010237421777521695 0 -0.0098618428784208751 -0.008826424795097482 0 -0.010323783197069445 -0.0098380352894996675 0 -0.013258190094683899 -0.0096140578652516347 0 -0.011173269448602564 -0.0060513624679222238 0 -0.012914159488213403 -0.0037952785298431971 0 -0.012978474867816343 -0.0039314685595297771 0 -0.012832951545923281 -0.0040089026688567677 0 -0.012978474867816343 -0.0039314685595297771 0 -0.012940084345126331 -0.0039830291773963727 0 -0.012832951545923281 -0.0040089026688567677 0 -0.012940084345126331 -0.0039830291773963727 0 -0.012832951545923281 -0.0040089026688567677 0 -0.012882149288138014 -0.0040639015352505288 0 -0.0098618428784208751 -0.008826424795097482 0 -0.010915682295528065 -0.0085229875565397163 0 -0.010713633026879442 -0.0074171255545453126 0 -0.011173269448602564 -0.0060513624679222238 0 -0.011721792044765367 -0.0058240389986093308 0 -0.0098618428784208751 -0.008826424795097482 0 -0.010915682295528065 -0.0085229875565397163 0 -0.010323783197069445 -0.0098380352894996675 0 -0.010915682295528065 -0.0085229875565397163 0 -0.010323783197069445 -0.0098380352894996675 0 -0.01163073327181062 -0.0095118869220806677 0 -0.010785706435661697 -0.011151747175450061 0 -0.010323783197069445 -0.0098380352894996675 0 -0.01163073327181062 -0.0095118869220806677 0 -0.013296560726979092 -0.010343408630637232 0 -0.012080828782626334 -0.010778473729390099 0 -0.01163073327181062 -0.0095118869220806677 0 -0.01163073327181062 -0.0095118869220806677 0 -0.013130154808868099 -0.0085665759254981606 0 -0.011922728596049639 -0.007770221211167808 0 -0.010915682295528065 -0.0085229875565397163 0 -0.01163073327181062 -0.0095118869220806677 0 -0.011922728596049639 -0.007770221211167808 0 -0.013296560726979092 -0.010343408630637232 0 -0.01163073327181062 -0.0095118869220806677 0 -0.013130154808868099 -0.0085665759254981606 0 -0.011608318594654013 -0.011939455943245343 0 -0.011838025236536376 -0.0097384803987029499 0 -0.012894843505544772 -0.0068472409083725093 0 -0.011552124729989 -0.006060556382503619 0 -0.01257430763145815 -0.0053287565306834482 0 -0.011838025236536376 -0.0097384803987029499 0 -0.012071075957866721 -0.0072848203050589469 0 -0.013130154808868099 -0.0085665759254981606 0 -0.012894843505544772 -0.0068472409083725093 0 -0.011922728596049639 -0.007770221211167808 0 -0.011922728596049639 -0.007770221211167808 0 -0.011552124729989 -0.006060556382503619 0 -0.010713633026879442 -0.0074171255545453126 0 -0.012894843505544772 -0.0068472409083725093 0 -0.011922728596049639 -0.007770221211167808 0 -0.011552124729989 -0.006060556382503619 0 -0.012098119849110571 -0.0051700089729352569 0 -0.011721792044765367 -0.0058240389986093308 0 -0.012605009242370509 -0.0042864532958520746 0 -0.01272286084971019 -0.0041079779223834982 0 -0.01272525411288492 -0.0042707466814055697 0 -0.01272286084971019 -0.0041079779223834982 0 -0.012827369718359561 -0.0041855972378066026 0 -0.01272525411288492 -0.0042707466814055697 0 -0.010915682295528065 -0.0085229875565397163 0 -0.011922728596049639 -0.007770221211167808 0 -0.010713633026879442 -0.0074171255545453126 0 -0.012832951545923281 -0.0040089026688567677 0 -0.01272286084971019 -0.0041079779223834982 0 -0.012882149288138014 -0.0040639015352505288 0 -0.01272286084971019 -0.0041079779223834982 0 -0.012882149288138014 -0.0040639015352505288 0 -0.012827369718359561 -0.0041855972378066026 0 -0.012748870640739379 -0.0043521842984630826 0 -0.012891845735137526 -0.0042162578214544749 0 -0.012830141361987521 -0.0042807259165238377 0 -0.012827369718359561 -0.0041855972378066026 0 -0.012748870640739379 -0.0043521842984630826 0 -0.012891845735137526 -0.0042162578214544749 0 -0.012827369718359561 -0.0041855972378066026 0 -0.012748870640739379 -0.0043521842984630826 0 -0.01272525411288492 -0.0042707466814055697 0 -0.012748870640739379 -0.0043521842984630826 0 -0.012743667977201452 -0.0043315770133657144 0 -0.012691230813126161 -0.0043712431157879872 0 -0.012748870640739379 -0.0043521842984630826 0 -0.012743667977201452 -0.0043315770133657144 0 -0.012830141361987521 -0.0042807259165238377 0 -0.012743667977201452 -0.0043315770133657144 0 -0.012792587635840543 -0.0042970228820696128 0 -0.01270172154100583 -0.004312400832981551 0 -0.012743667977201452 -0.0043315770133657144 0 -0.012691230813126161 -0.0043712431157879872 0 -0.01270172154100583 -0.004312400832981551 0 -0.012748870640739379 -0.0043521842984630826 0 -0.012691230813126161 -0.0043712431157879872 0 -0.012696248264575228 -0.0044675839108585689 0 -0.012691230813126161 -0.0043712431157879872 0 -0.012696248264575228 -0.0044675839108585689 0 -0.012695858923385253 -0.0043902133986067661 0 -0.012696248264575228 -0.0044675839108585689 0 -0.012681925687279869 -0.0044845692954345118 0 -0.012695858923385253 -0.0043902133986067661 0 -0.012748870640739379 -0.0043521842984630826 0 -0.012696248264575228 -0.0044675839108585689 0 -0.01272525411288492 -0.0042707466814055697 0 -0.012605009242370509 -0.0042864532958520746 0 -0.012696248264575228 -0.0044675839108585689 0 -0.01272525411288492 -0.0042707466814055697 0 -0.012605009242370509 -0.0042864532958520746 0 -0.012696248264575228 -0.0044675839108585689 0 -0.012623345153409758 -0.0046109057927351971 0 -0.012098119849110571 -0.0051700089729352569 0 -0.012427896544036036 -0.004828564165574434 0 -0.012605009242370509 -0.0042864532958520746 0 -0.012623345153409758 -0.0046109057927351971 0 -0.012472033270071788 -0.0048182962093184139 0 -0.012696248264575228 -0.0044675839108585689 0 -0.012623345153409758 -0.0046109057927351971 0 -0.012681925687279869 -0.0044845692954345118 0 -0.012623345153409758 -0.0046109057927351971 0 -0.012681925687279869 -0.0044845692954345118 0 -0.012713354910798988 -0.0045289100579585743 0 -0.012623345153409758 -0.0046109057927351971 0 -0.012472033270071788 -0.0048182962093184139 0 -0.012713354910798988 -0.0045289100579585743 0 -0.012472033270071788 -0.0048182962093184139 0 -0.012886771192049536 -0.0048325782866841761 0 -0.012713354910798988 -0.0045289100579585743 0 -0.012886771192049536 -0.0048325782866841761 0 -0.01257430763145815 -0.0053287565306834482 0 -0.013005828145087807 -0.0053746636097651498 0 -0.012472033270071788 -0.0048182962093184139 0 -0.012886771192049536 -0.0048325782866841761 0 -0.01257430763145815 -0.0053287565306834482 0 -0.011158822750844878 -0.007646127763224252 0 -0.01257430763145815 -0.0053287565306834482 0 -0.012603894047607101 -0.0063529650922799254 0 -0.011552124729989 -0.006060556382503619 0 -0.012472033270071788 -0.0048182962093184139 0 -0.01257430763145815 -0.0053287565306834482 0 -0.012071075957866721 -0.0072848203050589469 0 -0.012454321547322015 -0.0055452919628573415 0 -0.013217496697006097 -0.0040711090469517375 0 -0.013164507877046289 -0.0041140973094042927 0 -0.013306120699684669 -0.0041053159112155171 0 -0.013217496697006097 -0.0040711090469517375 0 -0.013306120699684669 -0.0041053159112155171 0 -0.013319324439822731 -0.0040562704139802935 0 -0.013217496697006097 -0.0040711090469517375 0 -0.013164507877046289 -0.0041140973094042927 0 -0.013091521408747095 -0.0040911047328167638 0 -0.013164507877046289 -0.0041140973094042927 0 -0.013306120699684669 -0.0041053159112155171 0 -0.013174111463839171 -0.0041537763265905589 0 -0.013306120699684669 -0.0041053159112155171 0 -0.013457240305875267 -0.004118357311003489 0 -0.013414499988789534 -0.0040914079303030967 0 -0.013306120699684669 -0.0041053159112155171 0 -0.013457240305875267 -0.004118357311003489 0 -0.013310392221793218 -0.0041347993735062717 0 -0.013551749103048632 -0.0041365927555142654 0 -0.013457240305875267 -0.004118357311003489 0 -0.013414499988789534 -0.0040914079303030967 0 -0.013306120699684669 -0.0041053159112155171 0 -0.013414499988789534 -0.0040914079303030967 0 -0.013319324439822731 -0.0040562704139802935 0 -0.013414499988789534 -0.0040914079303030967 0 -0.013319324439822731 -0.0040562704139802935 0 -0.013379510106816064 -0.0040297343782636393 0 -0.013319324439822731 -0.0040562704139802935 0 -0.013379510106816064 -0.0040297343782636393 0 -0.013295988078964724 -0.0039914860407234192 0 -0.013414499988789534 -0.0040914079303030967 0 -0.013379510106816064 -0.0040297343782636393 0 -0.013468352475752858 -0.0040385508235710205 0 -0.013551749103048632 -0.0041365927555142654 0 -0.013414499988789534 -0.0040914079303030967 0 -0.013468352475752858 -0.0040385508235710205 0 -0.013379510106816064 -0.0040297343782636393 0 -0.013468352475752858 -0.0040385508235710205 0 -0.013416626654047605 -0.0039663878135844334 0 -0.013851572198603296 -0.0040030185200847493 0 -0.014380706353105271 -0.0045974058573212181 0 -0.013379510106816064 -0.0040297343782636393 0 -0.013416626654047605 -0.0039663878135844334 0 -0.013295988078964724 -0.0039914860407234192 0 -0.013295988078964724 -0.0039914860407234192 0 -0.013235971343053795 -0.0040268641269662984 0 -0.013211692727052519 -0.0039862138881372579 0 -0.013319324439822731 -0.0040562704139802935 0 -0.013295988078964724 -0.0039914860407234192 0 -0.013235971343053795 -0.0040268641269662984 0 -0.013217496697006097 -0.0040711090469517375 0 -0.013319324439822731 -0.0040562704139802935 0 -0.013235971343053795 -0.0040268641269662984 0 -0.013217496697006097 -0.0040711090469517375 0 -0.013235971343053795 -0.0040268641269662984 0 -0.013145739733307203 -0.0040288738335773301 0 -0.013217496697006097 -0.0040711090469517375 0 -0.013145739733307203 -0.0040288738335773301 0 -0.013091521408747095 -0.0040911047328167638 0 -0.013211692727052519 -0.0039862138881372579 0 -0.013140291926443934 -0.0039811588510792716 0 -0.013145739733307203 -0.0040288738335773301 0 -0.013235971343053795 -0.0040268641269662984 0 -0.013211692727052519 -0.0039862138881372579 0 -0.013145739733307203 -0.0040288738335773301 0 -0.013078814304992541 -0.0039907656692391193 0 -0.013140291926443934 -0.0039811588510792716 0 -0.013145739733307203 -0.0040288738335773301 0 -0.013078814304992541 -0.0039907656692391193 0 -0.013047683401743638 -0.0040474610154553415 0 -0.013145739733307203 -0.0040288738335773301 0 -0.013078814304992541 -0.0039907656692391193 0 -0.013047683401743638 -0.0040474610154553415 0 -0.012983409645927457 -0.0040228753614721651 0 -0.013047683401743638 -0.0040474610154553415 0 -0.012962735516935237 -0.0041116480240072709 0 -0.013091521408747095 -0.0040911047328167638 0 -0.013047683401743638 -0.0040474610154553415 0 -0.013145739733307203 -0.0040288738335773301 0 -0.013091521408747095 -0.0040911047328167638 0 -0.013047683401743638 -0.0040474610154553415 0 -0.012983409645927457 -0.0040228753614721651 0 -0.012962735516935237 -0.0041116480240072709 0 -0.012882149288138014 -0.0040639015352505288 0 -0.012983409645927457 -0.0040228753614721651 0 -0.012962735516935237 -0.0041116480240072709 0 -0.012882149288138014 -0.0040639015352505288 0 -0.012827369718359561 -0.0041855972378066026 0 -0.012962735516935237 -0.0041116480240072709 0 -0.012962735516935237 -0.0041116480240072709 0 -0.013033263930648258 -0.004150657209468795 0 -0.012891845735137526 -0.0042162578214544749 0 -0.012827369718359561 -0.0041855972378066026 0 -0.012962735516935237 -0.0041116480240072709 0 -0.012891845735137526 -0.0042162578214544749 0 -0.012962735516935237 -0.0041116480240072709 0 -0.013091521408747095 -0.0040911047328167638 0 -0.013033263930648258 -0.004150657209468795 0 -0.013164507877046289 -0.0041140973094042927 0 -0.013091521408747095 -0.0040911047328167638 0 -0.013033263930648258 -0.004150657209468795 0 -0.013164507877046289 -0.0041140973094042927 0 -0.013033263930648258 -0.004150657209468795 0 -0.013174111463839171 -0.0041537763265905589 0 -0.012972366620719612 -0.004215963618599031 0 -0.013081102062599912 -0.0042179014900950032 0 -0.013174111463839171 -0.0041537763265905589 0 -0.013033263930648258 -0.004150657209468795 0 -0.012972366620719612 -0.004215963618599031 0 -0.013174111463839171 -0.0041537763265905589 0 -0.013033263930648258 -0.004150657209468795 0 -0.012972366620719612 -0.004215963618599031 0 -0.012891845735137526 -0.0042162578214544749 0 -0.012972366620719612 -0.004215963618599031 0 -0.012891845735137526 -0.0042162578214544749 0 -0.012830141361987521 -0.0042807259165238377 0 -0.012972366620719612 -0.004215963618599031 0 -0.012830141361987521 -0.0042807259165238377 0 -0.012915848475710657 -0.0042720393865034031 0 -0.012830141361987521 -0.0042807259165238377 0 -0.012792587635840543 -0.0042970228820696128 0 -0.012915848475710657 -0.0042720393865034031 0 -0.012743667977201452 -0.0043315770133657144 0 -0.012830141361987521 -0.0042807259165238377 0 -0.012792587635840543 -0.0042970228820696128 0 -0.013081102062599912 -0.0042179014900950032 0 -0.012915848475710657 -0.0042720393865034031 0 -0.013028209025928718 -0.0043310571137015518 0 -0.012972366620719612 -0.004215963618599031 0 -0.013081102062599912 -0.0042179014900950032 0 -0.012915848475710657 -0.0042720393865034031 0 -0.013081102062599912 -0.0042179014900950032 0 -0.013196274157728678 -0.0042520555982470841 0 -0.013028209025928718 -0.0043310571137015518 0 -0.013081102062599912 -0.0042179014900950032 0 -0.013196274157728678 -0.0042520555982470841 0 -0.013324318298934365 -0.0041460954671838184 0 -0.013081102062599912 -0.0042179014900950032 0 -0.013174111463839171 -0.0041537763265905589 0 -0.013324318298934365 -0.0041460954671838184 0 -0.013174111463839171 -0.0041537763265905589 0 -0.013310392221793218 -0.0041347993735062717 0 -0.013324318298934365 -0.0041460954671838184 0 -0.013306120699684669 -0.0041053159112155171 0 -0.013174111463839171 -0.0041537763265905589 0 -0.013310392221793218 -0.0041347993735062717 0 -0.013478394374763999 -0.0040508242451185675 0 -0.013457240305875267 -0.004118357311003489 0 -0.013324318298934365 -0.0041460954671838184 0 -0.013457240305875267 -0.004118357311003489 0 -0.013310392221793218 -0.0041347993735062717 0 -0.013324318298934365 -0.0041460954671838184 0 -0.013196274157728678 -0.0042520555982470841 0 -0.013324318298934365 -0.0041460954671838184 0 -0.013428255060847577 -0.0042100400688574926 0 -0.013478394374763999 -0.0040508242451185675 0 -0.013324318298934365 -0.0041460954671838184 0 -0.013428255060847577 -0.0042100400688574926 0 -0.014156093629472021 -0.0033055920491926998 0 -0.014337539842063634 -0.0027734633107581726 0 -0.014703251633915063 -0.002777604237573548 0 -0.013760016885458075 -0.0037533308693046392 0 -0.013902268885979976 -0.0036044797099217111 0 -0.014337539842063634 -0.0027734633107581726 0 -0.014551765743103169 -0.0023753001342782369 0 -0.014120565717818948 -0.0023657268092908143 0 -0.014337539842063634 -0.0027734633107581726 0 -0.014551765743103169 -0.0023753001342782369 0 -0.014703251633915063 -0.002777604237573548 0 -0.014551765743103169 -0.0023753001342782369 0 -0.014703251633915063 -0.002777604237573548 0 -0.01482995873964376 -0.0022011486321501382 0 -0.013196274157728678 -0.0042520555982470841 0 -0.013428255060847577 -0.0042100400688574926 0 -0.013184108603436249 -0.0044130976006779765 0 -0.013196274157728678 -0.0042520555982470841 0 -0.013184108603436249 -0.0044130976006779765 0 -0.013028209025928718 -0.0043310571137015518 0 -0.013028209025928718 -0.0043310571137015518 0 -0.012845931437328394 -0.0043568169037244272 0 -0.012894028888269007 -0.0044953117926523744 0 -0.013184108603436249 -0.0044130976006779765 0 -0.013028209025928718 -0.0043310571137015518 0 -0.012894028888269007 -0.0044953117926523744 0 -0.012915848475710657 -0.0042720393865034031 0 -0.013028209025928718 -0.0043310571137015518 0 -0.012845931437328394 -0.0043568169037244272 0 -0.012792587635840543 -0.0042970228820696128 0 -0.012727467128797456 -0.0042943831805478073 0 -0.01270172154100583 -0.004312400832981551 0 -0.012792587635840543 -0.0042970228820696128 0 -0.012915848475710657 -0.0042720393865034031 0 -0.012845931437328394 -0.0043568169037244272 0 -0.012792587635840543 -0.0042970228820696128 0 -0.012727467128797456 -0.0042943831805478073 0 -0.012845931437328394 -0.0043568169037244272 0 -0.012727467128797456 -0.0042943831805478073 0 -0.012845931437328394 -0.0043568169037244272 0 -0.012670748254661437 -0.0042418828683021036 0 -0.012845931437328394 -0.0043568169037244272 0 -0.012670748254661437 -0.0042418828683021036 0 -0.012602809241519176 -0.0041608042312605356 0 -0.012727467128797456 -0.0042943831805478073 0 -0.012670748254661437 -0.0042418828683021036 0 -0.012657149674632459 -0.004255806605780078 0 -0.012845931437328394 -0.0043568169037244272 0 -0.012894028888269007 -0.0044953117926523744 0 -0.012721732830001525 -0.0045514017127313263 0 -0.014044698699348216 -0.0033624261815686954 0 -0.013471376928342896 -0.003510651744285301 0 -0.012474886533821006 -0.0046654364583149704 0 -0.013471376928342896 -0.003510651744285301 0 -0.012845931437328394 -0.0043568169037244272 0 -0.012602809241519176 -0.0041608042312605356 0 -0.012465580850739018 -0.0040204744139040295 0 -0.015037760018574464 -0.0023092960308819894 0 -0.015062108089129564 -0.0020337499894923661 0 -0.015134656124285478 -0.0018958252674934027 0 -0.013902268885979976 -0.0036044797099217111 0 -0.014044698699348216 -0.0033624261815686954 0 -0.014703251633915063 -0.002777604237573548 0 -0.015037760018574464 -0.0023092960308819894 0 -0.01482995873964376 -0.0022011486321501382 0 -0.015037760018574464 -0.0023092960308819894 0 -0.014980922944102578 -0.0020426823808912926 0 -0.01482995873964376 -0.0022011486321501382 0 -0.015037760018574464 -0.0023092960308819894 0 -0.014980922944102578 -0.0020426823808912926 0 -0.015062108089129564 -0.0020337499894923661 0 -0.014980922944102578 -0.0020426823808912926 0 -0.014940775899498382 -0.001928717496077899 0 -0.015054533724059474 -0.0019220406936994751 0 -0.014980922944102578 -0.0020426823808912926 0 -0.014940775899498382 -0.001928717496077899 0 -0.01482995873964376 -0.0022011486321501382 0 -0.015094536635423955 -0.0019011558059303577 0 -0.015062108089129564 -0.0020337499894923661 0 -0.01508747796273942 -0.0018702318928953611 0 -0.015094536635423955 -0.0019011558059303577 0 -0.01508747796273942 -0.0018702318928953611 0 -0.015055013004650421 -0.001791278561679437 0 -0.015094536635423955 -0.0019011558059303577 0 -0.015062108089129564 -0.0020337499894923661 0 -0.015134656124285478 -0.0018958252674934027 0 -0.014980922944102578 -0.0020426823808912926 0 -0.015062108089129564 -0.0020337499894923661 0 -0.015054533724059474 -0.0019220406936994751 0 -0.015062108089129564 -0.0020337499894923661 0 -0.015054533724059474 -0.0019220406936994751 0 -0.01508747796273942 -0.0018702318928953611 0 -0.015054533724059474 -0.0019220406936994751 0 -0.01508747796273942 -0.0018702318928953611 0 -0.015106994144990176 -0.0018015852828284472 0 -0.01508747796273942 -0.0018702318928953611 0 -0.015106994144990176 -0.0018015852828284472 0 -0.015063187737173413 -0.0017510256091120011 0 -0.015106994144990176 -0.0018015852828284472 0 -0.015063187737173413 -0.0017510256091120011 0 -0.015159791757665769 -0.0017450934646894884 0 -0.015054533724059474 -0.0019220406936994751 0 -0.015106994144990176 -0.0018015852828284472 0 -0.015052220364179915 -0.0018342977910306955 0 -0.015106994144990176 -0.0018015852828284472 0 -0.015123901776775216 -0.0017595117223714676 0 -0.015052220364179915 -0.0018342977910306955 0 -0.015106994144990176 -0.0018015852828284472 0 -0.015123901776775216 -0.0017595117223714676 0 -0.015159791757665769 -0.0017450934646894884 0 -0.014940775899498382 -0.001928717496077899 0 -0.015001843368647674 -0.0017758117778162482 0 -0.014647257843513468 -0.0019298869919867636 0 -0.014940775899498382 -0.001928717496077899 0 -0.015052220364179915 -0.0018342977910306955 0 -0.015001843368647674 -0.0017758117778162482 0 -0.014940775899498382 -0.001928717496077899 0 -0.015054533724059474 -0.0019220406936994751 0 -0.015052220364179915 -0.0018342977910306955 0 -0.015123901776775216 -0.0017595117223714676 0 -0.015052220364179915 -0.0018342977910306955 0 -0.015001843368647674 -0.0017758117778162482 0 -0.014969586841543928 -0.0018057652064393866 0 -0.014629700286238815 -0.0021027184684569602 0 -0.014698632281575145 -0.0018276390838373113 0 -0.01437730295601484 -0.0021824430212093334 0 -0.014616514858020986 -0.0022561030972320009 0 -0.014840403832895055 -0.001775982937020989 0 -0.013934486213896858 -0.0021989441566948168 0 -0.015001843368647674 -0.0017758117778162482 0 -0.014698632281575145 -0.0018276390838373113 0 -0.014616514858020986 -0.0022561030972320009 0 -0.014698632281575145 -0.0018276390838373113 0 -0.014314742438621483 -0.0019132406404603714 0 -0.014396727684720157 -0.0016766377038566012 0 -0.014199797992174449 -0.0017699902470972903 0 -0.014314742438621483 -0.0019132406404603714 0 -0.014396727684720157 -0.0016766377038566012 0 -0.01437730295601484 -0.0021824430212093334 0 -0.01426032048139283 -0.0024281381216615956 0 -0.014616514858020986 -0.0022561030972320009 0 -0.014199797992174449 -0.0017699902470972903 0 -0.014314742438621483 -0.0019132406404603714 0 -0.014127637382880864 -0.0020082007636667652 0 -0.013934486213896858 -0.0021989441566948168 0 -0.016580078563190322 -0.0021112720358215696 0 -0.014201421544409346 -0.0025540306396360938 0 -0.014629700286238815 -0.0021027184684569602 0 -0.01437730295601484 -0.0021824430212093334 0 -0.01426032048139283 -0.0024281381216615956 0 -0.014035047617183296 -0.002464891074118724 0 -0.01426032048139283 -0.0024281381216615956 0 -0.014285827592950644 -0.0027251968807273565 0 -0.014616514858020986 -0.0022561030972320009 0 -0.014551765743103169 -0.0023753001342782369 0 -0.014120565717818948 -0.0023657268092908143 0 -0.014647257843513468 -0.0019298869919867636 0 -0.01426032048139283 -0.0024281381216615956 0 -0.014285827592950644 -0.0027251968807273565 0 -0.014156967464876978 -0.0025867537014863471 0 -0.014551765743103169 -0.0023753001342782369 0 -0.014647257843513468 -0.0019298869919867636 0 -0.01482995873964376 -0.0022011486321501382 0 -0.014940775899498382 -0.001928717496077899 0 -0.014647257843513468 -0.0019298869919867636 0 -0.01482995873964376 -0.0022011486321501382 0 -0.01329578212991636 -0.0036785007313452816 0 -0.01337529483905104 -0.0039406051064294328 0 -0.012960595618301686 -0.0040926418057635671 0 -0.01337529483905104 -0.0039406051064294328 0 -0.013004445811437499 -0.0044076112350774667 0 -0.012960595618301686 -0.0040926418057635671 0 -0.01337529483905104 -0.0039406051064294328 0 -0.013004445811437499 -0.0044076112350774667 0 -0.013347779621083664 -0.0042790940382870695 0 -0.012886771192049536 -0.0048325782866841761 0 -0.013004445811437499 -0.0044076112350774667 0 -0.012713354910798988 -0.0045289100579585743 0 -0.012886771192049536 -0.0048325782866841761 0 -0.013004445811437499 -0.0044076112350774667 0 -0.013389659996242424 -0.004604184510519185 0 -0.012713354910798988 -0.0045289100579585743 0 -0.012759692601508684 -0.0043042906562398859 0 -0.012960595618301686 -0.0040926418057635671 0 -0.013004445811437499 -0.0044076112350774667 0 -0.012713354910798988 -0.0045289100579585743 0 -0.012960595618301686 -0.0040926418057635671 0 -0.012681925687279869 -0.0044845692954345118 0 -0.012713354910798988 -0.0045289100579585743 0 -0.012759692601508684 -0.0043042906562398859 0 -0.01329578212991636 -0.0036785007313452816 0 -0.012960595618301686 -0.0040926418057635671 0 -0.013241084369125865 -0.0033729482262794598 0 -0.012759692601508684 -0.0043042906562398859 0 -0.012960595618301686 -0.0040926418057635671 0 -0.012766401692284783 -0.0040218938459183175 0 -0.012960595618301686 -0.0040926418057635671 0 -0.012766401692284783 -0.0040218938459183175 0 -0.013241084369125865 -0.0033729482262794598 0 -0.012766401692284783 -0.0040218938459183175 0 -0.012635606093978879 -0.0038486191449188796 0 -0.012820837441975286 -0.0035809244204678702 0 -0.012766401692284783 -0.0040218938459183175 0 -0.012644634145332609 -0.0040617603998833289 0 -0.012635606093978879 -0.0038486191449188796 0 -0.012766401692284783 -0.0040218938459183175 0 -0.012656627833713503 -0.0041966686380161553 0 -0.012697004296445481 -0.0042645626780446755 0 -0.012766401692284783 -0.0040218938459183175 0 -0.012644634145332609 -0.0040617603998833289 0 -0.012656627833713503 -0.0041966686380161553 0 -0.012759692601508684 -0.0043042906562398859 0 -0.012766401692284783 -0.0040218938459183175 0 -0.012697004296445481 -0.0042645626780446755 0 -0.012759692601508684 -0.0043042906562398859 0 -0.012695858923385253 -0.0043902133986067661 0 -0.012697004296445481 -0.0042645626780446755 0 -0.012681925687279869 -0.0044845692954345118 0 -0.012759692601508684 -0.0043042906562398859 0 -0.012695858923385253 -0.0043902133986067661 0 -0.012691230813126161 -0.0043712431157879872 0 -0.012695858923385253 -0.0043902133986067661 0 -0.012697004296445481 -0.0042645626780446755 0 -0.012691230813126161 -0.0043712431157879872 0 -0.012697004296445481 -0.0042645626780446755 0 -0.012662505985777534 -0.0042765539669822033 0 -0.012656627833713503 -0.0041966686380161553 0 -0.012697004296445481 -0.0042645626780446755 0 -0.012662505985777534 -0.0042765539669822033 0 -0.012656627833713503 -0.0041966686380161553 0 -0.012629479729341028 -0.004209736193581397 0 -0.012662505985777534 -0.0042765539669822033 0 -0.012629479729341028 -0.004209736193581397 0 -0.012662505985777534 -0.0042765539669822033 0 -0.012657149674632459 -0.004255806605780078 0 -0.012691230813126161 -0.0043712431157879872 0 -0.012662505985777534 -0.0042765539669822033 0 -0.01270172154100583 -0.004312400832981551 0 -0.012662505985777534 -0.0042765539669822033 0 -0.01270172154100583 -0.004312400832981551 0 -0.012657149674632459 -0.004255806605780078 0 -0.012727467128797456 -0.0042943831805478073 0 -0.01270172154100583 -0.004312400832981551 0 -0.012657149674632459 -0.004255806605780078 0 -0.012629479729341028 -0.004209736193581397 0 -0.012657149674632459 -0.004255806605780078 0 -0.012609744289559794 -0.0041833467024806189 0 -0.012670748254661437 -0.0042418828683021036 0 -0.012657149674632459 -0.004255806605780078 0 -0.012609744289559794 -0.0041833467024806189 0 -0.012670748254661437 -0.0042418828683021036 0 -0.012602809241519176 -0.0041608042312605356 0 -0.012609744289559794 -0.0041833467024806189 0 -0.012602809241519176 -0.0041608042312605356 0 -0.012564824423280633 -0.0041202788523493506 0 -0.012609744289559794 -0.0041833467024806189 0 -0.012602809241519176 -0.0041608042312605356 0 -0.012564824423280633 -0.0041202788523493506 0 -0.012524703391993667 -0.004074539045140364 0 -0.012564824423280633 -0.0041202788523493506 0 -0.012594107995498085 -0.0041493014054689243 0 -0.012609744289559794 -0.0041833467024806189 0 -0.012564824423280633 -0.0041202788523493506 0 -0.012594107995498085 -0.0041493014054689243 0 -0.012564334938866731 -0.0040903980246665677 0 -0.012629479729341028 -0.004209736193581397 0 -0.012594107995498085 -0.0041493014054689243 0 -0.012609744289559794 -0.0041833467024806189 0 -0.012629479729341028 -0.004209736193581397 0 -0.012594107995498085 -0.0041493014054689243 0 -0.012608575774006411 -0.0041323966337500186 0 -0.012656627833713503 -0.0041966686380161553 0 -0.012629479729341028 -0.004209736193581397 0 -0.012608575774006411 -0.0041323966337500186 0 -0.012644634145332609 -0.0040617603998833289 0 -0.012608575774006411 -0.0041323966337500186 0 -0.012575316602734907 -0.0040322292595600037 0 -0.012644634145332609 -0.0040617603998833289 0 -0.012656627833713503 -0.0041966686380161553 0 -0.012608575774006411 -0.0041323966337500186 0 -0.012608575774006411 -0.0041323966337500186 0 -0.012564334938866731 -0.0040903980246665677 0 -0.012575316602734907 -0.0040322292595600037 0 -0.012594107995498085 -0.0041493014054689243 0 -0.012608575774006411 -0.0041323966337500186 0 -0.012564334938866731 -0.0040903980246665677 0 -0.012644634145332609 -0.0040617603998833289 0 -0.012575316602734907 -0.0040322292595600037 0 -0.012635606093978879 -0.0038486191449188796 0 -0.012564334938866731 -0.0040903980246665677 0 -0.012575316602734907 -0.0040322292595600037 0 -0.012518176297387027 -0.0040406703464679625 0 -0.012575316602734907 -0.0040322292595600037 0 -0.012530637680338116 -0.0039800449979719077 0 -0.012518176297387027 -0.0040406703464679625 0 -0.012530637680338116 -0.0039800449979719077 0 -0.012448617547688938 -0.0039598989590853726 0 -0.012635606093978879 -0.0038486191449188796 0 -0.012575316602734907 -0.0040322292595600037 0 -0.012530637680338116 -0.0039800449979719077 0 -0.012635606093978879 -0.0038486191449188796 0 -0.012491402032055475 -0.0040074002039058006 0 -0.012465580850739018 -0.0040204744139040295 0 -0.012524703391993667 -0.004074539045140364 0 -0.012530637680338116 -0.0039800449979719077 0 -0.012491402032055475 -0.0040074002039058006 0 -0.012448617547688938 -0.0039598989590853726 0 -0.012602809241519176 -0.0041608042312605356 0 -0.012465580850739018 -0.0040204744139040295 0 -0.012524703391993667 -0.004074539045140364 0 -0.012530637680338116 -0.0039800449979719077 0 -0.012491402032055475 -0.0040074002039058006 0 -0.012518176297387027 -0.0040406703464679625 0 -0.012491402032055475 -0.0040074002039058006 0 -0.012448617547688938 -0.0039598989590853726 0 -0.012465580850739018 -0.0040204744139040295 0 -0.013380913599137486 -0.003547036131573702 0 -0.013471376928342896 -0.003510651744285301 0 -0.012564824423280633 -0.0041202788523493506 0 -0.012518176297387027 -0.0040406703464679625 0 -0.012524703391993667 -0.004074539045140364 0 -0.012564824423280633 -0.0041202788523493506 0 -0.012564334938866731 -0.0040903980246665677 0 -0.012518176297387027 -0.0040406703464679625 0 -0.012491402032055475 -0.0040074002039058006 0 -0.012518176297387027 -0.0040406703464679625 0 -0.012524703391993667 -0.004074539045140364 0 -0.015055013004650421 -0.001791278561679437 0 -0.015063187737173413 -0.0017510256091120011 0 -0.01474541313914763 -0.0015657191814354198 0 -0.012448617547688938 -0.0039598989590853726 0 -0.012418869907392979 -0.0039895671567945282 0 -0.012649297553822093 -0.0031652032348484442 0 -0.012448617547688938 -0.0039598989590853726 0 -0.012649297553822093 -0.0031652032348484442 0 -0.012635606093978879 -0.0038486191449188796 0 -0.015134656124285478 -0.0018958252674934027 0 -0.015055013004650421 -0.001791278561679437 0 -0.01474541313914763 -0.0015657191814354198 0 -0.013471376928342896 -0.003510651744285301 0 -0.013783849602557244 -0.0022848797366399206 0 -0.015094536635423955 -0.0019011558059303577 0 -0.015134656124285478 -0.0018958252674934027 0 -0.015055013004650421 -0.001791278561679437 0 -0.01508747796273942 -0.0018702318928953611 0 -0.015055013004650421 -0.001791278561679437 0 -0.015063187737173413 -0.0017510256091120011 0 -0.01474541313914763 -0.0015657191814354198 0 -0.014694123454657204 -0.0019365026037828871 0 -0.015159791757665769 -0.0017450934646894884 0 -0.015063187737173413 -0.0017510256091120011 0 -0.01474541313914763 -0.0015657191814354198 0 -0.015159791757665769 -0.0017450934646894884 0 -0.013783849602557244 -0.0022848797366399206 0 -0.013621889332813136 -0.0022866042028844421 0 -0.012766401692284783 -0.0040218938459183175 0 -0.012820837441975286 -0.0035809244204678702 0 -0.013241084369125865 -0.0033729482262794598 0 -0.012649297553822093 -0.0031652032348484442 0 -0.012635606093978879 -0.0038486191449188796 0 -0.012820837441975286 -0.0035809244204678702 0 -0.012649297553822093 -0.0031652032348484442 0 -0.012820837441975286 -0.0035809244204678702 0 -0.013241084369125865 -0.0033729482262794598 0 -0.012649297553822093 -0.0031652032348484442 0 -0.013241084369125865 -0.0033729482262794598 0 -0.013665254178149669 -0.0022015151131270895 0 -0.013241084369125865 -0.0033729482262794598 0 -0.013745491998526158 -0.0026153092833253451 0 -0.013665254178149669 -0.0022015151131270895 0 -0.013241084369125865 -0.0033729482262794598 0 -0.013745491998526158 -0.0026153092833253451 0 -0.013608897884638248 -0.0033218356981583766 0 -0.01329578212991636 -0.0036785007313452816 0 -0.013241084369125865 -0.0033729482262794598 0 -0.013608897884638248 -0.0033218356981583766 0 -0.01329578212991636 -0.0036785007313452816 0 -0.01337529483905104 -0.0039406051064294328 0 -0.013608897884638248 -0.0033218356981583766 0 -0.013783229117904023 -0.0022645168039376888 0 -0.013665254178149669 -0.0022015151131270895 0 -0.013769754896519026 -0.0022298237697612904 0 -0.013665254178149669 -0.0022015151131270895 0 -0.014298401862826918 -0.0024502449544026132 0 -0.013769754896519026 -0.0022298237697612904 0 -0.013745491998526158 -0.0026153092833253451 0 -0.013783229117904023 -0.0022645168039376888 0 -0.013665254178149669 -0.0022015151131270895 0 -0.013665254178149669 -0.0022015151131270895 0 -0.014298401862826918 -0.0024502449544026132 0 -0.014694123454657204 -0.0019365026037828871 0 -0.01474541313914763 -0.0015657191814354198 0 -0.013665254178149669 -0.0022015151131270895 0 -0.014694123454657204 -0.0019365026037828871 0 -0.014694123454657204 -0.0019365026037828871 0 -0.015159791757665769 -0.0017450934646894884 0 -0.015595644927105138 -0.0015630443698721303 0 -0.01754873982192216 -0.00045939306523040788 0 -0.015595644927105138 -0.0015630443698721303 0 -0.015752429887047649 -0.00024408302540935401 0 -0.015880362006332683 -0.0014187527610727189 0 -0.015566324164420929 -0.0015824820339529054 0 -0.014298401862826918 -0.0024502449544026132 0 -0.014694123454657204 -0.0019365026037828871 0 -0.015595644927105138 -0.0015630443698721303 0 -0.01754873982192216 -0.00045939306523040788 0 -0.016817423628019641 0.00071874577643457713 0 -0.015752429887047649 -0.00024408302540935401 0 -0.016817423628019641 0.00071874577643457713 0 -0.017922853046352355 0.00077896041487730686 0 -0.017564064506629746 0.0016045488679399035 0 -0.01754873982192216 -0.00045939306523040788 0 -0.016817423628019641 0.00071874577643457713 0 -0.017922853046352355 0.00077896041487730686 0 -0.015880362006332683 -0.0014187527610727189 0 -0.016157192136820868 -0.00080813282514425092 0 -0.01754873982192216 -0.00045939306523040788 0 -0.017922853046352355 0.00077896041487730686 0 -0.018578661448536628 0.00062900550666399795 0 -0.017922853046352355 0.00077896041487730686 0 -0.018578661448536628 0.00062900550666399795 0 -0.018672655129823589 0.0014556707097662413 0 -0.017922853046352355 0.00077896041487730686 0 -0.017564064506629746 0.0016045488679399035 0 -0.018672655129823589 0.0014556707097662413 0 -0.018578661448536628 0.00062900550666399795 0 -0.018577193226136584 0.0013330480154517452 0 -0.018672655129823589 0.0014556707097662413 0 -0.016157192136820868 -0.00080813282514425092 0 -0.01623512120813413 -0.00021592255468730172 0 -0.013783229117904023 -0.0022645168039376888 0 -0.013769754896519026 -0.0022298237697612904 0 -0.014029004999627507 -0.001749047673881542 0 -0.014514707402644345 -0.0011093892125808521 0 -0.014296053874182127 -0.0013541702763009624 0 -0.014440086258016811 -0.00091268662639124455 0 -0.0190124934876683 -0.0016256905129760509 0 -0.017822382230956425 0.00073755570985005795 0 -0.014514707402644345 -0.0011093892125808521 0 -0.014296053874182127 -0.0013541702763009624 0 -0.014529902608549795 -0.0014828248765334819 0 -0.014514707402644345 -0.0011093892125808521 0 -0.014529902608549795 -0.0014828248765334819 0 -0.014828973777832297 -0.0015217231059645839 0 -0.015516830806776905 -0.0004331375922200118 0 -0.017822382230956425 0.00073755570985005795 0 -0.02378047675737819 -0.0013124540558444254 0 -0.023871056464199507 -0.0015575492212618264 0 -0.023869161305082116 -0.0013117984831721716 0 -0.02378047675737819 -0.0013124540558444254 0 -0.023531553181606213 -0.0015964854752859568 0 -0.023871056464199507 -0.0015575492212618264 0 -0.023946822170684272 -0.0015636541083915061 0 -0.02378047675737819 -0.0013124540558444254 0 -0.023812604111839563 -0.0014262612314487608 0 -0.014199797992174449 -0.0017699902470972903 0 -0.014296053874182127 -0.0013541702763009624 0 -0.014396727684720157 -0.0016766377038566012 0 -0.019216220091923211 -0.0015834020696666555 0 -0.0190124934876683 -0.0016256905129760509 0 -0.02378047675737819 -0.0013124540558444254 0 -0.023869161305082116 -0.0013117984831721716 0 -0.023812604111839563 -0.0014262612314487608 0 -0.014698632281575145 -0.0018276390838373113 0 -0.014396727684720157 -0.0016766377038566012 0 -0.014529902608549795 -0.0014828248765334819 0 -0.014296053874182127 -0.0013541702763009624 0 -0.014396727684720157 -0.0016766377038566012 0 -0.014529902608549795 -0.0014828248765334819 0 -0.014698632281575145 -0.0018276390838373113 0 -0.014529902608549795 -0.0014828248765334819 0 -0.014828973777832297 -0.0015217231059645839 0 -0.015001843368647674 -0.0017758117778162482 0 -0.014698632281575145 -0.0018276390838373113 0 -0.014828973777832297 -0.0015217231059645839 0 -0.015123901776775216 -0.0017595117223714676 0 -0.015001843368647674 -0.0017758117778162482 0 -0.015218921344510396 -0.0016138608717695309 0 -0.015001843368647674 -0.0017758117778162482 0 -0.014828973777832297 -0.0015217231059645839 0 -0.015218921344510396 -0.0016138608717695309 0 -0.015159791757665769 -0.0017450934646894884 0 -0.015218921344510396 -0.0016138608717695309 0 -0.015595644927105138 -0.0015630443698721303 0 -0.015123901776775216 -0.0017595117223714676 0 -0.015159791757665769 -0.0017450934646894884 0 -0.015218921344510396 -0.0016138608717695309 0 -0.015218921344510396 -0.0016138608717695309 0 -0.015595644927105138 -0.0015630443698721303 0 -0.015113513884311668 -0.0011537374048323046 0 -0.015595644927105138 -0.0015630443698721303 0 -0.015113513884311668 -0.0011537374048323046 0 -0.015752429887047649 -0.00024408302540935401 0 -0.014514707402644345 -0.0011093892125808521 0 -0.014828973777832297 -0.0015217231059645839 0 -0.015113513884311668 -0.0011537374048323046 0 -0.014514707402644345 -0.0011093892125808521 0 -0.015113513884311668 -0.0011537374048323046 0 -0.014956409167864577 -0.00031094870233149615 0 -0.014828973777832297 -0.0015217231059645839 0 -0.015218921344510396 -0.0016138608717695309 0 -0.015113513884311668 -0.0011537374048323046 0 -0.015113513884311668 -0.0011537374048323046 0 -0.014956409167864577 -0.00031094870233149615 0 -0.015752429887047649 -0.00024408302540935401 0 -0.014956409167864577 -0.00031094870233149615 0 -0.015752429887047649 -0.00024408302540935401 0 -0.015781868016684488 0.0007925534430723583 0 -0.016817423628019641 0.00071874577643457713 0 -0.015752429887047649 -0.00024408302540935401 0 -0.015781868016684488 0.0007925534430723583 0 -0.016817423628019641 0.00071874577643457713 0 -0.015781868016684488 0.0007925534430723583 0 -0.016330386868900454 0.0016474516085898396 0 -0.014956409167864577 -0.00031094870233149615 0 -0.015781868016684488 0.0007925534430723583 0 -0.014708771967030021 0.00063453246596990431 0 -0.015781868016684488 0.0007925534430723583 0 -0.014708771967030021 0.00063453246596990431 0 -0.015749953796724062 0.0017470139297112567 0 -0.017633245351192522 0.0047711395782986596 0 -0.020578448862228121 0.0042485429336854156 0 -0.018095820440842531 0.0029894257376315474 0 -0.017633245351192522 0.0047711395782986596 0 -0.019056752213916971 0.0072257170195354093 0 -0.020578448862228121 0.0042485429336854156 0 -0.014956409167864577 -0.00031094870233149615 0 -0.014708771967030021 0.00063453246596990431 0 -0.01415921002471787 -0.00051842553397275629 0 -0.014514707402644345 -0.0011093892125808521 0 -0.014956409167864577 -0.00031094870233149615 0 -0.01415921002471787 -0.00051842553397275629 0 -0.01620819089521441 0.0030404930231915498 0 -0.017822382230956425 0.00073755570985005795 0 -0.023531553181606213 -0.0015964854752859568 0 -0.023871056464199507 -0.0015575492212618264 0 -0.023755450634804047 -0.0020181657764909698 0 -0.017822382230956425 0.00073755570985005795 0 -0.022445696216693341 0.0013398357370140452 0 -0.023755450634804047 -0.0020181657764909698 0 -0.02416034680097158 -0.0021053484677202891 0 -0.024274004616366925 -0.0017760570721292242 0 -0.02416034680097158 -0.0021053484677202891 0 -0.024274004616366925 -0.0017760570721292242 0 -0.024527166958101618 -0.0022721010850687909 0 -0.024274004616366925 -0.0017760570721292242 0 -0.024929059019751277 -0.0020720508347538522 0 -0.024527166958101618 -0.0022721010850687909 0 -0.024274004616366925 -0.0017760570721292242 0 -0.024257250625551511 -0.0014465391792096501 0 -0.024864339283059599 -0.0016422830584820513 0 -0.023871056464199507 -0.0015575492212618264 0 -0.023755450634804047 -0.0020181657764909698 0 -0.024274004616366925 -0.0017760570721292242 0 -0.023871056464199507 -0.0015575492212618264 0 -0.024274004616366925 -0.0017760570721292242 0 -0.024257250625551511 -0.0014465391792096501 0 -0.023869161305082116 -0.0013117984831721716 0 -0.024257250625551511 -0.0014465391792096501 0 -0.02457801174622273 -0.001140647402005759 0 -0.023871056464199507 -0.0015575492212618264 0 -0.023869161305082116 -0.0013117984831721716 0 -0.024257250625551511 -0.0014465391792096501 0 -0.024257250625551511 -0.0014465391792096501 0 -0.02457801174622273 -0.001140647402005759 0 -0.024864339283059599 -0.0016422830584820513 0 -0.023495719523468957 -0.0014155748746901219 0 -0.02360421833029442 -0.0015405742325805354 0 -0.023421233456375964 -0.00156733488997467 0 -0.023869161305082116 -0.0013117984831721716 0 -0.023495719523468957 -0.0014155748746901219 0 -0.02360421833029442 -0.0015405742325805354 0 -0.02360421833029442 -0.0015405742325805354 0 -0.023812604111839563 -0.0014262612314487608 0 -0.02369660589020519 -0.0015399529834740028 0 -0.023879743136106319 -0.0013046801264832856 0 -0.024063701181270044 -0.001287163894445625 0 -0.023946822170684272 -0.0015636541083915061 0 -0.023812604111839563 -0.0014262612314487608 0 -0.02369660589020519 -0.0015399529834740028 0 -0.023869161305082116 -0.0013117984831721716 0 -0.02360421833029442 -0.0015405742325805354 0 -0.023812604111839563 -0.0014262612314487608 0 -0.023327950198509188 -0.0015237488162955109 0 -0.023421233456375964 -0.00156733488997467 0 -0.023314420089219696 -0.0016142024721170713 0 -0.023327950198509188 -0.0015237488162955109 0 -0.023305838011796601 -0.0016051529686657994 0 -0.023314420089219696 -0.0016142024721170713 0 -0.023495719523468957 -0.0014155748746901219 0 -0.023327950198509188 -0.0015237488162955109 0 -0.023421233456375964 -0.00156733488997467 0 -0.024063701181270044 -0.001287163894445625 0 -0.024232753484367354 -0.0012716622776256232 0 -0.02457801174622273 -0.001140647402005759 0 -0.025293619116510384 -0.0010831575231730502 0 -0.025122597698866427 -0.0013911297262467531 0 -0.02457801174622273 -0.001140647402005759 0 -0.025122597698866427 -0.0013911297262467531 0 -0.024864339283059599 -0.0016422830584820513 0 -0.025122597698866427 -0.0013911297262467531 0 -0.025349423199913717 -0.0016698164608624085 0 -0.024864339283059599 -0.0016422830584820513 0 -0.025293619116510384 -0.0010831575231730502 0 -0.025122597698866427 -0.0013911297262467531 0 -0.025583301786253249 -0.0014200716082949506 0 -0.025122597698866427 -0.0013911297262467531 0 -0.025349423199913717 -0.0016698164608624085 0 -0.025583301786253249 -0.0014200716082949506 0 -0.025349423199913717 -0.0016698164608624085 0 -0.025583301786253249 -0.0014200716082949506 0 -0.025658149611158566 -0.0015634218656108249 0 -0.025349423199913717 -0.0016698164608624085 0 -0.024864339283059599 -0.0016422830584820513 0 -0.024929059019751277 -0.0020720508347538522 0 -0.024274004616366925 -0.0017760570721292242 0 -0.024864339283059599 -0.0016422830584820513 0 -0.024929059019751277 -0.0020720508347538522 0 -0.025349423199913717 -0.0016698164608624085 0 -0.024929059019751277 -0.0020720508347538522 0 -0.025425191741384055 -0.002172750344360336 0 -0.025802505485241673 0.00083895944249099351 0 -0.025492947154184997 0.00082125075668812507 0 -0.025755556611148291 0.0014308200417377148 0 -0.025912348891493141 0.0013068825693576442 0 -0.025802505485241673 0.00083895944249099351 0 -0.025755556611148291 0.0014308200417377148 0 -0.025656280296205425 -0.00035802998070908989 0 -0.025991408058085454 -0.00094325218433276791 0 -0.025991408058085454 -0.00094325218433276791 0 -0.025639299636814952 0.00015900859328735477 0 -0.026348008377518283 -0.0013488139306966549 0 -0.025930513224715606 -0.00070902807100398492 0 -0.026043114918967322 -0.0014036224506683084 0 -0.026184253663997147 -0.0015166108891564618 0 -0.026348008377518283 -0.0013488139306966549 0 -0.026043114918967322 -0.0014036224506683084 0 -0.025982029312768606 -0.0014233413852645896 0 -0.025991408058085454 -0.00094325218433276791 0 -0.025425191741384055 -0.002172750344360336 0 -0.025721664710626358 -0.0017050974736899074 0 -0.025850134393585876 -0.001772275117347332 0 -0.025349423199913717 -0.0016698164608624085 0 -0.025425191741384055 -0.002172750344360336 0 -0.025721664710626358 -0.0017050974736899074 0 -0.026184253663997147 -0.0015166108891564618 0 -0.025949717671731893 -0.0015962147560748103 0 -0.025987766892258388 -0.0018540934356395928 0 -0.025949717671731893 -0.0015962147560748103 0 -0.025721664710626358 -0.0017050974736899074 0 -0.025987766892258388 -0.0018540934356395928 0 -0.026000278764131433 -0.0012871425470585426 0 -0.025991408058085454 -0.00094325218433276791 0 -0.025349423199913717 -0.0016698164608624085 0 -0.025721664710626358 -0.0017050974736899074 0 -0.025658149611158566 -0.0015634218656108249 0 -0.025949717671731893 -0.0015962147560748103 0 -0.025721664710626358 -0.0017050974736899074 0 -0.025658149611158566 -0.0015634218656108249 0 -0.025639299636814952 0.00015900859328735477 0 -0.025000046860574113 0.00016285303637379218 0 -0.025930513224715606 -0.00070902807100398492 0 -0.025000036826474312 -0.0013056394003938992 0 -0.02499983085739977 0.00016232344246865107 0 -0.025930513224715606 -0.00070902807100398492 0 -0.026043114918967322 -0.0014036224506683084 0 -0.025000036826474312 -0.0013056394003938992 0 -0.025000036826474312 -0.0013056394003938992 0 -0.025879701044178124 -0.0017693996163958368 0 -0.02499982969387898 -0.0027741034204723462 0 -0.026043114918967322 -0.0014036224506683084 0 -0.025000036826474312 -0.0013056394003938992 0 -0.025879701044178124 -0.0017693996163958368 0 -0.026043114918967322 -0.0014036224506683084 0 -0.025879701044178124 -0.0017693996163958368 0 -0.026070551670851178 -0.0015799985612867215 0 -0.025879701044178124 -0.0017693996163958368 0 -0.025948993692767972 -0.0017313836104527892 0 -0.026070551670851178 -0.0015799985612867215 0 -0.025877564138768315 -0.0018771835296638409 0 -0.025829331882466108 -0.002374934181976319 0 -0.025879701044178124 -0.0017693996163958368 0 -0.025948993692767972 -0.0017313836104527892 0 -0.025826473481756113 -0.001830388526172374 0 -0.025948993692767972 -0.0017313836104527892 0 -0.025934067034085406 -0.0018179895873751733 0 -0.025826473481756113 -0.001830388526172374 0 -0.025879701044178124 -0.0017693996163958368 0 -0.02499982969387898 -0.0027741034204723462 0 -0.025810528943551923 -0.0031361569061388317 0 -0.025293619116510384 -0.0010831575231730502 0 -0.026027183042483578 -0.0013990025240301787 0 -0.025583301786253249 -0.0014200716082949506 0 -0.026027183042483578 -0.0013990025240301787 0 -0.025891277224433094 -0.0015130802247428291 0 -0.026089114487881065 -0.0014906486411479924 0 -0.026027183042483578 -0.0013990025240301787 0 -0.025583301786253249 -0.0014200716082949506 0 -0.025891277224433094 -0.0015130802247428291 0 -0.025583301786253249 -0.0014200716082949506 0 -0.025658149611158566 -0.0015634218656108249 0 -0.025891277224433094 -0.0015130802247428291 0 -0.025949717671731893 -0.0015962147560748103 0 -0.025658149611158566 -0.0015634218656108249 0 -0.025891277224433094 -0.0015130802247428291 0 -0.025949717671731893 -0.0015962147560748103 0 -0.025891277224433094 -0.0015130802247428291 0 -0.026089114487881065 -0.0014906486411479924 0 -0.026184253663997147 -0.0015166108891564618 0 -0.025949717671731893 -0.0015962147560748103 0 -0.026089114487881065 -0.0014906486411479924 0 -0.026184253663997147 -0.0015166108891564618 0 -0.026089114487881065 -0.0014906486411479924 0 -0.026070551670851178 -0.0015799985612867215 0 -0.026184253663997147 -0.0015166108891564618 0 -0.026043114918967322 -0.0014036224506683084 0 -0.026070551670851178 -0.0015799985612867215 0 -0.025948993692767972 -0.0017313836104527892 0 -0.026070551670851178 -0.0015799985612867215 0 -0.026058967765108819 -0.0015642636788622375 0 -0.026027183042483578 -0.0013990025240301787 0 -0.026089114487881065 -0.0014906486411479924 0 -0.026058967765108819 -0.0015642636788622375 0 -0.026089114487881065 -0.0014906486411479924 0 -0.026070551670851178 -0.0015799985612867215 0 -0.026058967765108819 -0.0015642636788622375 0 -0.026100133798986382 -0.0016923455573521883 0 -0.026030422977037376 -0.0016988116791433932 0 -0.026010328871497772 -0.0019216230198357608 0 -0.026027183042483578 -0.0013990025240301787 0 -0.026058967765108819 -0.0015642636788622375 0 -0.026080109629064784 -0.0016190310507756701 0 -0.025108259715704406 -0.0016827335504548385 0 -0.024660865378382902 -0.0015924779241185412 0 -0.025934067034085406 -0.0018179895873751733 0 -0.026030422977037376 -0.0016988116791433932 0 -0.026010328871497772 -0.0019216230198357608 0 -0.026058967765108819 -0.0015642636788622375 0 -0.026080109629064784 -0.0016190310507756701 0 -0.026030422977037376 -0.0016988116791433932 0 -0.025108259715704406 -0.0016827335504548385 0 -0.02582252085551404 -0.0016509987278122637 0 -0.025948993692767972 -0.0017313836104527892 0 -0.026058967765108819 -0.0015642636788622375 0 -0.026030422977037376 -0.0016988116791433932 0 -0.025948993692767972 -0.0017313836104527892 0 -0.025934067034085406 -0.0018179895873751733 0 -0.026030422977037376 -0.0016988116791433932 0 -0.023327950198509188 -0.0015237488162955109 0 -0.023300068612777676 -0.0015729082871176324 0 -0.023305838011796601 -0.0016051529686657994 0 -0.024232753484367354 -0.0012716622776256232 0 -0.025108259715704406 -0.0016827335504548385 0 -0.025293619116510384 -0.0010831575231730502 0 -0.026027183042483578 -0.0013990025240301787 0 -0.026157373477086597 -0.0011406644809060285 0 -0.025735350275170332 -0.0012477954584485518 0 -0.025108259715704406 -0.0016827335504548385 0 -0.023305838011796601 -0.0016051529686657994 0 -0.023314253715523581 -0.0016294049975231321 0 -0.023314420089219696 -0.0016142024721170713 0 -0.023305838011796601 -0.0016051529686657994 0 -0.023305083626458611 -0.0016293260450363537 0 -0.023314253715523581 -0.0016294049975231321 0 -0.023300068612777676 -0.0015729082871176324 0 -0.023305838011796601 -0.0016051529686657994 0 -0.023297483751178804 -0.0016158114910391648 0 -0.023305838011796601 -0.0016051529686657994 0 -0.023297483751178804 -0.0016158114910391648 0 -0.023305083626458611 -0.0016293260450363537 0 -0.023777779965145355 -0.0031289470829419797 0 -0.024928978815351763 -0.0031654725365970558 0 -0.023305083626458611 -0.0016293260450363537 0 -0.023309471728574269 -0.0016454124290329714 0 -0.02330357804878706 -0.0016481176339096762 0 -0.023297483751178804 -0.0016158114910391648 0 -0.023305083626458611 -0.0016293260450363537 0 -0.02330357804878706 -0.0016481176339096762 0 -0.023309471728574269 -0.0016454124290329714 0 -0.023314253715523581 -0.0016294049975231321 0 -0.02332825452383044 -0.0016513896577803795 0 -0.023305083626458611 -0.0016293260450363537 0 -0.023309471728574269 -0.0016454124290329714 0 -0.023314253715523581 -0.0016294049975231321 0 -0.02499982969387898 -0.0027741034204723462 0 -0.025391610588672786 -0.0036759785638840864 0 -0.025810528943551923 -0.0031361569061388317 0 -0.02499982969387898 -0.0027741034204723462 0 -0.025391610588672786 -0.0036759785638840864 0 -0.025000044816685978 -0.0042429737246892562 0 -0.025391610588672786 -0.0036759785638840864 0 -0.025810528943551923 -0.0031361569061388317 0 -0.025598451983497039 -0.0043368098715820778 0 -0.025829331882466108 -0.002374934181976319 0 -0.025577198395092978 -0.0037159705041468947 0 -0.026010328871497772 -0.0019216230198357608 0 -0.025886099353145668 -0.001963256431121857 0 -0.025907687656479821 -0.0021575909519006421 0 -0.025826473481756113 -0.001830388526172374 0 -0.025886099353145668 -0.001963256431121857 0 -0.025731832637991212 -0.0021318990585322021 0 -0.025934067034085406 -0.0018179895873751733 0 -0.025826473481756113 -0.001830388526172374 0 -0.025886099353145668 -0.001963256431121857 0 -0.025934067034085406 -0.0018179895873751733 0 -0.026010328871497772 -0.0019216230198357608 0 -0.025886099353145668 -0.001963256431121857 0 -0.024660865378382902 -0.0015924779241185412 0 -0.024928978815351763 -0.0031654725365970558 0 -0.024928978815351763 -0.0031654725365970558 0 -0.025577198395092978 -0.0037159705041468947 0 -0.025886099353145668 -0.001963256431121857 0 -0.025907687656479821 -0.0021575909519006421 0 -0.025731832637991212 -0.0021318990585322021 0 -0.025602340964052277 -0.0043448947969031843 0 -0.02500003471768136 -0.0042429365833252528 0 -0.025385521677949378 -0.0053833306478576985 0 -0.025577198395092978 -0.0037159705041468947 0 -0.025000337238173194 -0.0042427322631332937 0 -0.025391610588672786 -0.0036759785638840864 0 -0.025598451983497039 -0.0043368098715820778 0 -0.025000044816685978 -0.0042429737246892562 0 -0.026329341846454125 -0.0042732933550416637 0 -0.025550876602911009 -0.0041411692084674457 0 -0.025322951156484318 -0.0053053360123853713 0 -0.02500003471768136 -0.0042429365833252528 0 -0.025385521677949378 -0.0053833306478576985 0 -0.024999924212607501 -0.0056077809185883145 0 -0.025577198395092978 -0.0037159705041468947 0 -0.025331119531787096 -0.0054627431892780689 0 -0.02458864321894488 -0.0045764219524533876 0 -0.024622847030428399 -0.0045259553430111125 0 -0.024571390993729882 -0.0045461174044933751 0 -0.026329341846454125 -0.0042732933550416637 0 -0.025322951156484318 -0.0053053360123853713 0 -0.025646909947293173 -0.0056655507925705822 0 -0.024928978815351763 -0.0031654725365970558 0 -0.025061847096981817 -0.0053851741450657601 0 -0.024595340641678124 -0.0044947337011801945 0 -0.024577005976126456 -0.0045202061566512733 0 -0.024622847030428399 -0.0045259553430111125 0 -0.024577005976126456 -0.0045202061566512733 0 -0.024622847030428399 -0.0045259553430111125 0 -0.024571390993729882 -0.0045461174044933751 0 -0.025136786286752769 -0.0062778888730758943 0 -0.025331119531787096 -0.0054627431892780689 0 -0.025101919066392787 -0.006410808920509074 0 -0.025322951156484318 -0.0053053360123853713 0 -0.025646909947293173 -0.0056655507925705822 0 -0.025101919066392787 -0.006410808920509074 0 -0.025385521677949378 -0.0053833306478576985 0 -0.024999924212607501 -0.0056077809185883145 0 -0.023777779965145355 -0.0031289470829419797 0 -0.023647386254528831 -0.0025459573374790895 0 -0.024515241842285703 -0.0045754476816617816 0 -0.024470257861462442 -0.0045456727532765407 0 -0.024410094137798655 -0.0045601724073136181 0 -0.024503155233870283 -0.0045346862541576867 0 -0.024476247384418146 -0.0045231012466561658 0 -0.024496227343965622 -0.0045053086786833547 0 -0.024503155233870283 -0.0045346862541576867 0 -0.024476247384418146 -0.0045231012466561658 0 -0.024470257861462442 -0.0045456727532765407 0 -0.024534275599199171 -0.0050667890307273533 0 -0.022612608094508685 -0.0040504896363375139 0 -0.024476247384418146 -0.0045231012466561658 0 -0.024496227343965622 -0.0045053086786833547 0 -0.024414851301332623 -0.004521745754379857 0 -0.024476247384418146 -0.0045231012466561658 0 -0.024470257861462442 -0.0045456727532765407 0 -0.024414851301332623 -0.004521745754379857 0 -0.024515241842285703 -0.0045754476816617816 0 -0.024503155233870283 -0.0045346862541576867 0 -0.024470257861462442 -0.0045456727532765407 0 -0.024515241842285703 -0.0045754476816617816 0 -0.024571390993729882 -0.0045461174044933751 0 -0.024534484151912176 -0.0045394379719977968 0 -0.024515241842285703 -0.0045754476816617816 0 -0.024503155233870283 -0.0045346862541576867 0 -0.024534484151912176 -0.0045394379719977968 0 -0.024515241842285703 -0.0045754476816617816 0 -0.02458864321894488 -0.0045764219524533876 0 -0.024571390993729882 -0.0045461174044933751 0 -0.024571390993729882 -0.0045461174044933751 0 -0.024534484151912176 -0.0045394379719977968 0 -0.024550067770947755 -0.004523402842182664 0 -0.024577005976126456 -0.0045202061566512733 0 -0.024571390993729882 -0.0045461174044933751 0 -0.024550067770947755 -0.004523402842182664 0 -0.024534484151912176 -0.0045394379719977968 0 -0.024522459438786056 -0.0045160332982999212 0 -0.024550067770947755 -0.004523402842182664 0 -0.024503155233870283 -0.0045346862541576867 0 -0.024534484151912176 -0.0045394379719977968 0 -0.024522459438786056 -0.0045160332982999212 0 -0.024595340641678124 -0.0044947337011801945 0 -0.024537130460330198 -0.0045080892678219971 0 -0.024515597290943065 -0.0045058871582769715 0 -0.025458421358460256 -0.0054877581830794723 0 -0.025062847304058472 -0.0054403785374022321 0 -0.024522459438786056 -0.0045160332982999212 0 -0.024550067770947755 -0.004523402842182664 0 -0.024537130460330198 -0.0045080892678219971 0 -0.024595340641678124 -0.0044947337011801945 0 -0.024577005976126456 -0.0045202061566512733 0 -0.024537130460330198 -0.0045080892678219971 0 -0.024577005976126456 -0.0045202061566512733 0 -0.024550067770947755 -0.004523402842182664 0 -0.024537130460330198 -0.0045080892678219971 0 -0.02493987735526219 -0.0061008257157658657 0 -0.025062847304058472 -0.0054403785374022321 0 -0.02493987735526219 -0.0061008257157658657 0 -0.019017863697943123 -0.0050705859108855231 0 -0.023715452494055309 -0.0049420286373432739 0 -0.023639487702707844 -0.0054269770365885399 0 -0.023063217316129078 -0.0055169629489077833 0 -0.024503155233870283 -0.0045346862541576867 0 -0.024522459438786056 -0.0045160332982999212 0 -0.024496227343965622 -0.0045053086786833547 0 -0.024634026249163412 -0.0047220291992066095 0 -0.024534275599199171 -0.0050667890307273533 0 -0.024522459438786056 -0.0045160332982999212 0 -0.024537130460330198 -0.0045080892678219971 0 -0.024496227343965622 -0.0045053086786833547 0 -0.024537130460330198 -0.0045080892678219971 0 -0.024515597290943065 -0.0045058871582769715 0 -0.024513574380728067 -0.0045199379320325517 0 -0.025062847304058472 -0.0054403785374022321 0 -0.024534275599199171 -0.0050667890307273533 0 -0.023723561202256816 -0.0055703674276627027 0 -0.023155958623318099 -0.005623394745041887 0 -0.023003307404753912 -0.005900071338392451 0 -0.023754255791918619 -0.0053712426804666145 0 -0.023723561202256816 -0.0055703674276627027 0 -0.023155958623318099 -0.005623394745041887 0 -0.025062847304058472 -0.0054403785374022321 0 -0.023002612872544972 -0.0057985172815598306 0 -0.023639487702707844 -0.0054269770365885399 0 -0.023155958623318099 -0.005623394745041887 0 -0.023063217316129078 -0.0055169629489077833 0 -0.019017863697943123 -0.0050705859108855231 0 -0.022612608094508685 -0.0040504896363375139 0 -0.023155958623318099 -0.005623394745041887 0 -0.023063217316129078 -0.0055169629489077833 0 -0.023003307404753912 -0.005900071338392451 0 -0.019925519610256657 -0.0040213527809606518 0 -0.019928449337016908 -0.0039879804777519573 0 -0.019969663018973832 -0.0039484829604815143 0 -0.023131062541830207 -0.0021177489796230082 0 -0.023396991641262539 -0.0019449796764754276 0 -0.023313592924682165 -0.0019760902362086909 0 -0.022612608094508685 -0.0040504896363375139 0 -0.019092025008504782 -0.0033807512342713141 0 -0.019017863697943123 -0.0050705859108855231 0 -0.019092025008504782 -0.0033807512342713141 0 -0.023647386254528831 -0.0025459573374790895 0 -0.023176165395345071 -0.0021244364611354536 0 -0.023131062541830207 -0.0021177489796230082 0 -0.02314452444247737 -0.0019631184703280897 0 -0.023313592924682165 -0.0019760902362086909 0 -0.023196894986212701 -0.0019354025720088911 0 -0.023313592924682165 -0.0019760902362086909 0 -0.023327191059174159 -0.001871860493781724 0 -0.022612608094508685 -0.0040504896363375139 0 -0.023647386254528831 -0.0025459573374790895 0 -0.024470257861462442 -0.0045456727532765407 0 -0.024414851301332623 -0.004521745754379857 0 -0.024410094137798655 -0.0045601724073136181 0 -0.013448649604593866 -0.0032815146040324891 0 -0.013284104728800913 -0.003003941750857077 0 -0.013651916019156446 -0.0027241196607164292 0 -0.012954311681376297 -0.0034951033050206878 0 -0.013448649604593866 -0.0032815146040324891 0 -0.013284104728800913 -0.003003941750857077 0 -0.023396991641262539 -0.0019449796764754276 0 -0.023313592924682165 -0.0019760902362086909 0 -0.023327191059174159 -0.001871860493781724 0 -0.012954311681376297 -0.0034951033050206878 0 -0.013448649604593866 -0.0032815146040324891 0 -0.013295849402859881 -0.00365508772397268 0 -0.013320583737001788 -0.0035927949503432007 0 -0.013707194041563913 -0.0031349755623838391 0 -0.013528640036464616 -0.0038165475722815308 0 -0.013295849402859881 -0.00365508772397268 0 -0.013556523218511283 -0.0030557657968169525 0 -0.013448649604593866 -0.0032815146040324891 0 -0.013295849402859881 -0.00365508772397268 0 -0.013842420320646977 -0.0032184304198935604 0 -0.014156093629472021 -0.0033055920491926998 0 -0.014337539842063634 -0.0027734633107581726 0 -0.013556523218511283 -0.0030557657968169525 0 -0.013528640036464616 -0.0038165475722815308 0 -0.014156093629472021 -0.0033055920491926998 0 -0.013556523218511283 -0.0030557657968169525 0 -0.013518327706515842 -0.0038327496069630279 0 -0.013760016885458075 -0.0037533308693046392 0 -0.014285827592950644 -0.0027251968807273565 0 -0.013842420320646977 -0.0032184304198935604 0 -0.014156967464876978 -0.0025867537014863471 0 -0.014337539842063634 -0.0027734633107581726 0 -0.014120565717818948 -0.0023657268092908143 0 -0.013556523218511283 -0.0030557657968169525 0 -0.014201421544409346 -0.0025540306396360938 0 -0.013707194041563913 -0.0031349755623838391 0 -0.013842420320646977 -0.0032184304198935604 0 -0.013651916019156446 -0.0027241196607164292 0 -0.013987368614202123 -0.0025695769777128825 0 -0.013448649604593866 -0.0032815146040324891 0 -0.013842420320646977 -0.0032184304198935604 0 -0.013651916019156446 -0.0027241196607164292 0 -0.017658205121864629 -0.0032544067724852113 0 -0.016580078563190322 -0.0021112720358215696 0 -0.019092025008504782 -0.0033807512342713141 0 -0.02331031308782567 -0.0020858408714586412 0 -0.020352441590746499 -0.0043886086567125528 0 -0.022072922659520308 -0.0028452111198136935 0 -0.021837724456191122 -0.0037027567075914301 0 -0.022072922659520308 -0.0028452111198136935 0 -0.021837724456191122 -0.0037027567075914301 0 -0.023225458941686979 -0.0030026148306044214 0 -0.013651916019156446 -0.0027241196607164292 0 -0.014040272663489426 -0.002461344939753877 0 -0.013987368614202123 -0.0025695769777128825 0 -0.013842420320646977 -0.0032184304198935604 0 -0.014156967464876978 -0.0025867537014863471 0 -0.013987368614202123 -0.0025695769777128825 0 -0.016580078563190322 -0.0021112720358215696 0 -0.015922571819188162 -0.002634174028936035 0 -0.01426032048139283 -0.0024281381216615956 0 -0.014156967464876978 -0.0025867537014863471 0 -0.014035047617183296 -0.002464891074118724 0 -0.014156967464876978 -0.0025867537014863471 0 -0.014035047617183296 -0.002464891074118724 0 -0.013987368614202123 -0.0025695769777128825 0 -0.023946822170684272 -0.0015636541083915061 0 -0.023225458941686979 -0.0030026148306044214 0 -0.02369660589020519 -0.0015399529834740028 0 -0.019216220091923211 -0.0015834020696666555 0 -0.016580078563190322 -0.0021112720358215696 0 -0.022072922659520308 -0.0028452111198136935 0 -0.023225458941686979 -0.0030026148306044214 0 -0.02369660589020519 -0.0015399529834740028 0 -0.02331031308782567 -0.0020858408714586412 0 -0.023454696652650309 -0.0016988340125512779 0 -0.02360421833029442 -0.0015405742325805354 0 -0.023572831590866983 -0.0017253683103159157 0 -0.02369660589020519 -0.0015399529834740028 0 -0.02360421833029442 -0.0015405742325805354 0 -0.023500970463805254 -0.001640780964054743 0 -0.023421233456375964 -0.00156733488997467 0 -0.02360421833029442 -0.0015405742325805354 0 -0.023572831590866983 -0.0017253683103159157 0 -0.023500970463805254 -0.001640780964054743 0 -0.023572831590866983 -0.0017253683103159157 0 -0.023500970463805254 -0.001640780964054743 0 -0.023404388162447071 -0.0017320293226772659 0 -0.023500970463805254 -0.001640780964054743 0 -0.023421233456375964 -0.00156733488997467 0 -0.023404388162447071 -0.0017320293226772659 0 -0.023421233456375964 -0.00156733488997467 0 -0.023314420089219696 -0.0016142024721170713 0 -0.023404388162447071 -0.0017320293226772659 0 -0.023314420089219696 -0.0016142024721170713 0 -0.023316162412139151 -0.0017877705766455331 0 -0.023404388162447071 -0.0017320293226772659 0 -0.023196894986212701 -0.0019354025720088911 0 -0.023314420089219696 -0.0016142024721170713 0 -0.023316162412139151 -0.0017877705766455331 0 -0.023647386254528831 -0.0025459573374790895 0 -0.023223959637403577 -0.0013146366551830954 0 -0.023314253715523581 -0.0016294049975231321 0 -0.02332825452383044 -0.0016513896577803795 0 -0.023314420089219696 -0.0016142024721170713 0 -0.023196894986212701 -0.0019354025720088911 0 -0.023316162412139151 -0.0017877705766455331 0 -0.023327191059174159 -0.001871860493781724 0 -0.023396991641262539 -0.0019449796764754276 0 -0.023327191059174159 -0.001871860493781724 0 -0.023404388162447071 -0.0017320293226772659 0 -0.019092025008504782 -0.0033807512342713141 0 -0.017658205121864629 -0.0032544067724852113 0 -0.023396991641262539 -0.0019449796764754276 0 -0.023572831590866983 -0.0017253683103159157 0 -0.023404388162447071 -0.0017320293226772659 0 -0.023316162412139151 -0.0017877705766455331 0 -0.023327191059174159 -0.001871860493781724 0 -0.023404388162447071 -0.0017320293226772659 0 -0.008321510796925188 -0.0080238281245376963 0 -0.0083877950521213818 -0.0082976022391352544 0 -0.0086586617043795232 -0.0079700531541289834 0 -0.008321510796925188 -0.0080238281245376963 0 -0.0083877950521213818 -0.0082976022391352544 0 -0.0079959479590178059 -0.0084539835646750845 0 -0.008321510796925188 -0.0080238281245376963 0 -0.0079959479590178059 -0.0084539835646750845 0 -0.007827368164717359 -0.0078707025942435106 0 -0.0083877950521213818 -0.0082976022391352544 0 -0.0083429447044875774 -0.0086636455955728942 0 -0.0086070501484070538 -0.0083984952732005323 0 -0.0083877950521213818 -0.0082976022391352544 0 -0.0079959479590178059 -0.0084539835646750845 0 -0.0083429447044875774 -0.0086636455955728942 0 -0.0083429447044875774 -0.0086636455955728942 0 -0.0086070501484070538 -0.0083984952732005323 0 -0.008609153326760528 -0.0087220194789537041 0 -0.0086070501484070538 -0.0083984952732005323 0 -0.0089215295311997709 -0.0082361265779359819 0 -0.008609153326760528 -0.0087220194789537041 0 -0.0086070501484070538 -0.0083984952732005323 0 -0.0088688647437203307 -0.0082571605813435093 0 -0.0086586617043795232 -0.0079700531541289834 0 -0.0083877950521213818 -0.0082976022391352544 0 -0.0086070501484070538 -0.0083984952732005323 0 -0.0086586617043795232 -0.0079700531541289834 0 -0.0083279527434715062 -0.0081620118303378994 0 -0.0031847168573005376 -0.010194155263406073 0 -0.0069010213386562075 0.0037376181164493639 0 -0.0069364083671992361 0.003744510039362387 0 -0.0070332417728872845 0.0037301149923525791 0 -0.0086586617043795232 -0.0079700531541289834 0 -0.0089397285314324181 -0.0076842979334151946 0 -0.0087779677084384045 -0.0075646216935968914 0 -0.008321510796925188 -0.0080238281245376963 0 -0.0086586617043795232 -0.0079700531541289834 0 -0.0087779677084384045 -0.0075646216935968914 0 -0.0088688647437203307 -0.0082571605813435093 0 -0.0086586617043795232 -0.0079700531541289834 0 -0.0089397285314324181 -0.0076842979334151946 0 -9.6986671407298339e-05 -0.0078628311929325474 0 2.9779408172364259e-05 -0.0085942982664344771 0 0.00064908953767623312 -0.0081874852489017321 0 -0.0031847168573005376 -0.010194155263406073 0 -0.00064270400304973615 -0.0041325424397992902 0 -0.00064270400304973615 -0.0041325424397992902 0 0.0029173914955146732 0.0014476437580364042 0 -0.00012633063112040197 0.0001490805251296751 0 2.7854041438600074e-05 -0.00080394953886615285 0 -0.0010687672652380626 -0.00049746704335787602 0 -0.00064270400304973615 -0.0041325424397992902 0 -0.0069199486923305293 -0.0013108049981254064 0 0.0029173914955146732 0.0014476437580364042 0 -0.0069199486923305293 -0.0013108049981254064 0 -0.013798668840639631 -0.00088970601213922982 0 -0.016572711059221167 -0.00017535132990090276 0 -0.015223164895691286 -0.0018357081225057461 0 -0.008321510796925188 -0.0080238281245376963 0 -0.0087779677084384045 -0.0075646216935968914 0 -0.007827368164717359 -0.0078707025942435106 0 -0.016572711059221167 -0.00017535132990090276 0 -0.015223164895691286 -0.0018357081225057461 0 -0.016363930318093405 -0.0016535740458935549 0 -0.0069199486923305293 -0.0013108049981254064 0 -0.015524149431872886 -0.0054222894700104536 0 -0.016572711059221167 -0.00017535132990090276 0 -0.017153186979764704 -0.0018413269537177475 0 -0.016363930318093405 -0.0016535740458935549 0 -0.015524149431872886 -0.0054222894700104536 0 -0.018709325829730155 -0.0052004443210058341 0 -0.018066736677644364 -0.0047490854790161437 0 -0.018749685102977118 -0.0051432201466405552 0 -0.018289984207009537 -0.0039607140831537978 0 -0.018066736677644364 -0.0047490854790161437 0 -0.018749685102977118 -0.0051432201466405552 0 -0.017579937211998169 -0.0055017243619988132 0 -0.015524149431872886 -0.0054222894700104536 0 -0.017618598879544208 -0.0025635091733330682 0 -0.017497979156499845 -0.0044705109918169381 0 -0.017160738233505436 -0.0039154178300370131 0 -0.016763593620268299 -0.0047685700047514767 0 -0.018066736677644364 -0.0047490854790161437 0 -0.017497979156499845 -0.0044705109918169381 0 -0.018289984207009537 -0.0039607140831537978 0 -0.018066736677644364 -0.0047490854790161437 0 -0.017497979156499845 -0.0044705109918169381 0 -0.017579937211998169 -0.0055017243619988132 0 -0.017497979156499845 -0.0044705109918169381 0 -0.017579937211998169 -0.0055017243619988132 0 -0.016763593620268299 -0.0047685700047514767 0 -0.017579937211998169 -0.0055017243619988132 0 -0.016742372927273763 -0.0057739725817322878 0 -0.016763593620268299 -0.0047685700047514767 0 -0.017579937211998169 -0.0055017243619988132 0 -0.017319734256636899 -0.0062477806988570873 0 -0.016742372927273763 -0.0057739725817322878 0 -0.017579937211998169 -0.0055017243619988132 0 -0.017319734256636899 -0.0062477806988570873 0 -0.018016488278965122 -0.0064341797813247436 0 -0.018573361280896043 -0.0052700248324131184 0 -0.017579937211998169 -0.0055017243619988132 0 -0.018330976161966901 -0.0058979136650416835 0 -0.018898668107873155 -0.0061403862807045805 0 -0.018573361280896043 -0.0052700248324131184 0 -0.018330976161966901 -0.0058979136650416835 0 -0.013525531495681982 -0.0072784757390707668 0 -0.015524149431872886 -0.0054222894700104536 0 -0.017579937211998169 -0.0055017243619988132 0 -0.018330976161966901 -0.0058979136650416835 0 -0.018016488278965122 -0.0064341797813247436 0 -0.018330976161966901 -0.0058979136650416835 0 -0.018535857462887037 -0.0067096925607614058 0 -0.018016488278965122 -0.0064341797813247436 0 -0.018898668107873155 -0.0061403862807045805 0 -0.018330976161966901 -0.0058979136650416835 0 -0.018535857462887037 -0.0067096925607614058 0 -0.013456177966255376 -0.0099412031220624496 0 -0.013519002028265743 -0.0099641822710598345 0 -0.014198532859116181 -0.0097952735699476847 0 -0.016366107421306925 -0.0085914532543114441 0 -0.013398360372238202 -0.0083547560131359503 0 -0.018535857462887037 -0.0067096925607614058 0 -0.01786493400819273 -0.0074218869715105005 0 -0.019196771827005948 -0.0069979910050712102 0 -0.018535857462887037 -0.0067096925607614058 0 -0.018016488278965122 -0.0064341797813247436 0 -0.017978919727821369 -0.0068788470185410832 0 -0.018535857462887037 -0.0067096925607614058 0 -0.017978919727821369 -0.0068788470185410832 0 -0.01786493400819273 -0.0074218869715105005 0 -0.017435351860753904 -0.0069168742130071448 0 -0.01786493400819273 -0.0074218869715105005 0 -0.016461468871656441 -0.0080362432260913108 0 -0.017319734256636899 -0.0062477806988570873 0 -0.017435351860753904 -0.0069168742130071448 0 -0.016801409114948925 -0.006601627187193016 0 -0.018016488278965122 -0.0064341797813247436 0 -0.017978919727821369 -0.0068788470185410832 0 -0.017435351860753904 -0.0069168742130071448 0 -0.017319734256636899 -0.0062477806988570873 0 -0.018016488278965122 -0.0064341797813247436 0 -0.017435351860753904 -0.0069168742130071448 0 -0.017978919727821369 -0.0068788470185410832 0 -0.017435351860753904 -0.0069168742130071448 0 -0.01786493400819273 -0.0074218869715105005 0 -0.013456177966255376 -0.0099412031220624496 0 -0.0138139156557132 -0.009550355154575715 0 -0.014090582054229922 -0.0095881254107141791 0 -0.016366107421306925 -0.0085914532543114441 0 -0.015052212233614392 -0.0088502164089194531 0 -0.0138139156557132 -0.009550355154575715 0 -0.013519002028265743 -0.0099641822710598345 0 -0.013734001041136661 -0.0094313501841340412 0 -0.013456177966255376 -0.0099412031220624496 0 -0.0138139156557132 -0.009550355154575715 0 -0.013519002028265743 -0.0099641822710598345 0 -0.013519002028265743 -0.0099641822710598345 0 -0.013688284789236319 -0.011128282544068703 0 -0.013052266160712363 -0.011609076559204814 0 -0.013519002028265743 -0.0099641822710598345 0 -0.014049444709601341 -0.010688597966074907 0 -0.014198532859116181 -0.0097952735699476847 0 -0.013519002028265743 -0.0099641822710598345 0 -0.014049444709601341 -0.010688597966074907 0 -0.013688284789236319 -0.011128282544068703 0 -0.01348944311160701 -0.010048581320532744 0 -0.013416884594069058 -0.010519691735896912 0 -0.013398360372238202 -0.0083547560131359503 0 -0.006139834476604507 -0.012485230713874942 0 -0.0080601223792828181 -0.0091440719719742564 0 -0.0088201631894707592 -0.0093616095382293013 0 -0.0085872079408406913 -0.010706622479484489 0 -0.014049444709601341 -0.010688597966074907 0 -0.014198532859116181 -0.0097952735699476847 0 -0.014873808329352995 -0.011255171202747773 0 -0.013398360372238202 -0.0083547560131359503 0 -0.0083966921593297463 -0.0093729276138570534 0 -0.0080601223792828181 -0.0091440719719742564 0 -0.0085350390429406453 -0.0090263145709345936 0 -0.0088201631894707592 -0.0093616095382293013 0 -0.0083429447044875774 -0.0086636455955728942 0 -0.0082037331494614306 -0.0090935350075773604 0 -0.0085350390429406453 -0.0090263145709345936 0 -0.0083429447044875774 -0.0086636455955728942 0 -0.008609153326760528 -0.0087220194789537041 0 -0.0085350390429406453 -0.0090263145709345936 0 -0.0079959479590178059 -0.0084539835646750845 0 -0.0083429447044875774 -0.0086636455955728942 0 -0.0082037331494614306 -0.0090935350075773604 0 -0.018898668107873155 -0.0061403862807045805 0 -0.018535857462887037 -0.0067096925607614058 0 -0.019196771827005948 -0.0069979910050712102 0 -0.013525531495681982 -0.0072784757390707668 0 -0.013398360372238202 -0.0083547560131359503 0 -0.0089215295311997709 -0.0082361265779359819 0 -0.008609153326760528 -0.0087220194789537041 0 -0.0088201631894707592 -0.0093616095382293013 0 -0.0031847168573005376 -0.010194155263406073 0 -0.0031296740451791762 -0.011633342483417023 0 0.0021563516559884965 -0.014206995068070034 0 0.0020546451633543768 -0.013637010684626204 0 0.0024847573386922784 -0.013972691676764595 0 -0.008609153326760528 -0.0087220194789537041 0 -0.0085350390429406453 -0.0090263145709345936 0 -0.0088201631894707592 -0.0093616095382293013 0 0.0020546451633543768 -0.013637010684626204 0 0.0022407328260564937 -0.013234512304259287 0 0.0019420083514700857 -0.013063145979380191 0 -0.0031296740451791762 -0.011633342483417023 0 -0.006139834476604507 -0.012485230713874942 0 0.0020546451633543768 -0.013637010684626204 0 0.0022407328260564937 -0.013234512304259287 0 0.002589443670170282 -0.013591739642212289 0 0.002589443670170282 -0.013591739642212289 0 0.0030172459408049804 -0.013531782728318427 0 0.002588761210417922 -0.013027918586970383 0 0.0022407328260564937 -0.013234512304259287 0 0.002589443670170282 -0.013591739642212289 0 0.002588761210417922 -0.013027918586970383 0 0.0031344630100200903 -0.013221055350976754 0 0.0030172459408049804 -0.013531782728318427 0 0.002588761210417922 -0.013027918586970383 0 0.0031344630100200903 -0.013221055350976754 0 0.0030172459408049804 -0.013531782728318427 0 0.003357677399784468 -0.013453577506156214 0 0.002589443670170282 -0.013591739642212289 0 0.0030172459408049804 -0.013531782728318427 0 0.0030854034514711443 -0.01405499542711508 0 0.0020546451633543768 -0.013637010684626204 0 0.002589443670170282 -0.013591739642212289 0 0.0024847573386922784 -0.013972691676764595 0 0.002589443670170282 -0.013591739642212289 0 0.0024847573386922784 -0.013972691676764595 0 0.0030854034514711443 -0.01405499542711508 0 0.0036737612467016836 -0.013457550262510162 0 0.0038012855689756823 -0.013506879680494034 0 0.0041457470014708885 -0.013437069644646032 0 0.0057132251178984841 -0.013163137362269589 0 0.0050076805195634656 -0.016861371880479512 0 0.0036557437581938076 -0.015414252546051225 0 0.0050076805195634656 -0.016861371880479512 0 0.0039376756972217247 -0.020695949535191049 0 0.0034229552481735894 -0.02125916095221881 0 0.0032042984329397253 -0.020761271735408069 0 0.0038012855689756823 -0.013506879680494034 0 0.0036372532027052922 -0.013729346264871467 0 0.0041457470014708885 -0.013437069644646032 0 0.0036669483939117857 -0.013443673489463103 0 0.0038012855689756823 -0.013506879680494034 0 0.0036372532027052922 -0.013729346264871467 0 0.0036557437581938076 -0.015414252546051225 0 0.0034611009721394856 -0.014859066836539947 0 0.0030172459408049804 -0.013531782728318427 0 0.003357677399784468 -0.013453577506156214 0 0.0036372532027052922 -0.013729346264871467 0 0.0031344630100200903 -0.013221055350976754 0 0.0036722952898966712 -0.01343205390504813 0 0.003357677399784468 -0.013453577506156214 0 0.0039292870033668745 -0.017232982174790589 0 0.0036557437581938076 -0.015414252546051225 0 0.0036557437581938076 -0.015414252546051225 0 0.0035358615385586946 -0.014026194644686371 0 0.0036669483939117857 -0.013443673489463103 0 0.003357677399784468 -0.013453577506156214 0 0.0036372532027052922 -0.013729346264871467 0 0.0030172459408049804 -0.013531782728318427 0 0.0036372532027052922 -0.013729346264871467 0 0.0030854034514711443 -0.01405499542711508 0 0.0072872926809011028 -0.013504445472887618 0 0.0072083259263109756 -0.013651961016124987 0 0.0077828076956148748 -0.013134669763510548 0 0.0057132251178984841 -0.013163137362269589 0 0.0052952027708808433 -0.014126075586413978 0 0.0072872926809011028 -0.013504445472887618 0 0.0074165733846074267 -0.013029974240556918 0 0.0077828076956148748 -0.013134669763510548 0 0.0069634438093354734 -0.013422454377691382 0 0.0072083259263109756 -0.013651961016124987 0 0.006833392869348592 -0.013980458521463035 0 0.0072872926809011028 -0.013504445472887618 0 0.0069634438093354734 -0.013422454377691382 0 0.0072083259263109756 -0.013651961016124987 0 0.0069634438093354734 -0.013422454377691382 0 0.0072692537908963387 -0.013105414632056812 0 0.006959710387042321 -0.012915059211445579 0 0.0072872926809011028 -0.013504445472887618 0 0.0069634438093354734 -0.013422454377691382 0 0.0072692537908963387 -0.013105414632056812 0 0.0074165733846074267 -0.013029974240556918 0 0.0077828076956148748 -0.013134669763510548 0 0.0077423496723485301 -0.012289012278531224 0 0.007262977493773636 -0.01322444760541883 0 0.0071297585729808216 -0.01350533579252907 0 0.0072872926809011028 -0.013504445472887618 0 0.0071031896304709404 -0.012709429611880631 0 0.0074165733846074267 -0.013029974240556918 0 0.0071031896304709404 -0.012709429611880631 0 0.0074165733846074267 -0.013029974240556918 0 0.0077423496723485301 -0.012289012278531224 0 0.0071031896304709404 -0.012709429611880631 0 0.0077423496723485301 -0.012289012278531224 0 0.0069989580144529029 -0.011915367604068465 0 0.0086088451458856512 -0.0078609730845763393 0 0.0088027322535339427 -0.0092429733060338786 0 0.0071297585729808216 -0.01350533579252907 0 0.0088027322535339427 -0.0092429733060338786 0 0.0072692537908963387 -0.013105414632056812 0 0.007236218852486878 -0.012617432423556094 0 0.006959710387042321 -0.012915059211445579 0 0.0021563516559884965 -0.014206995068070034 0 0.0024847573386922784 -0.013972691676764595 0 0.0025387761185222874 -0.01437401383035776 0 0.0024847573386922784 -0.013972691676764595 0 0.0030854034514711443 -0.01405499542711508 0 0.0025387761185222874 -0.01437401383035776 0 -0.0031847168573005376 -0.010194155263406073 0 0.0048028317918926127 -0.0099299943397538112 0 0.0052952027708808433 -0.014126075586413978 0 0.0048028317918926127 -0.0099299943397538112 0 0.0077828076956148748 -0.013134669763510548 0 0.0077423496723485301 -0.012289012278531224 0 0.0084199826869975763 -0.012614925765073627 0 0.008713945369217076 -0.0038781999496079636 0 0.0062154406825103313 -0.0038632777966544356 0 0.0077213111353531625 -0.0050451686610879475 0 0.0086088451458856512 -0.0078609730845763393 0 0.0048028317918926127 -0.0099299943397538112 0 0.0047433000317562615 -0.0042252900811678082 0 0.0062154406825103313 -0.0038632777966544356 0 0.0077213111353531625 -0.0050451686610879475 0 0.008713945369217076 -0.0038781999496079636 0 0.0062154406825103313 -0.0038632777966544356 0 0.006064937867133152 -0.0026986793963583037 0 0.0046494915306003514 -0.0036553315947364519 0 0.0062154406825103313 -0.0038632777966544356 0 0.006064937867133152 -0.0026986793963583037 0 -0.00064270400304973615 -0.0041325424397992902 0 0.0048028317918926127 -0.0099299943397538112 0 0.0046494915306003514 -0.0036553315947364519 0 0.0047433000317562615 -0.0042252900811678082 0 0.0062154406825103313 -0.0038632777966544356 0 0.0029173914955146732 0.0014476437580364042 0 0.011524468667689256 -0.00025965579167880381 0 0.012886885854118534 0.0054268915533853684 0 0.01302441511643185 0.0053879063421712649 0 0.013058658661228691 0.0054285627590355051 0 0.012886885854118534 0.0054268915533853684 0 0.013058658661228691 0.0054285627590355051 0 0.012987379924544165 0.0053867658853823733 0 0.01302441511643185 0.0053879063421712649 0 0.013058658661228691 0.0054285627590355051 0 0.012925820533358792 0.005337210888720933 0 0.013602088973291149 0.0066288308474123925 0 0.012180165110214539 0.0014084197039969694 0 0.013205165997907085 0.0053828500716967603 0 0.013058658661228691 0.0054285627590355051 0 0.01315351715476697 0.0053498354969765604 0 0.013205165997907085 0.0053828500716967603 0 0.013058658661228691 0.0054285627590355051 0 0.013277222806992497 0.0054215596594896507 0 0.013058658661228691 0.0054285627590355051 0 0.013393239936153283 0.0055119550164412648 0 0.013277222806992497 0.0054215596594896507 0 0.013205165997907085 0.0053828500716967603 0 0.013322787602961055 0.0053829094109527952 0 0.013283870095826232 0.0053451093494770643 0 0.013058658661228691 0.0054285627590355051 0 0.012987379924544165 0.0053867658853823733 0 0.01315351715476697 0.0053498354969765604 0 0.0070372507399844948 -0.012524685306018798 0 0.007236218852486878 -0.012617432423556094 0 0.006959710387042321 -0.012915059211445579 0 0.0089803865085045006 -0.0070349266219509954 0 0.010561326318439689 -0.002954187167514351 0 0.0089803865085045006 -0.0070349266219509954 0 0.0088027322535339427 -0.0092429733060338786 0 0.0091223833064155106 -0.0069475731391425519 0 0.0087326611951121739 -0.0067755536500687394 0 0.0087688738358930318 -0.0070084218780003468 0 0.0088027322535339427 -0.0092429733060338786 0 0.010561326318439689 -0.002954187167514351 0 0.012485362234421999 0.00068223730007738615 0 0.012560645972250628 0.00016414226767228957 0 0.011416989296884478 0.0004953459940559542 0 0.010501719461302499 -0.0025786555597975581 0 0.010598563788966042 -0.0025549898385660514 0 0.010594943320910585 -0.0025158140429970407 0 0.010561326318439689 -0.002954187167514351 0 0.012180165110214539 0.0014084197039969694 0 0.011280108694463621 -0.0050266152825158049 0 0.011378040536031099 -0.0056923468413736088 0 0.010595470108529851 -0.0058334371717452295 0 0.010561326318439689 -0.002954187167514351 0 0.011738051057380036 0.00081597244597042767 0 0.011738051057380036 0.00081597244597042767 0 0.012180165110214539 0.0014084197039969694 0 0.008713945369217076 -0.0038781999496079636 0 0.0077213111353531625 -0.0050451686610879475 0 0.010595470108529851 -0.0058334371717452295 0 0.008713945369217076 -0.0038781999496079636 0 0.011280108694463621 -0.0050266152825158049 0 0.010595470108529851 -0.0058334371717452295 0 0.011524468667689256 -0.00025965579167880381 0 0.012180165110214539 0.0014084197039969694 0 0.013322787602961055 0.0053829094109527952 0 0.013396957391220383 0.0054142399612500131 0 0.013427759242088409 0.005333308734623698 0 0.013277222806992497 0.0054215596594896507 0 0.013322787602961055 0.0053829094109527952 0 0.013396957391220383 0.0054142399612500131 0 0.013205165997907085 0.0053828500716967603 0 0.013277222806992497 0.0054215596594896507 0 0.013322787602961055 0.0053829094109527952 0 0.013393239936153283 0.0055119550164412648 0 0.013277222806992497 0.0054215596594896507 0 0.013396957391220383 0.0054142399612500131 0 0.013396957391220383 0.0054142399612500131 0 0.013466746366022835 0.0053660404580898368 0 0.013427759242088409 0.005333308734623698 0 0.011738051057380036 0.00081597244597042767 0 0.013289079234525445 0.0041251205986775983 0 0.013260155599479731 0.0014429172973470692 0 0.013172671069896643 0.0021414560626436129 0 0.012296274835908935 0.0017120087796971182 0 0.013445159502500798 0.0054796472027773355 0 0.013396957391220383 0.0054142399612500131 0 0.013466746366022835 0.0053660404580898368 0 0.013445159502500798 0.0054796472027773355 0 0.013393239936153283 0.0055119550164412648 0 0.013396957391220383 0.0054142399612500131 0 0.013466746366022835 0.0053660404580898368 0 0.013427759242088409 0.005333308734623698 0 0.013514195479998015 0.0052941662979859479 0 0.013289079234525445 0.0041251205986775983 0 0.013546246569073991 0.0043338566455820111 0 0.013427759242088409 0.005333308734623698 0 0.013503503599638398 0.0052985066645188459 0 0.013514195479998015 0.0052941662979859479 0 0.013427759242088409 0.005333308734623698 0 0.013380571866316256 0.0052960594776813846 0 0.013503503599638398 0.0052985066645188459 0 0.013322787602961055 0.0053829094109527952 0 0.013427759242088409 0.005333308734623698 0 0.013283870095826232 0.0053451093494770643 0 0.013427759242088409 0.005333308734623698 0 0.013380571866316256 0.0052960594776813846 0 0.013283870095826232 0.0053451093494770643 0 0.013380571866316256 0.0052960594776813846 0 0.013464292256641442 0.0052417087001653132 0 0.013341557765174681 0.0052494057732290498 0 0.013380571866316256 0.0052960594776813846 0 0.013464292256641442 0.0052417087001653132 0 0.013503503599638398 0.0052985066645188459 0 0.013503503599638398 0.0052985066645188459 0 0.013596932001817807 0.0053098901284337648 0 0.013598528468516504 0.0052391764429831561 0 0.013640568737131381 0.0046887769385616264 0 0.013546246569073991 0.0043338566455820111 0 0.013464292256641442 0.0052417087001653132 0 0.013503503599638398 0.0052985066645188459 0 0.013598528468516504 0.0052391764429831561 0 0.013596932001817807 0.0053098901284337648 0 0.013690499299672818 0.0052507323832967651 0 0.013598528468516504 0.0052391764429831561 0 0.01315351715476697 0.0053498354969765604 0 0.013256931211692882 0.0052977070254323104 0 0.013124331245952959 0.0052515506665089546 0 0.012987379924544165 0.0053867658853823733 0 0.01315351715476697 0.0053498354969765604 0 0.013124331245952959 0.0052515506665089546 0 0.0030195357086827503 0.0052626603957146856 0 0.0031473494957177102 0.0042803998550706469 0 0.013205165997907085 0.0053828500716967603 0 0.01315351715476697 0.0053498354969765604 0 0.013283870095826232 0.0053451093494770643 0 0.013380571866316256 0.0052960594776813846 0 0.013283870095826232 0.0053451093494770643 0 0.013256931211692882 0.0052977070254323104 0 0.01315351715476697 0.0053498354969765604 0 0.013283870095826232 0.0053451093494770643 0 0.013256931211692882 0.0052977070254323104 0 0.013256931211692882 0.0052977070254323104 0 0.013341557765174681 0.0052494057732290498 0 0.013124331245952959 0.0052515506665089546 0 0.013380571866316256 0.0052960594776813846 0 0.013256931211692882 0.0052977070254323104 0 0.013341557765174681 0.0052494057732290498 0 -0.0068584547806731736 0.003638469678425303 0 -0.0070746637744202954 0.0036319236329501962 0 -0.007034729373851337 0.0036687010679400029 0 -0.0068896694159397238 0.0036912716488160654 0 -0.0068584547806731736 0.003638469678425303 0 -0.007034729373851337 0.0036687010679400029 0 -0.0068896694159397238 0.0036912716488160654 0 -0.007034729373851337 0.0036687010679400029 0 -0.0069950274226542137 0.0037045712407376471 0 -0.007034729373851337 0.0036687010679400029 0 -0.0069950274226542137 0.0037045712407376471 0 -0.0071179107918328353 0.0036964409395737448 0 -0.0069950274226542137 0.0037045712407376471 0 -0.0070332417728872845 0.0037301149923525791 0 -0.0071179107918328353 0.0036964409395737448 0 -0.011010627151548141 0.00097218791456624577 0 -0.013968664444730817 0.00026360991999606104 0 -0.015223164895691286 -0.0018357081225057461 0 -0.016363930318093405 -0.0016535740458935549 0 -0.01669405032839057 -0.0025612888929926339 0 -0.0069010213386562075 0.0037376181164493639 0 -0.0069950274226542137 0.0037045712407376471 0 -0.0070332417728872845 0.0037301149923525791 0 0.0029173914955146732 0.0014476437580364042 0 0.0030195357086827503 0.0052626603957146856 0 -0.0069199486923305293 -0.0013108049981254064 0 -0.011010627151548141 0.00097218791456624577 0 -0.0069010213386562075 0.0037376181164493639 0 -0.0068896694159397238 0.0036912716488160654 0 -0.0069950274226542137 0.0037045712407376471 0 -0.017560098455500748 -0.0035191376461347484 0 -0.018289984207009537 -0.0039607140831537978 0 -0.017522671057621217 -0.0027844095968963664 0 -0.017560098455500748 -0.0035191376461347484 0 -0.01703904450972487 -0.0033205723460677967 0 -0.017160738233505436 -0.0039154178300370131 0 -0.017560098455500748 -0.0035191376461347484 0 -0.01703904450972487 -0.0033205723460677967 0 -0.017427957763199012 -0.0030256001921484393 0 -0.017497979156499845 -0.0044705109918169381 0 -0.017560098455500748 -0.0035191376461347484 0 -0.017160738233505436 -0.0039154178300370131 0 -0.017497979156499845 -0.0044705109918169381 0 -0.017560098455500748 -0.0035191376461347484 0 -0.018289984207009537 -0.0039607140831537978 0 -0.017153186979764704 -0.0018413269537177475 0 -0.01669405032839057 -0.0025612888929926339 0 -0.017522671057621217 -0.0027844095968963664 0 -0.017618598879544208 -0.0025635091733330682 0 -0.017624429836231945 -0.0029242379111812386 0 -0.017153186979764704 -0.0018413269537177475 0 -0.016363930318093405 -0.0016535740458935549 0 -0.01669405032839057 -0.0025612888929926339 0 -0.017869832678532913 -0.0023185999827551916 0 -0.017415102912932443 -0.00198569633550467 0 -0.017705102463740918 -0.001418877133165043 0 -0.01669405032839057 -0.0025612888929926339 0 -0.017718699036687338 -0.0028764270540058224 0 -0.017522671057621217 -0.0027844095968963664 0 -0.013968664444730817 0.00026360991999606104 0 -0.01817693331542394 -0.0028952837435859869 0 -0.013968664444730817 0.00026360991999606104 0 -0.012197386398027707 0.0012596502550899858 0 -0.007034729373851337 0.0036687010679400029 0 -0.0071179107918328353 0.0036964409395737448 0 -0.0071687496020543971 0.0036464638666453219 0 -0.017718699036687338 -0.0028764270540058224 0 -0.016691768676358076 -0.0017362498200785203 0 -0.017056612975327477 -0.002813974741976507 0 -0.017560098455500748 -0.0035191376461347484 0 -0.017522671057621217 -0.0027844095968963664 0 -0.017427957763199012 -0.0030256001921484393 0 -0.017718699036687338 -0.0028764270540058224 0 -0.017522671057621217 -0.0027844095968963664 0 -0.017427957763199012 -0.0030256001921484393 0 -0.01703904450972487 -0.0033205723460677967 0 -0.017427957763199012 -0.0030256001921484393 0 -0.017056612975327477 -0.002813974741976507 0 -0.017718699036687338 -0.0028764270540058224 0 -0.017427957763199012 -0.0030256001921484393 0 -0.017056612975327477 -0.002813974741976507 0 -0.017415102912932443 -0.00198569633550467 0 -0.017234677820337094 -0.0015521874165825773 0 -0.016691768676358076 -0.0017362498200785203 0 -0.017234677820337094 -0.0015521874165825773 0 -0.017705102463740918 -0.001418877133165043 0 -0.01706690194861096 -0.00096500955674201899 0 -0.01817693331542394 -0.0028952837435859869 0 -0.016481188260957257 -0.001605739029217816 0 -0.017415102912932443 -0.00198569633550467 0 -0.017234677820337094 -0.0015521874165825773 0 -0.017705102463740918 -0.001418877133165043 0 -0.0070746637744202954 0.0036319236329501962 0 -0.007034729373851337 0.0036687010679400029 0 -0.0071687496020543971 0.0036464638666453219 0 -0.0070746637744202954 0.0036319236329501962 0 -0.0071687496020543971 0.0036464638666453219 0 -0.0072740217488053132 0.0036152983723013407 0 -0.01706690194861096 -0.00096500955674201899 0 -0.01691435625868146 -0.00035387500296066727 0 -0.017330292144293734 2.3996128535355128e-05 0 -0.012197386398027707 0.0012596502550899858 0 -0.012334355744505785 0.0017680256327687607 0 -0.017705102463740918 -0.001418877133165043 0 -0.01706690194861096 -0.00096500955674201899 0 -0.017330292144293734 2.3996128535355128e-05 0 -0.01706690194861096 -0.00096500955674201899 0 -0.016445466494705931 -0.00076881016662540323 0 -0.01691435625868146 -0.00035387500296066727 0 -0.01706690194861096 -0.00096500955674201899 0 -0.016445466494705931 -0.00076881016662540323 0 -0.016691768676358076 -0.0017362498200785203 0 -0.016445466494705931 -0.00076881016662540323 0 -0.016691768676358076 -0.0017362498200785203 0 -0.015575967936111964 -0.0022955557394234573 0 -0.017234677820337094 -0.0015521874165825773 0 -0.01706690194861096 -0.00096500955674201899 0 -0.016691768676358076 -0.0017362498200785203 0 -0.016402254070508673 -0.00085754248224547954 0 -0.01596087386123702 -0.0020278761806870231 0 -0.016445466494705931 -0.00076881016662540323 0 -0.015847825593199756 -0.0012782732928703778 0 -0.016330286925560801 -0.0017528367545284736 0 -0.016445466494705931 -0.00076881016662540323 0 -0.015847825593199756 -0.0012782732928703778 0 -0.015883352475201874 -0.00043856339963868347 0 -0.015251135683929645 -0.00089635684032308581 0 -0.015847825593199756 -0.0012782732928703778 0 -0.015883352475201874 -0.00043856339963868347 0 -0.015251135683929645 -0.00089635684032308581 0 -0.015405803176408252 -0.0017786525671840093 0 -0.015847825593199756 -0.0012782732928703778 0 -0.015847825593199756 -0.0012782732928703778 0 -0.015881941017323695 -0.0020615264662593108 0 -0.016330286925560801 -0.0017528367545284736 0 -0.015405803176408252 -0.0017786525671840093 0 -0.015847825593199756 -0.0012782732928703778 0 -0.015881941017323695 -0.0020615264662593108 0 -0.015881941017323695 -0.0020615264662593108 0 -0.01615595973000512 -0.0025988389931973022 0 -0.016330286925560801 -0.0017528367545284736 0 -0.015405803176408252 -0.0017786525671840093 0 -0.015588811300943077 -0.0023139854000013308 0 -0.015083155511075036 -0.0023531513498631497 0 -0.015405803176408252 -0.0017786525671840093 0 -0.015881941017323695 -0.0020615264662593108 0 -0.015588811300943077 -0.0023139854000013308 0 -0.015588811300943077 -0.0023139854000013308 0 -0.015083155511075036 -0.0023531513498631497 0 -0.015437973969960049 -0.0027936574702572409 0 -0.015881941017323695 -0.0020615264662593108 0 -0.015588811300943077 -0.0023139854000013308 0 -0.01615595973000512 -0.0025988389931973022 0 -0.015588811300943077 -0.0023139854000013308 0 -0.01615595973000512 -0.0025988389931973022 0 -0.015437973969960049 -0.0027936574702572409 0 -0.014909128006872737 -0.0041422026310156063 0 -0.016230197586037973 -0.0031914285750644224 0 -0.01590309160247471 -0.0045199582415922394 0 -0.01659195501310079 -0.0038953188699801561 0 -0.016230197586037973 -0.0031914285750644224 0 -0.01590309160247471 -0.0045199582415922394 0 -0.017160738233505436 -0.0039154178300370131 0 -0.01659195501310079 -0.0038953188699801561 0 -0.016763593620268299 -0.0047685700047514767 0 -0.01703904450972487 -0.0033205723460677967 0 -0.017160738233505436 -0.0039154178300370131 0 -0.01659195501310079 -0.0038953188699801561 0 -0.01703904450972487 -0.0033205723460677967 0 -0.01659195501310079 -0.0038953188699801561 0 -0.016230197586037973 -0.0031914285750644224 0 -0.016691768676358076 -0.0017362498200785203 0 -0.016230197586037973 -0.0031914285750644224 0 -0.015575967936111964 -0.0022955557394234573 0 -0.016691768676358076 -0.0017362498200785203 0 -0.016230197586037973 -0.0031914285750644224 0 -0.017056612975327477 -0.002813974741976507 0 -0.01703904450972487 -0.0033205723460677967 0 -0.016230197586037973 -0.0031914285750644224 0 -0.017056612975327477 -0.002813974741976507 0 -0.014909128006872737 -0.0041422026310156063 0 -0.016230197586037973 -0.0031914285750644224 0 -0.015575967936111964 -0.0022955557394234573 0 -0.015538030422475814 -0.0033803344099515649 0 -0.01596087386123702 -0.0020278761806870231 0 -0.018578661448536628 0.00062900550666399795 0 -0.01845870506106935 0.0013666082616325113 0 -0.018577193226136584 0.0013330480154517452 0 -0.01845870506106935 0.0013666082616325113 0 -0.018577193226136584 0.0013330480154517452 0 -0.018277114078226714 0.0012524232864556167 0 -0.01623512120813413 -0.00021592255468730172 0 -0.016209560809937903 8.685582889967826e-05 0 -0.01845870506106935 0.0013666082616325113 0 -0.017792513029045453 0.0015037397175207974 0 -0.018277114078226714 0.0012524232864556167 0 -0.014029004999627507 -0.001749047673881542 0 -0.014612088350487671 -0.0013099815136484762 0 -0.014456218119299823 -0.0020043684589459189 0 -0.014612088350487671 -0.0013099815136484762 0 -0.014902604990166138 -0.0016875798210119193 0 -0.014456218119299823 -0.0020043684589459189 0 -0.015251135683929645 -0.00089635684032308581 0 -0.014612088350487671 -0.0013099815136484762 0 -0.014902604990166138 -0.0016875798210119193 0 -0.016205443858096583 0.00019541040234044704 0 -0.016209560809937903 8.685582889967826e-05 0 -0.015251135683929645 -0.00089635684032308581 0 -0.015405803176408252 -0.0017786525671840093 0 -0.014902604990166138 -0.0016875798210119193 0 -0.015405803176408252 -0.0017786525671840093 0 -0.014902604990166138 -0.0016875798210119193 0 -0.015083155511075036 -0.0023531513498631497 0 -0.015083155511075036 -0.0023531513498631497 0 -0.014985150242212208 -0.0029517020482040524 0 -0.015437973969960049 -0.0027936574702572409 0 -0.015083155511075036 -0.0023531513498631497 0 -0.014466011841636929 -0.0026244267199430197 0 -0.014985150242212208 -0.0029517020482040524 0 -0.015083155511075036 -0.0023531513498631497 0 -0.014466011841636929 -0.0026244267199430197 0 -0.014456218119299823 -0.0020043684589459189 0 -0.014902604990166138 -0.0016875798210119193 0 -0.015083155511075036 -0.0023531513498631497 0 -0.014456218119299823 -0.0020043684589459189 0 -0.014466011841636929 -0.0026244267199430197 0 -0.014456218119299823 -0.0020043684589459189 0 -0.014049538083498946 -0.0023296806311263601 0 -0.014029004999627507 -0.001749047673881542 0 -0.014456218119299823 -0.0020043684589459189 0 -0.014049538083498946 -0.0023296806311263601 0 -0.014466011841636929 -0.0026244267199430197 0 -0.014049538083498946 -0.0023296806311263601 0 -0.014054303629656822 -0.0028498853309245281 0 -0.013745491998526158 -0.0026153092833253451 0 -0.014049538083498946 -0.0023296806311263601 0 -0.014054303629656822 -0.0028498853309245281 0 -0.013745491998526158 -0.0026153092833253451 0 -0.013783229117904023 -0.0022645168039376888 0 -0.014049538083498946 -0.0023296806311263601 0 -0.013783229117904023 -0.0022645168039376888 0 -0.014029004999627507 -0.001749047673881542 0 -0.014049538083498946 -0.0023296806311263601 0 -0.013608897884638248 -0.0033218356981583766 0 -0.014054303629656822 -0.0028498853309245281 0 -0.013967254011096575 -0.0035880025477077388 0 -0.01337529483905104 -0.0039406051064294328 0 -0.013608897884638248 -0.0033218356981583766 0 -0.013967254011096575 -0.0035880025477077388 0 -0.013745491998526158 -0.0026153092833253451 0 -0.013608897884638248 -0.0033218356981583766 0 -0.014054303629656822 -0.0028498853309245281 0 -0.014466011841636929 -0.0026244267199430197 0 -0.014054303629656822 -0.0028498853309245281 0 -0.014409672805000717 -0.0032158950061489068 0 -0.014054303629656822 -0.0028498853309245281 0 -0.013967254011096575 -0.0035880025477077388 0 -0.014409672805000717 -0.0032158950061489068 0 -0.013967254011096575 -0.0035880025477077388 0 -0.014409672805000717 -0.0032158950061489068 0 -0.014537128478747885 -0.0037626268104882497 0 -0.014409672805000717 -0.0032158950061489068 0 -0.014985150242212208 -0.0029517020482040524 0 -0.015019467186330257 -0.0035388311644717935 0 -0.014409672805000717 -0.0032158950061489068 0 -0.015019467186330257 -0.0035388311644717935 0 -0.014537128478747885 -0.0037626268104882497 0 -0.014466011841636929 -0.0026244267199430197 0 -0.014409672805000717 -0.0032158950061489068 0 -0.014985150242212208 -0.0029517020482040524 0 -0.014985150242212208 -0.0029517020482040524 0 -0.015019467186330257 -0.0035388311644717935 0 -0.015563817728701674 -0.0032505855253288072 0 -0.015019467186330257 -0.0035388311644717935 0 -0.015048431428901261 -0.0043652484748681383 0 -0.015512775843878604 -0.0037834940298658699 0 -0.015019467186330257 -0.0035388311644717935 0 -0.015048431428901261 -0.0043652484748681383 0 -0.014537128478747885 -0.0037626268104882497 0 -0.015048431428901261 -0.0043652484748681383 0 -0.014504920995960863 -0.0044217788960441385 0 -0.014684368138827186 -0.0051597916245717038 0 -0.014504920995960863 -0.0044217788960441385 0 -0.01395313221910304 -0.0046825457986599175 0 -0.014684368138827186 -0.0051597916245717038 0 -0.014504920995960863 -0.0044217788960441385 0 -0.014537128478747885 -0.0037626268104882497 0 -0.014159998024385476 -0.004072110443180248 0 -0.015048431428901261 -0.0043652484748681383 0 -0.014504920995960863 -0.0044217788960441385 0 -0.014537128478747885 -0.0037626268104882497 0 -0.013967254011096575 -0.0035880025477077388 0 -0.014537128478747885 -0.0037626268104882497 0 -0.014159998024385476 -0.004072110443180248 0 -0.013967254011096575 -0.0035880025477077388 0 -0.014159998024385476 -0.004072110443180248 0 -0.013674024904388354 -0.0041773282466575573 0 -0.014504920995960863 -0.0044217788960441385 0 -0.014159998024385476 -0.004072110443180248 0 -0.01395313221910304 -0.0046825457986599175 0 -0.014159998024385476 -0.004072110443180248 0 -0.01395313221910304 -0.0046825457986599175 0 -0.013674024904388354 -0.0041773282466575573 0 -0.013004445811437499 -0.0044076112350774667 0 -0.013389659996242424 -0.004604184510519185 0 -0.013347779621083664 -0.0042790940382870695 0 -0.01395313221910304 -0.0046825457986599175 0 -0.013674024904388354 -0.0041773282466575573 0 -0.013389659996242424 -0.004604184510519185 0 -0.013674024904388354 -0.0041773282466575573 0 -0.013389659996242424 -0.004604184510519185 0 -0.013347779621083664 -0.0042790940382870695 0 -0.01337529483905104 -0.0039406051064294328 0 -0.013674024904388354 -0.0041773282466575573 0 -0.013347779621083664 -0.0042790940382870695 0 -0.01337529483905104 -0.0039406051064294328 0 -0.013967254011096575 -0.0035880025477077388 0 -0.013674024904388354 -0.0041773282466575573 0 -0.015285052738841023 -0.0055749366889283371 0 -0.014754623304510701 -0.0063782735604394694 0 -0.015827644709477284 -0.0064439100834498535 0 -0.015285052738841023 -0.0055749366889283371 0 -0.015991014023451725 -0.0054681156128706917 0 -0.015827644709477284 -0.0064439100834498535 0 -0.016742372927273763 -0.0057739725817322878 0 -0.015991014023451725 -0.0054681156128706917 0 -0.015827644709477284 -0.0064439100834498535 0 -0.016742372927273763 -0.0057739725817322878 0 -0.015827644709477284 -0.0064439100834498535 0 -0.016801409114948925 -0.006601627187193016 0 -0.017319734256636899 -0.0062477806988570873 0 -0.016742372927273763 -0.0057739725817322878 0 -0.016801409114948925 -0.006601627187193016 0 -0.015991014023451725 -0.0054681156128706917 0 -0.016763593620268299 -0.0047685700047514767 0 -0.01590309160247471 -0.0045199582415922394 0 -0.016742372927273763 -0.0057739725817322878 0 -0.015991014023451725 -0.0054681156128706917 0 -0.016763593620268299 -0.0047685700047514767 0 -0.01659195501310079 -0.0038953188699801561 0 -0.016763593620268299 -0.0047685700047514767 0 -0.01590309160247471 -0.0045199582415922394 0 -0.014909128006872737 -0.0041422026310156063 0 -0.015285052738841023 -0.0055749366889283371 0 -0.01590309160247471 -0.0045199582415922394 0 -0.015285052738841023 -0.0055749366889283371 0 -0.015991014023451725 -0.0054681156128706917 0 -0.01590309160247471 -0.0045199582415922394 0 -0.014909128006872737 -0.0041422026310156063 0 -0.015285052738841023 -0.0055749366889283371 0 -0.014535845355849789 -0.0059934021839913388 0 -0.01615595973000512 -0.0025988389931973022 0 -0.015563817728701674 -0.0032505855253288072 0 -0.016005043062644227 -0.0034225629097808445 0 -0.015538030422475814 -0.0033803344099515649 0 -0.015303289735673407 -0.0046779593144449681 0 -0.01615595973000512 -0.0025988389931973022 0 -0.015437973969960049 -0.0027936574702572409 0 -0.015563817728701674 -0.0032505855253288072 0 -0.014985150242212208 -0.0029517020482040524 0 -0.015437973969960049 -0.0027936574702572409 0 -0.015563817728701674 -0.0032505855253288072 0 -0.015019467186330257 -0.0035388311644717935 0 -0.015563817728701674 -0.0032505855253288072 0 -0.015512775843878604 -0.0037834940298658699 0 -0.015563817728701674 -0.0032505855253288072 0 -0.016005043062644227 -0.0034225629097808445 0 -0.015512775843878604 -0.0037834940298658699 0 -0.015285052738841023 -0.0055749366889283371 0 -0.014535845355849789 -0.0059934021839913388 0 -0.014754623304510701 -0.0063782735604394694 0 -0.014535845355849789 -0.0059934021839913388 0 -0.014754623304510701 -0.0063782735604394694 0 -0.01513917562521805 -0.0062145882321208408 0 -0.015303289735673407 -0.0046779593144449681 0 -0.015475085698754061 -0.005282572440544378 0 -0.016005043062644227 -0.0034225629097808445 0 -0.015512775843878604 -0.0037834940298658699 0 -0.015862303025908096 -0.0043873196166482956 0 -0.015048431428901261 -0.0043652484748681383 0 -0.015512775843878604 -0.0037834940298658699 0 -0.015862303025908096 -0.0043873196166482956 0 -0.01513917562521805 -0.0062145882321208408 0 -0.015088749445767782 -0.0059230969755001625 0 -0.015454610000093018 -0.0056526886590426524 0 -0.015048431428901261 -0.0043652484748681383 0 -0.015862303025908096 -0.0043873196166482956 0 -0.015454610000093018 -0.0056526886590426524 0 -0.015475085698754061 -0.005282572440544378 0 -0.015456972656180455 -0.0056337787128728648 0 -0.014754623304510701 -0.0063782735604394694 0 -0.014308032881327523 -0.0089971975096692757 0 -0.01415730640007668 -0.009216351512465578 0 -0.014728912760434478 -0.0064348022486065632 0 -0.014659037333185819 -0.007675564316557879 0 -0.014754623304510701 -0.0063782735604394694 0 -0.01513917562521805 -0.0062145882321208408 0 -0.015088749445767782 -0.0059230969755001625 0 -0.014308032881327523 -0.0089971975096692757 0 -0.014090582054229922 -0.0095881254107141791 0 -0.014153507543483362 -0.0093195107468876815 0 -0.014397438867873437 -0.0089927924247308715 0 -0.015052212233614392 -0.0088502164089194531 0 -0.014754623304510701 -0.0063782735604394694 0 -0.014308032881327523 -0.0089971975096692757 0 -0.015301606560130562 -0.0076005470945730612 0 -0.014308032881327523 -0.0089971975096692757 0 -0.015301606560130562 -0.0076005470945730612 0 -0.016461468871656441 -0.0080362432260913108 0 -0.015301606560130562 -0.0076005470945730612 0 -0.015827644709477284 -0.0064439100834498535 0 -0.016461468871656441 -0.0080362432260913108 0 -0.014754623304510701 -0.0063782735604394694 0 -0.015301606560130562 -0.0076005470945730612 0 -0.015827644709477284 -0.0064439100834498535 0 -0.017435351860753904 -0.0069168742130071448 0 -0.016801409114948925 -0.006601627187193016 0 -0.016461468871656441 -0.0080362432260913108 0 -0.015827644709477284 -0.0064439100834498535 0 -0.016801409114948925 -0.006601627187193016 0 -0.016461468871656441 -0.0080362432260913108 0 -0.0138139156557132 -0.009550355154575715 0 -0.014090582054229922 -0.0095881254107141791 0 -0.014153507543483362 -0.0093195107468876815 0 -0.0138139156557132 -0.009550355154575715 0 -0.013999904256304886 -0.0093401923010589128 0 -0.014153507543483362 -0.0093195107468876815 0 -0.013999904256304886 -0.0093401923010589128 0 -0.014045463767799991 -0.0093515918799670292 0 -0.014153507543483362 -0.0093195107468876815 0 -0.013999904256304886 -0.0093401923010589128 0 -0.014045463767799991 -0.0093515918799670292 0 -0.014007243157585324 -0.00937444790082065 0 -0.014045463767799991 -0.0093515918799670292 0 -0.014153507543483362 -0.0093195107468876815 0 -0.014023454554795069 -0.0093485207755235472 0 -0.014153507543483362 -0.0093195107468876815 0 -0.01415730640007668 -0.009216351512465578 0 -0.014023454554795069 -0.0093485207755235472 0 -0.014308032881327523 -0.0089971975096692757 0 -0.014153507543483362 -0.0093195107468876815 0 -0.01415730640007668 -0.009216351512465578 0 -0.014659037333185819 -0.007675564316557879 0 -0.01463929366135837 -0.0071542957760034886 0 -0.015454610000093018 -0.0056526886590426524 0 -0.0155126839071674 -0.0058952121135257603 0 -0.015299333265599959 -0.0062290407774728239 0 -0.015088749445767782 -0.0059230969755001625 0 -0.015454610000093018 -0.0056526886590426524 0 -0.0155126839071674 -0.0058952121135257603 0 -0.01463929366135837 -0.0071542957760034886 0 -0.015672858443811291 -0.010102753370123004 0 -0.0155126839071674 -0.0058952121135257603 0 -0.015570400075669084 -0.0063726677096592171 0 -0.015299333265599959 -0.0062290407774728239 0 -0.021353511489230519 -0.0093145487535193621 0 -0.018144233214821212 -0.0077142412448505913 0 -0.019547892726909932 -0.010795145806307764 0 -0.015672858443811291 -0.010102753370123004 0 -0.01720790140158111 -0.0067436571631429723 0 -0.01395904240524719 -0.0094482961613493247 0 -0.01399755128932003 -0.0094124136440363621 0 -0.013966558316848888 -0.0095138843771520182 0 -0.015672858443811291 -0.010102753370123004 0 -0.013493909916914336 -0.012598578961696512 0 -0.014000955468350508 -0.0094322885048042041 0 -0.01399755128932003 -0.0094124136440363621 0 -0.013966558316848888 -0.0095138843771520182 0 -0.014000955468350508 -0.0094322885048042041 0 -0.013966558316848888 -0.0095138843771520182 0 -0.014025336322972912 -0.0095173556538619454 0 -0.014045463767799991 -0.0093515918799670292 0 -0.014007243157585324 -0.00937444790082065 0 -0.01399755128932003 -0.0094124136440363621 0 -0.014000955468350508 -0.0094322885048042041 0 -0.014007243157585324 -0.00937444790082065 0 -0.01399755128932003 -0.0094124136440363621 0 -0.014000955468350508 -0.0094322885048042041 0 -0.014007243157585324 -0.00937444790082065 0 -0.013981808083302648 -0.0093699348006195081 0 -0.013999904256304886 -0.0093401923010589128 0 -0.014007243157585324 -0.00937444790082065 0 -0.013981808083302648 -0.0093699348006195081 0 -0.014045463767799991 -0.0093515918799670292 0 -0.014023454554795069 -0.0093485207755235472 0 -0.01399755128932003 -0.0094124136440363621 0 -0.014023454554795069 -0.0093485207755235472 0 -0.01395904240524719 -0.0094482961613493247 0 -0.01399755128932003 -0.0094124136440363621 0 -0.012603894047607101 -0.0063529650922799254 0 -0.013813576752410265 -0.0055395972719610859 0 -0.013278099687638427 -0.0074655669763524883 0 -0.012603894047607101 -0.0063529650922799254 0 -0.013005828145087807 -0.0053746636097651498 0 -0.013813576752410265 -0.0055395972719610859 0 -0.01257430763145815 -0.0053287565306834482 0 -0.012603894047607101 -0.0063529650922799254 0 -0.013005828145087807 -0.0053746636097651498 0 -0.012886771192049536 -0.0048325782866841761 0 -0.013005828145087807 -0.0053746636097651498 0 -0.013434895831027348 -0.0049957355495577425 0 -0.012886771192049536 -0.0048325782866841761 0 -0.013389659996242424 -0.004604184510519185 0 -0.013434895831027348 -0.0049957355495577425 0 -0.01395313221910304 -0.0046825457986599175 0 -0.013389659996242424 -0.004604184510519185 0 -0.013434895831027348 -0.0049957355495577425 0 -0.013005828145087807 -0.0053746636097651498 0 -0.013434895831027348 -0.0049957355495577425 0 -0.013813576752410265 -0.0055395972719610859 0 -0.01395313221910304 -0.0046825457986599175 0 -0.013434895831027348 -0.0049957355495577425 0 -0.013813576752410265 -0.0055395972719610859 0 -0.01395313221910304 -0.0046825457986599175 0 -0.013813576752410265 -0.0055395972719610859 0 -0.014684368138827186 -0.0051597916245717038 0 -0.013813576752410265 -0.0055395972719610859 0 -0.014908976553057774 -0.0062961030196978986 0 -0.013278099687638427 -0.0074655669763524883 0 -0.015454610000093018 -0.0056526886590426524 0 -0.015299333265599959 -0.0062290407774728239 0 -0.014908976553057774 -0.0062961030196978986 0 -0.013813576752410265 -0.0055395972719610859 0 -0.014684368138827186 -0.0051597916245717038 0 -0.014908976553057774 -0.0062961030196978986 0 -0.015048431428901261 -0.0043652484748681383 0 -0.015454610000093018 -0.0056526886590426524 0 -0.014684368138827186 -0.0051597916245717038 0 -0.015454610000093018 -0.0056526886590426524 0 -0.014684368138827186 -0.0051597916245717038 0 -0.014908976553057774 -0.0062961030196978986 0 -0.01720790140158111 -0.0067436571631429723 0 -0.0148207236303428 -0.0063380206424143142 0 -0.018144233214821212 -0.0077142412448505913 0 -0.01568874937354451 -0.0084211200331694783 0 -0.014908976553057774 -0.0062961030196978986 0 -0.018144233214821212 -0.0077142412448505913 0 -0.01568874937354451 -0.0084211200331694783 0 -0.016640298369001237 -0.010777645790586073 0 -0.018144233214821212 -0.0077142412448505913 0 -0.016640298369001237 -0.010777645790586073 0 -0.019547892726909932 -0.010795145806307764 0 -0.01568874937354451 -0.0084211200331694783 0 -0.014014713496606936 -0.0099863140279667605 0 -0.016640298369001237 -0.010777645790586073 0 -0.01568874937354451 -0.0084211200331694783 0 -0.014908976553057774 -0.0062961030196978986 0 -0.013278099687638427 -0.0074655669763524883 0 -0.01568874937354451 -0.0084211200331694783 0 -0.013278099687638427 -0.0074655669763524883 0 -0.014014713496606936 -0.0099863140279667605 0 -0.010503707716543282 -0.010682860632555363 0 -0.011158822750844878 -0.007646127763224252 0 -0.013278099687638427 -0.0074655669763524883 0 -0.010503707716543282 -0.010682860632555363 0 -0.013278099687638427 -0.0074655669763524883 0 -0.014014713496606936 -0.0099863140279667605 0 -0.011158822750844878 -0.007646127763224252 0 -0.012603894047607101 -0.0063529650922799254 0 -0.013278099687638427 -0.0074655669763524883 0 -0.010137382307688191 -0.014113712472313623 0 -0.010503707716543282 -0.010682860632555363 0 -0.01245134391074585 -0.012357716029395692 0 -0.010503707716543282 -0.010682860632555363 0 -0.01245134391074585 -0.012357716029395692 0 -0.014014713496606936 -0.0099863140279667605 0 -0.01245134391074585 -0.012357716029395692 0 -0.014014713496606936 -0.0099863140279667605 0 -0.014562369630461917 -0.012714836228440931 0 -0.01245134391074585 -0.012357716029395692 0 -0.014562369630461917 -0.012714836228440931 0 -0.013423738132747805 -0.014667980827355608 0 -0.014562369630461917 -0.012714836228440931 0 -0.016640298369001237 -0.010777645790586073 0 -0.0166060808339984 -0.013515827246236225 0 -0.014562369630461917 -0.012714836228440931 0 -0.0166060808339984 -0.013515827246236225 0 -0.015006764243950328 -0.015001825415052355 0 -0.014014713496606936 -0.0099863140279667605 0 -0.014562369630461917 -0.012714836228440931 0 -0.016640298369001237 -0.010777645790586073 0 -0.016640298369001237 -0.010777645790586073 0 -0.019547892726909932 -0.010795145806307764 0 -0.01824275293420299 -0.01248518899342123 0 -0.0166060808339984 -0.013515827246236225 0 -0.01824275293420299 -0.01248518899342123 0 -0.01869408605618187 -0.014268860917309296 0 -0.016640298369001237 -0.010777645790586073 0 -0.0166060808339984 -0.013515827246236225 0 -0.01824275293420299 -0.01248518899342123 0 -0.0166060808339984 -0.013515827246236225 0 -0.017029895534816354 -0.015885145368141444 0 -0.015006764243950328 -0.015001825415052355 0 -0.0166060808339984 -0.013515827246236225 0 -0.017029895534816354 -0.015885145368141444 0 -0.01869408605618187 -0.014268860917309296 0 -0.017029895534816354 -0.015885145368141444 0 -0.017686026684060038 -0.01757549084079257 0 -0.019666590905861859 -0.016807501766928856 0 -0.017686026684060038 -0.01757549084079257 0 -0.016377928415602278 -0.018122954321746012 0 -0.017370643079464808 -0.018600528793294789 0 -0.017686026684060038 -0.01757549084079257 0 -0.018192213160942945 -0.01843168420465106 0 -0.017370643079464808 -0.018600528793294789 0 -0.017029895534816354 -0.015885145368141444 0 -0.016377928415602278 -0.018122954321746012 0 -0.015030646525859542 -0.017156681858463245 0 -0.017029895534816354 -0.015885145368141444 0 -0.017686026684060038 -0.01757549084079257 0 -0.016377928415602278 -0.018122954321746012 0 -0.016377928415602278 -0.018122954321746012 0 -0.015030646525859542 -0.017156681858463245 0 -0.015484310213181862 -0.019395886344230766 0 -0.015030646525859542 -0.017156681858463245 0 -0.013233953650303689 -0.017875922657671964 0 -0.014050092983047116 -0.019183052980188051 0 -0.014562369630461917 -0.012714836228440931 0 -0.015006764243950328 -0.015001825415052355 0 -0.013423738132747805 -0.014667980827355608 0 -0.015030646525859542 -0.017156681858463245 0 -0.015006764243950328 -0.015001825415052355 0 -0.013172276313044191 -0.016272822745297802 0 -0.017029895534816354 -0.015885145368141444 0 -0.015030646525859542 -0.017156681858463245 0 -0.015006764243950328 -0.015001825415052355 0 -0.01245134391074585 -0.012357716029395692 0 -0.013423738132747805 -0.014667980827355608 0 -0.011638887448514563 -0.015673669697114097 0 -0.013423738132747805 -0.014667980827355608 0 -0.013172276313044191 -0.016272822745297802 0 -0.011638887448514563 -0.015673669697114097 0 -0.015006764243950328 -0.015001825415052355 0 -0.013423738132747805 -0.014667980827355608 0 -0.013172276313044191 -0.016272822745297802 0 -0.012565467307489756 -0.01781864950738387 0 -0.011199647381597955 -0.017510792947307799 0 -0.015030646525859542 -0.017156681858463245 0 -0.013172276313044191 -0.016272822745297802 0 -0.013233953650303689 -0.017875922657671964 0 -0.013172276313044191 -0.016272822745297802 0 -0.013233953650303689 -0.017875922657671964 0 -0.011730091829786822 -0.017057709609482052 0 -0.013172276313044191 -0.016272822745297802 0 -0.011730091829786822 -0.017057709609482052 0 -0.011638887448514563 -0.015673669697114097 0 -0.013233953650303689 -0.017875922657671964 0 -0.0090355059262924742 -0.01776643442166868 0 -0.010814164166849436 -0.019916071826831333 0 -0.011730091829786822 -0.017057709609482052 0 -0.010731289574773963 -0.017509532961011057 0 -0.011638887448514563 -0.015673669697114097 0 -0.013233953650303689 -0.017875922657671964 0 -0.011730091829786822 -0.017057709609482052 0 -0.010891409234951514 -0.017315891817891234 0 -0.011459872812042398 -0.01726941322734735 0 -0.011199647381597955 -0.017510792947307799 0 -0.0082789892913412381 -0.018672816942085051 0 -0.0082505062681026975 -0.018130562326228002 0 -0.0090355059262924742 -0.01776643442166868 0 -0.013809971512827987 -0.017713018744125814 0 -0.013750168270195165 -0.016667445437183251 0 -0.011615727865383575 -0.017628090206216886 0 -0.013118609837002514 -0.018472758499150494 0 -0.011199647381597955 -0.017510792947307799 0 -0.012848586627990712 -0.016198864259786332 0 -0.011199647381597955 -0.017510792947307799 0 -0.010151733501290543 -0.017480424178003089 0 -0.010731289574773963 -0.017509532961011057 0 -0.011638887448514563 -0.015673669697114097 0 -0.010137382307688191 -0.014113712472313623 0 -0.010151733501290543 -0.017480424178003089 0 -0.011638887448514563 -0.015673669697114097 0 -0.010137382307688191 -0.014113712472313623 0 -0.01245134391074585 -0.012357716029395692 0 -0.011638887448514563 -0.015673669697114097 0 -0.013871172069585457 -0.016920111317834094 0 -0.013714147132326427 -0.015487845701104487 0 -0.012505867775256812 -0.016247285854581968 0 -0.013871172069585457 -0.016920111317834094 0 -0.012505867775256812 -0.016247285854581968 0 -0.012451599148551287 -0.017623011980703873 0 -0.013871172069585457 -0.016920111317834094 0 -0.013714147132326427 -0.015487845701104487 0 -0.014825853070963409 -0.016113375856209936 0 -0.013871172069585457 -0.016920111317834094 0 -0.015153141966588008 -0.01687777084594334 0 -0.014825853070963409 -0.016113375856209936 0 -0.013493909916914336 -0.012598578961696512 0 -0.014650378328096094 -0.012701384110187661 0 -0.013966558316848888 -0.0095138843771520182 0 -0.014006665852514935 -0.0096510789065835118 0 -0.014025336322972912 -0.0095173556538619454 0 -0.012573798106151357 -0.014850225614491367 0 -0.013714147132326427 -0.015487845701104487 0 -0.012505867775256812 -0.016247285854581968 0 -0.015672858443811291 -0.010102753370123004 0 -0.016988824511404172 -0.014791470226442865 0 -0.021353511489230519 -0.0093145487535193621 0 -0.019547892726909932 -0.010795145806307764 0 -0.021314766915258642 -0.012238205759486458 0 -0.019547892726909932 -0.010795145806307764 0 -0.019748964613137836 -0.012817937577180107 0 -0.021314766915258642 -0.012238205759486458 0 -0.019547892726909932 -0.010795145806307764 0 -0.01824275293420299 -0.01248518899342123 0 -0.019748964613137836 -0.012817937577180107 0 -0.019748964613137836 -0.012817937577180107 0 -0.020657850331401335 -0.014270260878742978 0 -0.01869408605618187 -0.014268860917309296 0 -0.01824275293420299 -0.01248518899342123 0 -0.019748964613137836 -0.012817937577180107 0 -0.01869408605618187 -0.014268860917309296 0 -0.021314766915258642 -0.012238205759486458 0 -0.021245871646957838 -0.015590105414640648 0 -0.020657850331401335 -0.014270260878742978 0 -0.016988824511404172 -0.014791470226442865 0 -0.017041435809179505 -0.015881441107672825 0 -0.019748964613137836 -0.012817937577180107 0 -0.021314766915258642 -0.012238205759486458 0 -0.020657850331401335 -0.014270260878742978 0 -0.021245871646957838 -0.015590105414640648 0 -0.020657850331401335 -0.014270260878742978 0 -0.018950365027393345 -0.017443030727689487 0 -0.017029895534816354 -0.015885145368141444 0 -0.01869408605618187 -0.014268860917309296 0 -0.019666590905861859 -0.016807501766928856 0 -0.020445244081746455 -0.014704526594025257 0 -0.019567477813858494 -0.016653593480212541 0 -0.020657850331401335 -0.014270260878742978 0 -0.01869408605618187 -0.014268860917309296 0 -0.019666590905861859 -0.016807501766928856 0 -0.019567477813858494 -0.016653593480212541 0 -0.016560112902023083 -0.022493611924345586 0 -0.018192213160942945 -0.01843168420465106 0 -0.019666590905861859 -0.016807501766928856 0 -0.018553893894406016 -0.019758898224460749 0 -0.018950365027393345 -0.017443030727689487 0 -0.017302206657700842 -0.020923307280957561 0 -0.021044089356489847 -0.019691165085589307 0 -0.017686026684060038 -0.01757549084079257 0 -0.018192213160942945 -0.01843168420465106 0 -0.019666590905861859 -0.016807501766928856 0 -0.017041435809179505 -0.015881441107672825 0 -0.014508345282333662 -0.022432200679592496 0 -0.012451599148551287 -0.017623011980703873 0 -0.013897339243628083 -0.01848264920689046 0 -0.012401234975668375 -0.018993874271018028 0 -0.021245871646957838 -0.015590105414640648 0 -0.018950365027393345 -0.017443030727689487 0 -0.021044089356489847 -0.019691165085589307 0 -0.013145200575314641 -0.027174971728560839 0 -0.013129537928800604 -0.027277848166536313 0 -0.013129345972839938 -0.027277971985713925 0 -0.013419486313090206 -0.022858473995072934 0 -0.014508345282333662 -0.022432200679592496 0 -0.013871172069585457 -0.016920111317834094 0 -0.012451599148551287 -0.017623011980703873 0 -0.013897339243628083 -0.01848264920689046 0 -0.013871172069585457 -0.016920111317834094 0 -0.014503971994703104 -0.017592445507207802 0 -0.015153141966588008 -0.01687777084594334 0 -0.013871172069585457 -0.016920111317834094 0 -0.014503971994703104 -0.017592445507207802 0 -0.013897339243628083 -0.01848264920689046 0 -0.014503971994703104 -0.017592445507207802 0 -0.013897339243628083 -0.01848264920689046 0 -0.015365522199802637 -0.017993209667366564 0 -0.013145200575314641 -0.027174971728560839 0 -0.013278773576011486 -0.027099679901455734 0 -0.013195242379224176 -0.027228921855289988 0 -0.013419486313090206 -0.022858473995072934 0 -0.013090465210853573 -0.023096499825046773 0 -0.013145200575314641 -0.027174971728560839 0 -0.013140934609032142 -0.027243189964051034 0 -0.013195242379224176 -0.027228921855289988 0 -0.010382344469736746 -0.028187271550717048 0 -0.010337144172120751 -0.028210808327735707 0 -0.010482638062251286 -0.028177288116386354 0 -0.010627291842242497 -0.026421946462421741 0 -0.012006471379722597 -0.027607961608124208 0 -0.013145200575314641 -0.027174971728560839 0 -0.013278773576011486 -0.027099679901455734 0 -0.013295572017953339 -0.02704690727870904 0 -0.0078954461656989671 -0.029148841733211198 0 -0.010627291842242497 -0.026421946462421741 0 -0.0078954461656989671 -0.029148841733211198 0 -0.0066690196235937738 -0.028067818929466765 0 -0.0077555074096726604 -0.025959060850614862 0 -0.0086920137954470556 -0.025048659707679173 0 -0.0091827142247728599 -0.025240050742980486 0 -0.0072323472001367337 -0.026913260095929238 0 -0.0077555074096726604 -0.025959060850614862 0 -0.0091827142247728599 -0.025240050742980486 0 -0.010627291842242497 -0.026421946462421741 0 -0.010269417730236917 -0.024557787453840851 0 -0.010866977512330647 -0.025277153326164269 0 -0.011894213712619419 -0.024297178223133327 0 -0.011314096972114513 -0.024493303493910282 0 -0.010627291842242497 -0.026421946462421741 0 -0.013090465210853573 -0.023096499825046773 0 -0.0052673953074469709 -0.030093488388041802 0 -0.0042957557842077379 -0.030004713371967803 0 -0.0042145786209613484 -0.030863631723007132 0 -0.0042957557842077379 -0.030004713371967803 0 -0.0036039261692176932 -0.030463304991694275 0 -0.003168329612111033 -0.029798534032180836 0 -0.0036039261692176932 -0.030463304991694275 0 -0.0042145786209613484 -0.030863631723007132 0 -0.0032972608186097214 -0.031039968154742022 0 -0.0042957557842077379 -0.030004713371967803 0 -0.0036039261692176932 -0.030463304991694275 0 -0.0042145786209613484 -0.030863631723007132 0 -0.0087164315849801496 -0.025047339671234403 0 -0.0089077650628578801 -0.02498103163743054 0 -0.010248586048896823 -0.023557396459087592 0 -0.010269417730236917 -0.024557787453840851 0 -0.0099311245783035886 -0.023852931800098089 0 -0.0098808996851890048 -0.023436520707508356 0 -0.0093968590411935438 -0.024162042899292014 0 -0.0098744009292598446 -0.023287114950667705 0 -0.0089077650628578801 -0.02498103163743054 0 -0.0091827142247728599 -0.025240050742980486 0 -0.010248586048896823 -0.023557396459087592 0 -0.013090465210853573 -0.023096499825046773 0 -0.012373490106160522 -0.01921828837552815 0 -0.0095819822749669097 -0.024098731421231701 0 -0.0098808996851890048 -0.023436520707508356 0 -0.0093968590411935438 -0.024162042899292014 0 -0.010269417730236917 -0.024557787453840851 0 -0.010123365814016971 -0.024604495188954332 0 -0.0086920137954470556 -0.025048659707679173 0 -0.0089077650628578801 -0.02498103163743054 0 -0.0091827142247728599 -0.025240050742980486 0 -0.0042145786209613484 -0.030863631723007132 0 -0.0032972608186097214 -0.031039968154742022 0 -0.00321183837627233 -0.0315792896855705 0 -0.0066690196235937738 -0.028067818929466765 0 -0.0055391791239252815 -0.027008776510810951 0 -0.0091827142247728599 -0.025240050742980486 0 -0.010248586048896823 -0.023557396459087592 0 -0.010854823806901344 -0.023739567875731251 0 -0.010248586048896823 -0.023557396459087592 0 -0.0098808996851890048 -0.023436520707508356 0 -0.0098425904418829833 -0.023223895601722108 0 -0.0095819822749669097 -0.024098731421231701 0 -0.010248586048896823 -0.023557396459087592 0 -0.0098808996851890048 -0.023436520707508356 0 -0.015365522199802637 -0.017993209667366564 0 -0.015153141966588008 -0.01687777084594334 0 -0.015934448704078941 -0.016993512860395528 0 -0.014503971994703104 -0.017592445507207802 0 -0.015365522199802637 -0.017993209667366564 0 -0.015153141966588008 -0.01687777084594334 0 -0.010269417730236917 -0.024557787453840851 0 -0.013090465210853573 -0.023096499825046773 0 -0.0012051125836362421 -0.029717051089914494 0 -0.001829745730308991 -0.026755010681325835 0 -0.0012051125836362421 -0.029717051089914494 0 -0.0023438215783828011 -0.030344739139997096 0 -0.0013772410320570564 -0.030287723440454835 0 -0.0023960854378970308 -0.030417319678228395 0 -0.0021678767621360995 -0.029646448810175061 0 -0.001555704821813762 -0.030245221084456007 0 -0.0023960854378970308 -0.030417319678228395 0 -0.0017280865286839647 -0.031109043237548782 0 -0.0023960854378970308 -0.030417319678228395 0 -0.0030583984306156459 -0.030586938239458843 0 -0.0027729632311311401 -0.031054479361707396 0 -0.0023960854378970308 -0.030417319678228395 0 -0.0021678767621360995 -0.029646448810175061 0 -0.003168329612111033 -0.029798534032180836 0 -0.0023960854378970308 -0.030417319678228395 0 -0.0030583984306156459 -0.030586938239458843 0 -0.003168329612111033 -0.029798534032180836 0 -0.0036039261692176932 -0.030463304991694275 0 -0.0030583984306156459 -0.030586938239458843 0 -0.003168329612111033 -0.029798534032180836 0 -0.0036039261692176932 -0.030463304991694275 0 -0.0030583984306156459 -0.030586938239458843 0 -0.0032972608186097214 -0.031039968154742022 0 -0.0030770771884806435 -0.023888587041998886 0 -0.0051748406798589504 -0.024978912192758645 0 -0.0034691910927361013 -0.023574072031746197 0 -0.002976480883056853 -0.031727896091156234 0 -0.0027729632311311401 -0.031054479361707396 0 -0.0017280865286839647 -0.031109043237548782 0 -0.0032972608186097214 -0.031039968154742022 0 -0.0031970358652099709 -0.031563585796944703 0 -0.0027729632311311401 -0.031054479361707396 0 -0.0040531869675945699 -0.031339238404830064 0 -0.0055391791239252815 -0.027008776510810951 0 -0.0030583984306156459 -0.030586938239458843 0 -0.0032972608186097214 -0.031039968154742022 0 -0.0027729632311311401 -0.031054479361707396 0 -0.0031970358652099709 -0.031563585796944703 0 -0.002976480883056853 -0.031727896091156234 0 -0.0027729632311311401 -0.031054479361707396 0 -0.0055391791239252815 -0.027008776510810951 0 -0.0065638963917715879 -0.023812453343733594 0 -0.010248586048896823 -0.023557396459087592 0 -0.010854823806901344 -0.023739567875731251 0 -0.010842435725141878 -0.023331793594510868 0 -0.0063782692969898318 -0.025608131622980881 0 -0.0065264072262990391 -0.025485825009681912 0 -0.0064068519535536413 -0.02542402314988251 0 -0.0048255393253989571 -0.025510597771962098 0 -0.0065638963917715879 -0.023812453343733594 0 -0.0055391791239252815 -0.027008776510810951 0 -0.0048255393253989571 -0.025510597771962098 0 -0.0048255393253989571 -0.025510597771962098 0 -0.001829745730308991 -0.026755010681325835 0 -0.0023960854378970308 -0.030417319678228395 0 -0.0027729632311311401 -0.031054479361707396 0 -0.0017280865286839647 -0.031109043237548782 0 -0.001829745730308991 -0.026755010681325835 0 -0.0012993348792188777 -0.022495182941686814 0 -0.0051748406798589504 -0.024978912192758645 0 -0.0038419653456129551 -0.022614228603458228 0 -0.0034691910927361013 -0.023574072031746197 0 -0.0051748406798589504 -0.024978912192758645 0 -0.0038419653456129551 -0.022614228603458228 0 -0.004630951594179848 -0.021959315903851067 0 -0.0088686689527107711 -0.020702038039526877 0 -0.0090818335825030294 -0.019315430420288236 0 -0.0079664927082786392 -0.020228010818582963 0 -0.0034691910927361013 -0.023574072031746197 0 -0.0027792969076734686 -0.023735766216536339 0 -0.0030494905324334439 -0.021962395921167853 0 -0.0065638963917715879 -0.023812453343733594 0 -0.0061225799798098396 -0.020733764048021786 0 -0.0038419653456129551 -0.022614228603458228 0 -0.0034691910927361013 -0.023574072031746197 0 -0.0030494905324334439 -0.021962395921167853 0 -0.0048255393253989571 -0.025510597771962098 0 -0.00454347683227778 -0.025177762406490514 0 -0.003079884749667645 -0.023887936735108205 0 -0.0034691910927361013 -0.023574072031746197 0 -0.0027792969076734686 -0.023735766216536339 0 -0.0090818335825030294 -0.019315430420288236 0 -0.0086273215498103677 -0.019079829534177833 0 -0.0079664927082786392 -0.020228010818582963 0 -0.0030494905324334439 -0.021962395921167853 0 -0.0037812092835487884 -0.021127409685212838 0 -0.0033244823729877506 -0.020179395273258165 0 -0.0061225799798098396 -0.020733764048021786 0 -0.0085750284255442927 -0.017376167145367515 0 -0.0090818335825030294 -0.019315430420288236 0 -0.0086273215498103677 -0.019079829534177833 0 -0.0092834449729859454 -0.017921311952522504 0 -0.011239124708945081 -0.017181880948759474 0 -0.0085750284255442927 -0.017376167145367515 0 -0.0038419653456129551 -0.022614228603458228 0 -0.0030494905324334439 -0.021962395921167853 0 -0.0037812092835487884 -0.021127409685212838 0 -0.0012993348792188777 -0.022495182941686814 0 -0.0026377653342714398 -0.019599270618334157 0 -0.0037812092835487884 -0.021127409685212838 0 -0.004630951594179848 -0.021959315903851067 0 -0.0040571404504311757 -0.018921872908167506 0 0.0016180997297162113 -0.023475167245744662 0 0.00094852996994318928 -0.022384690228572635 0 0.00076700741067312235 -0.023221959956698169 0 -0.0038419653456129551 -0.022614228603458228 0 -0.0037812092835487884 -0.021127409685212838 0 -0.004630951594179848 -0.021959315903851067 0 -0.013263393002737824 -0.016019635524145672 0 -0.014650378328096094 -0.012701384110187661 0 -0.015153141966588008 -0.01687777084594334 0 -0.01592380202752032 -0.016722475170352774 0 -0.014825853070963409 -0.016113375856209936 0 -0.015153141966588008 -0.01687777084594334 0 -0.015934448704078941 -0.016993512860395528 0 -0.01592380202752032 -0.016722475170352774 0 -0.012203617443713592 -0.020348823960952448 0 -0.012373490106160522 -0.01921828837552815 0 -0.013205856806503883 -0.018369782869819676 0 -0.013168729972057987 -0.017432643095582477 0 -0.01362072726524222 -0.017661958252389649 0 -0.012373490106160522 -0.01921828837552815 0 -0.013263393002737824 -0.016019635524145672 0 -0.013263393002737824 -0.016019635524145672 0 -0.011847890631100526 -0.018313333530808842 0 -0.0065638963917715879 -0.023812453343733594 0 -0.011847890631100526 -0.018313333530808842 0 -0.010248586048896823 -0.023557396459087592 0 -0.010842435725141878 -0.023331793594510868 0 -0.0099539076946524759 -0.022947635018563249 0 -0.010248586048896823 -0.023557396459087592 0 -0.0098425904418829833 -0.023223895601722108 0 -0.0099539076946524759 -0.022947635018563249 0 -0.012373490106160522 -0.01921828837552815 0 -0.011847890631100526 -0.018313333530808842 0 -0.013680833418977287 -0.015766844467571345 0 -0.013068296728551709 -0.016494055358152564 0 -0.013204020061058145 -0.016564932224878075 0 -0.011239124708945081 -0.017181880948759474 0 -0.011847890631100526 -0.018313333530808842 0 -0.013263393002737824 -0.016019635524145672 0 -0.013603847552846741 -0.01162093734880295 0 -0.013680833418977287 -0.015766844467571345 0 -0.013031447019095969 -0.014949535977594948 0 -0.014155216186170388 -0.014971972937319666 0 -0.013680833418977287 -0.015766844467571345 0 -0.013068296728551709 -0.016494055358152564 0 -0.013031447019095969 -0.014949535977594948 0 -0.014006665852514935 -0.0096510789065835118 0 -0.014025336322972912 -0.0095173556538619454 0 -0.01413148135368931 -0.0095309278522480289 0 -0.0141737051647961 -0.009818423103192437 0 -0.014006665852514935 -0.0096510789065835118 0 -0.01413148135368931 -0.0095309278522480289 0 -0.014025336322972912 -0.0095173556538619454 0 -0.014022026974887154 -0.0094349897769529321 0 -0.01413148135368931 -0.0095309278522480289 0 -0.014000955468350508 -0.0094322885048042041 0 -0.014025336322972912 -0.0095173556538619454 0 -0.014022026974887154 -0.0094349897769529321 0 -0.014000955468350508 -0.0094322885048042041 0 -0.014022026974887154 -0.0094349897769529321 0 -0.013981808083302648 -0.0093699348006195081 0 -0.014022026974887154 -0.0094349897769529321 0 -0.013981808083302648 -0.0093699348006195081 0 -0.013987676263598274 -0.0093624911589608607 0 -0.013981808083302648 -0.0093699348006195081 0 -0.013987676263598274 -0.0093624911589608607 0 -0.013899390271243546 -0.009363838450893773 0 -0.012984109066666961 -0.013392323617149928 0 -0.013837787009247888 -0.013441655195651221 0 -0.013554453138262614 -0.012466817654685545 0 -0.013378485294860281 -0.014017500263099558 0 -0.013673063079640604 -0.01428185282519452 0 -0.013837787009247888 -0.013441655195651221 0 -0.012984109066666961 -0.013392323617149928 0 -0.013378485294860281 -0.014017500263099558 0 -0.013837787009247888 -0.013441655195651221 0 -0.013484294494458546 -0.011525911181713009 0 -0.013603847552846741 -0.01162093734880295 0 -0.012984109066666961 -0.013392323617149928 0 -0.013378485294860281 -0.014017500263099558 0 -0.013031447019095969 -0.014949535977594948 0 -0.014022026974887154 -0.0094349897769529321 0 -0.013987676263598274 -0.0093624911589608607 0 -0.01413148135368931 -0.0095309278522480289 0 -0.013378485294860281 -0.014017500263099558 0 -0.013031447019095969 -0.014949535977594948 0 -0.013673063079640604 -0.01428185282519452 0 -0.013031447019095969 -0.014949535977594948 0 -0.014155216186170388 -0.014971972937319666 0 -0.013673063079640604 -0.01428185282519452 0 -0.0085750284255442927 -0.017376167145367515 0 -0.0087059819041893031 -0.016120751700741447 0 -0.014155216186170388 -0.014971972937319666 0 -0.013673063079640604 -0.01428185282519452 0 -0.014354639412806527 -0.013801386858941399 0 -0.007066812571234639 -0.017821781812344444 0 -0.0072369952695779897 -0.017502430002808846 0 -0.0071339055038238761 -0.017268418135887968 0 -0.0037812092835487884 -0.021127409685212838 0 -0.0033244823729877506 -0.020179395273258165 0 -0.0040571404504311757 -0.018921872908167506 0 -0.0085750284255442927 -0.017376167145367515 0 -0.0026377653342714398 -0.019599270618334157 0 -0.0026377653342714398 -0.019599270618334157 0 -0.0042969640935313505 -0.017251961886624822 0 0.00095438205102878562 -0.019881002278372546 0 0.0033685846998158177 -0.02278138287928537 0 0.0018766810900114666 -0.022084617041528934 0 0.0017495505675076681 -0.021864565734687921 0 0.00094852996994318928 -0.022384690228572635 0 0.0058069211471212133 -0.022596850901303377 0 0.0061823236978086286 -0.022712444376499934 0 0.005557047207818514 -0.023133023587680598 0 0.0016180997297162113 -0.023475167245744662 0 0.0018766810900114666 -0.022084617041528934 0 0.00094852996994318928 -0.022384690228572635 0 -0.0026377653342714398 -0.019599270618334157 0 0.00095438205102878562 -0.019881002278372546 0 0.0058069211471212133 -0.022596850901303377 0 0.0061823236978086286 -0.022712444376499934 0 0.0058879442878246912 -0.022137705288014769 0 0.00095438205102878562 -0.019881002278372546 0 0.0052825378344761786 -0.021113950479569564 0 -0.0031248046526787133 -0.019539883495703844 0 -0.0038050080622049347 -0.018381637975846129 0 -0.0027833129440783008 -0.017754611731789383 0 0.00095438205102878562 -0.019881002278372546 0 -0.0042969640935313505 -0.017251961886624822 0 0.0045844224297685952 -0.019428027190513782 0 0.0025331677493610778 -0.018670537776032649 0 0.0037218113345611 -0.019874978775183898 0 0.003328758928096278 -0.017298975274689248 0 0.0045844224297685952 -0.019428027190513782 0 0.0025331677493610778 -0.018670537776032649 0 0.0058069211471212133 -0.022596850901303377 0 0.0058879442878246912 -0.022137705288014769 0 0.0054875565301617966 -0.022487143034949846 0 -0.014457901705182557 -0.013883087230520201 0 -0.013837787009247888 -0.013441655195651221 0 -0.01419629611963673 -0.012725741088135095 0 -0.014457901705182557 -0.013883087230520201 0 -0.014528617114289025 -0.013511435295529176 0 -0.01419629611963673 -0.012725741088135095 0 -0.013673063079640604 -0.01428185282519452 0 -0.014354639412806527 -0.013801386858941399 0 -0.013837787009247888 -0.013441655195651221 0 -0.0087059819041893031 -0.016120751700741447 0 -0.013636434352341584 -0.015176408206634408 0 0.003328758928096278 -0.017298975274689248 0 0.0027460692047959127 -0.017649683842363616 0 0.0025331677493610778 -0.018670537776032649 0 -0.0072369952695779897 -0.017502430002808846 0 -0.0071984936815883711 -0.017309127828499721 0 -0.0071339055038238761 -0.017268418135887968 0 -0.0042969640935313505 -0.017251961886624822 0 -0.0087059819041893031 -0.016120751700741447 0 -0.0087059819041893031 -0.016120751700741447 0 -0.0064266313001406792 -0.016576284803636824 0 -0.0042969640935313505 -0.017251961886624822 0 -0.0064266313001406792 -0.016576284803636824 0 -0.0058545519647143227 -0.017926894632212566 0 -0.0052838075058450106 -0.01757743136915265 0 -0.0054977308830438873 -0.016235534918281103 0 -0.013837787009247888 -0.013441655195651221 0 -0.01419629611963673 -0.012725741088135095 0 -0.013554453138262614 -0.012466817654685545 0 -0.014528617114289025 -0.013511435295529176 0 -0.01419629611963673 -0.012725741088135095 0 -0.014772648123939162 -0.012084275124096145 0 -0.0064266313001406792 -0.016576284803636824 0 -0.0066197281260978293 -0.015834487377055725 0 -0.01419629611963673 -0.012725741088135095 0 -0.014450828285716274 -0.012170704452279628 0 -0.014772648123939162 -0.012084275124096145 0 -0.011991286014332912 -0.013683220836094571 0 -0.0066197281260978293 -0.015834487377055725 0 -0.01419629611963673 -0.012725741088135095 0 -0.014450828285716274 -0.012170704452279628 0 -0.014049905218776549 -0.012298916761695122 0 -0.014450828285716274 -0.012170704452279628 0 -0.014049905218776549 -0.012298916761695122 0 -0.013984105253819976 -0.0118337288715937 0 -0.01419629611963673 -0.012725741088135095 0 -0.014049905218776549 -0.012298916761695122 0 -0.013554453138262614 -0.012466817654685545 0 -0.014049905218776549 -0.012298916761695122 0 -0.013984105253819976 -0.0118337288715937 0 -0.013554453138262614 -0.012466817654685545 0 0.0025331677493610778 -0.018670537776032649 0 0.0035078680410167095 -0.020574379882533994 0 0.0030620122015819315 -0.021697001535591443 0 0.0045844224297685952 -0.019428027190513782 0 0.0043925127604029475 -0.02063118068315508 0 0.0037218113345611 -0.019874978775183898 0 0.0045844224297685952 -0.019428027190513782 0 0.0043925127604029475 -0.02063118068315508 0 0.0053328123594527377 -0.021395943985132487 0 0.0052825378344761786 -0.021113950479569564 0 0.0053004766100160179 -0.021188891084946298 0 0.0025331677493610778 -0.018670537776032649 0 0.0037218113345611 -0.019874978775183898 0 0.0035078680410167095 -0.020574379882533994 0 0.0043925127604029475 -0.02063118068315508 0 0.0037218113345611 -0.019874978775183898 0 0.0035078680410167095 -0.020574379882533994 0 0.0035078680410167095 -0.020574379882533994 0 0.0030620122015819315 -0.021697001535591443 0 0.0037746185506773678 -0.021963583791322183 0 0.0043925127604029475 -0.02063118068315508 0 0.0035078680410167095 -0.020574379882533994 0 0.0037746185506773678 -0.021963583791322183 0 0.0027254781768640195 -0.020587551615240625 0 0.00095737577867606341 -0.017366813192684485 0 0.0043925127604029475 -0.02063118068315508 0 0.0049894567431359761 -0.021427543917016241 0 0.0053328123594527377 -0.021395943985132487 0 0.0043925127604029475 -0.02063118068315508 0 0.0049894567431359761 -0.021427543917016241 0 0.0045111419946249568 -0.021552131113379194 0 0.0022407328260564937 -0.013234512304259287 0 0.0020338228578212032 -0.012847670374856571 0 0.002588761210417922 -0.013027918586970383 0 0.00095737577867606341 -0.017366813192684485 0 0.0042895827588413111 -0.01729154287191673 0 0.0049894567431359761 -0.021427543917016241 0 0.0045111419946249568 -0.021552131113379194 0 0.0053196977982701071 -0.02139785467968076 0 -0.0066197281260978293 -0.015834487377055725 0 -0.006139834476604507 -0.012485230713874942 0 0.00095737577867606341 -0.017366813192684485 0 -0.006139834476604507 -0.012485230713874942 0 -0.0039295635231634471 -0.017279172254333987 0 -0.0056317329125046851 -0.016659904794337172 0 -0.0044887926113263274 -0.013700058671980883 0 -0.0066197281260978293 -0.015834487377055725 0 0.00095737577867606341 -0.017366813192684485 0 0.0022407328260564937 -0.013234512304259287 0 0.0020338228578212032 -0.012847670374856571 0 0.0019420083514700857 -0.013063145979380191 0 -0.013984105253819976 -0.0118337288715937 0 -0.014501581129455439 -0.011674340512308473 0 -0.014234217279497117 -0.01132698245649788 0 -0.014450828285716274 -0.012170704452279628 0 -0.013984105253819976 -0.0118337288715937 0 -0.014501581129455439 -0.011674340512308473 0 -0.014810832430349544 -0.012016329062821809 0 -0.014873808329352995 -0.011255171202747773 0 -0.014501581129455439 -0.011674340512308473 0 -0.014450828285716274 -0.012170704452279628 0 -0.014810832430349544 -0.012016329062821809 0 -0.014501581129455439 -0.011674340512308473 0 -0.014049444709601341 -0.010688597966074907 0 -0.014873808329352995 -0.011255171202747773 0 -0.014234217279497117 -0.01132698245649788 0 -0.014873808329352995 -0.011255171202747773 0 -0.014501581129455439 -0.011674340512308473 0 -0.014234217279497117 -0.01132698245649788 0 -0.013984105253819976 -0.0118337288715937 0 -0.014234217279497117 -0.01132698245649788 0 -0.013688284789236319 -0.011128282544068703 0 -0.014049444709601341 -0.010688597966074907 0 -0.014234217279497117 -0.01132698245649788 0 -0.013688284789236319 -0.011128282544068703 0 -0.013984105253819976 -0.0118337288715937 0 -0.013052266160712363 -0.011609076559204814 0 -0.013554453138262614 -0.012466817654685545 0 -0.013984105253819976 -0.0118337288715937 0 -0.013688284789236319 -0.011128282544068703 0 -0.013052266160712363 -0.011609076559204814 0 -0.0138139156557132 -0.009550355154575715 0 -0.013734001041136661 -0.0094313501841340412 0 -0.013899390271243546 -0.009363838450893773 0 -0.0138139156557132 -0.009550355154575715 0 -0.013999904256304886 -0.0093401923010589128 0 -0.013899390271243546 -0.009363838450893773 0 -0.013999904256304886 -0.0093401923010589128 0 -0.013981808083302648 -0.0093699348006195081 0 -0.013899390271243546 -0.009363838450893773 0 -0.013484294494458546 -0.011525911181713009 0 -0.013416884594069058 -0.010519691735896912 0 -0.012984109066666961 -0.013392323617149928 0 -0.013052266160712363 -0.011609076559204814 0 -0.013554453138262614 -0.012466817654685545 0 -0.013987676263598274 -0.0093624911589608607 0 -0.013734001041136661 -0.0094313501841340412 0 -0.013899390271243546 -0.009363838450893773 0 0.0044849776259487176 -0.021704584636393069 0 0.0040691266873626722 -0.022217767828830209 0 0.0046964340851988577 -0.022197536968664201 0 0.0044849776259487176 -0.021704584636393069 0 0.0040691266873626722 -0.022217767828830209 0 0.0039374389839749828 -0.021461647966348925 0 0.0040691266873626722 -0.022217767828830209 0 0.0039374389839749828 -0.021461647966348925 0 0.0031892947729726191 -0.021904535452345927 0 0.0040691266873626722 -0.022217767828830209 0 0.0034499566365721337 -0.022650912292012403 0 0.0031892947729726191 -0.021904535452345927 0 0.0034229552481735894 -0.02125916095221881 0 0.0039374389839749828 -0.021461647966348925 0 0.0031892947729726191 -0.021904535452345927 0 0.0039376756972217247 -0.020695949535191049 0 0.0034229552481735894 -0.02125916095221881 0 0.0039374389839749828 -0.021461647966348925 0 0.0046780614527585388 -0.021027112199299883 0 0.0044849776259487176 -0.021704584636393069 0 0.0039374389839749828 -0.021461647966348925 0 0.0046780614527585388 -0.021027112199299883 0 0.0039376756972217247 -0.020695949535191049 0 0.0039374389839749828 -0.021461647966348925 0 0.0046780614527585388 -0.021027112199299883 0 0.0044849776259487176 -0.021704584636393069 0 0.0050286342660499726 -0.021687168492018224 0 0.0039292870033668745 -0.017232982174790589 0 0.0042895827588413111 -0.01729154287191673 0 0.0046780614527585388 -0.021027112199299883 0 0.0053196977982701071 -0.02139785467968076 0 0.0050286342660499726 -0.021687168492018224 0 0.0053196977982701071 -0.02139785467968076 0 0.0053328123594527377 -0.021395943985132487 0 0.0050286342660499726 -0.021687168492018224 0 0.0049894567431359761 -0.021427543917016241 0 0.0053196977982701071 -0.02139785467968076 0 0.0053328123594527377 -0.021395943985132487 0 0.0053581723665942979 -0.021977711964915492 0 0.0050286342660499726 -0.021687168492018224 0 0.0051091049907996955 -0.022297800909873725 0 0.0053328123594527377 -0.021395943985132487 0 0.0053581723665942979 -0.021977711964915492 0 0.0050286342660499726 -0.021687168492018224 0 0.0058879442878246912 -0.022137705288014769 0 0.0053328123594527377 -0.021395943985132487 0 0.0053581723665942979 -0.021977711964915492 0 0.0050286342660499726 -0.021687168492018224 0 0.0046964340851988577 -0.022197536968664201 0 0.0051091049907996955 -0.022297800909873725 0 0.0044849776259487176 -0.021704584636393069 0 0.0050286342660499726 -0.021687168492018224 0 0.0046964340851988577 -0.022197536968664201 0 0.0046964340851988577 -0.022197536968664201 0 0.0048374607731135775 -0.022735695518166552 0 0.0051091049907996955 -0.022297800909873725 0 0.0048374607731135775 -0.022735695518166552 0 0.0051091049907996955 -0.022297800909873725 0 0.0051870831850985479 -0.022741066910650153 0 0.0046964340851988577 -0.022197536968664201 0 0.0048374607731135775 -0.022735695518166552 0 0.0044489981556147008 -0.022723736135045053 0 0.0058069211471212133 -0.022596850901303377 0 0.0054875565301617966 -0.022487143034949846 0 0.005557047207818514 -0.023133023587680598 0 0.0058879442878246912 -0.022137705288014769 0 0.0053581723665942979 -0.021977711964915492 0 0.0054875565301617966 -0.022487143034949846 0 0.0053581723665942979 -0.021977711964915492 0 0.0051091049907996955 -0.022297800909873725 0 0.0054875565301617966 -0.022487143034949846 0 0.0051091049907996955 -0.022297800909873725 0 0.0051870831850985479 -0.022741066910650153 0 0.0054875565301617966 -0.022487143034949846 0 0.005557047207818514 -0.023133023587680598 0 0.0050302117325162609 -0.023135016294012645 0 0.0050364838029629579 -0.023493156237403608 0 0.0051870831850985479 -0.022741066910650153 0 0.0054875565301617966 -0.022487143034949846 0 0.005557047207818514 -0.023133023587680598 0 0.0033685846998158177 -0.02278138287928537 0 0.0038948347945853487 -0.023703951334793898 0 0.0051870831850985479 -0.022741066910650153 0 0.005557047207818514 -0.023133023587680598 0 0.0050302117325162609 -0.023135016294012645 0 0.0048374607731135775 -0.022735695518166552 0 0.0045099271234932785 -0.023369170585937616 0 0.0044489981556147008 -0.022723736135045053 0 0.0048374607731135775 -0.022735695518166552 0 0.0050302117325162609 -0.023135016294012645 0 0.0045099271234932785 -0.023369170585937616 0 0.0048374607731135775 -0.022735695518166552 0 0.0051870831850985479 -0.022741066910650153 0 0.0050302117325162609 -0.023135016294012645 0 0.0046960741005086636 -0.023249326684190663 0 0.0038948347945853487 -0.023703951334793898 0 0.0050302117325162609 -0.023135016294012645 0 0.0045099271234932785 -0.023369170585937616 0 0.0051117573852565183 -0.023703450341233983 0 0.0045099271234932785 -0.023369170585937616 0 0.0039585059784544435 -0.023053960307908773 0 0.0037965711648698746 -0.023864324151643287 0 0.0045099271234932785 -0.023369170585937616 0 0.0044489981556147008 -0.022723736135045053 0 0.0039585059784544435 -0.023053960307908773 0 0.0040691266873626722 -0.022217767828830209 0 0.0046964340851988577 -0.022197536968664201 0 0.0044489981556147008 -0.022723736135045053 0 0.0040691266873626722 -0.022217767828830209 0 0.0044489981556147008 -0.022723736135045053 0 0.0039585059784544435 -0.023053960307908773 0 0.0040691266873626722 -0.022217767828830209 0 0.0034499566365721337 -0.022650912292012403 0 0.0039585059784544435 -0.023053960307908773 0 0.0034499566365721337 -0.022650912292012403 0 0.0039585059784544435 -0.023053960307908773 0 0.0032875724120681681 -0.023352430638427079 0 0.0039585059784544435 -0.023053960307908773 0 0.0037965711648698746 -0.023864324151643287 0 0.0032875724120681681 -0.023352430638427079 0 0.0037965711648698746 -0.023864324151643287 0 0.0043625642190848598 -0.02432224406227964 0 0.0035182082608167181 -0.024687536644828055 0 0.0045099271234932785 -0.023369170585937616 0 0.0037965711648698746 -0.023864324151643287 0 0.0043625642190848598 -0.02432224406227964 0 0.0043625642190848598 -0.02432224406227964 0 0.0043251112111324756 -0.024931141319089474 0 0.005008423532655174 -0.02483498212936187 0 0.0043625642190848598 -0.02432224406227964 0 0.0043251112111324756 -0.024931141319089474 0 0.0035182082608167181 -0.024687536644828055 0 0.0043251112111324756 -0.024931141319089474 0 0.0039425443413897256 -0.025325608422644929 0 0.0035182082608167181 -0.024687536644828055 0 0.00076700741067312235 -0.023221959956698169 0 0.00014806063801912076 -0.022897109196082389 0 0.00018219105617410029 -0.024169467655245781 0 0.00094852996994318928 -0.022384690228572635 0 0.00076700741067312235 -0.023221959956698169 0 0.00014806063801912076 -0.022897109196082389 0 0.0045099271234932785 -0.023369170585937616 0 0.0043625642190848598 -0.02432224406227964 0 0.0051117573852565183 -0.023703450341233983 0 0.0047535444993272403 -0.024177673702402661 0 0.0038948347945853487 -0.023703951334793898 0 0.0043625642190848598 -0.02432224406227964 0 0.0049786568479596094 -0.023946599105010753 0 0.005008423532655174 -0.02483498212936187 0 0.0038948347945853487 -0.023703951334793898 0 0.0025111332761742645 -0.024336968784047463 0 0.0013520446193634708 -0.02486534689097647 0 0.0016180997297162113 -0.023475167245744662 0 0.00018219105617410029 -0.024169467655245781 0 0.0016180997297162113 -0.023475167245744662 0 0.00076700741067312235 -0.023221959956698169 0 0.00018219105617410029 -0.024169467655245781 0 0.0013520446193634708 -0.02486534689097647 0 0.00018219105617410029 -0.024169467655245781 0 0.00023311035456841802 -0.025441129627837695 0 0.0043251112111324756 -0.024931141319089474 0 0.005008423532655174 -0.02483498212936187 0 0.0046071864064907925 -0.025503902096428249 0 0.0025111332761742645 -0.024336968784047463 0 0.0020379047524518717 -0.026080008738836237 0 0.005008423532655174 -0.02483498212936187 0 0.0046071864064907925 -0.025503902096428249 0 0.0050006656741927221 -0.025731749020013964 0 0.0046620365630281584 -0.025827880091516882 0 0.0049972979851231553 -0.0259552166780486 0 0.0043572319492877817 -0.026077580128922771 0 0.0015474249380226185 -0.028131013382983391 0 0.0031329102040823101 -0.027701893523248776 0 0.0046071864064907925 -0.025503902096428249 0 0.0046620365630281584 -0.025827880091516882 0 0.0049296779913871247 -0.025767503653994561 0 0.0046620365630281584 -0.025827880091516882 0 0.0049296779913871247 -0.025767503653994561 0 0.0049972979851231553 -0.0259552166780486 0 0.0015474249380226185 -0.028131013382983391 0 0.0020379047524518717 -0.026080008738836237 0 0.0049296779913871247 -0.025767503653994561 0 0.0049972979851231553 -0.0259552166780486 0 0.0049907800370074633 -0.025735873613837362 0 0.0046071864064907925 -0.025503902096428249 0 0.0049296779913871247 -0.025767503653994561 0 0.0050006656741927221 -0.025731749020013964 0 0.0025003795610039491 -0.025903588351042776 0 0.0020379047524518717 -0.026080008738836237 0 -0.0012051125836362421 -0.029717051089914494 0 0.0015474249380226185 -0.028131013382983391 0 -0.0013336002455511626 -0.030533878409755719 0 0.00029116423141838788 -0.030228473810333056 0 -0.00037230812357446789 -0.02958433797504284 0 -0.00068961781917900621 -0.027231412078840781 0 0.00090685647632631416 -0.02693049304361304 0 0.00092640034867546997 -0.027450867232976198 0 -0.001829745730308991 -0.026755010681325835 0 0.0020379047524518717 -0.026080008738836237 0 -0.00068961781917900621 -0.027231412078840781 0 -0.00091429912328290725 -0.028361659206680816 0 0.00092640034867546997 -0.027450867232976198 0 0.004120456841438966 -0.025963018913248332 0 0.0035182082608167181 -0.024687536644828055 0 0.0032001043856917971 -0.025884770111198968 0 0.004159163540045023 -0.025471410436942035 0 0.0035147974474416918 -0.024785047028186295 0 0.004120456841438966 -0.025963018913248332 0 0.0035762972151223552 -0.026570769125135323 0 0.0032001043856917971 -0.025884770111198968 0 0.0043251112111324756 -0.024931141319089474 0 0.0046071864064907925 -0.025503902096428249 0 0.0039425443413897256 -0.025325608422644929 0 0.0046071864064907925 -0.025503902096428249 0 0.0046620365630281584 -0.025827880091516882 0 0.0043572319492877817 -0.026077580128922771 0 0.004159163540045023 -0.025471410436942035 0 0.0031329102040823101 -0.027701893523248776 0 0.0046071864064907925 -0.025503902096428249 0 0.0039425443413897256 -0.025325608422644929 0 0.0043572319492877817 -0.026077580128922771 0 0.004120456841438966 -0.025963018913248332 0 0.0035762972151223552 -0.026570769125135323 0 0.0046839453204476182 -0.0270213247861932 0 0.0035762972151223552 -0.026570769125135323 0 0.0046839453204476182 -0.0270213247861932 0 0.0031863452043309694 -0.027195577392675373 0 0.0016034329123425647 -0.027976794040575934 0 0.0021885673967666761 -0.027030771070968917 0 0.0031863452043309694 -0.027195577392675373 0 0.0031329102040823101 -0.027701893523248776 0 0.0031789503824381717 -0.027183918015622456 0 0.0016034329123425647 -0.027976794040575934 0 0.0015859991237151014 -0.027303640794569411 0 0.0011016765985116684 -0.027367606569207573 0 0.0031329102040823101 -0.027701893523248776 0 0.0010961940868189264 -0.028067593989401087 0 0.0016034329123425647 -0.027976794040575934 0 0.0015859991237151014 -0.027303640794569411 0 0.0021885673967666761 -0.027030771070968917 0 0.0014714728931917952 -0.026934310052731069 0 0.0021885673967666761 -0.027030771070968917 0 0.0021471045336564683 -0.026345065071266233 0 0.0015859991237151014 -0.027303640794569411 0 0.0014714728931917952 -0.026934310052731069 0 0.0011016765985116684 -0.027367606569207573 0 0.0015859991237151014 -0.027303640794569411 0 0.0014714728931917952 -0.026934310052731069 0 0.0021885673967666761 -0.027030771070968917 0 0.0026691762248842957 -0.0265580929461442 0 0.0021885673967666761 -0.027030771070968917 0 0.0021471045336564683 -0.026345065071266233 0 0.0026691762248842957 -0.0265580929461442 0 0.0021885673967666761 -0.027030771070968917 0 0.0031863452043309694 -0.027195577392675373 0 0.0021471045336564683 -0.026345065071266233 0 0.002278899682348024 -0.025707912517494394 0 0.0028851412310894296 -0.025886579523401267 0 0.0026691762248842957 -0.0265580929461442 0 0.0021471045336564683 -0.026345065071266233 0 0.0028851412310894296 -0.025886579523401267 0 0.0014714728931917952 -0.026934310052731069 0 0.0021471045336564683 -0.026345065071266233 0 0.0013298524300966613 -0.026041498728987728 0 0.0013298524300966613 -0.026041498728987728 0 0.002278899682348024 -0.025707912517494394 0 0.0018053832986589483 -0.025266791134671774 0 0.0013298524300966613 -0.026041498728987728 0 0.0018053832986589483 -0.025266791134671774 0 0.00082212835264636674 -0.024930088275811009 0 0.0021471045336564683 -0.026345065071266233 0 0.0013298524300966613 -0.026041498728987728 0 0.002278899682348024 -0.025707912517494394 0 0.002278899682348024 -0.025707912517494394 0 0.0026116517030060822 -0.025084024733171548 0 0.0028851412310894296 -0.025886579523401267 0 0.002278899682348024 -0.025707912517494394 0 0.0026116517030060822 -0.025084024733171548 0 0.0018053832986589483 -0.025266791134671774 0 -0.00022210008628296222 -0.025968767056331787 0 -0.001851796075788443 -0.026506620307475949 0 -0.00094737121386258836 -0.02474048182320869 0 0.0013298524300966613 -0.026041498728987728 0 -0.00022210008628296222 -0.025968767056331787 0 0.00082212835264636674 -0.024930088275811009 0 0.0014714728931917952 -0.026934310052731069 0 0.0013298524300966613 -0.026041498728987728 0 0.00036910187508732394 -0.027147145821745499 0 0.0013298524300966613 -0.026041498728987728 0 -0.00022210008628296222 -0.025968767056331787 0 0.00036910187508732394 -0.027147145821745499 0 -0.00022210008628296222 -0.025968767056331787 0 0.00036910187508732394 -0.027147145821745499 0 -0.00094688080239827682 -0.027270699426888222 0 -0.00022210008628296222 -0.025968767056331787 0 -0.00094688080239827682 -0.027270699426888222 0 -0.001851796075788443 -0.026506620307475949 0 -0.00094688080239827682 -0.027270699426888222 0 -8.4682861902981657e-05 -0.028143956087299853 0 -0.00087905649979693823 -0.02852555133049077 0 0.00036910187508732394 -0.027147145821745499 0 -0.00094688080239827682 -0.027270699426888222 0 -8.4682861902981657e-05 -0.028143956087299853 0 -8.4682861902981657e-05 -0.028143956087299853 0 -0.00087905649979693823 -0.02852555133049077 0 -0.00044779113474831093 -0.028959596800829619 0 -8.4682861902981657e-05 -0.028143956087299853 0 0.00026634991277696554 -0.028909489322107459 0 -0.00044779113474831093 -0.028959596800829619 0 0.00036910187508732394 -0.027147145821745499 0 -8.4682861902981657e-05 -0.028143956087299853 0 0.0011763996113653124 -0.028653811040845894 0 0.0004514379960507716 -0.027152978758061098 0 0.0010961940868189264 -0.028067593989401087 0 0.0014714728931917952 -0.026934310052731069 0 0.00036910187508732394 -0.027147145821745499 0 0.0011016765985116684 -0.027367606569207573 0 -8.4682861902981657e-05 -0.028143956087299853 0 0.0011763996113653124 -0.028653811040845894 0 0.00026634991277696554 -0.028909489322107459 0 0.0015474249380226185 -0.028131013382983391 0 0.0003439526966334217 -0.029719036343225327 0 0.0019552244302827107 -0.029953143671061472 0 0.0011763996113653124 -0.028653811040845894 0 0.00095741785093148078 -0.029520975659811301 0 0.0003647310483319929 -0.030260514186792001 0 0.00026634991277696554 -0.028909489322107459 0 0.00095741785093148078 -0.029520975659811301 0 0.0003647310483319929 -0.030260514186792001 0 0.0019552244302827107 -0.029953143671061472 0 0.00095741785093148078 -0.029520975659811301 0 0.0011763996113653124 -0.028653811040845894 0 0.00026634991277696554 -0.028909489322107459 0 0.00095741785093148078 -0.029520975659811301 0 0.00029116423141838788 -0.030228473810333056 0 0.00026634991277696554 -0.028909489322107459 0 -0.00037230812357446789 -0.02958433797504284 0 -0.0011098675247156471 -0.029296473652953077 0 -0.00044779113474831093 -0.028959596800829619 0 -0.00037230812357446789 -0.02958433797504284 0 -0.00087905649979693823 -0.02852555133049077 0 -0.0011098675247156471 -0.029296473652953077 0 -0.00044779113474831093 -0.028959596800829619 0 0.00026634991277696554 -0.028909489322107459 0 -0.00044779113474831093 -0.028959596800829619 0 -0.00037230812357446789 -0.02958433797504284 0 -0.0013336002455511626 -0.030533878409755719 0 -0.0011098675247156471 -0.029296473652953077 0 -0.00037230812357446789 -0.02958433797504284 0 -0.0011098675247156471 -0.029296473652953077 0 -0.0021678767621360995 -0.029646448810175061 0 -0.0027831459401640064 -0.02837360482921629 0 -0.0013772410320570564 -0.030287723440454835 0 -0.0011098675247156471 -0.029296473652953077 0 -0.0021678767621360995 -0.029646448810175061 0 -0.0012051125836362421 -0.029717051089914494 0 -0.0011874587577010607 -0.029644029162990151 0 -0.0021678767621360995 -0.029646448810175061 0 -0.003168329612111033 -0.029798534032180836 0 -0.0027831459401640064 -0.02837360482921629 0 -0.003168329612111033 -0.029798534032180836 0 -0.0027831459401640064 -0.02837360482921629 0 -0.0039248830515991101 -0.029159610916530604 0 -0.00094688080239827682 -0.027270699426888222 0 -0.00087905649979693823 -0.02852555133049077 0 -0.0031293967711924589 -0.029025735123451281 0 -0.00087905649979693823 -0.02852555133049077 0 -0.0011098675247156471 -0.029296473652953077 0 -0.0027831459401640064 -0.02837360482921629 0 -0.0010234312010016773 -0.028567975446241692 0 -0.0029969481629971641 -0.028692909106112531 0 -0.0047874620997221274 -0.029319389280763202 0 -0.004588511438622371 -0.028285899334867311 0 -0.0058404501307781024 -0.029168382748495456 0 -0.0052673953074469709 -0.030093488388041802 0 -0.0047874620997221274 -0.029319389280763202 0 -0.0058404501307781024 -0.029168382748495456 0 -0.0078954461656989671 -0.029148841733211198 0 -0.007194960876063747 -0.029993599731891103 0 -0.0052673953074469709 -0.030093488388041802 0 -0.0042957557842077379 -0.030004713371967803 0 -0.0047874620997221274 -0.029319389280763202 0 -0.0042957557842077379 -0.030004713371967803 0 -0.003168329612111033 -0.029798534032180836 0 -0.0039248830515991101 -0.029159610916530604 0 -0.0047874620997221274 -0.029319389280763202 0 -0.0039248830515991101 -0.029159610916530604 0 -0.004588511438622371 -0.028285899334867311 0 -0.0042957557842077379 -0.030004713371967803 0 -0.0047874620997221274 -0.029319389280763202 0 -0.0039248830515991101 -0.029159610916530604 0 -0.0027831459401640064 -0.02837360482921629 0 -0.0039248830515991101 -0.029159610916530604 0 -0.004588511438622371 -0.028285899334867311 0 -0.0029969481629971641 -0.028692909106112531 0 -0.0050892950070847058 -0.028840725097086468 0 -0.0031293967711924589 -0.029025735123451281 0 -0.0058309013075059707 -0.02941400723162722 0 -0.0049447061472997515 -0.027757171022508739 0 -0.0050892950070847058 -0.028840725097086468 0 -0.0082722282306416615 -0.028878183432354234 0 -0.004588511438622371 -0.028285899334867311 0 -0.0058404501307781024 -0.029168382748495456 0 -0.0064160747994274573 -0.028220411412276963 0 -0.0058309013075059707 -0.02941400723162722 0 -0.0074990070104740351 -0.027898706094281762 0 -0.0087799234553081265 -0.029532525487083516 0 -0.0074990070104740351 -0.027898706094281762 0 -0.0049447061472997515 -0.027757171022508739 0 -0.0065322892080777297 -0.026420811238533116 0 -0.0058309013075059707 -0.02941400723162722 0 -0.0074990070104740351 -0.027898706094281762 0 -0.0049447061472997515 -0.027757171022508739 0 -0.0049447061472997515 -0.027757171022508739 0 -0.0065322892080777297 -0.026420811238533116 0 -0.0039352921661506678 -0.026177558229593983 0 -0.0065322892080777297 -0.026420811238533116 0 -0.0039352921661506678 -0.026177558229593983 0 -0.0057956908210209778 -0.024777626326602343 0 -0.0065322892080777297 -0.026420811238533116 0 -0.0057956908210209778 -0.024777626326602343 0 -0.0080337451228721952 -0.025147651540200228 0 -0.00094688080239827682 -0.027270699426888222 0 -0.0031293967711924589 -0.029025735123451281 0 -0.0029071084783185682 -0.027355470396996071 0 -0.00094688080239827682 -0.027270699426888222 0 -0.0029071084783185682 -0.027355470396996071 0 -0.001851796075788443 -0.026506620307475949 0 -0.0049447061472997515 -0.027757171022508739 0 -0.0029071084783185682 -0.027355470396996071 0 -0.0039352921661506678 -0.026177558229593983 0 -0.0031293967711924589 -0.029025735123451281 0 -0.0049447061472997515 -0.027757171022508739 0 -0.0029071084783185682 -0.027355470396996071 0 -0.0029071084783185682 -0.027355470396996071 0 -0.0039352921661506678 -0.026177558229593983 0 -0.001851796075788443 -0.026506620307475949 0 -0.0039352921661506678 -0.026177558229593983 0 -0.001851796075788443 -0.026506620307475949 0 -0.0023965947189131045 -0.025191959838853108 0 -0.001851796075788443 -0.026506620307475949 0 -0.0023965947189131045 -0.025191959838853108 0 -0.00094737121386258836 -0.02474048182320869 0 -0.0023965947189131045 -0.025191959838853108 0 -0.0020431998569266949 -0.024054814664044365 0 -0.00094737121386258836 -0.02474048182320869 0 -0.0039352921661506678 -0.026177558229593983 0 -0.0023965947189131045 -0.025191959838853108 0 -0.0033637033479992761 -0.024325153986592508 0 -0.0023965947189131045 -0.025191959838853108 0 -0.0033637033479992761 -0.024325153986592508 0 -0.0020431998569266949 -0.024054814664044365 0 -0.0033637033479992761 -0.024325153986592508 0 -0.0028065451614597741 -0.023172011920501907 0 -0.0020431998569266949 -0.024054814664044365 0 -0.0033637033479992761 -0.024325153986592508 0 -0.0028065451614597741 -0.023172011920501907 0 -0.0046109870769732051 -0.023629966977616695 0 -0.0020431998569266949 -0.024054814664044365 0 -0.00079609157064606682 -0.022999098943438472 0 -0.00094737121386258836 -0.02474048182320869 0 -0.0028065451614597741 -0.023172011920501907 0 -0.0020431998569266949 -0.024054814664044365 0 -0.00079609157064606682 -0.022999098943438472 0 -0.0057956908210209778 -0.024777626326602343 0 -0.0080352801537605257 -0.023527292694956584 0 -0.0080337451228721952 -0.025147651540200228 0 -0.0057956908210209778 -0.024777626326602343 0 -0.005492503561494516 -0.022874092759317986 0 -0.0080352801537605257 -0.023527292694956584 0 -0.0039352921661506678 -0.026177558229593983 0 -0.0033637033479992761 -0.024325153986592508 0 -0.0057956908210209778 -0.024777626326602343 0 -0.0033637033479992761 -0.024325153986592508 0 -0.0057956908210209778 -0.024777626326602343 0 -0.005492503561494516 -0.022874092759317986 0 -0.0033381238432322047 -0.026863672189351276 0 -0.0069318435178304843 -0.025812071110895191 0 -0.0043943830922784886 -0.030267367991029238 0 -0.006161472107148294 -0.03090381513601155 0 -0.0054183883461191287 -0.029958138281818824 0 -0.0031873851740451303 -0.023938200022412853 0 -0.0069318435178304843 -0.025812071110895191 0 -0.012166510908908456 -0.025931567248955172 0 -0.012553271728333214 -0.026000504565062501 0 -0.012602445498480474 -0.025787692232170933 0 -0.0069318435178304843 -0.025812071110895191 0 -0.010614189959384844 -0.02470309828643177 0 -0.0069318435178304843 -0.025812071110895191 0 -0.010717403529230528 -0.028088998450403545 0 -0.0065243560393538919 -0.029350190436238429 0 -0.0073008954163068709 -0.028033109364703948 0 -0.0081728411099087159 -0.029750422187209039 0 -0.006161472107148294 -0.03090381513601155 0 -0.0065243560393538919 -0.029350190436238429 0 -0.0081728411099087159 -0.029750422187209039 0 -0.006161472107148294 -0.03090381513601155 0 -0.0065243560393538919 -0.029350190436238429 0 -0.0054183883461191287 -0.029958138281818824 0 -0.0065243560393538919 -0.029350190436238429 0 -0.0054183883461191287 -0.029958138281818824 0 -0.0047375334865013621 -0.028559371819974332 0 -0.0065243560393538919 -0.029350190436238429 0 -0.0073008954163068709 -0.028033109364703948 0 -0.0047375334865013621 -0.028559371819974332 0 -0.0033381238432322047 -0.026863672189351276 0 -0.0020702705681380387 -0.026378082195350715 0 -0.0043943830922784886 -0.030267367991029238 0 -0.00398579957063404 -0.029351468651890891 0 -0.0031679697485777849 -0.029704312407776816 0 -0.00398579957063404 -0.029351468651890891 0 -0.0034897101842342286 -0.028724390841784853 0 -0.0031679697485777849 -0.029704312407776816 0 -0.0043943830922784886 -0.030267367991029238 0 -0.0054183883461191287 -0.029958138281818824 0 -0.00398579957063404 -0.029351468651890891 0 -0.0054183883461191287 -0.029958138281818824 0 -0.00398579957063404 -0.029351468651890891 0 -0.0047375334865013621 -0.028559371819974332 0 -0.00398579957063404 -0.029351468651890891 0 -0.0047375334865013621 -0.028559371819974332 0 -0.0034897101842342286 -0.028724390841784853 0 -0.0034897101842342286 -0.028724390841784853 0 -0.0028018107596235655 -0.028940544310276609 0 -0.0031679697485777849 -0.029704312407776816 0 -0.0020702705681380387 -0.026378082195350715 0 -0.00079860812089330342 -0.02607279930111156 0 -0.00079609157064606682 -0.022999098943438472 0 0.00083662133702104829 -0.023020016967089243 0 0.00027255342454485996 -0.02392641963352404 0 -0.0028018107596235655 -0.028940544310276609 0 -0.0031679697485777849 -0.029704312407776816 0 -0.0023237466346084398 -0.029371985652578734 0 -0.0028018107596235655 -0.028940544310276609 0 -0.0023237466346084398 -0.029371985652578734 0 -0.0022478822581711395 -0.028724443217025584 0 -0.0023237466346084398 -0.029371985652578734 0 -0.0015748110850328728 -0.029126796307467256 0 -0.0022478822581711395 -0.028724443217025584 0 -0.0015748110850328728 -0.029126796307467256 0 -0.0017237518139505835 -0.028470530852420007 0 -0.0022478822581711395 -0.028724443217025584 0 -0.00021239517975459856 -0.030530641341480882 0 -0.00039412271729179926 -0.0298105082213386 0 4.9236045717958296e-05 -0.030097863449795256 0 0.00072667770821008585 -0.02704593044086669 0 -0.0011409983458531216 -0.029674585466375383 0 0.00072667770821008585 -0.02704593044086669 0 0.0024194767378550213 -0.023109320350833993 0 0.0026680217995435295 -0.024714100743194828 0 0.0024911740658448245 -0.024180600929082075 0 0.002496511039241177 -0.024524367427228466 0 0.0023266772613312922 -0.022808162911392902 0 0.0024911740658448245 -0.024180600929082075 0 0.0017744167893805319 -0.023691376716027897 0 0.0026680217995435295 -0.024714100743194828 0 0.002496511039241177 -0.024524367427228466 0 0.0024930779844579867 -0.024669439482142463 0 0.0024911740658448245 -0.024180600929082075 0 0.002496511039241177 -0.024524367427228466 0 0.0024919360705606512 -0.024507614830799419 0 -0.00079860812089330342 -0.02607279930111156 0 0.00072667770821008585 -0.02704593044086669 0 0.00083662133702104829 -0.023020016967089243 0 0.0023266772613312922 -0.022808162911392902 0 0.0017744167893805319 -0.023691376716027897 0 0.00083662133702104829 -0.023020016967089243 0 0.0017744167893805319 -0.023691376716027897 0 0.0012667838890945973 -0.024049416785265551 0 0.0017744167893805319 -0.023691376716027897 0 0.0012667838890945973 -0.024049416785265551 0 0.0020054947859569831 -0.02421999006982797 0 0.0012667838890945973 -0.024049416785265551 0 0.0020054947859569831 -0.02421999006982797 0 0.0018842378020677833 -0.0246677215323871 0 0.0024911740658448245 -0.024180600929082075 0 0.0024418356650883393 -0.024458693901827117 0 0.0025151765694905043 -0.024594110150735225 0 0.0024911740658448245 -0.024180600929082075 0 0.0017744167893805319 -0.023691376716027897 0 0.0020054947859569831 -0.02421999006982797 0 0.0024911740658448245 -0.024180600929082075 0 0.0020054947859569831 -0.02421999006982797 0 0.0024418356650883393 -0.024458693901827117 0 0.0020054947859569831 -0.02421999006982797 0 0.0024418356650883393 -0.024458693901827117 0 0.0018842378020677833 -0.0246677215323871 0 0.0026116517030060822 -0.025084024733171548 0 0.0018053832986589483 -0.025266791134671774 0 0.0018842378020677833 -0.0246677215323871 0 0.0024418356650883393 -0.024458693901827117 0 0.0026116517030060822 -0.025084024733171548 0 0.0018842378020677833 -0.0246677215323871 0 0.0012667838890945973 -0.024049416785265551 0 0.0018842378020677833 -0.0246677215323871 0 0.00082212835264636674 -0.024930088275811009 0 0.0018053832986589483 -0.025266791134671774 0 0.0018842378020677833 -0.0246677215323871 0 0.00082212835264636674 -0.024930088275811009 0 0.00082212835264636674 -0.024930088275811009 0 -0.00094737121386258836 -0.02474048182320869 0 0.00027255342454485996 -0.02392641963352404 0 -0.00022210008628296222 -0.025968767056331787 0 0.00082212835264636674 -0.024930088275811009 0 -0.00094737121386258836 -0.02474048182320869 0 -0.00079609157064606682 -0.022999098943438472 0 -0.00094737121386258836 -0.02474048182320869 0 0.00027255342454485996 -0.02392641963352404 0 0.00083662133702104829 -0.023020016967089243 0 0.0012667838890945973 -0.024049416785265551 0 0.00027255342454485996 -0.02392641963352404 0 0.0012667838890945973 -0.024049416785265551 0 0.00082212835264636674 -0.024930088275811009 0 0.00027255342454485996 -0.02392641963352404 0 -0.011748498329569911 -0.027486380198018037 0 -0.0091769180190081016 -0.025463696321282852 0 -0.0094245800396637568 -0.028391512109423301 0 -0.012552930957380483 -0.027194823436464843 0 -0.01476680147254796 -0.02616485196587106 0 -0.011748498329569911 -0.027486380198018037 0 -0.01158042974879063 -0.025334712642714446 0 -0.0091769180190081016 -0.025463696321282852 0 -0.014092196133408987 -0.024859999724968312 0 -0.01476680147254796 -0.02616485196587106 0 -0.012552930957380483 -0.027194823436464843 0 -0.014096736294873513 -0.026507122703213017 0 -0.011748498329569911 -0.027486380198018037 0 -0.012820602395942779 -0.025956827167055167 0 -0.014006589740560694 -0.02650143771378155 0 -0.011748498329569911 -0.027486380198018037 0 -0.012820602395942779 -0.025956827167055167 0 -0.01158042974879063 -0.025334712642714446 0 -0.012820602395942779 -0.025956827167055167 0 -0.01158042974879063 -0.025334712642714446 0 -0.013646826616080609 -0.025033316968909643 0 -0.01158042974879063 -0.025334712642714446 0 -0.012482800674786621 -0.023404743869580316 0 -0.013646826616080609 -0.025033316968909643 0 -0.01158042974879063 -0.025334712642714446 0 -0.010703321877113984 -0.023695975407983114 0 -0.012482800674786621 -0.023404743869580316 0 -0.01158042974879063 -0.025334712642714446 0 -0.010703321877113984 -0.023695975407983114 0 -0.0091769180190081016 -0.025463696321282852 0 -0.010703321877113984 -0.023695975407983114 0 -0.0091769180190081016 -0.025463696321282852 0 -0.0088455080950421254 -0.022263359611436977 0 -0.014092196133408987 -0.024859999724968312 0 -0.014013738709142458 -0.022818806024812247 0 -0.010703321877113984 -0.023695975407983114 0 -0.0088455080950421254 -0.022263359611436977 0 -0.011405635334509714 -0.021898806548390177 0 -0.0088455080950421254 -0.022263359611436977 0 -0.010814164166849436 -0.019916071826831333 0 -0.011405635334509714 -0.021898806548390177 0 -0.0086490140885256694 -0.018884750345468094 0 -0.0088455080950421254 -0.022263359611436977 0 -0.010814164166849436 -0.019916071826831333 0 -0.012873672532889367 -0.019719414929116091 0 -0.014013738709142458 -0.022818806024812247 0 -0.012873672532889367 -0.019719414929116091 0 -0.0093322807944004466 -0.019131993175411116 0 -0.0082789892913412381 -0.018672816942085051 0 -0.0090355059262924742 -0.01776643442166868 0 -0.010814164166849436 -0.019916071826831333 0 -0.013233953650303689 -0.017875922657671964 0 -0.013212661198514946 -0.020735268512068694 0 -0.014050092983047116 -0.019183052980188051 0 -0.013233953650303689 -0.017875922657671964 0 -0.010814164166849436 -0.019916071826831333 0 -0.013212661198514946 -0.020735268512068694 0 -0.010814164166849436 -0.019916071826831333 0 -0.013212661198514946 -0.020735268512068694 0 -0.011405635334509714 -0.021898806548390177 0 -0.013212661198514946 -0.020735268512068694 0 -0.011405635334509714 -0.021898806548390177 0 -0.012482800674786621 -0.023404743869580316 0 -0.010703321877113984 -0.023695975407983114 0 -0.011405635334509714 -0.021898806548390177 0 -0.012482800674786621 -0.023404743869580316 0 -0.013212661198514946 -0.020735268512068694 0 -0.012482800674786621 -0.023404743869580316 0 -0.014153022481462708 -0.023381542658970748 0 -0.013212661198514946 -0.020735268512068694 0 -0.014153022481462708 -0.023381542658970748 0 -0.015011199299204964 -0.021832651608756803 0 -0.014153022481462708 -0.023381542658970748 0 -0.015011199299204964 -0.021832651608756803 0 -0.017015623293426409 -0.023018169822752659 0 -0.014153022481462708 -0.023381542658970748 0 -0.017015623293426409 -0.023018169822752659 0 -0.014767739886909267 -0.024465483883963291 0 -0.013212661198514946 -0.020735268512068694 0 -0.015011199299204964 -0.021832651608756803 0 -0.015484310213181862 -0.019395886344230766 0 -0.015011199299204964 -0.021832651608756803 0 -0.015484310213181862 -0.019395886344230766 0 -0.015964618886056464 -0.020680079964800025 0 -0.015030646525859542 -0.017156681858463245 0 -0.015484310213181862 -0.019395886344230766 0 -0.014050092983047116 -0.019183052980188051 0 -0.013212661198514946 -0.020735268512068694 0 -0.015484310213181862 -0.019395886344230766 0 -0.014050092983047116 -0.019183052980188051 0 -0.018192213160942945 -0.01843168420465106 0 -0.017789386352578963 -0.01934624762002788 0 -0.018553893894406016 -0.019758898224460749 0 -0.017789386352578963 -0.01934624762002788 0 -0.016792522419631483 -0.019581070259358527 0 -0.017495050123907098 -0.020042413559525366 0 -0.017789386352578963 -0.01934624762002788 0 -0.017495050123907098 -0.020042413559525366 0 -0.01831335966088303 -0.019861600461431296 0 -0.017789386352578963 -0.01934624762002788 0 -0.01831335966088303 -0.019861600461431296 0 -0.018553893894406016 -0.019758898224460749 0 -0.018192213160942945 -0.01843168420465106 0 -0.017789386352578963 -0.01934624762002788 0 -0.017370643079464808 -0.018600528793294789 0 -0.017789386352578963 -0.01934624762002788 0 -0.017370643079464808 -0.018600528793294789 0 -0.016792522419631483 -0.019581070259358527 0 -0.016377928415602278 -0.018122954321746012 0 -0.017370643079464808 -0.018600528793294789 0 -0.016792522419631483 -0.019581070259358527 0 -0.016377928415602278 -0.018122954321746012 0 -0.015484310213181862 -0.019395886344230766 0 -0.016792522419631483 -0.019581070259358527 0 -0.015484310213181862 -0.019395886344230766 0 -0.016792522419631483 -0.019581070259358527 0 -0.015964618886056464 -0.020680079964800025 0 -0.016792522419631483 -0.019581070259358527 0 -0.015964618886056464 -0.020680079964800025 0 -0.017284571534780125 -0.020886534632650843 0 -0.016792522419631483 -0.019581070259358527 0 -0.017284571534780125 -0.020886534632650843 0 -0.017495050123907098 -0.020042413559525366 0 -0.017284571534780125 -0.020886534632650843 0 -0.017495050123907098 -0.020042413559525366 0 -0.01831335966088303 -0.019861600461431296 0 -0.017284571534780125 -0.020886534632650843 0 -0.01831335966088303 -0.019861600461431296 0 -0.01859275860001746 -0.019776151206614318 0 -0.013838145607686363 -0.02728432638775799 0 -0.013470473293950118 -0.027346502910667411 0 -0.013490101386389142 -0.027475969706198523 0 -0.015282172065540426 -0.025328253840872679 0 -0.016560112902023083 -0.022493611924345586 0 -0.017284571534780125 -0.020886534632650843 0 -0.017015623293426409 -0.023018169822752659 0 -0.01859275860001746 -0.019776151206614318 0 -0.015011199299204964 -0.021832651608756803 0 -0.015964618886056464 -0.020680079964800025 0 -0.017015623293426409 -0.023018169822752659 0 -0.015964618886056464 -0.020680079964800025 0 -0.017284571534780125 -0.020886534632650843 0 -0.017015623293426409 -0.023018169822752659 0 -0.013608572545446156 -0.026866923649557641 0 -0.01456792379121844 -0.026241213430433185 0 -0.013687489135818564 -0.026402044068883409 0 -0.015282172065540426 -0.025328253840872679 0 -0.014767204875313626 -0.026022888924376996 0 -0.017015623293426409 -0.023018169822752659 0 -0.014767739886909267 -0.024465483883963291 0 -0.01456792379121844 -0.026241213430433185 0 -0.013838145607686363 -0.02728432638775799 0 -0.013608572545446156 -0.026866923649557641 0 -0.01456792379121844 -0.026241213430433185 0 -0.012482800674786621 -0.023404743869580316 0 -0.014153022481462708 -0.023381542658970748 0 -0.013646826616080609 -0.025033316968909643 0 -0.014153022481462708 -0.023381542658970748 0 -0.014767739886909267 -0.024465483883963291 0 -0.013646826616080609 -0.025033316968909643 0 -0.012820602395942779 -0.025956827167055167 0 -0.013646826616080609 -0.025033316968909643 0 -0.014006589740560694 -0.02650143771378155 0 -0.013646826616080609 -0.025033316968909643 0 -0.01456792379121844 -0.026241213430433185 0 -0.014006589740560694 -0.02650143771378155 0 -0.014767739886909267 -0.024465483883963291 0 -0.013646826616080609 -0.025033316968909643 0 -0.01456792379121844 -0.026241213430433185 0 -0.014006589740560694 -0.02650143771378155 0 -0.014059576463775458 -0.026355666732439588 0 -0.013980265260931813 -0.026317941847850225 0 -0.01456792379121844 -0.026241213430433185 0 -0.014006589740560694 -0.02650143771378155 0 -0.014059576463775458 -0.026355666732439588 0 -0.014344680479604589 -0.026536481082012803 0 -0.014006589740560694 -0.02650143771378155 0 -0.013980265260931813 -0.026317941847850225 0 -0.014059576463775458 -0.026355666732439588 0 -0.013687489135818564 -0.026402044068883409 0 -0.013633246508311428 -0.0261197592396488 0 -0.01456792379121844 -0.026241213430433185 0 -0.014059576463775458 -0.026355666732439588 0 -0.013687489135818564 -0.026402044068883409 0 -0.013687489135818564 -0.026402044068883409 0 -0.012915946705548461 -0.02577235294681593 0 -0.013633246508311428 -0.0261197592396488 0 -0.013687489135818564 -0.026402044068883409 0 -0.013088480663513407 -0.026981014299147399 0 -0.012915946705548461 -0.02577235294681593 0 -0.011482193474319434 -0.026321325003277638 0 -0.013088480663513407 -0.026981014299147399 0 -0.012915946705548461 -0.02577235294681593 0 -0.011482193474319434 -0.026321325003277638 0 -0.013088480663513407 -0.026981014299147399 0 -0.011028704381159497 -0.02744468991374718 0 -0.013088480663513407 -0.026981014299147399 0 -0.013302600532440142 -0.027210940145974562 0 -0.013083105350419743 -0.027203557246479562 0 -0.013088480663513407 -0.026981014299147399 0 -0.011468201853369839 -0.028750816253819797 0 -0.011028704381159497 -0.02744468991374718 0 -0.013035818609008615 -0.027097665857660991 0 -0.01228047843302451 -0.027926974405296571 0 -0.013608572545446156 -0.026866923649557641 0 -0.013088480663513407 -0.026981014299147399 0 -0.013302600532440142 -0.027210940145974562 0 -0.013608572545446156 -0.026866923649557641 0 -0.013687489135818564 -0.026402044068883409 0 -0.013088480663513407 -0.026981014299147399 0 -0.013838145607686363 -0.02728432638775799 0 -0.013302600532440142 -0.027210940145974562 0 -0.013470473293950118 -0.027346502910667411 0 -0.013838145607686363 -0.02728432638775799 0 -0.013608572545446156 -0.026866923649557641 0 -0.013302600532440142 -0.027210940145974562 0 -0.013302600532440142 -0.027210940145974562 0 -0.013470473293950118 -0.027346502910667411 0 -0.013304710919875683 -0.027365732559472302 0 -0.013302600532440142 -0.027210940145974562 0 -0.013304710919875683 -0.027365732559472302 0 -0.01318261098456136 -0.027284924686260668 0 -0.013304710919875683 -0.027365732559472302 0 -0.013490101386389142 -0.027475969706198523 0 -0.013167785244280519 -0.027471650069129203 0 -0.013470473293950118 -0.027346502910667411 0 -0.013304710919875683 -0.027365732559472302 0 -0.013490101386389142 -0.027475969706198523 0 -0.016560112902023083 -0.022493611924345586 0 -0.014508345282333662 -0.022432200679592496 0 -0.016801070823072188 -0.022357722580516732 0 -0.016560112902023083 -0.022493611924345586 0 -0.013129537928800604 -0.027277848166536313 0 -0.013159305844859132 -0.027343568200617743 0 -0.013129345972839938 -0.027277971985713925 0 -0.014508345282333662 -0.022432200679592496 0 -0.013628529736206872 -0.027699754762628946 0 -0.013304710919875683 -0.027365732559472302 0 -0.013167785244280519 -0.027471650069129203 0 -0.013159305844859132 -0.027343568200617743 0 -0.013304710919875683 -0.027365732559472302 0 -0.013159305844859132 -0.027343568200617743 0 -0.01318261098456136 -0.027284924686260668 0 -0.013159305844859132 -0.027343568200617743 0 -0.013121312725719817 -0.027295923288874875 0 -0.01318261098456136 -0.027284924686260668 0 -0.013159305844859132 -0.027343568200617743 0 -0.013121312725719817 -0.027295923288874875 0 -0.013129345972839938 -0.027277971985713925 0 -0.013121312725719817 -0.027295923288874875 0 -0.01318261098456136 -0.027284924686260668 0 -0.013083105350419743 -0.027203557246479562 0 -0.013121312725719817 -0.027295923288874875 0 -0.013083105350419743 -0.027203557246479562 0 -0.013105904822348222 -0.027278709297466081 0 -0.013302600532440142 -0.027210940145974562 0 -0.01318261098456136 -0.027284924686260668 0 -0.013083105350419743 -0.027203557246479562 0 -0.011468201853369839 -0.028750816253819797 0 -0.010015354554780644 -0.029355933068117748 0 -0.0097427248944226066 -0.028087908931883843 0 -0.010015354554780644 -0.029355933068117748 0 -0.0090109892819436703 -0.029389222097181956 0 -0.0097427248944226066 -0.028087908931883843 0 -0.010015354554780644 -0.029355933068117748 0 -0.010149491076785042 -0.02979772654941229 0 -0.0098732220934149087 -0.029991255620634837 0 -0.010015354554780644 -0.029355933068117748 0 -0.0098732220934149087 -0.029991255620634837 0 -0.0092954335432749429 -0.029415682156110921 0 -0.011514877351402036 -0.028401548602546543 0 -0.011202002329893263 -0.028425043839751044 0 -0.013083105350419743 -0.027203557246479562 0 -0.013107145033396191 -0.027295389729151933 0 -0.013105904822348222 -0.027278709297466081 0 -0.01228047843302451 -0.027926974405296571 0 -0.011514877351402036 -0.028401548602546543 0 -0.011468201853369839 -0.028750816253819797 0 -0.010015354554780644 -0.029355933068117748 0 -0.010149491076785042 -0.02979772654941229 0 -0.013107145033396191 -0.027295389729151933 0 -0.013105904822348222 -0.027278709297466081 0 -0.013116402868493899 -0.027285770193752439 0 -0.013121312725719817 -0.027295923288874875 0 -0.013105904822348222 -0.027278709297466081 0 -0.013116402868493899 -0.027285770193752439 0 -0.013121312725719817 -0.027295923288874875 0 -0.013116402868493899 -0.027285770193752439 0 -0.013129345972839938 -0.027277971985713925 0 -0.013107145033396191 -0.027295389729151933 0 -0.013116402868493899 -0.027285770193752439 0 -0.013126354623540837 -0.027292542015537422 0 -0.013116402868493899 -0.027285770193752439 0 -0.013126354623540837 -0.027292542015537422 0 -0.013140934609032142 -0.027243189964051034 0 -0.013145200575314641 -0.027174971728560839 0 -0.013140934609032142 -0.027243189964051034 0 -0.013129345972839938 -0.027277971985713925 0 -0.013116402868493899 -0.027285770193752439 0 -0.013140934609032142 -0.027243189964051034 0 -0.013129345972839938 -0.027277971985713925 0 -0.010382344469736746 -0.028187271550717048 0 -0.010482638062251286 -0.028177288116386354 0 -0.010507138727026593 -0.02816475732175212 0 -0.0078954461656989671 -0.029148841733211198 0 -0.0097162891060038718 -0.029340844096003398 0 -0.0083536903823723131 -0.031051983436230363 0 -0.0090436670063849655 -0.030550509850464692 0 -0.008802797316341664 -0.0303216452452808 0 -0.013126354623540837 -0.027292542015537422 0 -0.013140934609032142 -0.027243189964051034 0 -0.013195242379224176 -0.027228921855289988 0 -0.01064223560583104 -0.028144690639323122 0 -0.010482638062251286 -0.028177288116386354 0 -0.010507138727026593 -0.02816475732175212 0 -0.011202002329893263 -0.028425043839751044 0 -0.012006471379722597 -0.027607961608124208 0 -0.011202002329893263 -0.028425043839751044 0 -0.0097162891060038718 -0.029340844096003398 0 -0.0098732220934149087 -0.029991255620634837 0 -0.0090436670063849655 -0.030550509850464692 0 -0.0092729071276802418 -0.030074949602771125 0 -0.0092729071276802418 -0.030074949602771125 0 -0.008802797316341664 -0.0303216452452808 0 -0.0092954335432749429 -0.029415682156110921 0 -0.0090436670063849655 -0.030550509850464692 0 -0.0092729071276802418 -0.030074949602771125 0 -0.008802797316341664 -0.0303216452452808 0 -0.007194960876063747 -0.029993599731891103 0 -0.0082722282306416615 -0.028878183432354234 0 -0.0098452173720115777 -0.029145392162672524 0 -0.0082722282306416615 -0.028878183432354234 0 -0.0098732220934149087 -0.029991255620634837 0 -0.0092729071276802418 -0.030074949602771125 0 -0.0092954335432749429 -0.029415682156110921 0 -0.0082722282306416615 -0.028878183432354234 0 -0.0095271390231601791 -0.028271726688991659 0 -0.0074990070104740351 -0.027898706094281762 0 -0.0087799234553081265 -0.029532525487083516 0 -0.0097427248944226066 -0.028087908931883843 0 -0.0074990070104740351 -0.027898706094281762 0 -0.0097427248944226066 -0.028087908931883843 0 -0.0091959834437192849 -0.026610020231067694 0 -0.0074990070104740351 -0.027898706094281762 0 -0.0065322892080777297 -0.026420811238533116 0 -0.0091959834437192849 -0.026610020231067694 0 -0.011468201853369839 -0.028750816253819797 0 -0.0097427248944226066 -0.028087908931883843 0 -0.011028704381159497 -0.02744468991374718 0 -0.0097427248944226066 -0.028087908931883843 0 -0.011028704381159497 -0.02744468991374718 0 -0.0091959834437192849 -0.026610020231067694 0 -0.011482193474319434 -0.026321325003277638 0 -0.0091959834437192849 -0.026610020231067694 0 -0.010622260370195615 -0.024409348688038908 0 -0.011482193474319434 -0.026321325003277638 0 -0.011028704381159497 -0.02744468991374718 0 -0.0091959834437192849 -0.026610020231067694 0 -0.0065322892080777297 -0.026420811238533116 0 -0.0091959834437192849 -0.026610020231067694 0 -0.0080337451228721952 -0.025147651540200228 0 -0.0091959834437192849 -0.026610020231067694 0 -0.0080337451228721952 -0.025147651540200228 0 -0.010622260370195615 -0.024409348688038908 0 -0.010614189959384844 -0.02470309828643177 0 -0.011622396510679518 -0.025188728831630598 0 -0.0080352801537605257 -0.023527292694956584 0 -0.0080337451228721952 -0.025147651540200228 0 -0.010622260370195615 -0.024409348688038908 0 -0.012553271728333214 -0.026000504565062501 0 -0.012803627982076748 -0.025926136883258018 0 -0.012759952481658305 -0.025867448236167573 0 -0.012803627982076748 -0.025926136883258018 0 -0.012759952481658305 -0.025867448236167573 0 -0.012867589720001914 -0.025864046996912825 0 -0.012553271728333214 -0.026000504565062501 0 -0.012759952481658305 -0.025867448236167573 0 -0.012602445498480474 -0.025787692232170933 0 -0.0073008954163068709 -0.028033109364703948 0 -0.0081728411099087159 -0.029750422187209039 0 -0.0088162301292897 -0.027732145520498915 0 -0.0081728411099087159 -0.029750422187209039 0 -0.0088162301292897 -0.027732145520498915 0 -0.010071369486087525 -0.028346506723180967 0 -0.0088162301292897 -0.027732145520498915 0 -0.010071369486087525 -0.028346506723180967 0 -0.010129227756400036 -0.026760489542549969 0 -0.010717403529230528 -0.028088998450403545 0 -0.011355345626290732 -0.027035325830656196 0 -0.012759952481658305 -0.025867448236167573 0 -0.012834941236399727 -0.025858596055800785 0 -0.012867589720001914 -0.025864046996912825 0 -0.012759952481658305 -0.025867448236167573 0 -0.012602445498480474 -0.025787692232170933 0 -0.012834941236399727 -0.025858596055800785 0 -0.012834941236399727 -0.025858596055800785 0 -0.012680996206234398 -0.025874981619244529 0 -0.012867589720001914 -0.025864046996912825 0 -0.012834941236399727 -0.025858596055800785 0 -0.012680996206234398 -0.025874981619244529 0 -0.012170805689031255 -0.026114246155693459 0 -0.010071369486087525 -0.028346506723180967 0 -0.011221114254373077 -0.026470273604315857 0 -0.010129227756400036 -0.026760489542549969 0 -0.010071369486087525 -0.028346506723180967 0 -0.012170805689031255 -0.026114246155693459 0 -0.011221114254373077 -0.026470273604315857 0 -0.011355345626290732 -0.027035325830656196 0 -0.012158265171261061 -0.026244990359497539 0 -0.012680996206234398 -0.025874981619244529 0 -0.013053054581851353 -0.025871367099207416 0 -0.012170805689031255 -0.026114246155693459 0 -0.012680996206234398 -0.025874981619244529 0 -0.012975350927651662 -0.025898904625942749 0 -0.012867589720001914 -0.025864046996912825 0 -0.012680996206234398 -0.025874981619244529 0 -0.012975350927651662 -0.025898904625942749 0 -0.013053054581851353 -0.025871367099207416 0 -0.012975350927651662 -0.025898904625942749 0 -0.013126392225025358 -0.025903282409588665 0 -0.012867589720001914 -0.025864046996912825 0 -0.012975350927651662 -0.025898904625942749 0 -0.013126392225025358 -0.025903282409588665 0 -0.013499585083201026 -0.02602415927122009 0 -0.011482193474319434 -0.026321325003277638 0 -0.010622260370195615 -0.024409348688038908 0 -0.012915946705548461 -0.02577235294681593 0 -0.011622396510679518 -0.025188728831630598 0 -0.012814862622980592 -0.025677791862578521 0 -0.012803627982076748 -0.025926136883258018 0 -0.012867589720001914 -0.025864046996912825 0 -0.012915946705548461 -0.02577235294681593 0 -0.013126392225025358 -0.025903282409588665 0 -0.012867589720001914 -0.025864046996912825 0 -0.012915946705548461 -0.02577235294681593 0 -0.013126392225025358 -0.025903282409588665 0 -0.012915946705548461 -0.02577235294681593 0 -0.013633246508311428 -0.0261197592396488 0 -0.013633246508311428 -0.0261197592396488 0 -0.013980265260931813 -0.026317941847850225 0 -0.013499585083201026 -0.02602415927122009 0 -0.013126392225025358 -0.025903282409588665 0 -0.013633246508311428 -0.0261197592396488 0 -0.013499585083201026 -0.02602415927122009 0 -0.014059576463775458 -0.026355666732439588 0 -0.013633246508311428 -0.0261197592396488 0 -0.013980265260931813 -0.026317941847850225 0 -0.014048784697899726 -0.026149145257716076 0 -0.013499585083201026 -0.02602415927122009 0 -0.013660077142888862 -0.025740236858530299 0 -0.013980265260931813 -0.026317941847850225 0 -0.014048784697899726 -0.026149145257716076 0 -0.013499585083201026 -0.02602415927122009 0 -0.013499585083201026 -0.02602415927122009 0 -0.013273807065440126 -0.025877350292361198 0 -0.013660077142888862 -0.025740236858530299 0 -0.012975350927651662 -0.025898904625942749 0 -0.013273807065440126 -0.025877350292361198 0 -0.013053054581851353 -0.025871367099207416 0 -0.012975350927651662 -0.025898904625942749 0 -0.013499585083201026 -0.02602415927122009 0 -0.013273807065440126 -0.025877350292361198 0 -0.013273807065440126 -0.025877350292361198 0 -0.013053054581851353 -0.025871367099207416 0 -0.013660077142888862 -0.025740236858530299 0 -0.013053054581851353 -0.025871367099207416 0 -0.013347087366957729 -0.025279532104543093 0 -0.012170805689031255 -0.026114246155693459 0 -0.013053054581851353 -0.025871367099207416 0 -0.013715099613425586 -0.025445854790478686 0 -0.013347087366957729 -0.025279532104543093 0 -0.013053054581851353 -0.025871367099207416 0 -0.013715099613425586 -0.025445854790478686 0 -0.013660077142888862 -0.025740236858530299 0 -0.01359335943926313 -0.025814250637644646 0 -0.014466821789990241 -0.024993121392041219 0 -0.013715099613425586 -0.025445854790478686 0 -0.013660077142888862 -0.025740236858530299 0 -0.0139972237860414 -0.025408970725764025 0 -0.014048784697899726 -0.026149145257716076 0 -0.013660077142888862 -0.025740236858530299 0 -0.014511981046926707 -0.025920289737148598 0 -0.013660077142888862 -0.025740236858530299 0 -0.014511981046926707 -0.025920289737148598 0 -0.014502372682441578 -0.025515103504339803 0 -0.014511981046926707 -0.025920289737148598 0 -0.014502372682441578 -0.025515103504339803 0 -0.014970355842668086 -0.025527707027984507 0 -0.013660077142888862 -0.025740236858530299 0 -0.014502372682441578 -0.025515103504339803 0 -0.014505764214304166 -0.025048332859584219 0 -0.014502372682441578 -0.025515103504339803 0 -0.014929187139092635 -0.025286814675275427 0 -0.014505764214304166 -0.025048332859584219 0 -0.015209560980191526 -0.025383809083761148 0 -0.015326336982480523 -0.025250586707301018 0 -0.015434023503815278 -0.02552231553205813 0 -0.015209560980191526 -0.025383809083761148 0 -0.015326336982480523 -0.025250586707301018 0 -0.015176361161880318 -0.025232146950349373 0 -0.015176361161880318 -0.025232146950349373 0 -0.014929187139092635 -0.025286814675275427 0 -0.015137744957395114 -0.024925078099995033 0 -0.015209560980191526 -0.025383809083761148 0 -0.015176361161880318 -0.025232146950349373 0 -0.014929187139092635 -0.025286814675275427 0 -0.015209560980191526 -0.025383809083761148 0 -0.014929187139092635 -0.025286814675275427 0 -0.014970355842668086 -0.025527707027984507 0 -0.014502372682441578 -0.025515103504339803 0 -0.014929187139092635 -0.025286814675275427 0 -0.014970355842668086 -0.025527707027984507 0 -0.015209560980191526 -0.025383809083761148 0 -0.014970355842668086 -0.025527707027984507 0 -0.015434023503815278 -0.02552231553205813 0 -0.014970355842668086 -0.025527707027984507 0 -0.015434023503815278 -0.02552231553205813 0 -0.015200261873384829 -0.02564387224110774 0 -0.01561376798057143 -0.025452596725815554 0 -0.015434023503815278 -0.02552231553205813 0 -0.015200261873384829 -0.02564387224110774 0 -0.015185108869323402 -0.025590802546001046 0 -0.01520858111360719 -0.026229868485862229 0 -0.014511981046926707 -0.025920289737148598 0 -0.015200261873384829 -0.02564387224110774 0 -0.01481915591438402 -0.026159525144877526 0 -0.015807740534357524 -0.025748443583408036 0 -0.015200261873384829 -0.02564387224110774 0 -0.015559092373824893 -0.026126816166569127 0 -0.014511981046926707 -0.025920289737148598 0 -0.014970355842668086 -0.025527707027984507 0 -0.015200261873384829 -0.02564387224110774 0 -0.016063535948737846 -0.026119759198721913 0 -0.015559092373824893 -0.026126816166569127 0 -0.015603215979980205 -0.026984444447840372 0 -0.014511981046926707 -0.025920289737148598 0 -0.01481915591438402 -0.026159525144877526 0 -0.014432288305595184 -0.026305082487462959 0 -0.014048784697899726 -0.026149145257716076 0 -0.014511981046926707 -0.025920289737148598 0 -0.014432288305595184 -0.026305082487462959 0 -0.014344680479604589 -0.026536481082012803 0 -0.013980265260931813 -0.026317941847850225 0 -0.014432288305595184 -0.026305082487462959 0 -0.013980265260931813 -0.026317941847850225 0 -0.014048784697899726 -0.026149145257716076 0 -0.014432288305595184 -0.026305082487462959 0 -0.014344680479604589 -0.026536481082012803 0 -0.014432288305595184 -0.026305082487462959 0 -0.014711216022268419 -0.026483636121437316 0 -0.01481915591438402 -0.026159525144877526 0 -0.014432288305595184 -0.026305082487462959 0 -0.014711216022268419 -0.026483636121437316 0 -0.01520858111360719 -0.026229868485862229 0 -0.01476680147254796 -0.02616485196587106 0 -0.013492981971183536 -0.027582539990385305 0 -0.013219763472135352 -0.02767152279742794 0 -0.012692199944953566 -0.027116087801829371 0 -0.013497542427332405 -0.027765535539717001 0 -0.013333985353031558 -0.027612039601757895 0 -0.013410572732008139 -0.028099143987715864 0 -0.010946185517259536 -0.025994489267581734 0 -0.010795562240829622 -0.026005720714719557 0 -0.010912850183741787 -0.025995687134777758 0 -0.01319127386305839 -0.027762058313924257 0 -0.012433640643755345 -0.027205352824181919 0 -0.010946185517259536 -0.025994489267581734 0 -0.010795562240829622 -0.026005720714719557 0 -0.010740689418408928 -0.025827377356280583 0 -0.010795562240829622 -0.026005720714719557 0 -0.01098808084585391 -0.025953302196105383 0 -0.010912850183741787 -0.025995687134777758 0 -0.01098808084585391 -0.025953302196105383 0 -0.010946396956963159 -0.025947075911814402 0 -0.010912850183741787 -0.025995687134777758 0 -0.01098808084585391 -0.025953302196105383 0 -0.011009374966499806 -0.025883177682077926 0 -0.011174839347270439 -0.025789764395951664 0 -0.01098808084585391 -0.025953302196105383 0 -0.010946396956963159 -0.025947075911814402 0 -0.011009374966499806 -0.025883177682077926 0 -0.010946396956963159 -0.025947075911814402 0 -0.010905645381425556 -0.025972935464265351 0 -0.010946372559255036 -0.025919497033236146 0 -0.010946396956963159 -0.025947075911814402 0 -0.010946372559255036 -0.025919497033236146 0 -0.011009374966499806 -0.025883177682077926 0 -0.012433640643755345 -0.027205352824181919 0 -0.012185306320537038 -0.027011230321683243 0 -0.010946185517259536 -0.025994489267581734 0 -0.010912850183741787 -0.025995687134777758 0 -0.010905645381425556 -0.025972935464265351 0 -0.010946396956963159 -0.025947075911814402 0 -0.010912850183741787 -0.025995687134777758 0 -0.010905645381425556 -0.025972935464265351 0 -0.010905645381425556 -0.025972935464265351 0 -0.010928674022142714 -0.025892692932249533 0 -0.010946372559255036 -0.025919497033236146 0 -0.013920296865416433 -0.025862941231206419 0 -0.012211975664339824 -0.025496274561654944 0 -0.010894208035935599 -0.025865209399324338 0 -0.010905645381425556 -0.025972935464265351 0 -0.010928674022142714 -0.025892692932249533 0 -0.010928674022142714 -0.025892692932249533 0 -0.010911685323254035 -0.025846036698184301 0 -0.011009374966499806 -0.025883177682077926 0 -0.013976880406793296 -0.026861859548076777 0 -0.012185306320537038 -0.027011230321683243 0 -0.010928674022142714 -0.025892692932249533 0 -0.010946372559255036 -0.025919497033236146 0 -0.011009374966499806 -0.025883177682077926 0 -0.010894208035935599 -0.025865209399324338 0 -0.010928674022142714 -0.025892692932249533 0 -0.010911685323254035 -0.025846036698184301 0 -0.014075472953327499 -0.025952074095775227 0 -0.014084273537664393 -0.026015795604635288 0 -0.013978309974250414 -0.026037562151059693 0 -0.013976880406793296 -0.026861859548076777 0 -0.013920296865416433 -0.025862941231206419 0 -0.014479334920852989 -0.026325903348207041 0 -0.013920296865416433 -0.025862941231206419 0 -0.015503057674418548 -0.024266330398078208 0 -0.015326336982480523 -0.025250586707301018 0 -0.015137744957395114 -0.024925078099995033 0 -0.015346608381602674 -0.024312009410115524 0 -0.015137744957395114 -0.024925078099995033 0 -0.014505764214304166 -0.025048332859584219 0 -0.015503057674418548 -0.024266330398078208 0 -0.015346608381602674 -0.024312009410115524 0 -0.015137744957395114 -0.024925078099995033 0 -0.013920296865416433 -0.025862941231206419 0 -0.014466821789990241 -0.024993121392041219 0 -0.014929187139092635 -0.025286814675275427 0 -0.015137744957395114 -0.024925078099995033 0 -0.014505764214304166 -0.025048332859584219 0 -0.015326336982480523 -0.025250586707301018 0 -0.015176361161880318 -0.025232146950349373 0 -0.015137744957395114 -0.024925078099995033 0 -0.013715099613425586 -0.025445854790478686 0 -0.013887268083173341 -0.025212228827756047 0 -0.0139972237860414 -0.025408970725764025 0 -0.014279910097765382 -0.025147256672769954 0 -0.013887268083173341 -0.025212228827756047 0 -0.0139972237860414 -0.025408970725764025 0 -0.010911685323254035 -0.025846036698184301 0 -0.011113391868233525 -0.025818858245779699 0 -0.011009374966499806 -0.025883177682077926 0 -0.011113391868233525 -0.025818858245779699 0 -0.011009374966499806 -0.025883177682077926 0 -0.011174839347270439 -0.025789764395951664 0 -0.011113391868233525 -0.025818858245779699 0 -0.011174839347270439 -0.025789764395951664 0 -0.011110961572134264 -0.025998968050520863 0 -0.012211975664339824 -0.025496274561654944 0 -0.012267868577503881 -0.025702528186807787 0 -0.013715099613425586 -0.025445854790478686 0 -0.013887268083173341 -0.025212228827756047 0 -0.013347087366957729 -0.025279532104543093 0 -0.011110961572134264 -0.025998968050520863 0 -0.011057165524782895 -0.025847444932161286 0 -0.01103544721639706 -0.026098933902236686 0 -0.011174839347270439 -0.025789764395951664 0 -0.011110961572134264 -0.025998968050520863 0 -0.011057165524782895 -0.025847444932161286 0 -0.011174839347270439 -0.025789764395951664 0 -0.011057165524782895 -0.025847444932161286 0 -0.010977515673335108 -0.025375063327748321 0 -0.011174839347270439 -0.025789764395951664 0 -0.011253823716384212 -0.025318501423451344 0 -0.010977515673335108 -0.025375063327748321 0 -0.01092277506199635 -0.025902377366120222 0 -0.010724345173215013 -0.025713124903492205 0 -0.01098808084585391 -0.025953302196105383 0 -0.011174839347270439 -0.025789764395951664 0 -0.011253823716384212 -0.025318501423451344 0 -0.010795562240829622 -0.026005720714719557 0 -0.01098808084585391 -0.025953302196105383 0 -0.010289540013929007 -0.026192804245048624 0 -0.010795562240829622 -0.026005720714719557 0 -0.010289540013929007 -0.026192804245048624 0 -0.010234500441629836 -0.025897556045559874 0 -0.011253823716384212 -0.025318501423451344 0 -0.010977515673335108 -0.025375063327748321 0 -0.010850555699074501 -0.024386702589784478 0 -0.010724345173215013 -0.025713124903492205 0 -0.010182797409159157 -0.025233594575265524 0 -0.010273748635789734 -0.024915706065326348 0 -0.010977515673335108 -0.025375063327748321 0 -0.010850555699074501 -0.024386702589784478 0 -0.010273748635789734 -0.024915706065326348 0 -0.009634428654249759 -0.024900382865164869 0 -0.0093700126948275345 -0.024247874585969702 0 -0.010273748635789734 -0.024915706065326348 0 -0.010099558694968053 -0.025485276135790328 0 -0.009634428654249759 -0.024900382865164869 0 -0.010273748635789734 -0.024915706065326348 0 -0.010099558694968053 -0.025485276135790328 0 -0.010742981395936119 -0.025725645575453655 0 -0.011057165524782895 -0.025847444932161286 0 -0.010977515673335108 -0.025375063327748321 0 -0.010742981395936119 -0.025725645575453655 0 -0.010273748635789734 -0.024915706065326348 0 -0.010977515673335108 -0.025375063327748321 0 -0.010742981395936119 -0.025725645575453655 0 -0.010742981395936119 -0.025725645575453655 0 -0.01103544721639706 -0.026098933902236686 0 -0.010837648272338471 -0.026206801658366495 0 -0.011057165524782895 -0.025847444932161286 0 -0.010742981395936119 -0.025725645575453655 0 -0.01103544721639706 -0.026098933902236686 0 -0.012267868577503881 -0.025702528186807787 0 -0.011256091100899243 -0.026340178433118623 0 -0.013347087366957729 -0.025279532104543093 0 -0.012170805689031255 -0.026114246155693459 0 -0.011221114254373077 -0.026470273604315857 0 -0.011110961572134264 -0.025998968050520863 0 -0.01103544721639706 -0.026098933902236686 0 -0.011221114254373077 -0.026470273604315857 0 -0.01103544721639706 -0.026098933902236686 0 -0.011221114254373077 -0.026470273604315857 0 -0.010837648272338471 -0.026206801658366495 0 -0.011221114254373077 -0.026470273604315857 0 -0.010837648272338471 -0.026206801658366495 0 -0.010129227756400036 -0.026760489542549969 0 -0.010837648272338471 -0.026206801658366495 0 -0.010143357334625446 -0.026071066058063516 0 -0.010129227756400036 -0.026760489542549969 0 -0.010742981395936119 -0.025725645575453655 0 -0.010837648272338471 -0.026206801658366495 0 -0.010143357334625446 -0.026071066058063516 0 -0.010099558694968053 -0.025485276135790328 0 -0.010742981395936119 -0.025725645575453655 0 -0.010143357334625446 -0.026071066058063516 0 -0.010099558694968053 -0.025485276135790328 0 -0.010143357334625446 -0.026071066058063516 0 -0.0091547798412526145 -0.025839645700845976 0 -0.010143357334625446 -0.026071066058063516 0 -0.0091547798412526145 -0.025839645700845976 0 -0.0092830015269790549 -0.02659341672774777 0 -0.010143357334625446 -0.026071066058063516 0 -0.0092830015269790549 -0.02659341672774777 0 -0.010129227756400036 -0.026760489542549969 0 -0.0088162301292897 -0.027732145520498915 0 -0.0092830015269790549 -0.02659341672774777 0 -0.010129227756400036 -0.026760489542549969 0 -0.0073008954163068709 -0.028033109364703948 0 -0.0088162301292897 -0.027732145520498915 0 -0.0082464746181379299 -0.026752294601514178 0 -0.0088162301292897 -0.027732145520498915 0 -0.0092830015269790549 -0.02659341672774777 0 -0.0082464746181379299 -0.026752294601514178 0 -0.0091547798412526145 -0.025839645700845976 0 -0.0085508865977515086 -0.025248837809187651 0 -0.0077891331983583204 -0.025977478032418632 0 -0.0091547798412526145 -0.025839645700845976 0 -0.0082464746181379299 -0.026752294601514178 0 -0.0077891331983583204 -0.025977478032418632 0 -0.0091547798412526145 -0.025839645700845976 0 -0.0092830015269790549 -0.02659341672774777 0 -0.0082464746181379299 -0.026752294601514178 0 -0.0085508865977515086 -0.025248837809187651 0 -0.0077891331983583204 -0.025977478032418632 0 -0.007660581227147625 -0.025152541373062637 0 -0.0085508865977515086 -0.025248837809187651 0 -0.0081790880446477206 -0.024667155830761775 0 -0.007660581227147625 -0.025152541373062637 0 -0.0085508865977515086 -0.025248837809187651 0 -0.0089257158385686909 -0.024703576817909235 0 -0.0081790880446477206 -0.024667155830761775 0 -0.010099558694968053 -0.025485276135790328 0 -0.0091547798412526145 -0.025839645700845976 0 -0.0094043160513894164 -0.025271462766299928 0 -0.0091547798412526145 -0.025839645700845976 0 -0.0085508865977515086 -0.025248837809187651 0 -0.0094043160513894164 -0.025271462766299928 0 -0.010099558694968053 -0.025485276135790328 0 -0.0094043160513894164 -0.025271462766299928 0 -0.009634428654249759 -0.024900382865164869 0 -0.0094043160513894164 -0.025271462766299928 0 -0.0089257158385686909 -0.024703576817909235 0 -0.009634428654249759 -0.024900382865164869 0 -0.0085508865977515086 -0.025248837809187651 0 -0.0094043160513894164 -0.025271462766299928 0 -0.0089257158385686909 -0.024703576817909235 0 -0.0089257158385686909 -0.024703576817909235 0 -0.0093700126948275345 -0.024247874585969702 0 -0.0083629334425974165 -0.023997459275617288 0 -0.0089257158385686909 -0.024703576817909235 0 -0.009634428654249759 -0.024900382865164869 0 -0.0093700126948275345 -0.024247874585969702 0 -0.0081790880446477206 -0.024667155830761775 0 -0.0083629334425974165 -0.023997459275617288 0 -0.0078880200667352796 -0.024263625808040621 0 -0.0089257158385686909 -0.024703576817909235 0 -0.0081790880446477206 -0.024667155830761775 0 -0.0083629334425974165 -0.023997459275617288 0 -0.0083629334425974165 -0.023997459275617288 0 -0.0089486037762985752 -0.023544442572871492 0 -0.0082165326781658207 -0.023267006245883102 0 -0.0083629334425974165 -0.023997459275617288 0 -0.0082165326781658207 -0.023267006245883102 0 -0.0075582869260371818 -0.023751607892753029 0 -0.0093700126948275345 -0.024247874585969702 0 -0.0083629334425974165 -0.023997459275617288 0 -0.0089486037762985752 -0.023544442572871492 0 -0.0093700126948275345 -0.024247874585969702 0 -0.0089486037762985752 -0.023544442572871492 0 -0.0099309789690172484 -0.023483273781907409 0 -0.0089486037762985752 -0.023544442572871492 0 -0.0088587920840544534 -0.02272484909443858 0 -0.0099309789690172484 -0.023483273781907409 0 -0.0078700830116350574 -0.025126027213510413 0 -0.0096113819737381583 -0.02461165074817117 0 -0.0087004054708125084 -0.025666766301915528 0 -0.009090116403629802 -0.025627196334545032 0 -0.0090766242710736984 -0.02589207647781502 0 -0.0089486037762985752 -0.023544442572871492 0 -0.0088587920840544534 -0.02272484909443858 0 -0.0082165326781658207 -0.023267006245883102 0 -0.0078700830116350574 -0.025126027213510413 0 -0.0074046775330808869 -0.024193575614138176 0 -0.0067389901115187754 -0.024996322980304988 0 -0.0061976425836279929 -0.025454576517240736 0 -0.0060539285548037456 -0.024847556172191448 0 -0.0070946180614214864 -0.026596244074536118 0 -0.0064509413646197892 -0.02619460635860971 0 -0.0069277315805701652 -0.025606044525725707 0 -0.0067389901115187754 -0.024996322980304988 0 -0.0061420239439584513 -0.024598759860325899 0 -0.0060539285548037456 -0.024847556172191448 0 -0.0078700830116350574 -0.025126027213510413 0 -0.0061622978855784792 -0.025759616643045873 0 -0.0061622978855784792 -0.025759616643045873 0 -0.006875129223906767 -0.02564381391708772 0 -0.0063585237572991405 -0.026290321965032774 0 -0.0068809954233836016 -0.025640054609340969 0 -0.0061878724274913753 -0.025651469400881869 0 -0.0068809954233836016 -0.025640054609340969 0 -0.0060331883085587307 -0.0249999680961407 0 -0.0061878724274913753 -0.025651469400881869 0 -0.0068809954233836016 -0.025640054609340969 0 -0.0073998301016945387 -0.025000017085300016 0 -0.0060331883085587307 -0.0249999680961407 0 -0.0069277315805701652 -0.025606044525725707 0 -0.007399925508627535 -0.024999986307894784 0 -0.0079736629313478056 -0.025819245269617187 0 -0.006875129223906767 -0.02564381391708772 0 -0.0073996938249262269 -0.025000166122814783 0 -0.0078700830116350574 -0.025126027213510413 0 -0.0084313561102423197 -0.02574494520035665 0 -0.0087004054708125084 -0.025666766301915528 0 -0.0089839002237217577 -0.025405611634219546 0 -0.009090116403629802 -0.025627196334545032 0 -0.0070946180614214864 -0.026596244074536118 0 -0.0069277315805701652 -0.025606044525725707 0 -0.0079736629313478056 -0.025819245269617187 0 -0.0089839002237217577 -0.025405611634219546 0 -0.0092325712652525042 -0.025524415192774173 0 -0.009090116403629802 -0.025627196334545032 0 -0.007399925508627535 -0.024999986307894784 0 -0.0079736629313478056 -0.025819245269617187 0 -0.0089138531635454942 -0.024999987625113271 0 -0.0089839002237217577 -0.025405611634219546 0 -0.0089152183498737991 -0.024999580256143857 0 -0.0092325712652525042 -0.025524415192774173 0 -0.0084313561102423197 -0.02574494520035665 0 -0.0089140604701438576 -0.024999932978169864 0 -0.0089152183498737991 -0.024999580256143857 0 -0.0092325712652525042 -0.025524415192774173 0 -0.0095043724088718466 -0.025480322942743702 0 -0.0092325712652525042 -0.025524415192774173 0 -0.0095111505843233201 -0.025688439013408722 0 -0.0095043724088718466 -0.025480322942743702 0 -0.0092325712652525042 -0.025524415192774173 0 -0.0095111505843233201 -0.025688439013408722 0 -0.009090116403629802 -0.025627196334545032 0 -0.0095111505843233201 -0.025688439013408722 0 -0.009090116403629802 -0.025627196334545032 0 -0.0090766242710736984 -0.02589207647781502 0 -0.010273748635789734 -0.024915706065326348 0 -0.0093700126948275345 -0.024247874585969702 0 -0.0099309789690172484 -0.023483273781907409 0 -0.010273748635789734 -0.024915706065326348 0 -0.0099309789690172484 -0.023483273781907409 0 -0.010850555699074501 -0.024386702589784478 0 -0.0095111505843233201 -0.025688439013408722 0 -0.0090766242710736984 -0.02589207647781502 0 -0.0096177843128247651 -0.026098050293570159 0 -0.0096113819737381583 -0.02461165074817117 0 -0.010182797409159157 -0.025233594575265524 0 -0.012673938427622931 -0.024999591771573754 0 -0.0089152183498737991 -0.024999580256143857 0 -0.0095043724088718466 -0.025480322942743702 0 -0.012673938427622931 -0.024999591771573754 0 -0.0095043724088718466 -0.025480322942743702 0 -0.011823303304358457 -0.026072384218650733 0 -0.010289540013929007 -0.026192804245048624 0 -0.0096177843128247651 -0.026098050293570159 0 -0.010234500441629836 -0.025897556045559874 0 -0.0095111505843233201 -0.025688439013408722 0 -0.0096177843128247651 -0.026098050293570159 0 -0.010234500441629836 -0.025897556045559874 0 -0.010234500441629836 -0.025897556045559874 0 -0.010143124254436373 -0.025558501974210193 0 -0.010740689418408928 -0.025827377356280583 0 -0.01036433715298952 -0.025992598928980197 0 -0.011093570623608535 -0.026503682454395692 0 -0.0095111505843233201 -0.025688439013408722 0 -0.010234500441629836 -0.025897556045559874 0 -0.010143124254436373 -0.025558501974210193 0 -0.0095111505843233201 -0.025688439013408722 0 -0.010143124254436373 -0.025558501974210193 0 -0.0095043724088718466 -0.025480322942743702 0 -0.010557542793468395 -0.026393885488888918 0 -0.0095043724088718466 -0.025480322942743702 0 -0.011823303304358457 -0.026072384218650733 0 -0.01036433715298952 -0.025992598928980197 0 -0.0095747585064981169 -0.025492382478858162 0 -0.013184727006413351 -0.026091685590966605 0 -0.012673938427622931 -0.024999591771573754 0 -0.011823303304358457 -0.026072384218650733 0 -0.011823303304358457 -0.026072384218650733 0 -0.011656731607122316 -0.027236848333706844 0 -0.012692199944953566 -0.027116087801829371 0 -0.013184727006413351 -0.026091685590966605 0 -0.011823303304358457 -0.026072384218650733 0 -0.012692199944953566 -0.027116087801829371 0 -0.010557542793468395 -0.026393885488888918 0 -0.011823303304358457 -0.026072384218650733 0 -0.011656731607122316 -0.027236848333706844 0 -0.010795562240829622 -0.026005720714719557 0 -0.010234500441629836 -0.025897556045559874 0 -0.010740689418408928 -0.025827377356280583 0 -0.012433640643755345 -0.027205352824181919 0 -0.011093570623608535 -0.026503682454395692 0 -0.012433640643755345 -0.027205352824181919 0 -0.012843178450034723 -0.027455826688408878 0 -0.012850017014903986 -0.02830512022575379 0 -0.011656731607122316 -0.027236848333706844 0 -0.012692199944953566 -0.027116087801829371 0 -0.002828285679405356 -0.027618267462715455 0 -0.002157058689600411 -0.027678930069883471 0 -0.0028424567406124873 -0.028231393403719416 0 -0.002828285679405356 -0.027618267462715455 0 -0.0028424567406124873 -0.028231393403719416 0 -0.0037286792845929386 -0.02771313107942773 0 -0.002828285679405356 -0.027618267462715455 0 -0.0022895971046959047 -0.027299150689640544 0 -0.0031846856068570334 -0.027161765036216357 0 -0.002828285679405356 -0.027618267462715455 0 -0.0022895971046959047 -0.027299150689640544 0 -0.002157058689600411 -0.027678930069883471 0 -0.0022895971046959047 -0.027299150689640544 0 -0.0017940104617205142 -0.02739394296413418 0 -0.002157058689600411 -0.027678930069883471 0 -0.00098823901519417266 -0.028064102847026224 0 2.4905334071024292e-05 -0.028434527981144563 0 3.7602923215272084e-05 -0.027300354626712198 0 -0.00098823901519417266 -0.028064102847026224 0 2.4905334071024292e-05 -0.028434527981144563 0 -0.00061702569394877648 -0.029016195893264842 0 2.4905334071024292e-05 -0.028434527981144563 0 -0.00061702569394877648 -0.029016195893264842 0 0.0006459325793414896 -0.029356981663269405 0 -0.0017940104617205142 -0.02739394296413418 0 -0.002157058689600411 -0.027678930069883471 0 -0.001840548295692521 -0.027892468034007641 0 -0.002157058689600411 -0.027678930069883471 0 -0.001840548295692521 -0.027892468034007641 0 -0.0021562312337734357 -0.028181626585120273 0 -0.0013787548386185362 -0.027703405706977706 0 -0.0012338381852710426 -0.028339024029897998 0 -0.001840548295692521 -0.027892468034007641 0 -0.0021562312337734357 -0.028181626585120273 0 -0.0017237518139505835 -0.028470530852420007 0 -0.00061702569394877648 -0.029016195893264842 0 -0.00039412271729179926 -0.0298105082213386 0 0.0006459325793414896 -0.029356981663269405 0 -0.0012338381852710426 -0.028339024029897998 0 -0.0011409983458531216 -0.029674585466375383 0 -0.0021562312337734357 -0.028181626585120273 0 -0.0017237518139505835 -0.028470530852420007 0 -0.0022478822581711395 -0.028724443217025584 0 -0.0021562312337734357 -0.028181626585120273 0 -0.0022478822581711395 -0.028724443217025584 0 -0.0028424567406124873 -0.028231393403719416 0 -0.0028018107596235655 -0.028940544310276609 0 -0.0022478822581711395 -0.028724443217025584 0 -0.0028424567406124873 -0.028231393403719416 0 -0.002157058689600411 -0.027678930069883471 0 -0.0021562312337734357 -0.028181626585120273 0 -0.0028424567406124873 -0.028231393403719416 0 -0.0034897101842342286 -0.028724390841784853 0 -0.0028018107596235655 -0.028940544310276609 0 -0.0028424567406124873 -0.028231393403719416 0 -0.0047375334865013621 -0.028559371819974332 0 -0.0034897101842342286 -0.028724390841784853 0 -0.0039444382232838512 -0.028227192041287211 0 -0.0034897101842342286 -0.028724390841784853 0 -0.0028424567406124873 -0.028231393403719416 0 -0.0039444382232838512 -0.028227192041287211 0 -0.0047375334865013621 -0.028559371819974332 0 -0.0039444382232838512 -0.028227192041287211 0 -0.0046192860523393215 -0.028119329532935972 0 -0.0039444382232838512 -0.028227192041287211 0 -0.0046192860523393215 -0.028119329532935972 0 -0.0037286792845929386 -0.02771313107942773 0 -0.0028424567406124873 -0.028231393403719416 0 -0.0039444382232838512 -0.028227192041287211 0 -0.0037286792845929386 -0.02771313107942773 0 -0.0073008954163068709 -0.028033109364703948 0 -0.0082464746181379299 -0.026752294601514178 0 -0.0069270774283287087 -0.026859733421254937 0 -0.0073008954163068709 -0.028033109364703948 0 -0.0047375334865013621 -0.028559371819974332 0 -0.0069270774283287087 -0.026859733421254937 0 -0.0047375334865013621 -0.028559371819974332 0 -0.0069270774283287087 -0.026859733421254937 0 -0.005849272311618193 -0.026329910429322527 0 -0.0047591919369851503 -0.028496279570408723 0 -0.005228973408676659 -0.027300764928881529 0 -0.005228973408676659 -0.027300764928881529 0 -0.0059791181296743497 -0.025999063672805717 0 -0.0082464746181379299 -0.026752294601514178 0 -0.0069270774283287087 -0.026859733421254937 0 -0.0077891331983583204 -0.025977478032418632 0 -0.005849272311618193 -0.026329910429322527 0 -0.0077891331983583204 -0.025977478032418632 0 -0.007660581227147625 -0.025152541373062637 0 -0.0069270774283287087 -0.026859733421254937 0 -0.005849272311618193 -0.026329910429322527 0 -0.0077891331983583204 -0.025977478032418632 0 -0.0081790880446477206 -0.024667155830761775 0 -0.007660581227147625 -0.025152541373062637 0 -0.0075713311074447004 -0.024576574972311731 0 -0.007660581227147625 -0.025152541373062637 0 -0.0068375307490683209 -0.024898555943850133 0 -0.0075713311074447004 -0.024576574972311731 0 -0.005849272311618193 -0.026329910429322527 0 -0.007660581227147625 -0.025152541373062637 0 -0.0068375307490683209 -0.024898555943850133 0 -0.0046192860523393215 -0.028119329532935972 0 -0.0050069041986295819 -0.02730690537303658 0 -0.004398907062331937 -0.027441104376015202 0 -0.0050069041986295819 -0.02730690537303658 0 -0.0046636689948275191 -0.027075543488200588 0 -0.004398907062331937 -0.027441104376015202 0 -0.0046636689948275191 -0.027075543488200588 0 -0.004398907062331937 -0.027441104376015202 0 -0.0043712631959127741 -0.026737120828871808 0 -0.0046636689948275191 -0.027075543488200588 0 -0.0049272497735176005 -0.026694201453772853 0 -0.0043712631959127741 -0.026737120828871808 0 -0.0050069041986295819 -0.02730690537303658 0 -0.0046636689948275191 -0.027075543488200588 0 -0.0049272497735176005 -0.026694201453772853 0 -0.0078880200667352796 -0.024263625808040621 0 -0.0075713311074447004 -0.024576574972311731 0 -0.0075582869260371818 -0.023751607892753029 0 -0.0068375307490683209 -0.024898555943850133 0 -0.0075713311074447004 -0.024576574972311731 0 -0.0075582869260371818 -0.023751607892753029 0 -0.0050069041986295819 -0.02730690537303658 0 -0.0049272497735176005 -0.026694201453772853 0 -0.0054813735650860807 -0.026210114668471021 0 -0.0059791181296743497 -0.025999063672805717 0 -0.0060907785644902868 -0.025439308790366121 0 -0.0081790880446477206 -0.024667155830761775 0 -0.0078880200667352796 -0.024263625808040621 0 -0.0075713311074447004 -0.024576574972311731 0 -0.0037286792845929386 -0.02771313107942773 0 -0.004398907062331937 -0.027441104376015202 0 -0.0043712631959127741 -0.026737120828871808 0 -0.0046192860523393215 -0.028119329532935972 0 -0.0037286792845929386 -0.02771313107942773 0 -0.004398907062331937 -0.027441104376015202 0 -0.0037632397513153674 -0.027666608007409724 0 -0.0042978393731234943 -0.027053595319040714 0 -0.0037286792845929386 -0.02771313107942773 0 -0.0038136475153791784 -0.027203753619289912 0 -0.0042002108771222683 -0.027348640516793535 0 -0.0037286792845929386 -0.02771313107942773 0 -0.0038136475153791784 -0.027203753619289912 0 -0.0031846856068570334 -0.027161765036216357 0 -0.002828285679405356 -0.027618267462715455 0 -0.0037286792845929386 -0.02771313107942773 0 -0.0031846856068570334 -0.027161765036216357 0 -0.0038136475153791784 -0.027203753619289912 0 -0.0037297003787434544 -0.02673265063204237 0 -0.0031846856068570334 -0.027161765036216357 0 -0.0037297003787434544 -0.02673265063204237 0 -0.0030950913188535242 -0.026503474686949514 0 -0.0031846856068570334 -0.027161765036216357 0 -0.0038136475153791784 -0.027203753619289912 0 -0.0037297003787434544 -0.02673265063204237 0 -0.0042689837393509794 -0.026811411661232652 0 -0.0038136475153791784 -0.027203753619289912 0 -0.0042002108771222683 -0.027348640516793535 0 -0.0042689837393509794 -0.026811411661232652 0 -0.0037297003787434544 -0.02673265063204237 0 -0.0042011134582513859 -0.026403028574788472 0 -0.0037377073554430555 -0.026204037833455613 0 -0.0037297003787434544 -0.02673265063204237 0 -0.0042689837393509794 -0.026811411661232652 0 -0.0042011134582513859 -0.026403028574788472 0 -0.0042689837393509794 -0.026811411661232652 0 -0.0042011134582513859 -0.026403028574788472 0 -0.0046092000874933016 -0.026438676849793594 0 -0.0042011134582513859 -0.026403028574788472 0 -0.0045745532054017575 -0.026136254281601431 0 -0.0041994588606465285 -0.02601944899820214 0 -0.0042011134582513859 -0.026403028574788472 0 -0.0037377073554430555 -0.026204037833455613 0 -0.0041994588606465285 -0.02601944899820214 0 -0.0037297003787434544 -0.02673265063204237 0 -0.0037377073554430555 -0.026204037833455613 0 -0.0030950913188535242 -0.026503474686949514 0 -0.0049272497735176005 -0.026694201453772853 0 -0.0055281762447804798 -0.026172596932269497 0 -0.005207553430480928 -0.025676802835680721 0 -0.0074046775330808869 -0.024193575614138176 0 -0.0060907785644902868 -0.025439308790366121 0 -0.0083629334425974165 -0.023997459275617288 0 -0.0078880200667352796 -0.024263625808040621 0 -0.0075582869260371818 -0.023751607892753029 0 -0.0047864927449102366 -0.026820344343979605 0 -0.0060907785644902868 -0.025439308790366121 0 -0.0049272497735176005 -0.026694201453772853 0 -0.0043712631959127741 -0.026737120828871808 0 -0.005207553430480928 -0.025676802835680721 0 -0.0042978393731234943 -0.027053595319040714 0 -0.0050747079497509753 -0.026111044617374096 0 -0.0042002108771222683 -0.027348640516793535 0 -0.0042689837393509794 -0.026811411661232652 0 -0.0049860647687104548 -0.026712768138556223 0 -0.0042689837393509794 -0.026811411661232652 0 -0.0046092000874933016 -0.026438676849793594 0 -0.0049860647687104548 -0.026712768138556223 0 -0.0046092000874933016 -0.026438676849793594 0 -0.0049860647687104548 -0.026712768138556223 0 -0.004983394254002637 -0.026131623151872646 0 -0.0042011134582513859 -0.026403028574788472 0 -0.0046092000874933016 -0.026438676849793594 0 -0.0045745532054017575 -0.026136254281601431 0 -0.0046092000874933016 -0.026438676849793594 0 -0.004983394254002637 -0.026131623151872646 0 -0.0045745532054017575 -0.026136254281601431 0 -0.0058721082074834974 -0.025169361709241431 0 -0.0060907785644902868 -0.025439308790366121 0 -0.0061622978855784792 -0.025759616643045873 0 -0.0050747079497509753 -0.026111044617374096 0 -0.0061976425836279929 -0.025454576517240736 0 -0.0060539285548037456 -0.024847556172191448 0 -0.0057142951633374428 -0.025905705168550942 0 -0.0060539285548037456 -0.024847556172191448 0 -0.0055281762447804798 -0.026172596932269497 0 -0.005207553430480928 -0.025676802835680721 0 -0.005645612830623716 -0.025972597170689574 0 -0.0049860647687104548 -0.026712768138556223 0 -0.004983394254002637 -0.026131623151872646 0 -0.0061420239439584513 -0.024598759860325899 0 -0.0060539285548037456 -0.024847556172191448 0 -0.005207553430480928 -0.025676802835680721 0 -0.005645612830623716 -0.025972597170689574 0 -0.0051957824409788909 -0.025701900810856711 0 -0.004983394254002637 -0.026131623151872646 0 -0.0061622978855784792 -0.025759616643045873 0 -0.005444956741358452 -0.025766063399791535 0 -0.0063585237572991405 -0.026290321965032774 0 -0.0056748178502167186 -0.025877910411101896 0 -0.0061878724274913753 -0.025651469400881869 0 -0.0051957824409788909 -0.025701900810856711 0 -0.0048706583129914539 -0.02579865024223512 0 -0.004983394254002637 -0.026131623151872646 0 -0.0048706583129914539 -0.02579865024223512 0 -0.004983394254002637 -0.026131623151872646 0 -0.0045745532054017575 -0.026136254281601431 0 -0.0048706583129914539 -0.02579865024223512 0 -0.0045745532054017575 -0.026136254281601431 0 -0.0045354197174523802 -0.025672897291230401 0 -0.0049376610140259786 -0.025421405149736835 0 -0.0045354197174523802 -0.025672897291230401 0 -0.0046662326343025248 -0.024999955261367498 0 -0.0049376610140259786 -0.025421405149736835 0 -0.0054855436147115463 -0.025373136424401727 0 -0.0046662326343025248 -0.024999955261367498 0 -0.0054855436147115463 -0.025373136424401727 0 -0.0060331883085587307 -0.0249999680961407 0 -0.0046662326343025248 -0.024999955261367498 0 -0.0048706583129914539 -0.02579865024223512 0 -0.0049376610140259786 -0.025421405149736835 0 -0.0045354197174523802 -0.025672897291230401 0 -0.0056748178502167186 -0.025877910411101896 0 -0.0049376610140259786 -0.025421405149736835 0 -0.0054855436147115463 -0.025373136424401727 0 -0.0051957824409788909 -0.025701900810856711 0 -0.0048706583129914539 -0.02579865024223512 0 -0.0049376610140259786 -0.025421405149736835 0 -0.005444956741358452 -0.025766063399791535 0 -0.0049907029723397535 -0.025474307633565511 0 -0.0056748178502167186 -0.025877910411101896 0 -0.0054855436147115463 -0.025373136424401727 0 -0.0061878724274913753 -0.025651469400881869 0 -0.0054855436147115463 -0.025373136424401727 0 -0.0060331883085587307 -0.0249999680961407 0 -0.0061878724274913753 -0.025651469400881869 0 -0.0037377073554430555 -0.026204037833455613 0 -0.0039271100532644312 -0.025642624319318227 0 -0.0030791133057868009 -0.025771946369186373 0 -0.0037377073554430555 -0.026204037833455613 0 -0.0030791133057868009 -0.025771946369186373 0 -0.0030950913188535242 -0.026503474686949514 0 -0.0037377073554430555 -0.026204037833455613 0 -0.0041994588606465285 -0.02601944899820214 0 -0.0039271100532644312 -0.025642624319318227 0 -0.0045745532054017575 -0.026136254281601431 0 -0.0041994588606465285 -0.02601944899820214 0 -0.0045354197174523802 -0.025672897291230401 0 -0.0041994588606465285 -0.02601944899820214 0 -0.0045354197174523802 -0.025672897291230401 0 -0.0039271100532644312 -0.025642624319318227 0 -0.0039271100532644312 -0.025642624319318227 0 -0.0046662326343025248 -0.024999955261367498 0 -0.0032999768436159029 -0.024999872441542625 0 -0.0045354197174523802 -0.025672897291230401 0 -0.0039271100532644312 -0.025642624319318227 0 -0.0046662326343025248 -0.024999955261367498 0 -0.0039271100532644312 -0.025642624319318227 0 -0.0032999768436159029 -0.024999872441542625 0 -0.0030791133057868009 -0.025771946369186373 0 -0.0032999768436159029 -0.024999872441542625 0 -0.001933433354238154 -0.024999856267101855 0 -0.0030791133057868009 -0.025771946369186373 0 -0.001933433354238154 -0.024999856267101855 0 -0.0022466269572965934 -0.026129528686287828 0 -0.001231042663934349 -0.025760833257746044 0 -0.001933433354238154 -0.024999856267101855 0 -0.0022466269572965934 -0.026129528686287828 0 -0.0030791133057868009 -0.025771946369186373 0 -0.0022466269572965934 -0.026129528686287828 0 -0.0030791133057868009 -0.025771946369186373 0 -0.0030950913188535242 -0.026503474686949514 0 -0.0022466269572965934 -0.026129528686287828 0 -0.0030950913188535242 -0.026503474686949514 0 -0.0024782812786977239 -0.026852645030236991 0 -0.0022466269572965934 -0.026129528686287828 0 -0.0024782812786977239 -0.026852645030236991 0 -0.0014357988089134361 -0.026869313899295689 0 -0.0022895971046959047 -0.027299150689640544 0 -0.0024782812786977239 -0.026852645030236991 0 -0.0014357988089134361 -0.026869313899295689 0 -0.0030950913188535242 -0.026503474686949514 0 -0.0024782812786977239 -0.026852645030236991 0 -0.0031846856068570334 -0.027161765036216357 0 -0.0022895971046959047 -0.027299150689640544 0 -0.0024782812786977239 -0.026852645030236991 0 -0.0031846856068570334 -0.027161765036216357 0 -0.00098823901519417266 -0.028064102847026224 0 3.7602923215272084e-05 -0.027300354626712198 0 -0.0014357988089134361 -0.026869313899295689 0 -0.0013787548386185362 -0.027703405706977706 0 -0.0014575161528022772 -0.026887585591057847 0 -0.0022895971046959047 -0.027299150689640544 0 -0.0017940104617205142 -0.02739394296413418 0 -0.0014357988089134361 -0.026869313899295689 0 -0.0014357988089134361 -0.026869313899295689 0 -0.001231042663934349 -0.025760833257746044 0 7.3376290104572496e-05 -0.025925748209515608 0 -0.0022466269572965934 -0.026129528686287828 0 -0.0014357988089134361 -0.026869313899295689 0 -0.001231042663934349 -0.025760833257746044 0 3.7602923215272084e-05 -0.027300354626712198 0 -0.0014357988089134361 -0.026869313899295689 0 7.3376290104572496e-05 -0.025925748209515608 0 -0.001231042663934349 -0.025760833257746044 0 -0.00056673355721581389 -0.024999759263662585 0 7.3376290104572496e-05 -0.025925748209515608 0 -0.001933433354238154 -0.024999856267101855 0 -0.001231042663934349 -0.025760833257746044 0 -0.00056673355721581389 -0.024999759263662585 0 0.00080009498276946574 -0.024999775467669974 0 0.0014203314147887135 -0.025737299328301908 0 7.3376290104572496e-05 -0.025925748209515608 0 -0.00056673355721581389 -0.024999759263662585 0 0.00080009498276946574 -0.024999775467669974 0 7.3376290104572496e-05 -0.025925748209515608 0 0.00080009498276946574 -0.024999775467669974 0 0.0014203314147887135 -0.025737299328301908 0 0.0021664134935466257 -0.024999969023860053 0 0.0014203314147887135 -0.025737299328301908 0 0.0019184306761473992 -0.026043610540939507 0 0.0014581764146823115 -0.026486641738855083 0 0.0014203314147887135 -0.025737299328301908 0 7.3376290104572496e-05 -0.025925748209515608 0 0.0014581764146823115 -0.026486641738855083 0 0.00263978849853972 -0.025500541733448328 0 0.0021664134935466257 -0.024999969023860053 0 0.0021618667472608471 -0.025752671026093441 0 0.00263978849853972 -0.025500541733448328 0 0.0021664134935466257 -0.024999969023860053 0 0.0035325611964469629 -0.024999899115419135 0 0.0014203314147887135 -0.025737299328301908 0 0.0021664134935466257 -0.024999969023860053 0 0.0021618667472608471 -0.025752671026093441 0 0.0014203314147887135 -0.025737299328301908 0 0.0019184306761473992 -0.026043610540939507 0 0.0021618667472608471 -0.025752671026093441 0 0.0019184306761473992 -0.026043610540939507 0 0.0021618667472608471 -0.025752671026093441 0 0.0021770989150053581 -0.026122493686402373 0 0.002488346865254181 -0.025966204933014058 0 0.0025203601736565671 -0.026210218237650143 0 0.0030377966164802724 -0.025701445374277699 0 0.00263978849853972 -0.025500541733448328 0 0.0021618667472608471 -0.025752671026093441 0 0.002488346865254181 -0.025966204933014058 0 0.0021618667472608471 -0.025752671026093441 0 0.002488346865254181 -0.025966204933014058 0 0.0021770989150053581 -0.026122493686402373 0 0.002488346865254181 -0.025966204933014058 0 0.0023145626030692881 -0.026159410691220946 0 0.0021770989150053581 -0.026122493686402373 0 0.00263978849853972 -0.025500541733448328 0 0.002488346865254181 -0.025966204933014058 0 0.0030377966164802724 -0.025701445374277699 0 0.0023145626030692881 -0.026159410691220946 0 0.0024299959492539991 -0.026214816400032336 0 0.0021795542575924419 -0.02623892366855617 0 0.002488346865254181 -0.025966204933014058 0 0.0024299959492539991 -0.026214816400032336 0 0.0025203601736565671 -0.026210218237650143 0 0.0024299959492539991 -0.026214816400032336 0 0.0021795542575924419 -0.02623892366855617 0 0.0024430301099811224 -0.026221230017700495 0 0.002488346865254181 -0.025966204933014058 0 0.0023145626030692881 -0.026159410691220946 0 0.0024299959492539991 -0.026214816400032336 0 0.0029232940023810245 -0.025273335925572724 0 0.0030119047603774369 -0.025229505746553055 0 0.0023145626030692881 -0.026159410691220946 0 0.0021770989150053581 -0.026122493686402373 0 0.0021795542575924419 -0.02623892366855617 0 0.0019184306761473992 -0.026043610540939507 0 0.0019725733376931404 -0.026269996059240328 0 0.0014581764146823115 -0.026486641738855083 0 0.0021770989150053581 -0.026122493686402373 0 0.0021795542575924419 -0.02623892366855617 0 0.0019725733376931404 -0.026269996059240328 0 0.0019184306761473992 -0.026043610540939507 0 0.0021770989150053581 -0.026122493686402373 0 0.0019725733376931404 -0.026269996059240328 0 0.0019725733376931404 -0.026269996059240328 0 0.0014581764146823115 -0.026486641738855083 0 0.0020527035212599882 -0.026175933106030745 0 0.0021795542575924419 -0.02623892366855617 0 0.0019725733376931404 -0.026269996059240328 0 0.0020527035212599882 -0.026175933106030745 0 0.0021795542575924419 -0.02623892366855617 0 0.0020527035212599882 -0.026175933106030745 0 0.001951303127384726 -0.026139275257620068 0 0.0021058880770894969 -0.024911892802973602 0 0.0030119047603774369 -0.025229505746553055 0 0.0021795542575924419 -0.02623892366855617 0 0.001951303127384726 -0.026139275257620068 0 0.0024430301099811224 -0.026221230017700495 0 3.7602923215272084e-05 -0.027300354626712198 0 7.3376290104572496e-05 -0.025925748209515608 0 0.0014581764146823115 -0.026486641738855083 0 0.0014581764146823115 -0.026486641738855083 0 0.0023332156651902662 -0.025950933326896779 0 0.0020527035212599882 -0.026175933106030745 0 0.0015023305277454774 -0.026487368459770001 0 0.001632845650446353 -0.026954875755757467 0 3.7602923215272084e-05 -0.027300354626712198 0 0.0014581764146823115 -0.026486641738855083 0 0.00096694179541170918 -0.028153337383104389 0 2.4905334071024292e-05 -0.028434527981144563 0 3.7602923215272084e-05 -0.027300354626712198 0 0.00096694179541170918 -0.028153337383104389 0 2.4905334071024292e-05 -0.028434527981144563 0 0.00096694179541170918 -0.028153337383104389 0 0.0006459325793414896 -0.029356981663269405 0 0.0023332156651902662 -0.025950933326896779 0 0.0022772160786544877 -0.025595109302280053 0 0.0024322467789811585 -0.025424133678404712 0 0.001632845650446353 -0.026954875755757467 0 0.0014997187484629012 -0.027620166076908828 0 0.0023332156651902662 -0.025950933326896779 0 0.0020527035212599882 -0.026175933106030745 0 0.0022772160786544877 -0.025595109302280053 0 0.0021058880770894969 -0.024911892802973602 0 0.0022020883454175002 -0.025381075101682287 0 0.0020527035212599882 -0.026175933106030745 0 0.001951303127384726 -0.026139275257620068 0 0.0022153045140780839 -0.025315169148887432 0 0.0020527035212599882 -0.026175933106030745 0 0.0022153045140780839 -0.025315169148887432 0 0.0022772160786544877 -0.025595109302280053 0 0.0022153045140780839 -0.025315169148887432 0 0.0022772160786544877 -0.025595109302280053 0 0.0023293571144058708 -0.025364977194712739 0 0.0022153045140780839 -0.025315169148887432 0 0.0025495116941188492 -0.025342033183423693 0 0.0028592706928816519 -0.025364363095318102 0 0.0022153045140780839 -0.025315169148887432 0 0.0023293571144058708 -0.025364977194712739 0 0.0025495116941188492 -0.025342033183423693 0 0.0023293571144058708 -0.025364977194712739 0 0.0025495116941188492 -0.025342033183423693 0 0.0023640971060058494 -0.02538563988644877 0 0.0024252439314303683 -0.025342521883737285 0 0.0027371369285484897 -0.024986131816348719 0 0.0024322467789811585 -0.025424133678404712 0 0.0024007186323362307 -0.02539219623676468 0 0.0023640971060058494 -0.02538563988644877 0 0.0023293571144058708 -0.025364977194712739 0 0.0024322467789811585 -0.025424133678404712 0 0.0023640971060058494 -0.02538563988644877 0 4.9236045717958296e-05 -0.030097863449795256 0 0.0006459325793414896 -0.029356981663269405 0 0.00047427420650141949 -0.030337621000890606 0 0.0014997187484629012 -0.027620166076908828 0 0.0016841254114207749 -0.026899253170743303 0 -0.00039412271729179926 -0.0298105082213386 0 4.9236045717958296e-05 -0.030097863449795256 0 0.0006459325793414896 -0.029356981663269405 0 0.0022772160786544877 -0.025595109302280053 0 0.0023293571144058708 -0.025364977194712739 0 0.0024322467789811585 -0.025424133678404712 0 0.0041246452267920952 -0.025450849452370014 0 0.0034029200982204797 -0.025632777021172819 0 0.0035114080899280621 -0.025205821769554455 0 0.0041246452267920952 -0.025450849452370014 0 0.0035114080899280621 -0.025205821769554455 0 0.0040539831457871893 -0.024825468023636405 0 0.0051370925819211556 -0.024766301979778135 0 0.0046655067297272576 -0.02471515094924355 0 0.0055511688921386837 -0.024974905312116769 0 0.0053083755239270143 -0.024478291291901905 0 0.0059841228422970833 -0.024776308236574878 0 0.0051370925819211556 -0.024766301979778135 0 0.0060615301898113679 -0.024704922916004474 0 0.0058958946146358254 -0.024734132580030977 0 0.0059841228422970833 -0.024776308236574878 0 0.006044276232775393 -0.024782245347553768 0 0.0051370925819211556 -0.024766301979778135 0 0.0058029921003522854 -0.024543312846244822 0 0.0053534068720590879 -0.023509481479796382 0 0.0048005340020559114 -0.024608186932960772 0 0.0057083016502578353 -0.024807892246326967 0 0.0058958946146358254 -0.024734132580030977 0 0.006044276232775393 -0.024782245347553768 0 0.0057083016502578353 -0.024807892246326967 0 0.0053534068720590879 -0.023509481479796382 0 0.0043143983393228551 -0.023929604990666872 0 0.0048005340020559114 -0.024608186932960772 0 0.0051370925819211556 -0.024766301979778135 0 0.0038052493204796776 -0.024755389434284691 0 0.0034029200982204797 -0.025632777021172819 0 0.0027366085547317408 -0.025526974302023404 0 0.0028592706928816519 -0.025364363095318102 0 0.0038052493204796776 -0.024755389434284691 0 0.0031107232510847464 -0.024923661419387708 0 0.0025495116941188492 -0.025342033183423693 0 0.0027366085547317408 -0.025526974302023404 0 0.0028592706928816519 -0.025364363095318102 0 0.0034029200982204797 -0.025632777021172819 0 0.0028592706928816519 -0.025364363095318102 0 0.0035114080899280621 -0.025205821769554455 0 0.0028592706928816519 -0.025364363095318102 0 0.0035114080899280621 -0.025205821769554455 0 0.0031487821290826458 -0.024767792752227645 0 0.0035114080899280621 -0.025205821769554455 0 0.0031487821290826458 -0.024767792752227645 0 0.0040539831457871893 -0.024825468023636405 0 0.002321163317516947 -0.024069014383434811 0 0.0022153045140780839 -0.025315169148887432 0 0.0031487821290826458 -0.024767792752227645 0 0.0022153045140780839 -0.025315169148887432 0 0.0028592706928816519 -0.025364363095318102 0 0.0031487821290826458 -0.024767792752227645 0 0.002321163317516947 -0.024069014383434811 0 0.0031487821290826458 -0.024767792752227645 0 0.003220060442545216 -0.02412366866978341 0 0.0031487821290826458 -0.024767792752227645 0 0.003220060442545216 -0.02412366866978341 0 0.0041007183842089326 -0.024115978212186456 0 0.0044882149192681286 -0.023918675237245099 0 0.0046655067297272576 -0.02471515094924355 0 0.0031487821290826458 -0.024767792752227645 0 0.0041007183842089326 -0.024115978212186456 0 0.0040539831457871893 -0.024825468023636405 0 0.0053083755239270143 -0.024478291291901905 0 0.0056767243902507208 -0.023851594550607681 0 0.0060530254190678291 -0.024395924858051039 0 0.0053083755239270143 -0.024478291291901905 0 0.0060530254190678291 -0.024395924858051039 0 0.0059841228422970833 -0.024776308236574878 0 0.004906491878954213 -0.023874271835801202 0 0.0053083755239270143 -0.024478291291901905 0 0.0056767243902507208 -0.023851594550607681 0 0.004906491878954213 -0.023874271835801202 0 0.0056767243902507208 -0.023851594550607681 0 0.0051389434578705869 -0.023369306970138466 0 0.0056767243902507208 -0.023851594550607681 0 0.0051389434578705869 -0.023369306970138466 0 0.0058401593615709391 -0.023207505783409462 0 0.0044882149192681286 -0.023918675237245099 0 0.0042784707091752102 -0.023103155713932538 0 0.004906491878954213 -0.023874271835801202 0 0.0051389434578705869 -0.023369306970138466 0 0.0042705994965246833 -0.023072463365216744 0 0.0041007183842089326 -0.024115978212186456 0 0.0042705994965246833 -0.023072463365216744 0 0.003719309164313987 -0.02371171943701289 0 0.0042705994965246833 -0.023072463365216744 0 0.0048702781499516219 -0.022645634309182476 0 0.0037134139999554631 -0.0224992811348791 0 0.0048702781499516219 -0.022645634309182476 0 0.0037134139999554631 -0.0224992811348791 0 0.0051712909525262508 -0.022310969809484674 0 0.0051389434578705869 -0.023369306970138466 0 0.0042705994965246833 -0.023072463365216744 0 0.0048702781499516219 -0.022645634309182476 0 0.003943621881331379 -0.024387850879634864 0 0.0057681646718605777 -0.02503680213173266 0 0.0058676222118033659 -0.023519629070566227 0 0.0057681646718605777 -0.02503680213173266 0 0.0057681646718605777 -0.02503680213173266 0 0.0067080865201088764 -0.024029006257093578 0 0.0075966205814482716 -0.025276672302195699 0 0.0075805012926391099 -0.025192650637761195 0 0.00755678373872365 -0.025254230226893978 0 0.0051389434578705869 -0.023369306970138466 0 0.0048702781499516219 -0.022645634309182476 0 0.0058401593615709391 -0.023207505783409462 0 0.0048702781499516219 -0.022645634309182476 0 0.0051111698305970057 -0.022383951880670879 0 0.0058401593615709391 -0.023207505783409462 0 0.0075966205814482716 -0.025276672302195699 0 0.0075273527622640567 -0.025286070296038247 0 0.00755678373872365 -0.025254230226893978 0 0.002321163317516947 -0.024069014383434811 0 0.003063212893082836 -0.023575996662417501 0 0.0024995421624904421 -0.022733171149450487 0 0.002321163317516947 -0.024069014383434811 0 0.003220060442545216 -0.02412366866978341 0 0.003063212893082836 -0.023575996662417501 0 0.003220060442545216 -0.02412366866978341 0 0.0041007183842089326 -0.024115978212186456 0 0.003719309164313987 -0.02371171943701289 0 0.003063212893082836 -0.023575996662417501 0 0.003719309164313987 -0.02371171943701289 0 0.0034313666277156632 -0.023124470458825788 0 0.003220060442545216 -0.02412366866978341 0 0.003063212893082836 -0.023575996662417501 0 0.003719309164313987 -0.02371171943701289 0 0.0042705994965246833 -0.023072463365216744 0 0.003719309164313987 -0.02371171943701289 0 0.0034313666277156632 -0.023124470458825788 0 0.0042705994965246833 -0.023072463365216744 0 0.0037134139999554631 -0.0224992811348791 0 0.0034313666277156632 -0.023124470458825788 0 0.0037134139999554631 -0.0224992811348791 0 0.0034313666277156632 -0.023124470458825788 0 0.0024995421624904421 -0.022733171149450487 0 0.003063212893082836 -0.023575996662417501 0 0.0034313666277156632 -0.023124470458825788 0 0.0024995421624904421 -0.022733171149450487 0 0.003943621881331379 -0.024387850879634864 0 0.0030119047603774369 -0.025229505746553055 0 0.0043693254591261228 -0.026508436523015908 0 0.0032341736823174321 -0.026619054547007158 0 0.0034008794224080702 -0.025820748759364406 0 0.0030119047603774369 -0.025229505746553055 0 0.0031794523209482894 -0.025918402776919165 0 0.0043693254591261228 -0.026508436523015908 0 0.0034008794224080702 -0.025820748759364406 0 0.0043032405084839163 -0.025821065323903502 0 0.0043032405084839163 -0.025821065323903502 0 0.0048979393032437405 -0.026075221152687612 0 0.0047330320483530983 -0.025341096354620393 0 0.0043693254591261228 -0.026508436523015908 0 0.0043032405084839163 -0.025821065323903502 0 0.0048979393032437405 -0.026075221152687612 0 0.0046636114570651668 -0.0249999844719518 0 0.004119517724653461 -0.025348115816940811 0 0.0035332749513721624 -0.024999981280259424 0 0.0034008794224080702 -0.025820748759364406 0 0.0043032405084839163 -0.025821065323903502 0 0.004119517724653461 -0.025348115816940811 0 0.0043032405084839163 -0.025821065323903502 0 0.004119517724653461 -0.025348115816940811 0 0.0047330320483530983 -0.025341096354620393 0 0.0046636114570651668 -0.0249999844719518 0 0.004119517724653461 -0.025348115816940811 0 0.0047330320483530983 -0.025341096354620393 0 0.0034008794224080702 -0.025820748759364406 0 0.004119517724653461 -0.025348115816940811 0 0.0035332749513721624 -0.024999981280259424 0 0.00263978849853972 -0.025500541733448328 0 0.0030377966164802724 -0.025701445374277699 0 0.0035325611964469629 -0.024999899115419135 0 0.0031794523209482894 -0.025918402776919165 0 0.0035330722622376968 -0.024999964867074016 0 0.0055894191856757543 -0.026488402666949979 0 0.0056050761095297712 -0.02563097583040528 0 0.0062682958526609168 -0.025728052275919931 0 0.0060877238029516971 -0.026039168581610077 0 0.0065721193451990139 -0.025500792735711438 0 0.006886059021239393 -0.025968270408393879 0 0.0057681646718605777 -0.02503680213173266 0 0.0074247496262051377 -0.025657191929405281 0 0.0057681646718605777 -0.02503680213173266 0 0.0063419058049507893 -0.02576749861847703 0 0.0043693254591261228 -0.026508436523015908 0 0.0054830731371296928 -0.026383662550750447 0 0.0048979393032437405 -0.026075221152687612 0 0.0054830731371296928 -0.026383662550750447 0 0.0048979393032437405 -0.026075221152687612 0 0.0047330320483530983 -0.025341096354620393 0 0.0057681646718605777 -0.02503680213173266 0 0.0048023890298035067 -0.025896316885807846 0 0.0055894191856757543 -0.026488402666949979 0 0.0047330320483530983 -0.025341096354620393 0 0.0056050761095297712 -0.02563097583040528 0 0.0046636114570651668 -0.0249999844719518 0 0.0047330320483530983 -0.025341096354620393 0 0.0057942151145032655 -0.024999988540041415 0 0.0047330320483530983 -0.025341096354620393 0 0.0057942151145032655 -0.024999988540041415 0 0.0056050761095297712 -0.02563097583040528 0 0.0057942151145032655 -0.024999988540041415 0 0.0056050761095297712 -0.02563097583040528 0 0.0062682958526609168 -0.025728052275919931 0 0.006924734140715769 -0.025000010125625149 0 0.0063419058049507893 -0.02576749861847703 0 0.0057942151145032655 -0.024999988540041415 0 0.0069247145723130314 -0.02500000055439237 0 0.0062682958526609168 -0.025728052275919931 0 0.0069253144220314256 -0.024999845157911923 0 0.0065721193451990139 -0.025500792735711438 0 0.0071940141599195258 -0.025466076951268964 0 0.0065721193451990139 -0.025500792735711438 0 0.006886059021239393 -0.025968270408393879 0 0.0071940141599195258 -0.025466076951268964 0 0.006886059021239393 -0.025968270408393879 0 0.0077376086011484158 -0.025813404743090872 0 0.0071940141599195258 -0.025466076951268964 0 0.0074247496262051377 -0.025657191929405281 0 0.0075611679629777606 -0.02555002930419608 0 0.0077376086011484158 -0.025813404743090872 0 0.0071940141599195258 -0.025466076951268964 0 0.0079927394357429248 -0.024999833139655016 0 0.0069253144220314256 -0.024999845157911923 0 0.0071940141599195258 -0.025466076951268964 0 0.0079927394357429248 -0.024999833139655016 0 0.0077376086011484158 -0.025813404743090872 0 0.0079927394357429248 -0.024999833139655016 0 0.0082958211441142866 -0.025296584465503306 0 0.0079927394357429248 -0.024999833139655016 0 0.0082958211441142866 -0.025296584465503306 0 0.0090599100850561505 -0.025000115501371923 0 0.0090618479272767741 -0.024999974367406082 0 0.0095841507445651591 -0.026083082536302246 0 0.010038865250373971 -0.025609066239093536 0 0.0090609566289480015 -0.024999892402132767 0 0.0087803855792658835 -0.025683247193714235 0 0.0082958211441142866 -0.025296584465503306 0 0.0090599100850561505 -0.025000115501371923 0 0.0080129227770957389 -0.025460087738775485 0 0.0090599100850561505 -0.025000115501371923 0 0.0080129227770957389 -0.025460087738775485 0 0.0079210263614691492 -0.02549589519593623 0 0.0080129227770957389 -0.025460087738775485 0 0.0079210263614691492 -0.02549589519593623 0 0.0076121823522026745 -0.025394158504015305 0 0.0077376086011484158 -0.025813404743090872 0 0.0082958211441142866 -0.025296584465503306 0 0.0080129227770957389 -0.025460087738775485 0 0.0075611679629777606 -0.02555002930419608 0 0.007960917232873883 -0.025478563427619109 0 0.0074981633603061742 -0.025287084791760103 0 0.0080129227770957389 -0.025460087738775485 0 0.0076121823522026745 -0.025394158504015305 0 0.0076121823522026745 -0.025394158504015305 0 0.0072153707982908081 -0.025019294163773229 0 0.0074693450833453363 -0.02525363247738684 0 0.0079210263614691492 -0.02549589519593623 0 0.0076121823522026745 -0.025394158504015305 0 0.0071948211799674625 -0.025159453090225561 0 0.0087803855792658835 -0.025683247193714235 0 0.0087470880941824727 -0.025777269046313559 0 0.0095841507445651591 -0.026083082536302246 0 0.010284495394777205 -0.026530929765612894 0 0.010087437498941074 -0.026446502618054053 0 0.010284495394777205 -0.026530929765612894 0 0.010087437498941074 -0.026446502618054053 0 0.010064872404839284 -0.026553324187875364 0 0.0076121823522026745 -0.025394158504015305 0 0.0071948211799674625 -0.025159453090225561 0 0.0072153707982908081 -0.025019294163773229 0 0.0072153707982908081 -0.025019294163773229 0 0.0074693450833453363 -0.02525363247738684 0 0.0074681051769525343 -0.024963787938118886 0 0.0056767243902507208 -0.023851594550607681 0 0.0058401593615709391 -0.023207505783409462 0 0.0063568420398699022 -0.023847768383213341 0 0.0067080865201088764 -0.024029006257093578 0 0.0069083103744185413 -0.02444285623208468 0 0.0075805012926391099 -0.025192650637761195 0 0.0074693450833453363 -0.02525363247738684 0 0.0074681051769525343 -0.024963787938118886 0 0.0075273527622640567 -0.025286070296038247 0 0.0075251812833125832 -0.025249779339170789 0 0.0074693450833453363 -0.02525363247738684 0 0.0075805012926391099 -0.025192650637761195 0 0.0075251812833125832 -0.025249779339170789 0 0.0074693450833453363 -0.02525363247738684 0 0.0075805012926391099 -0.025192650637761195 0 0.0075251812833125832 -0.025249779339170789 0 0.00755678373872365 -0.025254230226893978 0 0.0075273527622640567 -0.025286070296038247 0 0.0075251812833125832 -0.025249779339170789 0 0.00755678373872365 -0.025254230226893978 0 0.0074981633603061742 -0.025287084791760103 0 0.0076121823522026745 -0.025394158504015305 0 0.0074693450833453363 -0.02525363247738684 0 0.0075273527622640567 -0.025286070296038247 0 0.0074981633603061742 -0.025287084791760103 0 0.0074693450833453363 -0.02525363247738684 0 0.011198650245738464 -0.025563386212815772 0 0.011440174944568365 -0.026231347543517115 0 0.012592620378028907 -0.0256046271920394 0 0.011861636139161249 -0.024999610284849618 0 0.011198650245738464 -0.025563386212815772 0 0.012592620378028907 -0.0256046271920394 0 0.011862135646771813 -0.025000077973537291 0 0.012737556708475914 -0.025719374651565572 0 0.011861636139161249 -0.024999610284849618 0 0.011198650245738464 -0.025563386212815772 0 0.010461717318163146 -0.024999909537034688 0 0.011198650245738464 -0.025563386212815772 0 0.010373192414789035 -0.02615008141386925 0 0.011440174944568365 -0.026231347543517115 0 0.011198650245738464 -0.025563386212815772 0 0.010038865250373971 -0.025609066239093536 0 0.010373192414789035 -0.02615008141386925 0 0.011198650245738464 -0.025563386212815772 0 0.010461717318163146 -0.024999909537034688 0 0.010038865250373971 -0.025609066239093536 0 0.0090618479272767741 -0.024999974367406082 0 0.010461717318163146 -0.024999909537034688 0 0.010038865250373971 -0.025609066239093536 0 0.0095841507445651591 -0.026083082536302246 0 0.010038865250373971 -0.025609066239093536 0 0.010373192414789035 -0.02615008141386925 0 0.010087437498941074 -0.026446502618054053 0 0.010603092856159608 -0.026619700398803257 0 0.010373192414789035 -0.02615008141386925 0 0.0095841507445651591 -0.026083082536302246 0 0.010087437498941074 -0.026446502618054053 0 0.010373192414789035 -0.02615008141386925 0 0.010087437498941074 -0.026446502618054053 0 0.010064872404839284 -0.026553324187875364 0 0.010603092856159608 -0.026619700398803257 0 0.010386804220252377 -0.026571961008030238 0 0.0092728320119420254 -0.026944073428463694 0 0.010064872404839284 -0.026553324187875364 0 0.010603092856159608 -0.026619700398803257 0 0.010924195104909201 -0.027251542589876103 0 0.010603092856159608 -0.026619700398803257 0 0.010373192414789035 -0.02615008141386925 0 0.011440174944568365 -0.026231347543517115 0 0.010603092856159608 -0.026619700398803257 0 0.011440174944568365 -0.026231347543517115 0 0.011746531901180288 -0.026850362073800229 0 0.011746531901180288 -0.026850362073800229 0 0.01213373216153645 -0.027672651284173212 0 0.010924195104909201 -0.027251542589876103 0 0.010603092856159608 -0.026619700398803257 0 0.011746531901180288 -0.026850362073800229 0 0.010924195104909201 -0.027251542589876103 0 0.011746531901180288 -0.026850362073800229 0 0.012539131813711558 -0.027114592963331352 0 0.012647476213343483 -0.026711873502496444 0 0.011746531901180288 -0.026850362073800229 0 0.012539131813711558 -0.027114592963331352 0 0.01213373216153645 -0.027672651284173212 0 0.011440174944568365 -0.026231347543517115 0 0.012260215181103122 -0.026387362804802299 0 0.012592620378028907 -0.0256046271920394 0 0.011746531901180288 -0.026850362073800229 0 0.012260215181103122 -0.026387362804802299 0 0.012647476213343483 -0.026711873502496444 0 0.011440174944568365 -0.026231347543517115 0 0.011746531901180288 -0.026850362073800229 0 0.012260215181103122 -0.026387362804802299 0 0.014023262954039597 -0.02369212009385788 0 0.014538628051363656 -0.019608798750268261 0 0.020229932287632806 -0.015473673615310796 0 0.020220326616172075 -0.015521401767971545 0 0.020098655569199108 -0.015490982202603622 0 0.020229932287632806 -0.015473673615310796 0 0.020220326616172075 -0.015521401767971545 0 0.020258347649339006 -0.015493913508751598 0 0.011836821239781152 -0.028110460709819752 0 0.014023262954039597 -0.02369212009385788 0 0.012539131813711558 -0.027114592963331352 0 0.012259213759285329 -0.027617280974246147 0 0.012957100704013911 -0.02738582134394393 0 0.014023262954039597 -0.02369212009385788 0 0.0092728320119420254 -0.026944073428463694 0 0.0081740754573330666 -0.025828248258810308 0 0.0087592256779923678 -0.025595159953518961 0 0.0091041083622754454 -0.026149588918377507 0 0.0087592256779923678 -0.025595159953518961 0 0.0086524810671356235 -0.024896388578095965 0 0.0095592827676861131 -0.025523546091367588 0 0.0081740754573330666 -0.025828248258810308 0 0.0087592256779923678 -0.025595159953518961 0 0.0086524810671356235 -0.024896388578095965 0 0.0086524810671356235 -0.024896388578095965 0 0.0095592827676861131 -0.025523546091367588 0 0.009932575371678928 -0.024577452701526156 0 0.0087592256779923678 -0.025595159953518961 0 0.0095592827676861131 -0.025523546091367588 0 0.0091041083622754454 -0.026149588918377507 0 0.010064872404839284 -0.026553324187875364 0 0.0095592827676861131 -0.025523546091367588 0 0.0091041083622754454 -0.026149588918377507 0 0.010064872404839284 -0.026553324187875364 0 0.0095592827676861131 -0.025523546091367588 0 0.010824542926727493 -0.025462537418707999 0 0.0095592827676861131 -0.025523546091367588 0 0.009932575371678928 -0.024577452701526156 0 0.010824542926727493 -0.025462537418707999 0 0.010394620698861457 -0.023494793735643414 0 0.0091943503401018915 -0.023834167568931704 0 0.0098239170663628663 -0.022667985028550913 0 0.009932575371678928 -0.024577452701526156 0 0.010394620698861457 -0.023494793735643414 0 0.0091943503401018915 -0.023834167568931704 0 0.014499729749599137 -0.019859109729365245 0 0.014742987336082302 -0.01930425113791337 0 0.0086524810671356235 -0.024896388578095965 0 0.009932575371678928 -0.024577452701526156 0 0.0091943503401018915 -0.023834167568931704 0 0.014538628051363656 -0.019608798750268261 0 0.014499729749599137 -0.019859109729365245 0 0.020098655569199108 -0.015490982202603622 0 0.01988516611475839 -0.015660330188760056 0 0.020171451065543359 -0.015550650197746428 0 0.01988516611475839 -0.015660330188760056 0 0.020258413034871952 -0.015661332427954935 0 0.020022673734139157 -0.015818277060280304 0 0.01988516611475839 -0.015660330188760056 0 0.020258413034871952 -0.015661332427954935 0 0.020171451065543359 -0.015550650197746428 0 0.020229932287632806 -0.015473673615310796 0 0.020098655569199108 -0.015490982202603622 0 0.020171451065543359 -0.015550650197746428 0 0.020229932287632806 -0.015473673615310796 0 0.020171451065543359 -0.015550650197746428 0 0.020337596444252194 -0.015522902880318488 0 0.020258413034871952 -0.015661332427954935 0 0.020171451065543359 -0.015550650197746428 0 0.020337596444252194 -0.015522902880318488 0 0.0068857473756475159 -0.024541596040835691 0 0.0067226249413785558 -0.02464907843138817 0 0.0064091806144798338 -0.024694577901754229 0 0.0068857473756475159 -0.024541596040835691 0 0.0060530254190678291 -0.024395924858051039 0 0.0064091806144798338 -0.024694577901754229 0 0.0056767243902507208 -0.023851594550607681 0 0.0060530254190678291 -0.024395924858051039 0 0.0063568420398699022 -0.023847768383213341 0 0.0072153707982908081 -0.025019294163773229 0 0.0068857473756475159 -0.024541596040835691 0 0.0074681051769525343 -0.024963787938118886 0 0.0068857473756475159 -0.024541596040835691 0 0.0060530254190678291 -0.024395924858051039 0 0.0063568420398699022 -0.023847768383213341 0 0.0069063289301582861 -0.024522713252063691 0 0.0069083103744185413 -0.02444285623208468 0 0.0072153707982908081 -0.025019294163773229 0 0.0068857473756475159 -0.024541596040835691 0 0.0068682307819654042 -0.024647303564543296 0 0.0071948211799674625 -0.025159453090225561 0 0.0072153707982908081 -0.025019294163773229 0 0.0068682307819654042 -0.024647303564543296 0 0.010284495394777205 -0.026530929765612894 0 0.010064872404839284 -0.026553324187875364 0 0.010824542926727493 -0.025462537418707999 0 0.0087470880941824727 -0.025777269046313559 0 0.0088475155329595743 -0.025031920523671373 0 0.0068857473756475159 -0.024541596040835691 0 0.0068682307819654042 -0.024647303564543296 0 0.0067226249413785558 -0.02464907843138817 0 0.0068682307819654042 -0.024647303564543296 0 0.0067226249413785558 -0.02464907843138817 0 0.0067432418033214299 -0.024705402384590954 0 0.0067226249413785558 -0.02464907843138817 0 0.0067432418033214299 -0.024705402384590954 0 0.0064212435821508788 -0.024788268173961087 0 0.009932575371678928 -0.024577452701526156 0 0.010824542926727493 -0.025462537418707999 0 0.011109111734830486 -0.024110288251010421 0 0.0088475155329595743 -0.025031920523671373 0 0.008915134227309102 -0.02442545585120463 0 0.009932575371678928 -0.024577452701526156 0 0.010394620698861457 -0.023494793735643414 0 0.011109111734830486 -0.024110288251010421 0 0.010394620698861457 -0.023494793735643414 0 0.011109111734830486 -0.024110288251010421 0 0.011325641354675823 -0.022703899995203933 0 0.008915134227309102 -0.02442545585120463 0 0.0090040270199232969 -0.023674332410854239 0 0.0067432418033214299 -0.024705402384590954 0 0.0065740170879318438 -0.024927251971170142 0 0.0064778096125078745 -0.024862477917111787 0 0.0067432418033214299 -0.024705402384590954 0 0.0064212435821508788 -0.024788268173961087 0 0.0064778096125078745 -0.024862477917111787 0 0.0064212435821508788 -0.024788268173961087 0 0.006044276232775393 -0.024782245347553768 0 0.006292654590504169 -0.024895514974532663 0 0.0064212435821508788 -0.024788268173961087 0 0.006292654590504169 -0.024895514974532663 0 0.0064778096125078745 -0.024862477917111787 0 0.0064212435821508788 -0.024788268173961087 0 0.0064091806144798338 -0.024694577901754229 0 0.0062135769873562759 -0.02477114410312084 0 0.0067226249413785558 -0.02464907843138817 0 0.0064212435821508788 -0.024788268173961087 0 0.0064091806144798338 -0.024694577901754229 0 0.0060530254190678291 -0.024395924858051039 0 0.0064091806144798338 -0.024694577901754229 0 0.0059841228422970833 -0.024776308236574878 0 0.0064091806144798338 -0.024694577901754229 0 0.0062135769873562759 -0.02477114410312084 0 0.0059841228422970833 -0.024776308236574878 0 0.0062135769873562759 -0.02477114410312084 0 0.0059841228422970833 -0.024776308236574878 0 0.006044276232775393 -0.024782245347553768 0 0.0064212435821508788 -0.024788268173961087 0 0.0062135769873562759 -0.02477114410312084 0 0.006044276232775393 -0.024782245347553768 0 0.006044276232775393 -0.024782245347553768 0 0.0061029210917707497 -0.024944428219819278 0 0.006292654590504169 -0.024895514974532663 0 0.006044276232775393 -0.024782245347553768 0 0.0061029210917707497 -0.024944428219819278 0 0.0057083016502578353 -0.024807892246326967 0 0.0061029210917707497 -0.024944428219819278 0 0.0062369265907481417 -0.024975519462011198 0 0.006292654590504169 -0.024895514974532663 0 0.0061029210917707497 -0.024944428219819278 0 0.0061405166821648753 -0.025023374545688683 0 0.0059661969050384036 -0.025041041813735284 0 0.0061029210917707497 -0.024944428219819278 0 0.0061405166821648753 -0.025023374545688683 0 0.0062369265907481417 -0.024975519462011198 0 0.0061405166821648753 -0.025023374545688683 0 0.0062543378151863832 -0.025055483292701283 0 0.0061219935034396867 -0.025115494577951095 0 0.0061405166821648753 -0.025023374545688683 0 0.0059661969050384036 -0.025041041813735284 0 0.0061219935034396867 -0.025115494577951095 0 0.0062543378151863832 -0.025055483292701283 0 0.0063942249720966189 -0.024965966404284872 0 0.0063859246293328561 -0.025083680837276513 0 0.0061405166821648753 -0.025023374545688683 0 0.0062543378151863832 -0.025055483292701283 0 0.0062369265907481417 -0.024975519462011198 0 0.0062543378151863832 -0.025055483292701283 0 0.0062369265907481417 -0.024975519462011198 0 0.0063942249720966189 -0.024965966404284872 0 0.0062369265907481417 -0.024975519462011198 0 0.0063942249720966189 -0.024965966404284872 0 0.006292654590504169 -0.024895514974532663 0 0.0063942249720966189 -0.024965966404284872 0 0.006292654590504169 -0.024895514974532663 0 0.0064778096125078745 -0.024862477917111787 0 0.0063942249720966189 -0.024965966404284872 0 0.0065740170879318438 -0.024927251971170142 0 0.0064778096125078745 -0.024862477917111787 0 0.010394620698861457 -0.023494793735643414 0 0.011325641354675823 -0.022703899995203933 0 0.0098239170663628663 -0.022667985028550913 0 0.011325641354675823 -0.022703899995203933 0 0.01054084339826475 -0.021462750891271306 0 0.0098239170663628663 -0.022667985028550913 0 0.011325641354675823 -0.022703899995203933 0 0.011495056836229483 -0.021227631178306318 0 0.01054084339826475 -0.021462750891271306 0 0.0063942249720966189 -0.024965966404284872 0 0.0065740170879318438 -0.024927251971170142 0 0.00649937697721079 -0.025028683641903037 0 0.0090040270199232969 -0.023674332410854239 0 0.0086255822173719812 -0.023732011223539937 0 0.0065740170879318438 -0.024927251971170142 0 0.00649937697721079 -0.025028683641903037 0 0.0065033250964410495 -0.025102412030715091 0 0.0063942249720966189 -0.024965966404284872 0 0.00649937697721079 -0.025028683641903037 0 0.0063859246293328561 -0.025083680837276513 0 0.0063859246293328561 -0.025083680837276513 0 0.0065139541712156612 -0.025123443481433853 0 0.006313237392226191 -0.025188442177055174 0 0.0065139541712156612 -0.025123443481433853 0 0.0063912028162512215 -0.025274069262142512 0 0.006313237392226191 -0.025188442177055174 0 0.0086255822173719812 -0.023732011223539937 0 0.014123293158569085 -0.018725656012146843 0 0.00649937697721079 -0.025028683641903037 0 0.0063859246293328561 -0.025083680837276513 0 0.0065139541712156612 -0.025123443481433853 0 0.0071324978014058217 -0.025070654557958302 0 0.0086255822173719812 -0.023732011223539937 0 0.015286120952491175 -0.018644416745320143 0 0.014123293158569085 -0.018725656012146843 0 0.011495056836229483 -0.021227631178306318 0 0.01054084339826475 -0.021462750891271306 0 0.01129267030869191 -0.02022746105967892 0 0.019604768432794847 -0.016131941440187751 0 0.019587597284908897 -0.016256057188299401 0 0.019703716087102249 -0.016256086978744609 0 0.0063912028162512215 -0.025274069262142512 0 0.006230463247323112 -0.025371625665931319 0 0.00649670372846057 -0.02542392413106773 0 0.010454412460259457 -0.022770285825897879 0 0.010109168177761706 -0.021264655483694644 0 0.010626577055577522 -0.020412038294915877 0 0.0065139541712156612 -0.025123443481433853 0 0.0063912028162512215 -0.025274069262142512 0 0.00649670372846057 -0.02542392413106773 0 0.0086255822173719812 -0.023732011223539937 0 0.010124979744195057 -0.021629897194223768 0 0.014123293158569085 -0.018725656012146843 0 0.010124979744195057 -0.021629897194223768 0 0.0063912028162512215 -0.025274069262142512 0 0.006230463247323112 -0.025371625665931319 0 0.006313237392226191 -0.025188442177055174 0 0.006230463247323112 -0.025371625665931319 0 0.0061103618678309156 -0.025234984810318169 0 0.006313237392226191 -0.025188442177055174 0 0.006230463247323112 -0.025371625665931319 0 0.006064075804434718 -0.025363904104568818 0 0.0061103618678309156 -0.025234984810318169 0 0.006230463247323112 -0.025371625665931319 0 0.006064075804434718 -0.025363904104568818 0 0.0060587085554884377 -0.025504284241082247 0 0.006064075804434718 -0.025363904104568818 0 0.0060587085554884377 -0.025504284241082247 0 0.0058845666231065559 -0.025402776380749718 0 0.006064075804434718 -0.025363904104568818 0 0.0059666598783348615 -0.025212387793153185 0 0.0058845666231065559 -0.025402776380749718 0 0.006064075804434718 -0.025363904104568818 0 0.0061103618678309156 -0.025234984810318169 0 0.0059666598783348615 -0.025212387793153185 0 0.0061103618678309156 -0.025234984810318169 0 0.0059666598783348615 -0.025212387793153185 0 0.0061219935034396867 -0.025115494577951095 0 0.0059661969050384036 -0.025041041813735284 0 0.0059666598783348615 -0.025212387793153185 0 0.0061219935034396867 -0.025115494577951095 0 0.0062543378151863832 -0.025055483292701283 0 0.0061219935034396867 -0.025115494577951095 0 0.006313237392226191 -0.025188442177055174 0 0.0062543378151863832 -0.025055483292701283 0 0.0063859246293328561 -0.025083680837276513 0 0.006313237392226191 -0.025188442177055174 0 0.0061103618678309156 -0.025234984810318169 0 0.0061219935034396867 -0.025115494577951095 0 0.006313237392226191 -0.025188442177055174 0 0.019960677821656416 -0.016049600597021634 0 0.02024049267963544 -0.016124264877854257 0 0.020378159027138441 -0.015825562355113808 0 0.020258413034871952 -0.015661332427954935 0 0.020022673734139157 -0.015818277060280304 0 0.020378159027138441 -0.015825562355113808 0 0.020022673734139157 -0.015818277060280304 0 0.019960677821656416 -0.016049600597021634 0 0.020378159027138441 -0.015825562355113808 0 0.019960677821656416 -0.016049600597021634 0 0.019700385638099276 -0.01591400017392313 0 0.019781016136030241 -0.016173058160411886 0 0.01988516611475839 -0.015660330188760056 0 0.020022673734139157 -0.015818277060280304 0 0.019700385638099276 -0.01591400017392313 0 0.020022673734139157 -0.015818277060280304 0 0.019960677821656416 -0.016049600597021634 0 0.019700385638099276 -0.01591400017392313 0 0.019604768432794847 -0.016131941440187751 0 0.019700385638099276 -0.01591400017392313 0 0.019781016136030241 -0.016173058160411886 0 0.015286120952491175 -0.018644416745320143 0 0.014742987336082302 -0.01930425113791337 0 0.019604768432794847 -0.016131941440187751 0 0.019703716087102249 -0.016256086978744609 0 0.019781016136030241 -0.016173058160411886 0 0.019703716087102249 -0.016256086978744609 0 0.019781016136030241 -0.016173058160411886 0 0.019773416472280737 -0.016262859578049457 0 0.019781016136030241 -0.016173058160411886 0 0.019857345151740858 -0.016244059291632054 0 0.019773416472280737 -0.016262859578049457 0 0.019960677821656416 -0.016049600597021634 0 0.019781016136030241 -0.016173058160411886 0 0.019857345151740858 -0.016244059291632054 0 0.019949690390176602 -0.016046988572770229 0 0.019965189754353966 -0.01632669038156739 0 0.019960677821656416 -0.016049600597021634 0 0.020049269700086258 -0.016387482803062882 0 0.02024049267963544 -0.016124264877854257 0 0.020049269700086258 -0.016387482803062882 0 0.020344479389163676 -0.016351053047172062 0 0.02024049267963544 -0.016124264877854257 0 0.020049269700086258 -0.016387482803062882 0 0.020344479389163676 -0.016351053047172062 0 0.020247475512563718 -0.016642191537539347 0 0.020344479389163676 -0.016351053047172062 0 0.02024049267963544 -0.016124264877854257 0 0.020486781641475597 -0.016025027685615464 0 0.020186646141496827 -0.016837553773934557 0 0.020247475512563718 -0.016642191537539347 0 0.02046018101249153 -0.016644751513671143 0 0.02034826926483058 -0.016739026767237375 0 0.020436163458304735 -0.016835159008299967 0 0.020555437564127033 -0.016522694542331958 0 0.02034826926483058 -0.016739026767237375 0 0.020262357634388554 -0.016738167574463406 0 0.020555437564127033 -0.016522694542331958 0 0.019968485548043029 -0.016520656164396894 0 0.020532065607543403 -0.01660104328985515 0 0.020181206638635568 -0.016385679006199253 0 0.019968485548043029 -0.016520656164396894 0 0.02034826926483058 -0.016739026767237375 0 0.020431804546081064 -0.016827390009309672 0 0.020262357634388554 -0.016738167574463406 0 0.019545623952065831 -0.016127404024148816 0 0.019580186840463972 -0.016149214250648719 0 0.019569665494440291 -0.016118355557552432 0 0.020406196724673697 -0.016707750764414091 0 0.020181206638635568 -0.016385679006199253 0 0.019580186840463972 -0.016149214250648719 0 0.019593370424688606 -0.016138402807469365 0 0.019569665494440291 -0.016118355557552432 0 0.019861036265267713 -0.016457920655824926 0 0.019869511235804379 -0.016462722026192603 0 0.019867864324931525 -0.016452445561889857 0 0.019968485548043029 -0.016520656164396894 0 0.019817236063208864 -0.016335096487644203 0 0.020186646141496827 -0.016837553773934557 0 0.020247475512563718 -0.016642191537539347 0 0.020110952316251537 -0.016794503717097245 0 0.019968485548043029 -0.016520656164396894 0 0.019895494781988959 -0.016477079620558686 0 0.020344479389163676 -0.016351053047172062 0 0.020247475512563718 -0.016642191537539347 0 0.02046018101249153 -0.016644751513671143 0 0.019965189754353966 -0.01632669038156739 0 0.019895494781988959 -0.016477079620558686 0 0.019857345151740858 -0.016244059291632054 0 0.019780080764810283 -0.01629702962918448 0 0.019813693789843618 -0.016317543958820728 0 0.020049269700086258 -0.016387482803062882 0 0.020247475512563718 -0.016642191537539347 0 0.020110952316251537 -0.016794503717097245 0 0.019857345151740858 -0.016244059291632054 0 0.019780080764810283 -0.01629702962918448 0 0.019773416472280737 -0.016262859578049457 0 0.019780080764810283 -0.01629702962918448 0 0.019715580873122984 -0.016291786405182911 0 0.019748562177252429 -0.016280316976177898 0 0.019780080764810283 -0.01629702962918448 0 0.019748562177252429 -0.016280316976177898 0 0.019763673200042093 -0.016279282687285616 0 0.019723896463767179 -0.016292430030872121 0 0.019895494781988959 -0.016477079620558686 0 0.019715580873122984 -0.016291786405182911 0 0.019724618894501972 -0.016275822941330273 0 0.019748562177252429 -0.016280316976177898 0 0.019715580873122984 -0.016291786405182911 0 0.019724618894501972 -0.016275822941330273 0 0.019711160399815693 -0.016273781826026044 0 0.019895494781988959 -0.016477079620558686 0 0.019817236063208864 -0.016335096487644203 0 0.019724618894501972 -0.016275822941330273 0 0.019711160399815693 -0.016273781826026044 0 0.019713621136014794 -0.016270661767485713 0 0.019817236063208864 -0.016335096487644203 0 0.019790888227384205 -0.016335021018965452 0 0.019724618894501972 -0.016275822941330273 0 0.019713621136014794 -0.016270661767485713 0 0.019738015782358023 -0.016267088827434318 0 0.019754977733921982 -0.01626360980637942 0 0.019748562177252429 -0.016280316976177898 0 0.019763673200042093 -0.016279282687285616 0 0.019738015782358023 -0.016267088827434318 0 0.019754977733921982 -0.01626360980637942 0 0.019748562177252429 -0.016280316976177898 0 0.019724618894501972 -0.016275822941330273 0 0.019738015782358023 -0.016267088827434318 0 0.019748562177252429 -0.016280316976177898 0 0.019780080764810283 -0.01629702962918448 0 0.019749236453000998 -0.01628317693455672 0 0.019763673200042093 -0.016279282687285616 0 0.019749236453000998 -0.01628317693455672 0 0.019763673200042093 -0.016279282687285616 0 0.019766081330916254 -0.016253541897869372 0 0.019754977733921982 -0.01626360980637942 0 0.019763673200042093 -0.016279282687285616 0 0.019766081330916254 -0.016253541897869372 0 0.019780080764810283 -0.01629702962918448 0 0.019749236453000998 -0.01628317693455672 0 0.019773416472280737 -0.016262859578049457 0 0.019703716087102249 -0.016256086978744609 0 0.019749236453000998 -0.01628317693455672 0 0.019773416472280737 -0.016262859578049457 0 0.019703716087102249 -0.016256086978744609 0 0.019749236453000998 -0.01628317693455672 0 0.019677723308700521 -0.016293960871964407 0 0.019749236453000998 -0.01628317693455672 0 0.019741749066436224 -0.016263327189394931 0 0.019677723308700521 -0.016293960871964407 0 0.019749236453000998 -0.01628317693455672 0 0.019741749066436224 -0.016263327189394931 0 0.019766081330916254 -0.016253541897869372 0 0.019767390873188882 -0.016204186242319382 0 0.019665624103826211 -0.016210359501505279 0 0.019733396210939322 -0.016249236564577461 0 0.019741749066436224 -0.016263327189394931 0 0.019767390873188882 -0.016204186242319382 0 0.019733396210939322 -0.016249236564577461 0 0.019741749066436224 -0.016263327189394931 0 0.019767390873188882 -0.016204186242319382 0 0.019766081330916254 -0.016253541897869372 0 0.019665624103826211 -0.016210359501505279 0 0.019671899365334602 -0.016206944402733989 0 0.019733396210939322 -0.016249236564577461 0 0.019155422327731032 -0.016931086272990677 0 0.018147723170850165 -0.017705493875272846 0 0.019665624103826211 -0.016210359501505279 0 0.019488872484545984 -0.016335978857866373 0 0.019493517132140443 -0.016261333177207574 0 0.018230870943953724 -0.017311990659968069 0 0.018147723170850165 -0.017705493875272846 0 0.019665624103826211 -0.016210359501505279 0 0.019488872484545984 -0.016335978857866373 0 0.019895516382081299 -0.016202641033060485 0 0.019665624103826211 -0.016210359501505279 0 0.019794094046979578 -0.016196242095684703 0 0.019895516382081299 -0.016202641033060485 0 0.019767390873188882 -0.016204186242319382 0 0.019665624103826211 -0.016210359501505279 0 0.019794094046979578 -0.016196242095684703 0 0.019767390873188882 -0.016204186242319382 0 0.019794094046979578 -0.016196242095684703 0 0.019817027824453947 -0.0161976293722059 0 0.019817027824453947 -0.0161976293722059 0 0.019895516382081299 -0.016202641033060485 0 0.019818656202425074 -0.016175638810562862 0 0.019817027824453947 -0.0161976293722059 0 0.019818656202425074 -0.016175638810562862 0 0.019787193800655752 -0.016220452045788522 0 0.019794094046979578 -0.016196242095684703 0 0.019817027824453947 -0.0161976293722059 0 0.019895516382081299 -0.016202641033060485 0 0.019895516382081299 -0.016202641033060485 0 0.019836148131864576 -0.016086014580189351 0 0.019818656202425074 -0.016175638810562862 0 0.019836148131864576 -0.016086014580189351 0 0.019818656202425074 -0.016175638810562862 0 0.019745080404836808 -0.01610022654787174 0 0.019818656202425074 -0.016175638810562862 0 0.019768522148495848 -0.01618365932762553 0 0.019745080404836808 -0.01610022654787174 0 0.019818656202425074 -0.016175638810562862 0 0.019787193800655752 -0.016220452045788522 0 0.019768522148495848 -0.01618365932762553 0 0.019787193800655752 -0.016220452045788522 0 0.019762488629259285 -0.016243144047809129 0 0.019750363139595196 -0.01621609526860995 0 0.019787193800655752 -0.016220452045788522 0 0.019750363139595196 -0.01621609526860995 0 0.019768522148495848 -0.01618365932762553 0 0.019767390873188882 -0.016204186242319382 0 0.019787193800655752 -0.016220452045788522 0 0.019766081330916254 -0.016253541897869372 0 0.019767390873188882 -0.016204186242319382 0 0.019817027824453947 -0.0161976293722059 0 0.019787193800655752 -0.016220452045788522 0 0.019754977733921982 -0.01626360980637942 0 0.019766081330916254 -0.016253541897869372 0 0.019762488629259285 -0.016243144047809129 0 0.019787193800655752 -0.016220452045788522 0 0.019766081330916254 -0.016253541897869372 0 0.019762488629259285 -0.016243144047809129 0 0.019713621136014794 -0.016270661767485713 0 0.019712200365613528 -0.016223015505267002 0 0.019640312823502731 -0.016195013852363872 0 0.019698303113043318 -0.016283236774829117 0 0.019713621136014794 -0.016270661767485713 0 0.019640312823502731 -0.016195013852363872 0 0.019762488629259285 -0.016243144047809129 0 0.019737821023979411 -0.016247789708038796 0 0.019750363139595196 -0.01621609526860995 0 0.019754977733921982 -0.01626360980637942 0 0.019762488629259285 -0.016243144047809129 0 0.019737821023979411 -0.016247789708038796 0 0.019738015782358023 -0.016267088827434318 0 0.019754977733921982 -0.01626360980637942 0 0.019737821023979411 -0.016247789708038796 0 0.019713621136014794 -0.016270661767485713 0 0.019738015782358023 -0.016267088827434318 0 0.019737821023979411 -0.016247789708038796 0 0.019713621136014794 -0.016270661767485713 0 0.019737821023979411 -0.016247789708038796 0 0.019712200365613528 -0.016223015505267002 0 0.019712200365613528 -0.016223015505267002 0 0.019719205688794251 -0.01616847972667439 0 0.019640312823502731 -0.016195013852363872 0 0.019712200365613528 -0.016223015505267002 0 0.019750363139595196 -0.01621609526860995 0 0.019719205688794251 -0.01616847972667439 0 0.019737821023979411 -0.016247789708038796 0 0.019712200365613528 -0.016223015505267002 0 0.019750363139595196 -0.01621609526860995 0 0.019750363139595196 -0.01621609526860995 0 0.019768522148495848 -0.01618365932762553 0 0.019719205688794251 -0.01616847972667439 0 0.019768522148495848 -0.01618365932762553 0 0.019719205688794251 -0.01616847972667439 0 0.019745080404836808 -0.01610022654787174 0 0.019836148131864576 -0.016086014580189351 0 0.019745080404836808 -0.01610022654787174 0 0.019788089010013825 -0.015984532363171055 0 0.019745080404836808 -0.01610022654787174 0 0.019654775477770985 -0.016098991623835771 0 0.019642864183524407 -0.016032021733102184 0 0.019745080404836808 -0.01610022654787174 0 0.019642864183524407 -0.016032021733102184 0 0.019690817695516599 -0.015969913515827588 0 0.019719205688794251 -0.01616847972667439 0 0.019745080404836808 -0.01610022654787174 0 0.019654775477770985 -0.016098991623835771 0 0.019719205688794251 -0.01616847972667439 0 0.019654775477770985 -0.016098991623835771 0 0.019640312823502731 -0.016195013852363872 0 0.019536618983986988 -0.016067035734840932 0 0.019579988017440791 -0.016082571347528458 0 0.01953390134394754 -0.016021052769188943 0 0.019602111918196746 -0.016102714685166889 0 0.019578909660464692 -0.016028216954311562 0 0.019579988017440791 -0.016082571347528458 0 0.01953390134394754 -0.016021052769188943 0 0.019569304466702464 -0.0160066793920291 0 0.019654775477770985 -0.016098991623835771 0 0.019640312823502731 -0.016195013852363872 0 0.019569304466702464 -0.0160066793920291 0 0.019654775477770985 -0.016098991623835771 0 0.019642864183524407 -0.016032021733102184 0 0.019569304466702464 -0.0160066793920291 0 0.019536618983986988 -0.016067035734840932 0 0.019552004584902218 -0.016096209793048034 0 0.019536858230570487 -0.016092396296237679 0 0.019817236063208864 -0.016335096487644203 0 0.019602111918196746 -0.016102714685166889 0 0.019593370424688606 -0.016138402807469365 0 0.019579988017440791 -0.016082571347528458 0 0.019569665494440291 -0.016118355557552432 0 0.019536618983986988 -0.016067035734840932 0 0.019552004584902218 -0.016096209793048034 0 0.019579988017440791 -0.016082571347528458 0 0.019552004584902218 -0.016096209793048034 0 0.019579988017440791 -0.016082571347528458 0 0.019569665494440291 -0.016118355557552432 0 0.019545623952065831 -0.016127404024148816 0 0.019552004584902218 -0.016096209793048034 0 0.019536858230570487 -0.016092396296237679 0 0.019545623952065831 -0.016127404024148816 0 0.019552004584902218 -0.016096209793048034 0 0.019569665494440291 -0.016118355557552432 0 0.0062551557468349898 -0.025775161485056351 0 0.0059943311495584501 -0.025755175858184303 0 0.006215298517813125 -0.025559233954527 0 0.0059943311495584501 -0.025755175858184303 0 0.0057545018046458998 -0.025977644382728652 0 0.0058016010601928637 -0.025785807314354436 0 0.0059943311495584501 -0.025755175858184303 0 0.0058016010601928637 -0.025785807314354436 0 0.0058486096974271996 -0.025608359828544352 0 0.0059943311495584501 -0.025755175858184303 0 0.0060587085554884377 -0.025504284241082247 0 0.0058486096974271996 -0.025608359828544352 0 0.0060587085554884377 -0.025504284241082247 0 0.0058486096974271996 -0.025608359828544352 0 0.0058845666231065559 -0.025402776380749718 0 0.0059943311495584501 -0.025755175858184303 0 0.0060587085554884377 -0.025504284241082247 0 0.006215298517813125 -0.025559233954527 0 0.006230463247323112 -0.025371625665931319 0 0.006215298517813125 -0.025559233954527 0 0.00649670372846057 -0.02542392413106773 0 0.006230463247323112 -0.025371625665931319 0 0.0060587085554884377 -0.025504284241082247 0 0.006215298517813125 -0.025559233954527 0 0.007402680107901149 -0.023536480326037452 0 0.010124979744195057 -0.021629897194223768 0 0.015017824002708596 -0.019087543444282283 0 0.015099295599056194 -0.019134370245726603 0 0.015024866684932567 -0.019205780666566585 0 0.010124979744195057 -0.021629897194223768 0 0.012823406504023428 -0.019399446622003914 0 0.0062551557468349898 -0.025775161485056351 0 0.006215298517813125 -0.025559233954527 0 0.00649670372846057 -0.02542392413106773 0 0.019587597284908897 -0.016256057188299401 0 0.019703716087102249 -0.016256086978744609 0 0.019677723308700521 -0.016293960871964407 0 0.015044955294602544 -0.019037142138446161 0 0.015017824002708596 -0.019087543444282283 0 0.015099295599056194 -0.019134370245726603 0 0.014123293158569085 -0.018725656012146843 0 0.017638331387205927 -0.017585383214788045 0 0.017638331387205927 -0.017585383214788045 0 0.017369886630761919 -0.017775417624455232 0 0.019741749066436224 -0.016263327189394931 0 0.019677723308700521 -0.016293960871964407 0 0.019733396210939322 -0.016249236564577461 0 0.015099295599056194 -0.019134370245726603 0 0.015024866684932567 -0.019205780666566585 0 0.015168398643323533 -0.01925560094419973 0 0.0092108943035609635 -0.020812049719745672 0 0.010113708167618904 -0.01946778597267328 0 0.010009089941826003 -0.020832988912587676 0 0.015024866684932567 -0.019205780666566585 0 0.015134456003776628 -0.019349003550987065 0 0.015024578918745011 -0.019373153474897029 0 0.0092108943035609635 -0.020812049719745672 0 0.010009089941826003 -0.020832988912587676 0 0.0099664206980376799 -0.022358819744855016 0 0.012823406504023428 -0.019399446622003914 0 0.012148033031703314 -0.021450584723915578 0 0.015024866684932567 -0.019205780666566585 0 0.015168398643323533 -0.01925560094419973 0 0.015134456003776628 -0.019349003550987065 0 0.015235521888227063 -0.019406724487378194 0 0.015168398643323533 -0.01925560094419973 0 0.015134456003776628 -0.019349003550987065 0 0.015134456003776628 -0.019349003550987065 0 0.015024578918745011 -0.019373153474897029 0 0.01512713210117104 -0.019479997735616289 0 0.015235521888227063 -0.019406724487378194 0 0.015134456003776628 -0.019349003550987065 0 0.01512713210117104 -0.019479997735616289 0 0.018147723170850165 -0.017705493875272846 0 0.017369886630761919 -0.017775417624455232 0 0.0099664206980376799 -0.022358819744855016 0 0.0081640768756346266 -0.022333742991983475 0 0.0086059738545972674 -0.023735553667446157 0 0.0062551557468349898 -0.025775161485056351 0 0.0059943311495584501 -0.025755175858184303 0 0.0059338128796006823 -0.026099208507703593 0 0.007402680107901149 -0.023536480326037452 0 0.0071062093229659253 -0.024148449309074019 0 0.0092108943035609635 -0.020812049719745672 0 0.0099664206980376799 -0.022358819744855016 0 0.0081640768756346266 -0.022333742991983475 0 0.0059943311495584501 -0.025755175858184303 0 0.0059338128796006823 -0.026099208507703593 0 0.0057545018046458998 -0.025977644382728652 0 0.0059338128796006823 -0.026099208507703593 0 0.0055716636545910508 -0.026161390019503832 0 0.0056164636810155716 -0.026263523935536475 0 0.0059338128796006823 -0.026099208507703593 0 0.0055716636545910508 -0.026161390019503832 0 0.0057545018046458998 -0.025977644382728652 0 0.0053898811424672984 -0.026200194605839441 0 0.0055178459925602765 -0.026001122452413133 0 0.0052461541172248542 -0.026209443975761353 0 0.0055716636545910508 -0.026161390019503832 0 0.0053898811424672984 -0.026200194605839441 0 0.0055178459925602765 -0.026001122452413133 0 0.0055178459925602765 -0.026001122452413133 0 0.005438608516505245 -0.025793827413668011 0 0.0052686326353257179 -0.025997127934662918 0 0.0055716636545910508 -0.026161390019503832 0 0.0055178459925602765 -0.026001122452413133 0 0.0057545018046458998 -0.025977644382728652 0 0.0055178459925602765 -0.026001122452413133 0 0.0057545018046458998 -0.025977644382728652 0 0.0058016010601928637 -0.025785807314354436 0 0.0055178459925602765 -0.026001122452413133 0 0.0058016010601928637 -0.025785807314354436 0 0.0056300516786648653 -0.025719350951602587 0 0.0058016010601928637 -0.025785807314354436 0 0.0056300516786648653 -0.025719350951602587 0 0.0058486096974271996 -0.025608359828544352 0 0.0056300516786648653 -0.025719350951602587 0 0.005438608516505245 -0.025793827413668011 0 0.0054415123996474999 -0.025537488670884952 0 0.0055178459925602765 -0.026001122452413133 0 0.0056300516786648653 -0.025719350951602587 0 0.005438608516505245 -0.025793827413668011 0 0.0054415123996474999 -0.025537488670884952 0 0.0056939320499539755 -0.025527358373002938 0 0.0056427567405040848 -0.025358544705335561 0 0.0056300516786648653 -0.025719350951602587 0 0.0054415123996474999 -0.025537488670884952 0 0.0056939320499539755 -0.025527358373002938 0 0.0056939320499539755 -0.025527358373002938 0 0.0058486096974271996 -0.025608359828544352 0 0.0058845666231065559 -0.025402776380749718 0 0.0056300516786648653 -0.025719350951602587 0 0.0056939320499539755 -0.025527358373002938 0 0.0058486096974271996 -0.025608359828544352 0 0.0051036436362365337 -0.025522848089235158 0 0.0047372262452687469 -0.025464737221106867 0 0.0050046959350653134 -0.025341754152364018 0 0.0051036436362365337 -0.025522848089235158 0 0.0052335914137360126 -0.025763659512708998 0 0.0048782579134356427 -0.025775382391334648 0 0.0051036436362365337 -0.025522848089235158 0 0.0048782579134356427 -0.025775382391334648 0 0.0047372262452687469 -0.025464737221106867 0 0.0054415123996474999 -0.025537488670884952 0 0.0051036436362365337 -0.025522848089235158 0 0.0052335914137360126 -0.025763659512708998 0 0.0054415123996474999 -0.025537488670884952 0 0.0051036436362365337 -0.025522848089235158 0 0.0052359050054647562 -0.025309534752778789 0 0.005438608516505245 -0.025793827413668011 0 0.0054415123996474999 -0.025537488670884952 0 0.0052335914137360126 -0.025763659512708998 0 0.005438608516505245 -0.025793827413668011 0 0.0052335914137360126 -0.025763659512708998 0 0.0052686326353257179 -0.025997127934662918 0 0.0052335914137360126 -0.025763659512708998 0 0.0050615614146581611 -0.025963771083958066 0 0.0052686326353257179 -0.025997127934662918 0 0.0050615614146581611 -0.025963771083958066 0 0.0048782579134356427 -0.025775382391334648 0 0.0047322662815663403 -0.026096191049021163 0 0.0052335914137360126 -0.025763659512708998 0 0.0050615614146581611 -0.025963771083958066 0 0.0048782579134356427 -0.025775382391334648 0 0.0050615614146581611 -0.025963771083958066 0 0.0050729435806852298 -0.026196174128540636 0 0.0047322662815663403 -0.026096191049021163 0 0.0050615614146581611 -0.025963771083958066 0 0.0050729435806852298 -0.026196174128540636 0 0.0052686326353257179 -0.025997127934662918 0 0.0050729435806852298 -0.026196174128540636 0 0.0052686326353257179 -0.025997127934662918 0 0.0052461541172248542 -0.026209443975761353 0 0.0055178459925602765 -0.026001122452413133 0 0.0052686326353257179 -0.025997127934662918 0 0.0052461541172248542 -0.026209443975761353 0 0.0053898811424672984 -0.026200194605839441 0 0.0052461541172248542 -0.026209443975761353 0 0.0052441262928922669 -0.02628982457688794 0 0.0050729435806852298 -0.026196174128540636 0 0.0052461541172248542 -0.026209443975761353 0 0.0051533678113638553 -0.026404492702340743 0 0.0050729435806852298 -0.026196174128540636 0 0.0049042966218600702 -0.026350077270675593 0 0.0051533678113638553 -0.026404492702340743 0 0.0049042966218600702 -0.026350077270675593 0 0.0049125150906425092 -0.026454053763604924 0 0.0051533678113638553 -0.026404492702340743 0 0.0049042966218600702 -0.026350077270675593 0 0.0045671007455914342 -0.026422796190566061 0 0.0049125150906425092 -0.026454053763604924 0 0.0039434142634024172 -0.026492575945940466 0 0.0040796291294880301 -0.026693863857334996 0 0.0045671007455914342 -0.026422796190566061 0 0.0039281796725753092 -0.026541976817150741 0 0.0046613643039165207 -0.026532419566333048 0 0.0045671007455914342 -0.026422796190566061 0 0.0046613643039165207 -0.026532419566333048 0 0.0049125150906425092 -0.026454053763604924 0 0.0045671007455914342 -0.026422796190566061 0 0.0039281796725753092 -0.026541976817150741 0 0.0043458462184912967 -0.026123047423949063 0 0.0039281796725753092 -0.026541976817150741 0 0.0043458462184912967 -0.026123047423949063 0 0.0038783987585831884 -0.026199947301436214 0 0.0049042966218600702 -0.026350077270675593 0 0.0045671007455914342 -0.026422796190566061 0 0.0047322662815663403 -0.026096191049021163 0 0.0050729435806852298 -0.026196174128540636 0 0.0049042966218600702 -0.026350077270675593 0 0.0047322662815663403 -0.026096191049021163 0 0.0045671007455914342 -0.026422796190566061 0 0.0043458462184912967 -0.026123047423949063 0 0.0047322662815663403 -0.026096191049021163 0 0.0031863452043309694 -0.027195577392675373 0 0.0033764761381735154 -0.026793777075549436 0 0.0030763440918504929 -0.026925585911722776 0 0.0039281796725753092 -0.026541976817150741 0 0.0030763440918504929 -0.026925585911722776 0 0.0035331067754386042 -0.027004710977050577 0 0.0039281796725753092 -0.026541976817150741 0 0.0033764761381735154 -0.026793777075549436 0 0.0030763440918504929 -0.026925585911722776 0 0.0033764761381735154 -0.026793777075549436 0 0.0032738570040545178 -0.026405723730442508 0 0.0038783987585831884 -0.026199947301436214 0 0.0039281796725753092 -0.026541976817150741 0 0.0033764761381735154 -0.026793777075549436 0 0.0038783987585831884 -0.026199947301436214 0 0.0026691762248842957 -0.0265580929461442 0 0.0031863452043309694 -0.027195577392675373 0 0.0032738570040545178 -0.026405723730442508 0 0.0031863452043309694 -0.027195577392675373 0 0.0033764761381735154 -0.026793777075549436 0 0.0032738570040545178 -0.026405723730442508 0 0.0032738570040545178 -0.026405723730442508 0 0.0037755187650689017 -0.025690699509092776 0 0.0028851412310894296 -0.025886579523401267 0 0.0026691762248842957 -0.0265580929461442 0 0.0032738570040545178 -0.026405723730442508 0 0.0028851412310894296 -0.025886579523401267 0 0.0032738570040545178 -0.026405723730442508 0 0.0038783987585831884 -0.026199947301436214 0 0.0037755187650689017 -0.025690699509092776 0 0.0037755187650689017 -0.025690699509092776 0 0.0032098807418337811 -0.025304785182803664 0 0.0040032982375453573 -0.025070459741038671 0 0.0026116517030060822 -0.025084024733171548 0 0.0028851412310894296 -0.025886579523401267 0 0.0032098807418337811 -0.025304785182803664 0 0.0037755187650689017 -0.025690699509092776 0 0.0028851412310894296 -0.025886579523401267 0 0.0032098807418337811 -0.025304785182803664 0 0.0048782579134356427 -0.025775382391334648 0 0.0047322662815663403 -0.026096191049021163 0 0.0044091142496996026 -0.025809540662468579 0 0.0043458462184912967 -0.026123047423949063 0 0.0047322662815663403 -0.026096191049021163 0 0.0044091142496996026 -0.025809540662468579 0 0.0038783987585831884 -0.026199947301436214 0 0.0037755187650689017 -0.025690699509092776 0 0.0044091142496996026 -0.025809540662468579 0 0.0043458462184912967 -0.026123047423949063 0 0.0038783987585831884 -0.026199947301436214 0 0.0044091142496996026 -0.025809540662468579 0 0.0037755187650689017 -0.025690699509092776 0 0.0044091142496996026 -0.025809540662468579 0 0.0043361648115646037 -0.025406903529162948 0 0.0037755187650689017 -0.025690699509092776 0 0.0043361648115646037 -0.025406903529162948 0 0.0040032982375453573 -0.025070459741038671 0 0.0048782579134356427 -0.025775382391334648 0 0.0044091142496996026 -0.025809540662468579 0 0.0047372262452687469 -0.025464737221106867 0 0.0044091142496996026 -0.025809540662468579 0 0.0043361648115646037 -0.025406903529162948 0 0.0047372262452687469 -0.025464737221106867 0 0.0047372262452687469 -0.025464737221106867 0 0.0046100363156146729 -0.024964912737352251 0 0.0050046959350653134 -0.025341754152364018 0 0.0043361648115646037 -0.025406903529162948 0 0.0047372262452687469 -0.025464737221106867 0 0.0046100363156146729 -0.024964912737352251 0 0.0040077532287825755 -0.024945427986647277 0 0.0047636951893132657 -0.024643633811274979 0 0.0036887531403647987 -0.024548963551406868 0 0.0043361648115646037 -0.025406903529162948 0 0.0040032982375453573 -0.025070459741038671 0 0.0046100363156146729 -0.024964912737352251 0 0.0040976557271587546 -0.024974138906737903 0 0.004158287400256905 -0.025032167223084316 0 0.002683604907377376 -0.025021722125068376 0 0.0028810562049688352 -0.025406115148695421 0 0.0027832802154773863 -0.02510572332865205 0 0.004158287400256905 -0.025032167223084316 0 0.0030688776570903177 -0.024729352363224811 0 0.002683604907377376 -0.025021722125068376 0 0.0028810562049688352 -0.025406115148695421 0 0.0025794148917913139 -0.024921904690296856 0 0.0028810562049688352 -0.025406115148695421 0 0.0030602399344552677 -0.025186046202476269 0 0.0027832802154773863 -0.02510572332865205 0 0.0026116517030060822 -0.025084024733171548 0 0.0032098807418337811 -0.025304785182803664 0 0.0036887531403647987 -0.024548963551406868 0 0.0024418356650883393 -0.024458693901827117 0 0.0026116517030060822 -0.025084024733171548 0 0.0036887531403647987 -0.024548963551406868 0 0.0032216679023110229 -0.02530588332639366 0 0.0040976557271587546 -0.024974138906737903 0 0.0032098807418337811 -0.025304785182803664 0 0.0040077532287825755 -0.024945427986647277 0 0.0036887531403647987 -0.024548963551406868 0 0.0025794148917913139 -0.024921904690296856 0 0.0025454051842015608 -0.024748578399497782 0 0.0025151765694905043 -0.024594110150735225 0 0.002683604907377376 -0.025021722125068376 0 0.0025794148917913139 -0.024921904690296856 0 0.0025789696083815322 -0.02482252034237269 0 0.0025794148917913139 -0.024921904690296856 0 0.0025454051842015608 -0.024748578399497782 0 0.0025789696083815322 -0.02482252034237269 0 0.0025242555414461978 -0.024498736650006635 0 0.0030688776570903177 -0.024729352363224811 0 0.0024418356650883393 -0.024458693901827117 0 0.0025794148917913139 -0.024921904690296856 0 0.0025151765694905043 -0.024594110150735225 0 0.0025454051842015608 -0.024748578399497782 0 0.0025151765694905043 -0.024594110150735225 0 0.0025204508868588915 -0.024661195882821042 0 0.002493341050483224 -0.024602960421098594 0 0.002496511039241177 -0.024524367427228466 0 0.0024930779844579867 -0.024669439482142463 0 0.0024911740658448245 -0.024180600929082075 0 0.0025151765694905043 -0.024594110150735225 0 0.0024919360705606512 -0.024507614830799419 0 0.002493341050483224 -0.024602960421098594 0 0.002496511039241177 -0.024524367427228466 0 0.0024919360705606512 -0.024507614830799419 0 0.002493341050483224 -0.024602960421098594 0 0.0025204508868588915 -0.024661195882821042 0 0.0025059383081252372 -0.024687969172350391 0 0.002493341050483224 -0.024602960421098594 0 0.0024919360705606512 -0.024507614830799419 0 0.0025204508868588915 -0.024661195882821042 0 0.0025151765694905043 -0.024594110150735225 0 0.0024919360705606512 -0.024507614830799419 0 0.0025204508868588915 -0.024661195882821042 0 0.0025204508868588915 -0.024661195882821042 0 0.0025059383081252372 -0.024687969172350391 0 0.00253912380704046 -0.024738088414188477 0 0.0025059383081252372 -0.024687969172350391 0 0.00253912380704046 -0.024738088414188477 0 0.0025313160549541693 -0.024749187092151119 0 0.002493341050483224 -0.024602960421098594 0 0.0025059383081252372 -0.024687969172350391 0 0.0024930779844579867 -0.024669439482142463 0 0.0025059383081252372 -0.024687969172350391 0 0.0025003695966980873 -0.024712751636184246 0 0.0024930779844579867 -0.024669439482142463 0 0.0025059383081252372 -0.024687969172350391 0 0.0025313160549541693 -0.024749187092151119 0 0.0025003695966980873 -0.024712751636184246 0 0.0025775921938772407 -0.02479722058106525 0 0.00253912380704046 -0.024738088414188477 0 0.0025313160549541693 -0.024749187092151119 0 0.0025775921938772407 -0.02479722058106525 0 0.00253912380704046 -0.024738088414188477 0 0.0025789696083815322 -0.02482252034237269 0 0.0025454051842015608 -0.024748578399497782 0 0.0025204508868588915 -0.024661195882821042 0 0.0025789696083815322 -0.02482252034237269 0 0.0025204508868588915 -0.024661195882821042 0 0.00253912380704046 -0.024738088414188477 0 0.0025789696083815322 -0.02482252034237269 0 0.0025775921938772407 -0.02479722058106525 0 0.0025789696083815322 -0.02482252034237269 0 0.0026523096196199246 -0.024910330410323034 0 0.0025775921938772407 -0.02479722058106525 0 0.0026523096196199246 -0.024910330410323034 0 0.0026641577575547623 -0.02487270462782748 0 0.0016841254114207749 -0.026899253170743303 0 0.0027371369285484897 -0.024986131816348719 0 0.0025779181285788713 -0.024792183470800509 0 0.0024988388155535554 -0.024719941561632926 0 0.0027049059898114616 -0.024900216905018716 0 0.0025775921938772407 -0.02479722058106525 0 0.0025779181285788713 -0.024792183470800509 0 0.0026641577575547623 -0.02487270462782748 0 0.0025779181285788713 -0.024792183470800509 0 0.0026641577575547623 -0.02487270462782748 0 0.0027049059898114616 -0.024900216905018716 0 0.0025775921938772407 -0.02479722058106525 0 0.0025779181285788713 -0.024792183470800509 0 0.0025313160549541693 -0.024749187092151119 0 0.0025779181285788713 -0.024792183470800509 0 0.0025313160549541693 -0.024749187092151119 0 0.0025247669871366093 -0.024752339255529197 0 0.0026680217995435295 -0.024714100743194828 0 0.0024675578266299607 -0.024772964552477812 0 0.0024930779844579867 -0.024669439482142463 0 0.00072667770821008585 -0.02704593044086669 0 0.0016841254114207749 -0.026899253170743303 0 -0.00021239517975459856 -0.030530641341480882 0 4.9236045717958296e-05 -0.030097863449795256 0 0.00047427420650141949 -0.030337621000890606 0 0.0024835533615212512 -0.024739492846848409 0 0.0024675578266299607 -0.024772964552477812 0 0.0024930779844579867 -0.024669439482142463 0 0.0025779181285788713 -0.024792183470800509 0 0.0025247669871366093 -0.024752339255529197 0 0.0024988388155535554 -0.024719941561632926 0 0.0025313160549541693 -0.024749187092151119 0 0.0025003695966980873 -0.024712751636184246 0 0.0024835533615212512 -0.024739492846848409 0 0.0025003695966980873 -0.024712751636184246 0 0.0024835533615212512 -0.024739492846848409 0 0.0024930779844579867 -0.024669439482142463 0 0.0018311674026191042 -0.026112068840687223 0 0.0016841254114207749 -0.026899253170743303 0 0.0024835533615212512 -0.024739492846848409 0 0.0025247669871366093 -0.024752339255529197 0 0.0024988388155535554 -0.024719941561632926 0 0.0025313160549541693 -0.024749187092151119 0 0.0024835533615212512 -0.024739492846848409 0 0.0025247669871366093 -0.024752339255529197 0 0.002739815967380258 -0.024982191586979095 0 0.0030602399344552677 -0.025186046202476269 0 0.0030996752277657304 -0.024875463667563331 0 0.002739815967380258 -0.024982191586979095 0 0.0030602399344552677 -0.025186046202476269 0 0.0027832802154773863 -0.02510572332865205 0 0.002683604907377376 -0.025021722125068376 0 0.0027832802154773863 -0.02510572332865205 0 0.0026523096196199246 -0.024910330410323034 0 0.002739815967380258 -0.024982191586979095 0 0.0027832802154773863 -0.02510572332865205 0 0.0026523096196199246 -0.024910330410323034 0 0.002683604907377376 -0.025021722125068376 0 0.0025789696083815322 -0.02482252034237269 0 0.0026523096196199246 -0.024910330410323034 0 0.002739815967380258 -0.024982191586979095 0 0.0026523096196199246 -0.024910330410323034 0 0.0026641577575547623 -0.02487270462782748 0 0.002739815967380258 -0.024982191586979095 0 0.0026641577575547623 -0.02487270462782748 0 0.0026717910960528321 -0.024950837020918406 0 0.0025495116941188492 -0.025342033183423693 0 0.0027049059898114616 -0.024900216905018716 0 0.0026717910960528321 -0.024950837020918406 0 0.0026641577575547623 -0.02487270462782748 0 0.0027049059898114616 -0.024900216905018716 0 0.0026717910960528321 -0.024950837020918406 0 0.0031107232510847464 -0.024923661419387708 0 0.0027465489842887522 -0.024954089385759 0 0.0025495116941188492 -0.025342033183423693 0 0.0027366085547317408 -0.025526974302023404 0 0.0026717910960528321 -0.024950837020918406 0 0.0033736926472364664 -0.024359356247556783 0 0.0026717910960528321 -0.024950837020918406 0 0.0030996752277657304 -0.024875463667563331 0 0.002739815967380258 -0.024982191586979095 0 0.0026717910960528321 -0.024950837020918406 0 0.0030996752277657304 -0.024875463667563331 0 0.0033736926472364664 -0.024359356247556783 0 0.003498548659535629 -0.025155051955247868 0 0.0040615805287074671 -0.024907727215189267 0 0.0033736926472364664 -0.024359356247556783 0 0.0030996752277657304 -0.024875463667563331 0 0.003498548659535629 -0.025155051955247868 0 0.0030602399344552677 -0.025186046202476269 0 0.0030996752277657304 -0.024875463667563331 0 0.003498548659535629 -0.025155051955247868 0 0.0030602399344552677 -0.025186046202476269 0 0.003498548659535629 -0.025155051955247868 0 0.0036654096386588421 -0.025601991982960325 0 0.003498548659535629 -0.025155051955247868 0 0.0040615805287074671 -0.024907727215189267 0 0.0036654096386588421 -0.025601991982960325 0 0.0053605247307670486 -0.025138126276055574 0 0.0043639096496371948 -0.025313550481596121 0 0.0040615805287074671 -0.024907727215189267 0 0.0050242803092995485 -0.025416320086161983 0 0.0036654096386588421 -0.025601991982960325 0 0.0043143983393228551 -0.023929604990666872 0 0.0033736926472364664 -0.024359356247556783 0 0.0040615805287074671 -0.024907727215189267 0 0.0040615805287074671 -0.024907727215189267 0 0.0048005340020559114 -0.024608186932960772 0 0.0050242803092995485 -0.025416320086161983 0 0.0043143983393228551 -0.023929604990666872 0 0.0040615805287074671 -0.024907727215189267 0 0.0048005340020559114 -0.024608186932960772 0 0.0048005340020559114 -0.024608186932960772 0 0.0057083016502578353 -0.024807892246326967 0 0.0050242803092995485 -0.025416320086161983 0 0.0061029210917707497 -0.024944428219819278 0 0.0057083016502578353 -0.024807892246326967 0 0.0050242803092995485 -0.025416320086161983 0 0.0061029210917707497 -0.024944428219819278 0 0.0059661969050384036 -0.025041041813735284 0 0.0056614401955293759 -0.024897600842104232 0 0.0060428627764263516 -0.024956587416170253 0 0.0053605247307670486 -0.025138126276055574 0 0.0059661969050384036 -0.025041041813735284 0 0.0056614401955293759 -0.024897600842104232 0 0.0058045956180189677 -0.025106972815898861 0 0.0056614401955293759 -0.024897600842104232 0 0.0056322907276019647 -0.025155937357828666 0 0.0054451923630507116 -0.025083601670558446 0 0.0056322907276019647 -0.025155937357828666 0 0.0054451923630507116 -0.025083601670558446 0 0.0054599758754282956 -0.025264916907878746 0 0.0056614401955293759 -0.024897600842104232 0 0.0056322907276019647 -0.025155937357828666 0 0.0058045956180189677 -0.025106972815898861 0 0.0059661969050384036 -0.025041041813735284 0 0.0059666598783348615 -0.025212387793153185 0 0.0058045956180189677 -0.025106972815898861 0 0.0056322907276019647 -0.025155937357828666 0 0.0058045956180189677 -0.025106972815898861 0 0.0057841045637260658 -0.02524228207355152 0 0.0059666598783348615 -0.025212387793153185 0 0.0058045956180189677 -0.025106972815898861 0 0.0057841045637260658 -0.02524228207355152 0 0.0057841045637260658 -0.02524228207355152 0 0.0058845666231065559 -0.025402776380749718 0 0.0056427567405040848 -0.025358544705335561 0 0.0056939320499539755 -0.025527358373002938 0 0.0058845666231065559 -0.025402776380749718 0 0.0056427567405040848 -0.025358544705335561 0 0.0059666598783348615 -0.025212387793153185 0 0.0057841045637260658 -0.02524228207355152 0 0.0058845666231065559 -0.025402776380749718 0 0.0056322907276019647 -0.025155937357828666 0 0.0057841045637260658 -0.02524228207355152 0 0.0056427567405040848 -0.025358544705335561 0 0.0054415123996474999 -0.025537488670884952 0 0.0054599758754282956 -0.025264916907878746 0 0.0056427567405040848 -0.025358544705335561 0 0.0056322907276019647 -0.025155937357828666 0 0.0054599758754282956 -0.025264916907878746 0 0.0056427567405040848 -0.025358544705335561 0 0.0054415123996474999 -0.025537488670884952 0 0.0054599758754282956 -0.025264916907878746 0 0.0052359050054647562 -0.025309534752778789 0 0.0054599758754282956 -0.025264916907878746 0 0.0052359050054647562 -0.025309534752778789 0 0.0052757891786647223 -0.025146822553308027 0 0.0052359050054647562 -0.025309534752778789 0 0.0050558398161553398 -0.025115155982430526 0 0.0052757891786647223 -0.025146822553308027 0 0.0051036436362365337 -0.025522848089235158 0 0.0052359050054647562 -0.025309534752778789 0 0.0050046959350653134 -0.025341754152364018 0 0.0046100363156146729 -0.024964912737352251 0 0.0050046959350653134 -0.025341754152364018 0 0.0050558398161553398 -0.025115155982430526 0 0.0052359050054647562 -0.025309534752778789 0 0.0050046959350653134 -0.025341754152364018 0 0.0050558398161553398 -0.025115155982430526 0 0.0028810562049688352 -0.025406115148695421 0 0.0030602399344552677 -0.025186046202476269 0 0.0036654096386588421 -0.025601991982960325 0 0.004158287400256905 -0.025032167223084316 0 0.0052031620287221409 -0.025102435980213219 0 0.0047454491388072883 -0.025085361881183228 0 0.0050558398161553398 -0.025115155982430526 0 0.0051737429867961477 -0.024962395273511781 0 0.004158287400256905 -0.025032167223084316 0 0.0043639096496371948 -0.025313550481596121 0 0.0056614401955293759 -0.024897600842104232 0 0.0054451923630507116 -0.025083601670558446 0 0.0051737429867961477 -0.024962395273511781 0 0.0054451923630507116 -0.025083601670558446 0 0.0051737429867961477 -0.024962395273511781 0 0.0052757891786647223 -0.025146822553308027 0 0.0054451923630507116 -0.025083601670558446 0 0.0054599758754282956 -0.025264916907878746 0 0.0052757891786647223 -0.025146822553308027 0 0.0050558398161553398 -0.025115155982430526 0 0.0051737429867961477 -0.024962395273511781 0 0.0052757891786647223 -0.025146822553308027 0 0.024677719531393846 -0.020579405036537483 0 0.024668514598288966 -0.021421995920097924 0 0.023537535870668029 -0.021314655729021522 0 0.024677719531393846 -0.020579405036537483 0 0.023537535870668029 -0.021314655729021522 0 0.024106721867077859 -0.020147162436538569 0 0.024677719531393846 -0.020579405036537483 0 0.024999990240578873 -0.019644160583893785 0 0.024668514598288966 -0.021421995920097924 0 0.024677719531393846 -0.020579405036537483 0 0.024999990240578873 -0.019644160583893785 0 0.024999656922754077 -0.02059899682338771 0 0.024999988778421012 -0.019638611077092819 0 0.025556231725783751 -0.018902969657954138 0 0.024999615913023326 -0.018200149282625606 0 0.025000026009403899 -0.019639020774429708 0 0.024838161095326775 -0.020331796276878176 0 0.024838161095326775 -0.020331796276878176 0 0.025378363990484373 -0.018227875227493376 0 0.024668514598288966 -0.021421995920097924 0 0.023537535870668029 -0.021314655729021522 0 0.023864535142377189 -0.022441193772536852 0 0.022394069252663396 -0.02270141281924877 0 0.023537535870668029 -0.021314655729021522 0 0.023864535142377189 -0.022441193772536852 0 0.023954586799738355 -0.019189495680078151 0 0.025378363990484373 -0.018227875227493376 0 0.022394069252663396 -0.02270141281924877 0 0.023537535870668029 -0.021314655729021522 0 0.021698631428566602 -0.021626467335182552 0 0.023537535870668029 -0.021314655729021522 0 0.022311087637132899 -0.020114237679216052 0 0.024106721867077859 -0.020147162436538569 0 0.023537535870668029 -0.021314655729021522 0 0.022311087637132899 -0.020114237679216052 0 0.021698631428566602 -0.021626467335182552 0 0.026562139814745544 -0.02135205803152276 0 0.024458238888066433 -0.024592201272657446 0 0.026650595176261883 -0.021978757682091309 0 0.026600605724810957 -0.021990807959129201 0 0.025807741654549739 -0.021432698812289562 0 0.026650595176261883 -0.021978757682091309 0 0.026600605724810957 -0.021990807959129201 0 0.026336426171196494 -0.021830749031709333 0 0.026600605724810957 -0.021990807959129201 0 0.026184069654011738 -0.022325306176136223 0 0.026825276925429055 -0.022716694394189642 0 0.025807741654549739 -0.021432698812289562 0 0.02539775737782396 -0.022557194626395275 0 0.026184069654011738 -0.022325306176136223 0 0.024723215206338058 -0.020555527408180462 0 0.024879683978552763 -0.020861316095256422 0 0.026600605724810957 -0.021990807959129201 0 0.025807741654549739 -0.021432698812289562 0 0.026184069654011738 -0.022325306176136223 0 0.024999682970814043 -0.020603162610274804 0 0.025272397816569359 -0.021969988372886502 0 0.024998569853494933 -0.023187656427131699 0 0.025807741654549739 -0.021432698812289562 0 0.025272397816569359 -0.021969988372886502 0 0.02539775737782396 -0.022557194626395275 0 0.024879683978552763 -0.020861316095256422 0 0.024999893302701082 -0.020602601878182625 0 0.024677719531393846 -0.020579405036537483 0 0.024106721867077859 -0.020147162436538569 0 0.024999656922754077 -0.02059899682338771 0 0.025807741654549739 -0.021432698812289562 0 0.024999682970814043 -0.020603162610274804 0 0.025272397816569359 -0.021969988372886502 0 0.025272397816569359 -0.021969988372886502 0 0.02539775737782396 -0.022557194626395275 0 0.024998569853494933 -0.023187656427131699 0 0.024999089278509769 -0.024998371347870793 0 0.024456850924499188 -0.024544749571468689 0 0.021753177806862711 -0.024997995611774151 0 0.02539775737782396 -0.022557194626395275 0 0.024999260553835095 -0.023845930289285382 0 0.026171104088724501 -0.023145407827343374 0 0.02539775737782396 -0.022557194626395275 0 0.024999260553835095 -0.023845930289285382 0 0.024998569853494933 -0.023187656427131699 0 0.024999260553835095 -0.023845930289285382 0 0.024998569853494933 -0.023187656427131699 0 0.024456850924499188 -0.024544749571468689 0 0.024998569853494933 -0.023187656427131699 0 0.024999089278509769 -0.024998371347870793 0 0.024456850924499188 -0.024544749571468689 0 0.024999260553835095 -0.023845930289285382 0 0.024456850924499188 -0.024544749571468689 0 0.023678202295680215 -0.024613378516612862 0 0.024456850924499188 -0.024544749571468689 0 0.023678202295680215 -0.024613378516612862 0 0.021753177806862711 -0.024997995611774151 0 0.023678202295680215 -0.024613378516612862 0 0.022974425595018895 -0.024774788493649932 0 0.021753177806862711 -0.024997995611774151 0 0.022142203079222697 -0.025778994371614093 0 0.024458238888066433 -0.024592201272657446 0 0.023678202295680215 -0.024613378516612862 0 0.022974425595018895 -0.024774788493649932 0 0.023836869936621562 -0.024984840160757835 0 0.022974425595018895 -0.024774788493649932 0 0.023836869936621562 -0.024984840160757835 0 0.023320930574080453 -0.025250652134437897 0 0.024911225412003898 -0.023953959468531592 0 0.025103191862502115 -0.023972745866003332 0 0.024999260553835095 -0.023845930289285382 0 0.023678202295680215 -0.024613378516612862 0 0.023836869936621562 -0.024984840160757835 0 0.02539775737782396 -0.022557194626395275 0 0.026171104088724501 -0.023145407827343374 0 0.026184069654011738 -0.022325306176136223 0 0.026171104088724501 -0.023145407827343374 0 0.026184069654011738 -0.022325306176136223 0 0.026825276925429055 -0.022716694394189642 0 0.026600605724810957 -0.021990807959129201 0 0.026538099192901808 -0.021765636754801684 0 0.026336426171196494 -0.021830749031709333 0 0.025103191862502115 -0.023972745866003332 0 0.024458238888066433 -0.024592201272657446 0 0.021973361822095878 -0.027328092335242537 0 0.021309135524205096 -0.027613056931879022 0 0.021220912811506166 -0.026923660502039214 0 0.021309135524205096 -0.027613056931879022 0 0.020758301328750634 -0.027313500005515998 0 0.021220912811506166 -0.026923660502039214 0 0.024458238888066433 -0.024592201272657446 0 0.023964008181495706 -0.024642227686367098 0 0.020758301328750634 -0.027313500005515998 0 0.020249220222158342 -0.0273555916967449 0 0.020616815241297312 -0.027891534330736562 0 0.021309135524205096 -0.027613056931879022 0 0.020758301328750634 -0.027313500005515998 0 0.020616815241297312 -0.027891534330736562 0 0.020758301328750634 -0.027313500005515998 0 0.020401511406803217 -0.026801254771414273 0 0.020249220222158342 -0.0273555916967449 0 0.020758301328750634 -0.027313500005515998 0 0.020401511406803217 -0.026801254771414273 0 0.021220912811506166 -0.026923660502039214 0 0.020401511406803217 -0.026801254771414273 0 0.021220912811506166 -0.026923660502039214 0 0.020944396388383902 -0.026295291395980011 0 0.021807207703328713 -0.026195166975235534 0 0.021220912811506166 -0.026923660502039214 0 0.020944396388383902 -0.026295291395980011 0 0.021807207703328713 -0.026195166975235534 0 0.021973361822095878 -0.027328092335242537 0 0.021220912811506166 -0.026923660502039214 0 0.021807207703328713 -0.026195166975235534 0 0.020944396388383902 -0.026295291395980011 0 0.021027335837740722 -0.025574558844211705 0 0.020401511406803217 -0.026801254771414273 0 0.020944396388383902 -0.026295291395980011 0 0.020227861867263486 -0.025960140453452105 0 0.020944396388383902 -0.026295291395980011 0 0.021027335837740722 -0.025574558844211705 0 0.020227861867263486 -0.025960140453452105 0 0.021027335837740722 -0.025574558844211705 0 0.020336096995339968 -0.024999888372272027 0 0.021748120135900186 -0.024999986246896248 0 0.021027335837740722 -0.025574558844211705 0 0.020336096995339968 -0.024999888372272027 0 0.020227861867263486 -0.025960140453452105 0 0.021807207703328713 -0.026195166975235534 0 0.021027335837740722 -0.025574558844211705 0 0.021748120135900186 -0.024999986246896248 0 0.022142203079222697 -0.025778994371614093 0 0.021748663157605722 -0.024999299800409346 0 0.019209179780148824 -0.025527637706848315 0 0.018923265589125163 -0.024999857820390211 0 0.018290461778015969 -0.025558901537315385 0 0.020336096995339968 -0.024999888372272027 0 0.019209179780148824 -0.025527637706848315 0 0.018923265589125163 -0.024999857820390211 0 0.020336096995339968 -0.024999888372272027 0 0.019209179780148824 -0.025527637706848315 0 0.020227861867263486 -0.025960140453452105 0 0.019209179780148824 -0.025527637706848315 0 0.020227861867263486 -0.025960140453452105 0 0.019340443558842371 -0.026567912201301582 0 0.019209179780148824 -0.025527637706848315 0 0.01826305645314583 -0.025985496217135313 0 0.018290461778015969 -0.025558901537315385 0 0.019209179780148824 -0.025527637706848315 0 0.01847268736218096 -0.026131087298723259 0 0.01826305645314583 -0.025985496217135313 0 0.019148072542033583 -0.025567357196346809 0 0.018913713937890576 -0.026212805602649547 0 0.01847268736218096 -0.026131087298723259 0 0.018089896723234192 -0.026220043799009735 0 0.01826305645314583 -0.025985496217135313 0 0.019340443558842371 -0.026567912201301582 0 0.019789134287859205 -0.027106358949921864 0 0.019414818327117622 -0.027458464335499005 0 0.01847268736218096 -0.026131087298723259 0 0.018089896723234192 -0.026220043799009735 0 0.017733653438813606 -0.026239118876464428 0 0.018913713937890576 -0.026212805602649547 0 0.018554016025287331 -0.027098848351550537 0 0.020401511406803217 -0.026801254771414273 0 0.019340443558842371 -0.026567912201301582 0 0.019789134287859205 -0.027106358949921864 0 0.020401511406803217 -0.026801254771414273 0 0.020227861867263486 -0.025960140453452105 0 0.019340443558842371 -0.026567912201301582 0 0.020249220222158342 -0.0273555916967449 0 0.019688292589474864 -0.027607499539202059 0 0.020616815241297312 -0.027891534330736562 0 0.020401511406803217 -0.026801254771414273 0 0.020249220222158342 -0.0273555916967449 0 0.019789134287859205 -0.027106358949921864 0 0.020249220222158342 -0.0273555916967449 0 0.019789134287859205 -0.027106358949921864 0 0.019688292589474864 -0.027607499539202059 0 0.018089896723234192 -0.026220043799009735 0 0.017733653438813606 -0.026239118876464428 0 0.017952460778483992 -0.026187073147054929 0 0.019789134287859205 -0.027106358949921864 0 0.019688292589474864 -0.027607499539202059 0 0.019414818327117622 -0.027458464335499005 0 0.017733653438813606 -0.026239118876464428 0 0.017782259200610311 -0.025830724432822281 0 0.017952460778483992 -0.026187073147054929 0 0.018554016025287331 -0.027098848351550537 0 0.018428866326426523 -0.024940406997692243 0 0.019414818327117622 -0.027458464335499005 0 0.019591648681565141 -0.027775941461625347 0 0.019437376902606177 -0.028053732596682066 0 0.017733653438813606 -0.026239118876464428 0 0.017782259200610311 -0.025830724432822281 0 0.017111834732591664 -0.024981512310549275 0 0.019688292589474864 -0.027607499539202059 0 0.019414818327117622 -0.027458464335499005 0 0.019591648681565141 -0.027775941461625347 0 0.018428866326426523 -0.024940406997692243 0 0.019259279313274067 -0.024286026964315144 0 0.019591648681565141 -0.027775941461625347 0 0.019437376902606177 -0.028053732596682066 0 0.019832640786764763 -0.027876976103085826 0 0.017782259200610311 -0.025830724432822281 0 0.017111834732591664 -0.024981512310549275 0 0.017703851841886522 -0.025319218976870408 0 0.017668968076265459 -0.024356756928539943 0 0.016999366442382126 -0.024556782447469935 0 0.017486323773303523 -0.022959771219752786 0 0.018428866326426523 -0.024940406997692243 0 0.017845823469706052 -0.022828129893215671 0 0.017668968076265459 -0.024356756928539943 0 0.017111834732591664 -0.024981512310549275 0 0.017703851841886522 -0.025319218976870408 0 0.017737739116215755 -0.024856773221151995 0 0.018428866326426523 -0.024940406997692243 0 0.017449567589725927 -0.021373322087829702 0 0.017486323773303523 -0.022959771219752786 0 0.018587994793153501 -0.021850217715354663 0 0.017486323773303523 -0.022959771219752786 0 0.018587994793153501 -0.021850217715354663 0 0.018230779511066064 -0.022711613975500429 0 0.017486323773303523 -0.022959771219752786 0 0.017743245377288393 -0.02304111089414863 0 0.017800904994397748 -0.023748384823400817 0 0.017668968076265459 -0.024356756928539943 0 0.017486323773303523 -0.022959771219752786 0 0.017800904994397748 -0.023748384823400817 0 0.018587994793153501 -0.021850217715354663 0 0.019698875745612552 -0.021136694680158486 0 0.019294333548134448 -0.022310177750385771 0 0.018587994793153501 -0.021850217715354663 0 0.018230779511066064 -0.022711613975500429 0 0.019294333548134448 -0.022310177750385771 0 0.017449567589725927 -0.021373322087829702 0 0.018587994793153501 -0.021850217715354663 0 0.018954490402638472 -0.020505678764729633 0 0.018587994793153501 -0.021850217715354663 0 0.018954490402638472 -0.020505678764729633 0 0.019698875745612552 -0.021136694680158486 0 0.018954490402638472 -0.020505678764729633 0 0.02020662159192009 -0.019875353995116536 0 0.019698875745612552 -0.021136694680158486 0 0.019688292589474864 -0.027607499539202059 0 0.019832640786764763 -0.027876976103085826 0 0.020232829728917451 -0.02768065177522042 0 0.019482106941606878 -0.028046681619330542 0 0.021697728592672699 -0.024322775278395981 0 0.019688292589474864 -0.027607499539202059 0 0.019591648681565141 -0.027775941461625347 0 0.019832640786764763 -0.027876976103085826 0 0.019259279313274067 -0.024286026964315144 0 0.021697728592672699 -0.024322775278395981 0 0.02020662159192009 -0.019875353995116536 0 0.020897323642974645 -0.020921560262922727 0 0.019698875745612552 -0.021136694680158486 0 0.023964008181495706 -0.024642227686367098 0 0.021697728592672699 -0.024322775278395981 0 0.026650595176261883 -0.021978757682091309 0 0.026336426171196494 -0.021830749031709333 0 0.025975741779830912 -0.022010137739557525 0 0.024723215206338058 -0.020555527408180462 0 0.021697728592672699 -0.024322775278395981 0 0.022311087637132899 -0.020114237679216052 0 0.02020662159192009 -0.019875353995116536 0 0.020897323642974645 -0.020921560262922727 0 0.022311087637132899 -0.020114237679216052 0 0.020897323642974645 -0.020921560262922727 0 0.021698631428566602 -0.021626467335182552 0 0.020897323642974645 -0.020921560262922727 0 0.020406838583198861 -0.021775554100250599 0 0.021698631428566602 -0.021626467335182552 0 0.020897323642974645 -0.020921560262922727 0 0.019698875745612552 -0.021136694680158486 0 0.020406838583198861 -0.021775554100250599 0 0.019698875745612552 -0.021136694680158486 0 0.020406838583198861 -0.021775554100250599 0 0.019294333548134448 -0.022310177750385771 0 0.020406838583198861 -0.021775554100250599 0 0.020614615953622007 -0.023042451721304518 0 0.019294333548134448 -0.022310177750385771 0 0.020406838583198861 -0.021775554100250599 0 0.021698631428566602 -0.021626467335182552 0 0.020614615953622007 -0.023042451721304518 0 0.02561012106014823 -0.015490125528640115 0 0.024785963244214101 -0.015048691767655721 0 0.025079539519678132 -0.015918003547353701 0 0.023954586799738355 -0.019189495680078151 0 0.0226348457423254 -0.0190238130334438 0 0.022394069252663396 -0.02270141281924877 0 0.021698631428566602 -0.021626467335182552 0 0.020614615953622007 -0.023042451721304518 0 0.0226348457423254 -0.0190238130334438 0 0.021044204419615301 -0.018916053075251765 0 0.024785963244214101 -0.015048691767655721 0 0.023678521613067549 -0.014667630372968676 0 0.023648227135941044 -0.015394625492856185 0 0.023678521613067549 -0.014667630372968676 0 0.023003366580297713 -0.01509016463927384 0 0.023648227135941044 -0.015394625492856185 0 0.023678521613067549 -0.014667630372968676 0 0.022842643383657574 -0.014521997363966994 0 0.023003366580297713 -0.01509016463927384 0 0.017743245377288393 -0.02304111089414863 0 0.018380479789538998 -0.023216158385197645 0 0.017761629239372492 -0.023131288036757364 0 0.021044204419615301 -0.018916053075251765 0 0.020299031475223293 -0.018886890112864291 0 0.017743245377288393 -0.02304111089414863 0 0.018230779511066064 -0.022711613975500429 0 0.018380479789538998 -0.023216158385197645 0 0.017486323773303523 -0.022959771219752786 0 0.017743245377288393 -0.02304111089414863 0 0.018230779511066064 -0.022711613975500429 0 0.020614615953622007 -0.023042451721304518 0 0.019294333548134448 -0.022310177750385771 0 0.018380479789538998 -0.023216158385197645 0 0.018230779511066064 -0.022711613975500429 0 0.019294333548134448 -0.022310177750385771 0 0.018380479789538998 -0.023216158385197645 0 0.022842643383657574 -0.014521997363966994 0 0.022435887471398321 -0.014925598205043977 0 0.022215418171458445 -0.014415248849531109 0 0.020299031475223293 -0.018886890112864291 0 0.020728106130813384 -0.018316305792836041 0 0.017847301404097907 -0.023389016151330128 0 0.017761629239372492 -0.023131288036757364 0 0.018802243279825923 -0.0232860048292289 0 0.017743245377288393 -0.02304111089414863 0 0.017847301404097907 -0.023389016151330128 0 0.017761629239372492 -0.023131288036757364 0 0.022842643383657574 -0.014521997363966994 0 0.023003366580297713 -0.01509016463927384 0 0.022435887471398321 -0.014925598205043977 0 0.022435887471398321 -0.014925598205043977 0 0.021966037660966185 -0.014848724369726498 0 0.022147286600991006 -0.015223846588129393 0 0.021944356936657358 -0.014552516117639275 0 0.021404280677934914 -0.015599862363914637 0 0.021292974884514104 -0.015546709669607563 0 0.021111266884671832 -0.015466494888666084 0 0.021138748469535118 -0.015592002547984107 0 0.021292974884514104 -0.015546709669607563 0 0.021138748469535118 -0.015592002547984107 0 0.021251358136273834 -0.015663660057200501 0 0.021292974884514104 -0.015546709669607563 0 0.021213674312261316 -0.015370607200862594 0 0.021111266884671832 -0.015466494888666084 0 0.021292974884514104 -0.015546709669607563 0 0.021361111557317673 -0.01543088811859158 0 0.021213674312261316 -0.015370607200862594 0 0.022435887471398321 -0.014925598205043977 0 0.021966037660966185 -0.014848724369726498 0 0.022215418171458445 -0.014415248849531109 0 0.021944356936657358 -0.014552516117639275 0 0.020728106130813384 -0.018316305792836041 0 0.019148689541512037 -0.021662775502798891 0 0.019050109525748156 -0.02150016010971317 0 0.018863134042977348 -0.021587413797502189 0 0.020728106130813384 -0.018316305792836041 0 0.02012717429407718 -0.018397282924497185 0 0.019148689541512037 -0.021662775502798891 0 0.019050109525748156 -0.02150016010971317 0 0.019212054532059694 -0.021563801073408689 0 0.017809846225892448 -0.02569969539825584 0 0.018570534706208348 -0.023839740323005391 0 0.017809846225892448 -0.02569969539825584 0 0.017188965811525229 -0.024873474505719147 0 0.017105789000072695 -0.028056904810045406 0 0.016157569290027096 -0.028161876709828348 0 0.015736872811579015 -0.027604599076366459 0 0.019050109525748156 -0.02150016010971317 0 0.018863134042977348 -0.021587413797502189 0 0.018812962939136594 -0.021499644987589141 0 0.018863134042977348 -0.021587413797502189 0 0.018812962939136594 -0.021499644987589141 0 0.018576091040999426 -0.021489278573802298 0 0.017291086678675974 -0.027001050556407606 0 0.01679278451996466 -0.026700351676600231 0 0.016021727284594767 -0.027275428809644765 0 0.017809846225892448 -0.02569969539825584 0 0.01578428650227295 -0.027655450577510111 0 0.01679278451996466 -0.026700351676600231 0 0.016145076107435083 -0.026849813950860935 0 0.016021727284594767 -0.027275428809644765 0 0.017291086678675974 -0.027001050556407606 0 0.01679278451996466 -0.026700351676600231 0 0.017453305209926641 -0.026538542943917807 0 0.017291086678675974 -0.027001050556407606 0 0.017453305209926641 -0.026538542943917807 0 0.017823650343091323 -0.026418246923108894 0 0.01679278451996466 -0.026700351676600231 0 0.017453305209926641 -0.026538542943917807 0 0.017436056349459141 -0.026376766505487634 0 0.017453305209926641 -0.026538542943917807 0 0.0178393629976119 -0.026276553843284527 0 0.017436056349459141 -0.026376766505487634 0 0.0178393629976119 -0.026276553843284527 0 0.017873924998357223 -0.026232070927703348 0 0.017436056349459141 -0.026376766505487634 0 0.018148159855886008 -0.026032980075570047 0 0.018054104174268348 -0.026078683023236994 0 0.017873924998357223 -0.026232070927703348 0 0.0178393629976119 -0.026276553843284527 0 0.018148159855886008 -0.026032980075570047 0 0.017873924998357223 -0.026232070927703348 0 0.0178393629976119 -0.026276553843284527 0 0.018148159855886008 -0.026032980075570047 0 0.018072721178867105 -0.026142269850814158 0 0.018148159855886008 -0.026032980075570047 0 0.018072721178867105 -0.026142269850814158 0 0.01826245456319581 -0.025912698670847341 0 0.018148159855886008 -0.026032980075570047 0 0.01826245456319581 -0.025912698670847341 0 0.018279553438509455 -0.025688686152742182 0 0.018072721178867105 -0.026142269850814158 0 0.018234106816803371 -0.026003891613130721 0 0.01826245456319581 -0.025912698670847341 0 0.018072721178867105 -0.026142269850814158 0 0.018234106816803371 -0.026003891613130721 0 0.018202794504173444 -0.026146128418288683 0 0.018234106816803371 -0.026003891613130721 0 0.018372890431439429 -0.025816273221270416 0 0.018202794504173444 -0.026146128418288683 0 0.01826245456319581 -0.025912698670847341 0 0.018372890431439429 -0.025816273221270416 0 0.018279553438509455 -0.025688686152742182 0 0.018372890431439429 -0.025816273221270416 0 0.018551845648212627 -0.02545405934114392 0 0.018279553438509455 -0.025688686152742182 0 0.018234106816803371 -0.026003891613130721 0 0.01826245456319581 -0.025912698670847341 0 0.018372890431439429 -0.025816273221270416 0 0.017453305209926641 -0.026538542943917807 0 0.0178393629976119 -0.026276553843284527 0 0.017823650343091323 -0.026418246923108894 0 0.0178393629976119 -0.026276553843284527 0 0.018072721178867105 -0.026142269850814158 0 0.017823650343091323 -0.026418246923108894 0 0.018072721178867105 -0.026142269850814158 0 0.017823650343091323 -0.026418246923108894 0 0.018202794504173444 -0.026146128418288683 0 0.017847301404097907 -0.023389016151330128 0 0.018802243279825923 -0.0232860048292289 0 0.01860183458050824 -0.023622523358364064 0 0.017291086678675974 -0.027001050556407606 0 0.017823650343091323 -0.026418246923108894 0 0.018097158755738522 -0.026396841578062838 0 0.017809846225892448 -0.02569969539825584 0 0.018328645702808073 -0.025376807400785729 0 0.017983410111056544 -0.025129133883100802 0 0.01851628177993743 -0.025089496934746151 0 0.018395401154418914 -0.025285012396208856 0 0.018182897227709334 -0.02355031180062854 0 0.018570534706208348 -0.023839740323005391 0 0.017847301404097907 -0.023389016151330128 0 0.01992312571690899 -0.024537343054046118 0 0.018581146231541418 -0.02453194639501783 0 0.018328645702808073 -0.025376807400785729 0 0.018570534706208348 -0.023839740323005391 0 0.017823650343091323 -0.026418246923108894 0 0.018202794504173444 -0.026146128418288683 0 0.018097158755738522 -0.026396841578062838 0 0.018202794504173444 -0.026146128418288683 0 0.018148833758742742 -0.0262857773037561 0 0.018551845648212627 -0.02545405934114392 0 0.019578920939036567 -0.025247111153005004 0 0.018551845648212627 -0.02545405934114392 0 0.019188958737489322 -0.024901557444385866 0 0.018328645702808073 -0.025376807400785729 0 0.018452337307252847 -0.025441024801948486 0 0.019188958737489322 -0.024901557444385866 0 0.01992312571690899 -0.024537343054046118 0 0.018581146231541418 -0.02453194639501783 0 0.018273100920487048 -0.025492695664080422 0 0.018328645702808073 -0.025376807400785729 0 0.018372890431439429 -0.025816273221270416 0 0.018202794504173444 -0.026146128418288683 0 0.018551845648212627 -0.02545405934114392 0 0.018551845648212627 -0.02545405934114392 0 0.019188958737489322 -0.024901557444385866 0 0.018581146231541418 -0.02453194639501783 0 0.019578920939036567 -0.025247111153005004 0 0.019188958737489322 -0.024901557444385866 0 0.01992312571690899 -0.024537343054046118 0 0.020728106130813384 -0.018316305792836041 0 0.018570534706208348 -0.023839740323005391 0 0.017743245377288393 -0.02304111089414863 0 0.017847301404097907 -0.023389016151330128 0 0.017800904994397748 -0.023748384823400817 0 0.017847301404097907 -0.023389016151330128 0 0.017800904994397748 -0.023748384823400817 0 0.018071786136693014 -0.024265474667782283 0 0.017847301404097907 -0.023389016151330128 0 0.018071786136693014 -0.024265474667782283 0 0.018581146231541418 -0.02453194639501783 0 0.018071786136693014 -0.024265474667782283 0 0.018581146231541418 -0.02453194639501783 0 0.018220178013783669 -0.025075302629886862 0 0.018551845648212627 -0.02545405934114392 0 0.018581146231541418 -0.02453194639501783 0 0.018220178013783669 -0.025075302629886862 0 0.018551845648212627 -0.02545405934114392 0 0.018220178013783669 -0.025075302629886862 0 0.018279553438509455 -0.025688686152742182 0 0.018220178013783669 -0.025075302629886862 0 0.017928221368915118 -0.024724793476878965 0 0.018024400609803398 -0.025439667259174924 0 0.018071786136693014 -0.024265474667782283 0 0.018220178013783669 -0.025075302629886862 0 0.017928221368915118 -0.024724793476878965 0 0.017800904994397748 -0.023748384823400817 0 0.018071786136693014 -0.024265474667782283 0 0.017928221368915118 -0.024724793476878965 0 0.017668968076265459 -0.024356756928539943 0 0.017800904994397748 -0.023748384823400817 0 0.017928221368915118 -0.024724793476878965 0 0.017668968076265459 -0.024356756928539943 0 0.017928221368915118 -0.024724793476878965 0 0.017703851841886522 -0.025319218976870408 0 0.017782259200610311 -0.025830724432822281 0 0.017703851841886522 -0.025319218976870408 0 0.017905230585735787 -0.025763697731588573 0 0.017928221368915118 -0.024724793476878965 0 0.017703851841886522 -0.025319218976870408 0 0.018024400609803398 -0.025439667259174924 0 0.018024400609803398 -0.025439667259174924 0 0.018088052153682581 -0.025862969437229974 0 0.017905230585735787 -0.025763697731588573 0 0.017703851841886522 -0.025319218976870408 0 0.018024400609803398 -0.025439667259174924 0 0.017905230585735787 -0.025763697731588573 0 0.018220178013783669 -0.025075302629886862 0 0.018024400609803398 -0.025439667259174924 0 0.018279553438509455 -0.025688686152742182 0 0.018024400609803398 -0.025439667259174924 0 0.018279553438509455 -0.025688686152742182 0 0.018088052153682581 -0.025862969437229974 0 0.018148159855886008 -0.026032980075570047 0 0.018279553438509455 -0.025688686152742182 0 0.018088052153682581 -0.025862969437229974 0 0.018148159855886008 -0.026032980075570047 0 0.018088052153682581 -0.025862969437229974 0 0.018054104174268348 -0.026078683023236994 0 0.018088052153682581 -0.025862969437229974 0 0.018054104174268348 -0.026078683023236994 0 0.017977412716110332 -0.026041284066474248 0 0.018088052153682581 -0.025862969437229974 0 0.017905230585735787 -0.025763697731588573 0 0.017977412716110332 -0.026041284066474248 0 0.017782259200610311 -0.025830724432822281 0 0.017905230585735787 -0.025763697731588573 0 0.017977412716110332 -0.026041284066474248 0 0.017977412716110332 -0.026041284066474248 0 0.017952460778483992 -0.026187073147054929 0 0.017982305810260363 -0.026183648450023616 0 0.017782259200610311 -0.025830724432822281 0 0.017977412716110332 -0.026041284066474248 0 0.017952460778483992 -0.026187073147054929 0 0.018054104174268348 -0.026078683023236994 0 0.017977412716110332 -0.026041284066474248 0 0.017982305810260363 -0.026183648450023616 0 0.017952460778483992 -0.026187073147054929 0 0.017982305810260363 -0.026183648450023616 0 0.017982020759316996 -0.026213527544545038 0 0.017982305810260363 -0.026183648450023616 0 0.017982020759316996 -0.026213527544545038 0 0.017834535509400024 -0.02620821807316772 0 0.018089896723234192 -0.026220043799009735 0 0.017952460778483992 -0.026187073147054929 0 0.017982020759316996 -0.026213527544545038 0 0.017873924998357223 -0.026232070927703348 0 0.017424501736910916 -0.026195433571162004 0 0.017436056349459141 -0.026376766505487634 0 0.017982305810260363 -0.026183648450023616 0 0.017873924998357223 -0.026232070927703348 0 0.017834535509400024 -0.02620821807316772 0 0.018054104174268348 -0.026078683023236994 0 0.017982305810260363 -0.026183648450023616 0 0.017873924998357223 -0.026232070927703348 0 0.017873924998357223 -0.026232070927703348 0 0.017834535509400024 -0.02620821807316772 0 0.017424501736910916 -0.026195433571162004 0 0.017834535509400024 -0.02620821807316772 0 0.017424501736910916 -0.026195433571162004 0 0.017745937565391553 -0.025929994133107478 0 0.017424501736910916 -0.026195433571162004 0 0.017745937565391553 -0.025929994133107478 0 0.017210543697045538 -0.025942034719944058 0 0.018089896723234192 -0.026220043799009735 0 0.018004550633469698 -0.026145589572592168 0 0.01826305645314583 -0.025985496217135313 0 0.017834535509400024 -0.02620821807316772 0 0.018004550633469698 -0.026145589572592168 0 0.017745937565391553 -0.025929994133107478 0 0.018004550633469698 -0.026145589572592168 0 0.01826305645314583 -0.025985496217135313 0 0.017745937565391553 -0.025929994133107478 0 0.018089896723234192 -0.026220043799009735 0 0.017982020759316996 -0.026213527544545038 0 0.018004550633469698 -0.026145589572592168 0 0.017982020759316996 -0.026213527544545038 0 0.017834535509400024 -0.02620821807316772 0 0.018004550633469698 -0.026145589572592168 0 0.01826305645314583 -0.025985496217135313 0 0.017745937565391553 -0.025929994133107478 0 0.018290461778015969 -0.025558901537315385 0 0.017745937565391553 -0.025929994133107478 0 0.016925664081299398 -0.025563688599995592 0 0.017210543697045538 -0.025942034719944058 0 0.017745937565391553 -0.025929994133107478 0 0.017511354638072782 -0.024999871623100186 0 0.016925664081299398 -0.025563688599995592 0 0.017745937565391553 -0.025929994133107478 0 0.017511354638072782 -0.024999871623100186 0 0.018290461778015969 -0.025558901537315385 0 0.018923265589125163 -0.024999857820390211 0 0.017511354638072782 -0.024999871623100186 0 0.018290461778015969 -0.025558901537315385 0 0.016099237060921385 -0.024999724775964804 0 0.016925664081299398 -0.025563688599995592 0 0.015886614994324012 -0.02564571637487564 0 0.017511354638072782 -0.024999871623100186 0 0.016099237060921385 -0.024999724775964804 0 0.016925664081299398 -0.025563688599995592 0 0.016925664081299398 -0.025563688599995592 0 0.017210543697045538 -0.025942034719944058 0 0.016681777838343341 -0.026069751921198561 0 0.016925664081299398 -0.025563688599995592 0 0.015886614994324012 -0.02564571637487564 0 0.016681777838343341 -0.026069751921198561 0 0.015886614994324012 -0.02564571637487564 0 0.015950675314409996 -0.026122781687502167 0 0.016681777838343341 -0.026069751921198561 0 0.016681777838343341 -0.026069751921198561 0 0.016975988312838825 -0.026352751808704909 0 0.016057866121723465 -0.026543563160429863 0 0.015950675314409996 -0.026122781687502167 0 0.016681777838343341 -0.026069751921198561 0 0.016057866121723465 -0.026543563160429863 0 0.017424501736910916 -0.026195433571162004 0 0.016681777838343341 -0.026069751921198561 0 0.016975988312838825 -0.026352751808704909 0 0.017424501736910916 -0.026195433571162004 0 0.017210543697045538 -0.025942034719944058 0 0.016681777838343341 -0.026069751921198561 0 0.017424501736910916 -0.026195433571162004 0 0.016975988312838825 -0.026352751808704909 0 0.017436056349459141 -0.026376766505487634 0 0.01679278451996466 -0.026700351676600231 0 0.016975988312838825 -0.026352751808704909 0 0.017436056349459141 -0.026376766505487634 0 0.01679278451996466 -0.026700351676600231 0 0.016975988312838825 -0.026352751808704909 0 0.016057866121723465 -0.026543563160429863 0 0.01679278451996466 -0.026700351676600231 0 0.016057866121723465 -0.026543563160429863 0 0.016145076107435083 -0.026849813950860935 0 0.016057866121723465 -0.026543563160429863 0 0.016145076107435083 -0.026849813950860935 0 0.01562479852711997 -0.026896681472523706 0 0.016057866121723465 -0.026543563160429863 0 0.01562479852711997 -0.026896681472523706 0 0.015246897580530763 -0.026573517408668128 0 0.015246897580530763 -0.026573517408668128 0 0.014599709151570777 -0.027272887252424022 0 0.014572362416018203 -0.026522453507203166 0 0.01562479852711997 -0.026896681472523706 0 0.015246897580530763 -0.026573517408668128 0 0.014599709151570777 -0.027272887252424022 0 0.014572362416018203 -0.026522453507203166 0 0.015173099004892601 -0.026122922081059693 0 0.014164286044707427 -0.026002247789536793 0 0.015246897580530763 -0.026573517408668128 0 0.014572362416018203 -0.026522453507203166 0 0.015173099004892601 -0.026122922081059693 0 0.015950675314409996 -0.026122781687502167 0 0.016057866121723465 -0.026543563160429863 0 0.015246897580530763 -0.026573517408668128 0 0.015950675314409996 -0.026122781687502167 0 0.015246897580530763 -0.026573517408668128 0 0.015173099004892601 -0.026122922081059693 0 0.015886614994324012 -0.02564571637487564 0 0.015950675314409996 -0.026122781687502167 0 0.015173099004892601 -0.026122922081059693 0 0.015886614994324012 -0.02564571637487564 0 0.015173099004892601 -0.026122922081059693 0 0.014852032734713649 -0.025657896739934787 0 0.014852032734713649 -0.025657896739934787 0 0.013997736823245345 -0.025510813327572129 0 0.014164286044707427 -0.026002247789536793 0 0.015173099004892601 -0.026122922081059693 0 0.014852032734713649 -0.025657896739934787 0 0.014164286044707427 -0.026002247789536793 0 0.014852032734713649 -0.025657896739934787 0 0.014686855315009593 -0.024999759343259563 0 0.013997736823245345 -0.025510813327572129 0 0.016099237060921385 -0.024999724775964804 0 0.015886614994324012 -0.02564571637487564 0 0.014686855315009593 -0.024999759343259563 0 0.015886614994324012 -0.02564571637487564 0 0.014852032734713649 -0.025657896739934787 0 0.014686855315009593 -0.024999759343259563 0 0.011862169267126809 -0.025000011470018253 0 0.0132745388465211 -0.024999779334749062 0 0.01284492805456936 -0.02582586314660729 0 0.014686855315009593 -0.024999759343259563 0 0.0132745388465211 -0.024999779334749062 0 0.013997736823245345 -0.025510813327572129 0 0.0132745388465211 -0.024999779334749062 0 0.013997736823245345 -0.025510813327572129 0 0.01284492805456936 -0.02582586314660729 0 0.013997736823245345 -0.025510813327572129 0 0.014164286044707427 -0.026002247789536793 0 0.01284492805456936 -0.02582586314660729 0 0.014164286044707427 -0.026002247789536793 0 0.01284492805456936 -0.02582586314660729 0 0.01367750931396455 -0.026455286370348781 0 0.012592620378028907 -0.0256046271920394 0 0.012854795159068325 -0.026409958714572385 0 0.01367750931396455 -0.026455286370348781 0 0.012260215181103122 -0.026387362804802299 0 0.012592620378028907 -0.0256046271920394 0 0.012854795159068325 -0.026409958714572385 0 0.012737556708475914 -0.025719374651565572 0 0.01359689389306607 -0.026441617769863632 0 0.012854795159068325 -0.026409958714572385 0 0.01367750931396455 -0.026455286370348781 0 0.013118756048483719 -0.026921414754245514 0 0.012260215181103122 -0.026387362804802299 0 0.012854795159068325 -0.026409958714572385 0 0.012647476213343483 -0.026711873502496444 0 0.014572362416018203 -0.026522453507203166 0 0.014164286044707427 -0.026002247789536793 0 0.01367750931396455 -0.026455286370348781 0 0.014599709151570777 -0.027272887252424022 0 0.01367750931396455 -0.026455286370348781 0 0.013118756048483719 -0.026921414754245514 0 0.014599709151570777 -0.027272887252424022 0 0.014572362416018203 -0.026522453507203166 0 0.01367750931396455 -0.026455286370348781 0 0.014388837417781439 -0.027207214798415983 0 0.013118756048483719 -0.026921414754245514 0 0.013605691718496965 -0.027450612665125232 0 0.014480197119052775 -0.02719646447270507 0 0.013201460497846913 -0.026926517708042563 0 0.012539131813711558 -0.027114592963331352 0 0.012647476213343483 -0.026711873502496444 0 0.013118756048483719 -0.026921414754245514 0 0.012854795159068325 -0.026409958714572385 0 0.012647476213343483 -0.026711873502496444 0 0.013118756048483719 -0.026921414754245514 0 0.013118756048483719 -0.026921414754245514 0 0.012957100704013911 -0.02738582134394393 0 0.013605691718496965 -0.027450612665125232 0 0.012539131813711558 -0.027114592963331352 0 0.013118756048483719 -0.026921414754245514 0 0.012957100704013911 -0.02738582134394393 0 0.012259213759285329 -0.027617280974246147 0 0.012957100704013911 -0.02738582134394393 0 0.013195364565709225 -0.027842931684167994 0 0.020220326616172075 -0.015521401767971545 0 0.02021449080930051 -0.015604984675124509 0 0.020258347649339006 -0.015493913508751598 0 0.014023262954039597 -0.02369212009385788 0 0.017057916838377492 -0.021668238855231083 0 0.012957100704013911 -0.02738582134394393 0 0.013195364565709225 -0.027842931684167994 0 0.013605691718496965 -0.027450612665125232 0 0.02021449080930051 -0.015604984675124509 0 0.020258347649339006 -0.015493913508751598 0 0.020302056141648241 -0.015399466414669648 0 0.020229932287632806 -0.015473673615310796 0 0.020258347649339006 -0.015493913508751598 0 0.020302056141648241 -0.015399466414669648 0 0.020302056141648241 -0.015399466414669648 0 0.02043201308781464 -0.015465718436776488 0 0.020564309189953105 -0.01541967085943457 0 0.020302056141648241 -0.015399466414669648 0 0.020732128630891713 -0.015254651851424881 0 0.020564309189953105 -0.01541967085943457 0 0.020167517216878632 -0.01543344226578581 0 0.020653060858746804 -0.015076059831322229 0 0.02021449080930051 -0.015604984675124509 0 0.020302056141648241 -0.015399466414669648 0 0.019841862486763506 -0.015475706167741653 0 0.02021449080930051 -0.015604984675124509 0 0.019841862486763506 -0.015475706167741653 0 0.019802516817831187 -0.015629827006615818 0 0.020732128630891713 -0.015254651851424881 0 0.020784623709070863 -0.015436875477070374 0 0.020564309189953105 -0.01541967085943457 0 0.017057916838377492 -0.021668238855231083 0 0.01674092983175118 -0.021896659594393866 0 0.013195364565709225 -0.027842931684167994 0 0.013605691718496965 -0.027450612665125232 0 0.014188773489581107 -0.028034760512038213 0 0.014388837417781439 -0.027207214798415983 0 0.013605691718496965 -0.027450612665125232 0 0.014188773489581107 -0.028034760512038213 0 0.014388837417781439 -0.027207214798415983 0 0.014881869715188348 -0.027774110986770215 0 0.014188773489581107 -0.028034760512038213 0 0.014388837417781439 -0.027207214798415983 0 0.014881869715188348 -0.027774110986770215 0 0.015736872811579015 -0.027604599076366459 0 0.01562479852711997 -0.026896681472523706 0 0.014599709151570777 -0.027272887252424022 0 0.016021727284594767 -0.027275428809644765 0 0.014881869715188348 -0.027774110986770215 0 0.015736872811579015 -0.027604599076366459 0 0.01522450159280531 -0.028247903900286704 0 0.014480197119052775 -0.02719646447270507 0 0.01578428650227295 -0.027655450577510111 0 0.016145076107435083 -0.026849813950860935 0 0.01562479852711997 -0.026896681472523706 0 0.016021727284594767 -0.027275428809644765 0 0.021213674312261316 -0.015370607200862594 0 0.021012863146242799 -0.015282826333555405 0 0.021111266884671832 -0.015466494888666084 0 0.02012717429407718 -0.018397282924497185 0 0.018625175523476353 -0.019915840361772331 0 0.016157569290027096 -0.028161876709828348 0 0.015736872811579015 -0.027604599076366459 0 0.01522450159280531 -0.028247903900286704 0 0.017188965811525229 -0.024873474505719147 0 0.018625175523476353 -0.019915840361772331 0 0.018625175523476353 -0.019915840361772331 0 0.01674092983175118 -0.021896659594393866 0 0.019841862486763506 -0.015475706167741653 0 0.019305214737473146 -0.015615771481324026 0 0.019802516817831187 -0.015629827006615818 0 0.020732128630891713 -0.015254651851424881 0 0.021012863146242799 -0.015282826333555405 0 0.020876554223374991 -0.0153425583068331 0 0.014881869715188348 -0.027774110986770215 0 0.01522450159280531 -0.028247903900286704 0 0.014188773489581107 -0.028034760512038213 0 0.020653060858746804 -0.015076059831322229 0 0.018625175523476353 -0.019915840361772331 0 0.021012863146242799 -0.015282826333555405 0 0.020876554223374991 -0.0153425583068331 0 0.020963638475682791 -0.015406275749957933 0 0.020732128630891713 -0.015254651851424881 0 0.020876554223374991 -0.0153425583068331 0 0.020784623709070863 -0.015436875477070374 0 0.020876554223374991 -0.0153425583068331 0 0.020784623709070863 -0.015436875477070374 0 0.020963638475682791 -0.015406275749957933 0 0.020784623709070863 -0.015436875477070374 0 0.020963638475682791 -0.015406275749957933 0 0.020986380228942569 -0.015540649480597191 0 0.021012863146242799 -0.015282826333555405 0 0.020963638475682791 -0.015406275749957933 0 0.021111266884671832 -0.015466494888666084 0 0.020963638475682791 -0.015406275749957933 0 0.021111266884671832 -0.015466494888666084 0 0.020986380228942569 -0.015540649480597191 0 0.021111266884671832 -0.015466494888666084 0 0.021138748469535118 -0.015592002547984107 0 0.020986380228942569 -0.015540649480597191 0 0.021138748469535118 -0.015592002547984107 0 0.020986380228942569 -0.015540649480597191 0 0.02106138058870129 -0.01566454702540581 0 0.020986380228942569 -0.015540649480597191 0 0.020771164386249541 -0.015584137535796209 0 0.02106138058870129 -0.01566454702540581 0 0.020784623709070863 -0.015436875477070374 0 0.020986380228942569 -0.015540649480597191 0 0.020771164386249541 -0.015584137535796209 0 0.020771164386249541 -0.015584137535796209 0 0.020481353839905365 -0.015623460289087057 0 0.020688767188974295 -0.015700533524119816 0 0.020771164386249541 -0.015584137535796209 0 0.020481353839905365 -0.015623460289087057 0 0.020580556038806989 -0.015512034138728996 0 0.020258413034871952 -0.015661332427954935 0 0.020481353839905365 -0.015623460289087057 0 0.020337596444252194 -0.015522902880318488 0 0.020481353839905365 -0.015623460289087057 0 0.020337596444252194 -0.015522902880318488 0 0.020580556038806989 -0.015512034138728996 0 0.020337596444252194 -0.015522902880318488 0 0.02043201308781464 -0.015465718436776488 0 0.020580556038806989 -0.015512034138728996 0 0.020229932287632806 -0.015473673615310796 0 0.020302056141648241 -0.015399466414669648 0 0.020337596444252194 -0.015522902880318488 0 0.020302056141648241 -0.015399466414669648 0 0.020337596444252194 -0.015522902880318488 0 0.02043201308781464 -0.015465718436776488 0 0.02043201308781464 -0.015465718436776488 0 0.020564309189953105 -0.01541967085943457 0 0.020580556038806989 -0.015512034138728996 0 0.020784623709070863 -0.015436875477070374 0 0.020771164386249541 -0.015584137535796209 0 0.020580556038806989 -0.015512034138728996 0 0.020784623709070863 -0.015436875477070374 0 0.020564309189953105 -0.01541967085943457 0 0.020580556038806989 -0.015512034138728996 0 0.020614976492954139 -0.015840859648128161 0 0.020866059747036939 -0.01585787596554494 0 0.020486781641475597 -0.016025027685615464 0 0.020614976492954139 -0.015840859648128161 0 0.020866059747036939 -0.01585787596554494 0 0.020688767188974295 -0.015700533524119816 0 0.020614976492954139 -0.015840859648128161 0 0.020378159027138441 -0.015825562355113808 0 0.020486781641475597 -0.016025027685615464 0 0.02024049267963544 -0.016124264877854257 0 0.020378159027138441 -0.015825562355113808 0 0.020486781641475597 -0.016025027685615464 0 0.020481353839905365 -0.015623460289087057 0 0.020378159027138441 -0.015825562355113808 0 0.020688767188974295 -0.015700533524119816 0 0.020614976492954139 -0.015840859648128161 0 0.020378159027138441 -0.015825562355113808 0 0.020688767188974295 -0.015700533524119816 0 0.020258413034871952 -0.015661332427954935 0 0.020481353839905365 -0.015623460289087057 0 0.020378159027138441 -0.015825562355113808 0 0.020771164386249541 -0.015584137535796209 0 0.020688767188974295 -0.015700533524119816 0 0.02106138058870129 -0.01566454702540581 0 0.020866059747036939 -0.01585787596554494 0 0.020688767188974295 -0.015700533524119816 0 0.02106138058870129 -0.01566454702540581 0 0.021138748469535118 -0.015592002547984107 0 0.02106138058870129 -0.01566454702540581 0 0.021251358136273834 -0.015663660057200501 0 0.02106138058870129 -0.01566454702540581 0 0.021387375543659753 -0.015713108202893882 0 0.021251358136273834 -0.015663660057200501 0 0.020866059747036939 -0.01585787596554494 0 0.02106138058870129 -0.01566454702540581 0 0.021387375543659753 -0.015713108202893882 0 0.021112815432506357 -0.016077330186035115 0 0.020838726585330578 -0.016299793340429997 0 0.021420021489529126 -0.016449377688223261 0 0.021112815432506357 -0.016077330186035115 0 0.021420021489529126 -0.016449377688223261 0 0.021953446836620663 -0.015898350455278324 0 0.021387375543659753 -0.015713108202893882 0 0.021112815432506357 -0.016077330186035115 0 0.021953446836620663 -0.015898350455278324 0 0.020866059747036939 -0.01585787596554494 0 0.021387375543659753 -0.015713108202893882 0 0.021112815432506357 -0.016077330186035115 0 0.021090638432310019 -0.016106846574100747 0 0.020799572187432724 -0.016353199945484814 0 0.021112815432506357 -0.016077330186035115 0 0.020760354801359644 -0.01642516364781155 0 0.020714608391983233 -0.016124611419874278 0 0.020866059747036939 -0.01585787596554494 0 0.020714608391983233 -0.016124611419874278 0 0.020486781641475597 -0.016025027685615464 0 0.020866059747036939 -0.01585787596554494 0 0.021112815432506357 -0.016077330186035115 0 0.020714608391983233 -0.016124611419874278 0 0.020344479389163676 -0.016351053047172062 0 0.020714608391983233 -0.016124611419874278 0 0.020486781641475597 -0.016025027685615464 0 0.020344479389163676 -0.016351053047172062 0 0.020760354801359644 -0.01642516364781155 0 0.020714608391983233 -0.016124611419874278 0 0.020799572187432724 -0.016353199945484814 0 0.020532065607543403 -0.01660104328985515 0 0.020344479389163676 -0.016351053047172062 0 0.020760354801359644 -0.01642516364781155 0 0.02046018101249153 -0.016644751513671143 0 0.020838726585330578 -0.016299793340429997 0 0.020788148141708443 -0.016575276458884097 0 0.021070284815483946 -0.016734686814495043 0 0.020838726585330578 -0.016299793340429997 0 0.020555437564127033 -0.016522694542331958 0 0.020788148141708443 -0.016575276458884097 0 0.020788148141708443 -0.016575276458884097 0 0.020696208159209833 -0.016745964343007413 0 0.021070284815483946 -0.016734686814495043 0 0.020696208159209833 -0.016745964343007413 0 0.020751031015508202 -0.017006183616660942 0 0.021070284815483946 -0.016734686814495043 0 0.020436163458304735 -0.016835159008299967 0 0.020555437564127033 -0.016522694542331958 0 0.020696208159209833 -0.016745964343007413 0 0.020555437564127033 -0.016522694542331958 0 0.020788148141708443 -0.016575276458884097 0 0.020696208159209833 -0.016745964343007413 0 0.020436163458304735 -0.016835159008299967 0 0.020696208159209833 -0.016745964343007413 0 0.020751031015508202 -0.017006183616660942 0 0.020559389666702312 -0.015924187108490133 0 0.02075015542640635 -0.016121781187515671 0 0.020819308063346888 -0.016058396707696168 0 0.020181206638635568 -0.016385679006199253 0 0.021337807364867581 -0.015880755320962218 0 0.020181206638635568 -0.016385679006199253 0 0.020809585091540454 -0.015572079992247613 0 0.019536618983986988 -0.016067035734840932 0 0.019536858230570487 -0.016092396296237679 0 0.019514497958719252 -0.016078288109579664 0 0.019545623952065831 -0.016127404024148816 0 0.019536858230570487 -0.016092396296237679 0 0.019514497958719252 -0.016078288109579664 0 0.020809585091540454 -0.015572079992247613 0 0.021337807364867581 -0.015880755320962218 0 0.022064166685614398 -0.015380805353986995 0 0.021997659186029937 -0.015384948727596742 0 0.022034844877727923 -0.01543413978834139 0 0.021337807364867581 -0.015880755320962218 0 0.021550982119554522 -0.016137125676893665 0 0.021889949352723335 -0.015318714832303034 0 0.021927482634063269 -0.015336266994740692 0 0.021911560548218294 -0.015328454944064358 0 0.021884078891184912 -0.015322144095117084 0 0.021889949352723335 -0.015318714832303034 0 0.021911560548218294 -0.015328454944064358 0 0.021337807364867581 -0.015880755320962218 0 0.022144756743595891 -0.015221984511039078 0 0.020809585091540454 -0.015572079992247613 0 0.021732294383649334 -0.015053799380854193 0 0.021135957656005136 -0.014671371053246831 0 0.021159389073698704 -0.0148128090546778 0 0.021378814117097231 -0.014900475811449895 0 0.021159389073698704 -0.0148128090546778 0 0.021049067693731615 -0.014840617507260383 0 0.02114195022048895 -0.014894095139158254 0 0.020809585091540454 -0.015572079992247613 0 0.020156421683620883 -0.015430280528304738 0 0.019536618983986988 -0.016067035734840932 0 0.019514497958719252 -0.016078288109579664 0 0.01953390134394754 -0.016021052769188943 0 0.021135957656005136 -0.014671371053246831 0 0.021049067693731615 -0.014840617507260383 0 0.020923750479997824 -0.014873445818082452 0 0.021135957656005136 -0.014671371053246831 0 0.021159389073698704 -0.0148128090546778 0 0.021049067693731615 -0.014840617507260383 0 0.021929629451309943 -0.015332796155070603 0 0.021888613015570726 -0.015316735596550085 0 0.021848880508048112 -0.015319616741795527 0 0.021929629451309943 -0.015332796155070603 0 0.021927482634063269 -0.015336266994740692 0 0.021848880508048112 -0.015319616741795527 0 0.021929629451309943 -0.015332796155070603 0 0.021927482634063269 -0.015336266994740692 0 0.022007655748610484 -0.015381099454636848 0 0.021927482634063269 -0.015336266994740692 0 0.021848880508048112 -0.015319616741795527 0 0.021911560548218294 -0.015328454944064358 0 0.021997659186029937 -0.015384948727596742 0 0.022007655748610484 -0.015381099454636848 0 0.022034844877727923 -0.01543413978834139 0 0.022064166685614398 -0.015380805353986995 0 0.021927482634063269 -0.015336266994740692 0 0.021997659186029937 -0.015384948727596742 0 0.021927482634063269 -0.015336266994740692 0 0.021997659186029937 -0.015384948727596742 0 0.022007655748610484 -0.015381099454636848 0 0.022007655748610484 -0.015381099454636848 0 0.022119690086616076 -0.015538867068046899 0 0.022073645980636838 -0.015455767797805072 0 0.020838726585330578 -0.016299793340429997 0 0.021070284815483946 -0.016734686814495043 0 0.021420021489529126 -0.016449377688223261 0 0.022007655748610484 -0.015381099454636848 0 0.022034844877727923 -0.01543413978834139 0 0.022119690086616076 -0.015538867068046899 0 0.021550982119554522 -0.016137125676893665 0 0.021767590628459496 -0.015988430632171754 0 0.022119690086616076 -0.015538867068046899 0 0.022073645980636838 -0.015455767797805072 0 0.021953446836620663 -0.015898350455278324 0 0.022150374289000324 -0.015646969114781417 0 0.022073645980636838 -0.015455767797805072 0 0.021953446836620663 -0.015898350455278324 0 0.022150374289000324 -0.015646969114781417 0 0.022073645980636838 -0.015455767797805072 0 0.022153675167127969 -0.015366638174927394 0 0.022073645980636838 -0.015455767797805072 0 0.022112688458785789 -0.015282513357505996 0 0.022153675167127969 -0.015366638174927394 0 0.021929629451309943 -0.015332796155070603 0 0.022007655748610484 -0.015381099454636848 0 0.022011223539149593 -0.015324425788132513 0 0.022007655748610484 -0.015381099454636848 0 0.022073645980636838 -0.015455767797805072 0 0.022011223539149593 -0.015324425788132513 0 0.022011223539149593 -0.015324425788132513 0 0.022039372441833908 -0.015290834838100686 0 0.022112688458785789 -0.015282513357505996 0 0.022073645980636838 -0.015455767797805072 0 0.022011223539149593 -0.015324425788132513 0 0.022112688458785789 -0.015282513357505996 0 0.021929629451309943 -0.015332796155070603 0 0.022011223539149593 -0.015324425788132513 0 0.021888613015570726 -0.015316735596550085 0 0.022011223539149593 -0.015324425788132513 0 0.022039372441833908 -0.015290834838100686 0 0.021888613015570726 -0.015316735596550085 0 0.022400649368289366 -0.015210020962516104 0 0.022220950755906688 -0.015220775252388333 0 0.022208071485750356 -0.015286750706588555 0 0.022039372441833908 -0.015290834838100686 0 0.022220950755906688 -0.015220775252388333 0 0.022208071485750356 -0.015286750706588555 0 0.022039372441833908 -0.015290834838100686 0 0.022112688458785789 -0.015282513357505996 0 0.022220950755906688 -0.015220775252388333 0 0.022112688458785789 -0.015282513357505996 0 0.022220950755906688 -0.015220775252388333 0 0.022229992390843417 -0.015229379669244172 0 0.022220950755906688 -0.015220775252388333 0 0.022229992390843417 -0.015229379669244172 0 0.022415837364898127 -0.015100478992880558 0 0.022400649368289366 -0.015210020962516104 0 0.022220950755906688 -0.015220775252388333 0 0.022415837364898127 -0.015100478992880558 0 0.022229992390843417 -0.015229379669244172 0 0.022200183509949348 -0.01531171749967941 0 0.022415837364898127 -0.015100478992880558 0 0.022150374289000324 -0.015646969114781417 0 0.022153675167127969 -0.015366638174927394 0 0.022200183509949348 -0.01531171749967941 0 0.022229992390843417 -0.015229379669244172 0 0.022153675167127969 -0.015366638174927394 0 0.022200183509949348 -0.01531171749967941 0 0.022112688458785789 -0.015282513357505996 0 0.022229992390843417 -0.015229379669244172 0 0.022153675167127969 -0.015366638174927394 0 0.022571729441809015 -0.015875139458417085 0 0.022309434893421031 -0.015846091583577887 0 0.02288869994858567 -0.016421690795072833 0 0.022282543303099252 -0.015849179198341234 0 0.02315362954584468 -0.016056459774629717 0 0.022917153249311505 -0.015713423222244002 0 0.022282543303099252 -0.015849179198341234 0 0.02315362954584468 -0.016056459774629717 0 0.022150374289000324 -0.015646969114781417 0 0.022200183509949348 -0.01531171749967941 0 0.022282543303099252 -0.015849179198341234 0 0.022150374289000324 -0.015646969114781417 0 0.022282543303099252 -0.015849179198341234 0 0.021953446836620663 -0.015898350455278324 0 0.021767590628459496 -0.015988430632171754 0 0.021929415392009852 -0.015908733702001718 0 0.021387375543659753 -0.015713108202893882 0 0.021953446836620663 -0.015898350455278324 0 0.022081317822471209 -0.015609939289612625 0 0.022282543303099252 -0.015849179198341234 0 0.021953446836620663 -0.015898350455278324 0 0.022081317822471209 -0.015609939289612625 0 0.021411038212053493 -0.015645764074822977 0 0.021404280677934914 -0.015599862363914637 0 0.021387375543659753 -0.015713108202893882 0 0.022081317822471209 -0.015609939289612625 0 0.021705996927892379 -0.015246207179638484 0 0.022081317822471209 -0.015609939289612625 0 0.021705996927892379 -0.015246207179638484 0 0.022147286600991006 -0.015223846588129393 0 0.021966037660966185 -0.014848724369726498 0 0.021705996927892379 -0.015246207179638484 0 0.022147286600991006 -0.015223846588129393 0 0.022081317822471209 -0.015609939289612625 0 0.022147286600991006 -0.015223846588129393 0 0.022571085101611387 -0.015404897626640501 0 0.022917153249311505 -0.015713423222244002 0 0.022282543303099252 -0.015849179198341234 0 0.022571085101611387 -0.015404897626640501 0 0.022435887471398321 -0.014925598205043977 0 0.022147286600991006 -0.015223846588129393 0 0.022571085101611387 -0.015404897626640501 0 0.022282543303099252 -0.015849179198341234 0 0.022081317822471209 -0.015609939289612625 0 0.022571085101611387 -0.015404897626640501 0 0.023003366580297713 -0.01509016463927384 0 0.022571085101611387 -0.015404897626640501 0 0.0231135321251313 -0.015503695132417932 0 0.023003366580297713 -0.01509016463927384 0 0.022435887471398321 -0.014925598205043977 0 0.022571085101611387 -0.015404897626640501 0 0.022917153249311505 -0.015713423222244002 0 0.022571085101611387 -0.015404897626640501 0 0.0231135321251313 -0.015503695132417932 0 0.024493387797878449 -0.016295777084348612 0 0.023648227135941044 -0.015394625492856185 0 0.024557921181433576 -0.015892102311612456 0 0.023966013719916225 -0.015968138875261013 0 0.023675263816314254 -0.01538197975734765 0 0.022917153249311505 -0.015713423222244002 0 0.023452464210852651 -0.015728880629309525 0 0.0231135321251313 -0.015503695132417932 0 0.023452464210852651 -0.015728880629309525 0 0.0231135321251313 -0.015503695132417932 0 0.023648227135941044 -0.015394625492856185 0 0.023003366580297713 -0.01509016463927384 0 0.0231135321251313 -0.015503695132417932 0 0.023648227135941044 -0.015394625492856185 0 0.024785963244214101 -0.015048691767655721 0 0.023648227135941044 -0.015394625492856185 0 0.024557921181433576 -0.015892102311612456 0 0.024785963244214101 -0.015048691767655721 0 0.024557921181433576 -0.015892102311612456 0 0.025079539519678132 -0.015918003547353701 0 0.025079539519678132 -0.015918003547353701 0 0.025095606871329744 -0.016343862165263821 0 0.025689667772512883 -0.016419397286840779 0 0.024493387797878449 -0.016295777084348612 0 0.024557921181433576 -0.015892102311612456 0 0.025095606871329744 -0.016343862165263821 0 0.024557921181433576 -0.015892102311612456 0 0.025079539519678132 -0.015918003547353701 0 0.025095606871329744 -0.016343862165263821 0 0.025095606871329744 -0.016343862165263821 0 0.025220960297403408 -0.016330398994875678 0 0.02503256151218464 -0.016377219900750431 0 0.024493387797878449 -0.016295777084348612 0 0.025095606871329744 -0.016343862165263821 0 0.02503256151218464 -0.016377219900750431 0 0.025095606871329744 -0.016343862165263821 0 0.025220960297403408 -0.016330398994875678 0 0.025494881755213444 -0.016426837881665591 0 0.025220960297403408 -0.016330398994875678 0 0.025149087138851764 -0.016199899087086172 0 0.025358542494204005 -0.01623426819626338 0 0.025220960297403408 -0.016330398994875678 0 0.02503256151218464 -0.016377219900750431 0 0.025149087138851764 -0.016199899087086172 0 0.023516805051213566 -0.016183676713499039 0 0.02315362954584468 -0.016056459774629717 0 0.023310113308674 -0.016416884556018408 0 0.023966013719916225 -0.015968138875261013 0 0.024247748545199149 -0.016235888409478864 0 0.023452464210852651 -0.015728880629309525 0 0.023516805051213566 -0.016183676713499039 0 0.02315362954584468 -0.016056459774629717 0 0.022917153249311505 -0.015713423222244002 0 0.023452464210852651 -0.015728880629309525 0 0.02315362954584468 -0.016056459774629717 0 0.02288869994858567 -0.016421690795072833 0 0.02315362954584468 -0.016056459774629717 0 0.023310113308674 -0.016416884556018408 0 0.022200183509949348 -0.01531171749967941 0 0.022583698065900021 -0.014980365069348859 0 0.022415837364898127 -0.015100478992880558 0 0.022571729441809015 -0.015875139458417085 0 0.022919354207990652 -0.015879291395629012 0 0.02288869994858567 -0.016421690795072833 0 0.023310113308674 -0.016416884556018408 0 0.02334549117543171 -0.016740513848233267 0 0.023516805051213566 -0.016183676713499039 0 0.023310113308674 -0.016416884556018408 0 0.023598214069992084 -0.016646654523768043 0 0.023310113308674 -0.016416884556018408 0 0.02334549117543171 -0.016740513848233267 0 0.023598214069992084 -0.016646654523768043 0 0.022415837364898127 -0.015100478992880558 0 0.022690084618930302 -0.015016741386777246 0 0.022675778041242923 -0.015121473401785093 0 0.022583698065900021 -0.014980365069348859 0 0.022415837364898127 -0.015100478992880558 0 0.022690084618930302 -0.015016741386777246 0 0.022919354207990652 -0.015879291395629012 0 0.023889106132607505 -0.01582503213046477 0 0.022583698065900021 -0.014980365069348859 0 0.022690084618930302 -0.015016741386777246 0 0.023055216228983669 -0.014927144939948688 0 0.022690084618930302 -0.015016741386777246 0 0.022891821934377887 -0.015040588138985123 0 0.023055216228983669 -0.014927144939948688 0 0.022690084618930302 -0.015016741386777246 0 0.022891821934377887 -0.015040588138985123 0 0.022675778041242923 -0.015121473401785093 0 0.022891821934377887 -0.015040588138985123 0 0.022912403727126617 -0.015127812663572006 0 0.022675778041242923 -0.015121473401785093 0 0.022891821934377887 -0.015040588138985123 0 0.023124493246880921 -0.015047901677040055 0 0.023055216228983669 -0.014927144939948688 0 0.022891821934377887 -0.015040588138985123 0 0.022912403727126617 -0.015127812663572006 0 0.023124493246880921 -0.015047901677040055 0 0.022912403727126617 -0.015127812663572006 0 0.022840437830760656 -0.015237548690570637 0 0.023072343723791876 -0.015195698302435428 0 0.022912403727126617 -0.015127812663572006 0 0.023124493246880921 -0.015047901677040055 0 0.023072343723791876 -0.015195698302435428 0 0.022912403727126617 -0.015127812663572006 0 0.022675778041242923 -0.015121473401785093 0 0.022840437830760656 -0.015237548690570637 0 0.022675778041242923 -0.015121473401785093 0 0.022596897680582446 -0.015253888551398623 0 0.022840437830760656 -0.015237548690570637 0 0.022400649368289366 -0.015210020962516104 0 0.022675778041242923 -0.015121473401785093 0 0.022596897680582446 -0.015253888551398623 0 0.022400649368289366 -0.015210020962516104 0 0.022415837364898127 -0.015100478992880558 0 0.022675778041242923 -0.015121473401785093 0 0.024396444430681202 -0.015244514532661749 0 0.02337798720745056 -0.014791058212203417 0 0.023343590204935184 -0.014721077730433945 0 0.024430329080855399 -0.015139833097224688 0 0.023889106132607505 -0.01582503213046477 0 0.024396444430681202 -0.015244514532661749 0 0.025130273397110454 -0.015590740779630425 0 0.024747773093850831 -0.015622493232978981 0 0.024396444430681202 -0.015244514532661749 0 0.023682901915798162 -0.015093243319817699 0 0.02337798720745056 -0.014791058212203417 0 0.024396444430681202 -0.015244514532661749 0 0.023682901915798162 -0.015093243319817699 0 0.023768223060423015 -0.015262992557636124 0 0.023682901915798162 -0.015093243319817699 0 0.023385191830084997 -0.015190594887201181 0 0.023768223060423015 -0.015262992557636124 0 0.023355134996752902 -0.015031803436228525 0 0.023682901915798162 -0.015093243319817699 0 0.023385191830084997 -0.015190594887201181 0 0.023355134996752902 -0.015031803436228525 0 0.023385191830084997 -0.015190594887201181 0 0.023124493246880921 -0.015047901677040055 0 0.023385191830084997 -0.015190594887201181 0 0.023124493246880921 -0.015047901677040055 0 0.023072343723791876 -0.015195698302435428 0 0.023124493246880921 -0.015047901677040055 0 0.023220057548031178 -0.014948267962964836 0 0.023055216228983669 -0.014927144939948688 0 0.023355134996752902 -0.015031803436228525 0 0.023220057548031178 -0.014948267962964836 0 0.023374739515487495 -0.014936263862768208 0 0.023355134996752902 -0.015031803436228525 0 0.023124493246880921 -0.015047901677040055 0 0.023220057548031178 -0.014948267962964836 0 0.023220057548031178 -0.014948267962964836 0 0.023265405064041379 -0.014869025788964546 0 0.023055216228983669 -0.014927144939948688 0 0.023220057548031178 -0.014948267962964836 0 0.023265405064041379 -0.014869025788964546 0 0.023374739515487495 -0.014936263862768208 0 0.023682901915798162 -0.015093243319817699 0 0.023374739515487495 -0.014936263862768208 0 0.02337798720745056 -0.014791058212203417 0 0.023355134996752902 -0.015031803436228525 0 0.023682901915798162 -0.015093243319817699 0 0.023374739515487495 -0.014936263862768208 0 0.023265405064041379 -0.014869025788964546 0 0.023374739515487495 -0.014936263862768208 0 0.02337798720745056 -0.014791058212203417 0 0.023265405064041379 -0.014869025788964546 0 0.02337798720745056 -0.014791058212203417 0 0.023324935804449921 -0.014810214318780842 0 0.022583698065900021 -0.014980365069348859 0 0.023324935804449921 -0.014810214318780842 0 0.023055216228983669 -0.014927144939948688 0 0.025130273397110454 -0.015590740779630425 0 0.02505413520870339 -0.01586217077255004 0 0.025211652645172763 -0.016057982698005156 0 0.023889106132607505 -0.01582503213046477 0 0.024472772991199255 -0.016460666757832275 0 0.023852714775298524 -0.015706715053469131 0 0.023889106132607505 -0.01582503213046477 0 0.023265405064041379 -0.014869025788964546 0 0.023324935804449921 -0.014810214318780842 0 0.023055216228983669 -0.014927144939948688 0 0.025130273397110454 -0.015590740779630425 0 0.024954071086081976 -0.015727584012560799 0 0.02505413520870339 -0.01586217077255004 0 0.025130273397110454 -0.015590740779630425 0 0.024747773093850831 -0.015622493232978981 0 0.024954071086081976 -0.015727584012560799 0 0.024954071086081976 -0.015727584012560799 0 0.024952470309013774 -0.015857626153514572 0 0.02505413520870339 -0.01586217077255004 0 0.024747773093850831 -0.015622493232978981 0 0.024954071086081976 -0.015727584012560799 0 0.024952470309013774 -0.015857626153514572 0 0.024952470309013774 -0.015857626153514572 0 0.0250772375922407 -0.016005215785395356 0 0.0251408477206242 -0.01600420364858984 0 0.024952470309013774 -0.015857626153514572 0 0.02505413520870339 -0.01586217077255004 0 0.0250772375922407 -0.016005215785395356 0 0.02505413520870339 -0.01586217077255004 0 0.0250772375922407 -0.016005215785395356 0 0.025211652645172763 -0.016057982698005156 0 0.02334549117543171 -0.016740513848233267 0 0.023688763325121747 -0.017015289631508113 0 0.023598214069992084 -0.016646654523768043 0 0.02503256151218464 -0.016377219900750431 0 0.025211652645172763 -0.016057982698005156 0 0.025149087138851764 -0.016199899087086172 0 0.024247748545199149 -0.016235888409478864 0 0.024472772991199255 -0.016460666757832275 0 0.0250772375922407 -0.016005215785395356 0 0.025211652645172763 -0.016057982698005156 0 0.025149087138851764 -0.016199899087086172 0 0.0250772375922407 -0.016005215785395356 0 0.025149087138851764 -0.016199899087086172 0 0.0251408477206242 -0.01600420364858984 0 0.0251408477206242 -0.01600420364858984 0 0.025164306318611555 -0.015831961802318859 0 0.025358542494204005 -0.01623426819626338 0 0.025149087138851764 -0.016199899087086172 0 0.0251408477206242 -0.01600420364858984 0 0.025358542494204005 -0.01623426819626338 0 0.025164306318611555 -0.015831961802318859 0 0.025060156783847921 -0.015801679856232157 0 0.024823531545139318 -0.015711354835479748 0 0.024952470309013774 -0.015857626153514572 0 0.025164306318611555 -0.015831961802318859 0 0.024823531545139318 -0.015711354835479748 0 0.024952470309013774 -0.015857626153514572 0 0.0251408477206242 -0.01600420364858984 0 0.025164306318611555 -0.015831961802318859 0 0.024747773093850831 -0.015622493232978981 0 0.024952470309013774 -0.015857626153514572 0 0.024823531545139318 -0.015711354835479748 0 0.024747773093850831 -0.015622493232978981 0 0.024823531545139318 -0.015711354835479748 0 0.024638012474308316 -0.01552835902583488 0 0.025440512324905174 -0.014225381519291211 0 0.02475370834264216 -0.014476357539068575 0 0.025303766864751599 -0.014311583861048076 0 0.025060156783847921 -0.015801679856232157 0 0.024823531545139318 -0.015711354835479748 0 0.024638012474308316 -0.01552835902583488 0 0.025231740281165819 -0.015040544081892093 0 0.024715821881097003 -0.015002101283291425 0 0.02475370834264216 -0.014476357539068575 0 0.025303766864751599 -0.014311583861048076 0 0.024929449029292474 -0.014742076203561544 0 0.024396444430681202 -0.015244514532661749 0 0.024747773093850831 -0.015622493232978981 0 0.024638012474308316 -0.01552835902583488 0 0.025303766864751599 -0.014311583861048076 0 0.025338042637103618 -0.014000957630814997 0 0.025496440647195726 -0.014678706679978932 0 0.025254592473891023 -0.013156960201135076 0 0.025338042637103618 -0.014000957630814997 0 0.025656567628263467 -0.012470330671269264 0 0.025361005519385502 -0.014047674182915557 0 0.025579042112058473 -0.013460466882496136 0 0.025254592473891023 -0.013156960201135076 0 0.024999863684251521 -0.013888846176290119 0 0.024999992806805236 -0.01245037032746959 0 0.025254592473891023 -0.013156960201135076 0 0.025656567628263467 -0.012470330671269264 0 0.024999992806805236 -0.01245037032746959 0 0.025303766864751599 -0.014311583861048076 0 0.025235960946841905 -0.014646349426312587 0 0.024929449029292474 -0.014742076203561544 0 0.025303766864751599 -0.014311583861048076 0 0.025235960946841905 -0.014646349426312587 0 0.025496440647195726 -0.014678706679978932 0 0.025303766864751599 -0.014311583861048076 0 0.025338042637103618 -0.014000957630814997 0 0.025361593174181511 -0.014318939546377349 0 0.025440512324905174 -0.014225381519291211 0 0.025303766864751599 -0.014311583861048076 0 0.025361593174181511 -0.014318939546377349 0 0.025254592473891023 -0.013156960201135076 0 0.025338042637103618 -0.014000957630814997 0 0.024999863684251521 -0.013888846176290119 0 0.025215266674036493 -0.014596258880858472 0 0.025361593174181511 -0.014318939546377349 0 0.025425628379379183 -0.015473730804909052 0 0.024999863684251521 -0.013888846176290119 0 0.025215266674036493 -0.014596258880858472 0 0.024999564492510971 -0.015326097331145589 0 0.025338042637103618 -0.014000957630814997 0 0.024999863684251521 -0.013888846176290119 0 0.025215266674036493 -0.014596258880858472 0 0.025338042637103618 -0.014000957630814997 0 0.025215266674036493 -0.014596258880858472 0 0.025361593174181511 -0.014318939546377349 0 0.025164306318611555 -0.015831961802318859 0 0.025060156783847921 -0.015801679856232157 0 0.025425628379379183 -0.015473730804909052 0 0.025231740281165819 -0.015040544081892093 0 0.025360462885188631 -0.015440065299325038 0 0.025440512324905174 -0.014225381519291211 0 0.025361593174181511 -0.014318939546377349 0 0.025425628379379183 -0.015473730804909052 0 0.025164306318611555 -0.015831961802318859 0 0.025425628379379183 -0.015473730804909052 0 0.025523164774824983 -0.016214657916015198 0 0.025215266674036493 -0.014596258880858472 0 0.025425628379379183 -0.015473730804909052 0 0.024999564492510971 -0.015326097331145589 0 0.025425628379379183 -0.015473730804909052 0 0.024999564492510971 -0.015326097331145589 0 0.025284959645270846 -0.015962344031637765 0 0.024999564492510971 -0.015326097331145589 0 0.025284959645270846 -0.015962344031637765 0 0.02499985333082036 -0.016763144435752809 0 0.025284959645270846 -0.015962344031637765 0 0.02499985333082036 -0.016763144435752809 0 0.025523164774824983 -0.016214657916015198 0 0.02499985333082036 -0.016763144435752809 0 0.025523164774824983 -0.016214657916015198 0 0.025428143410782922 -0.017219612787479632 0 0.025523164774824983 -0.016214657916015198 0 0.025660280444138608 -0.016726368354683666 0 0.025428143410782922 -0.017219612787479632 0 0.025425628379379183 -0.015473730804909052 0 0.025284959645270846 -0.015962344031637765 0 0.025523164774824983 -0.016214657916015198 0 0.025164306318611555 -0.015831961802318859 0 0.025523164774824983 -0.016214657916015198 0 0.025358542494204005 -0.01623426819626338 0 0.025523164774824983 -0.016214657916015198 0 0.025358542494204005 -0.01623426819626338 0 0.025540080740144248 -0.016408114708812087 0 0.025220960297403408 -0.016330398994875678 0 0.025358542494204005 -0.01623426819626338 0 0.025494881755213444 -0.016426837881665591 0 0.025358542494204005 -0.01623426819626338 0 0.025494881755213444 -0.016426837881665591 0 0.025540080740144248 -0.016408114708812087 0 0.025494881755213444 -0.016426837881665591 0 0.025540080740144248 -0.016408114708812087 0 0.025660280444138608 -0.016726368354683666 0 0.025523164774824983 -0.016214657916015198 0 0.025540080740144248 -0.016408114708812087 0 0.025660280444138608 -0.016726368354683666 0 0.025660280444138608 -0.016726368354683666 0 0.025689667772512883 -0.016419397286840779 0 0.02568517923458731 -0.017180400347071075 0 0.025494881755213444 -0.016426837881665591 0 0.025660280444138608 -0.016726368354683666 0 0.025689667772512883 -0.016419397286840779 0 0.025095606871329744 -0.016343862165263821 0 0.025494881755213444 -0.016426837881665591 0 0.025689667772512883 -0.016419397286840779 0 0.02561012106014823 -0.015490125528640115 0 0.025079539519678132 -0.015918003547353701 0 0.025689667772512883 -0.016419397286840779 0 0.02561012106014823 -0.015490125528640115 0 0.025689667772512883 -0.016419397286840779 0 0.026639726718617269 -0.015816088355550307 0 0.025689667772512883 -0.016419397286840779 0 0.025728421557965973 -0.017525858619684226 0 0.02568517923458731 -0.017180400347071075 0 0.026126398182232759 -0.015996496748975596 0 0.025378363990484373 -0.018227875227493376 0 0.025378363990484373 -0.018227875227493376 0 0.025778254474196207 -0.018004348048778696 0 0.025597879145865258 -0.017981572648636111 0 0.025428143410782922 -0.017219612787479632 0 0.02568517923458731 -0.017180400347071075 0 0.025728421557965973 -0.017525858619684226 0 0.025597879145865258 -0.017981572648636111 0 0.02568517923458731 -0.017180400347071075 0 0.025556231725783751 -0.018902969657954138 0 0.026482592126522424 -0.018215351576418046 0 0.025597879145865258 -0.017981572648636111 0 0.025597879145865258 -0.017981572648636111 0 0.024999615913023326 -0.018200149282625606 0 0.025428143410782922 -0.017219612787479632 0 0.025556231725783751 -0.018902969657954138 0 0.025597879145865258 -0.017981572648636111 0 0.024999615913023326 -0.018200149282625606 0 0.02499985333082036 -0.016763144435752809 0 0.024999615913023326 -0.018200149282625606 0 0.025428143410782922 -0.017219612787479632 0 0.025660280444138608 -0.016726368354683666 0 0.025428143410782922 -0.017219612787479632 0 0.02568517923458731 -0.017180400347071075 0 0.024488194670534497 -0.010877218576120354 0 0.025062825180518999 -0.010664542223778575 0 0.024645237016972275 -0.0098354203242499907 0 0.024488194670534497 -0.010877218576120354 0 0.025062825180518999 -0.010664542223778575 0 0.025359366204283317 -0.011210549503559682 0 0.026069885538336886 -0.007416250610820822 0 0.025000090500369197 -0.0066484841764097163 0 0.024999873221713282 -0.0081378503243999777 0 0.026069885538336886 -0.007416250610820822 0 0.025000090500369197 -0.0066484841764097163 0 0.025548975110615893 -0.0063781604600525203 0 0.025228079173885597 -0.0088023956750333289 0 0.025039130073408338 -0.0073759588514219236 0 0.02500065689732453 -0.0066486563001507213 0 0.025039130073408338 -0.0073759588514219236 0 0.023825873711642357 -0.0094562824843042511 0 0.024645237016972275 -0.0098354203242499907 0 0.024877503917918774 -0.0089404641721173746 0 0.024488194670534497 -0.010877218576120354 0 0.023825873711642357 -0.0094562824843042511 0 0.024645237016972275 -0.0098354203242499907 0 0.025062825180518999 -0.010664542223778575 0 0.024645237016972275 -0.0098354203242499907 0 0.025250247694208298 -0.009990068847716185 0 0.024645237016972275 -0.0098354203242499907 0 0.025250247694208298 -0.009990068847716185 0 0.024877503917918774 -0.0089404641721173746 0 0.02617792761745704 -0.0094479936437952688 0 0.025250247694208298 -0.009990068847716185 0 0.025550751232959325 -0.011226910825471772 0 0.024784164542198957 -0.011140755173413714 0 0.024758234400772565 -0.013284851972845091 0 0.02617792761745704 -0.0094479936437952688 0 0.025250247694208298 -0.009990068847716185 0 0.024877503917918774 -0.0089404641721173746 0 0.023268946576444766 -0.013004168276494707 0 0.023637595024042293 -0.013262693359957532 0 0.023646301164249976 -0.012870380521005472 0 0.023268946576444766 -0.013004168276494707 0 0.023402614357438661 -0.013592405254875838 0 0.023637595024042293 -0.013262693359957532 0 0.023402614357438661 -0.013592405254875838 0 0.023792858855999192 -0.013624575679260334 0 0.023637595024042293 -0.013262693359957532 0 0.024126759305231511 -0.015208558833225009 0 0.023945282455821292 -0.015256396404929181 0 0.024784164542198957 -0.011140755173413714 0 0.024126759305231511 -0.015208558833225009 0 0.024612768088574044 -0.011727979644683749 0 0.025144918488185161 -0.013907265687922946 0 0.023875118585383642 -0.013802762068119321 0 0.024126759305231511 -0.015208558833225009 0 0.024758234400772565 -0.013284851972845091 0 0.025062825180518999 -0.010664542223778575 0 0.025250247694208298 -0.009990068847716185 0 0.025550751232959325 -0.011226910825471772 0 0.025062825180518999 -0.010664542223778575 0 0.025550751232959325 -0.011226910825471772 0 0.025359366204283317 -0.011210549503559682 0 0.024758234400772565 -0.013284851972845091 0 0.024900727218466128 -0.013137420027951555 0 0.024342232190210176 -0.016775997117886691 0 0.024641712557057292 -0.016781199053300905 0 0.024502728077820047 -0.01647393911389259 0 0.024758234400772565 -0.013284851972845091 0 0.025155897584088739 -0.01305054292201786 0 0.024641712557057292 -0.016781199053300905 0 0.024502728077820047 -0.01647393911389259 0 0.024755573770532686 -0.016498217205161595 0 0.025554216881688897 -0.011227862284569803 0 0.025359366204283317 -0.011210549503559682 0 0.025167073378964365 -0.012318881397960659 0 0.024342232190210176 -0.016775997117886691 0 0.024502728077820047 -0.01647393911389259 0 0.024159630885902991 -0.016328914824761346 0 0.024126759305231511 -0.015208558833225009 0 0.024285577883168777 -0.01702173890311923 0 0.024272646347840987 -0.016896162651925593 0 0.024159630885902991 -0.016328914824761346 0 0.023913106143796634 -0.016596341591105214 0 0.024502728077820047 -0.01647393911389259 0 0.024159630885902991 -0.016328914824761346 0 0.024438591759312098 -0.016161919237373871 0 0.024159630885902991 -0.016328914824761346 0 0.024438591759312098 -0.016161919237373871 0 0.023898959421831019 -0.016036990466877055 0 0.024502728077820047 -0.01647393911389259 0 0.024670309846640582 -0.01627939550849683 0 0.024438591759312098 -0.016161919237373871 0 0.025284672082100838 -0.016823575068079542 0 0.025155897584088739 -0.01305054292201786 0 0.024502728077820047 -0.01647393911389259 0 0.024670309846640582 -0.01627939550849683 0 0.024755573770532686 -0.016498217205161595 0 0.024670309846640582 -0.01627939550849683 0 0.024438591759312098 -0.016161919237373871 0 0.024760144248119127 -0.016129602242413676 0 0.02634858698880323 -0.0095022790742400783 0 0.026051124367714434 -0.009009391132725017 0 0.026652916142661583 -0.008543088879956336 0 0.024670309846640582 -0.01627939550849683 0 0.024919547193851761 -0.01619265462195775 0 0.024760144248119127 -0.016129602242413676 0 0.024670309846640582 -0.01627939550849683 0 0.024919547193851761 -0.01619265462195775 0 0.024785345939201953 -0.016474366728055925 0 0.025630618968760923 -0.013025959942893163 0 0.025155897584088739 -0.01305054292201786 0 0.02634858698880323 -0.0095022790742400783 0 0.026051124367714434 -0.009009391132725017 0 0.026251568446433605 -0.0097976555953628378 0 0.026051124367714434 -0.009009391132725017 0 0.025791236768988524 -0.0094815925751049555 0 0.026251568446433605 -0.0097976555953628378 0 0.026051124367714434 -0.009009391132725017 0 0.025874669104415705 -0.0084294049137483128 0 0.025591995764318615 -0.0088790812128590729 0 0.025228079173885597 -0.0088023956750333289 0 0.025155897584088739 -0.01305054292201786 0 0.024488194670534497 -0.010877218576120354 0 0.025359366204283317 -0.011210549503559682 0 0.025167073378964365 -0.012318881397960659 0 0.026069885538336886 -0.007416250610820822 0 0.026652916142661583 -0.008543088879956336 0 0.025874669104415705 -0.0084294049137483128 0 0.026051124367714434 -0.009009391132725017 0 0.026652916142661583 -0.008543088879956336 0 0.025874669104415705 -0.0084294049137483128 0 0.025874669104415705 -0.0084294049137483128 0 0.024999873221713282 -0.0081378503243999777 0 0.025591995764318615 -0.0088790812128590729 0 0.026069885538336886 -0.007416250610820822 0 0.025874669104415705 -0.0084294049137483128 0 0.024999873221713282 -0.0081378503243999777 0 0.025000057257430899 -0.0081378076640028461 0 0.025288031246881868 -0.0092550775268994551 0 0.024999873221713282 -0.0081378503243999777 0 0.025591995764318615 -0.0088790812128590729 0 0.025259739282095101 -0.0093579159439050128 0 0.02500000091437948 -0.008137527323105985 0 0.025294027517174175 -0.0091442984795145395 0 0.024999993949944732 -0.009575170672241182 0 0.026051124367714434 -0.009009391132725017 0 0.025591995764318615 -0.0088790812128590729 0 0.025791236768988524 -0.0094815925751049555 0 0.025791236768988524 -0.0094815925751049555 0 0.025259739282095101 -0.0093579159439050128 0 0.025734721871646372 -0.0098744120629889447 0 0.025591995764318615 -0.0088790812128590729 0 0.025791236768988524 -0.0094815925751049555 0 0.025259739282095101 -0.0093579159439050128 0 0.025288031246881868 -0.0092550775268994551 0 0.025506054540189074 -0.010384735558962455 0 0.025259739282095101 -0.0093579159439050128 0 0.025734721871646372 -0.0098744120629889447 0 0.025596806412745973 -0.010584301604534203 0 0.025294027517174175 -0.0091442984795145395 0 0.024999993949944732 -0.009575170672241182 0 0.025586778786846207 -0.010154627507431402 0 0.025630618968760923 -0.013025959942893163 0 0.025279016679609762 -0.014806963997175118 0 0.024919547193851761 -0.01619265462195775 0 0.024859076396261587 -0.015995103147267858 0 0.025058956630320574 -0.015835715204602925 0 0.025680818781123126 -0.012676883789797306 0 0.025649484453555031 -0.012775124268999275 0 0.025628763897581779 -0.013054815522662754 0 0.025961932161401122 -0.011655302502289567 0 0.025563679696627338 -0.011677912467310926 0 0.025596806412745973 -0.010584301604534203 0 0.026251568446433605 -0.0097976555953628378 0 0.025753293762999833 -0.011118993024810026 0 0.025649484453555031 -0.012775124268999275 0 0.025628763897581779 -0.013054815522662754 0 0.025499634123312638 -0.01320231586970992 0 0.024919547193851761 -0.01619265462195775 0 0.024859076396261587 -0.015995103147267858 0 0.024760144248119127 -0.016129602242413676 0 0.025630618968760923 -0.013025959942893163 0 0.025961932161401122 -0.011655302502289567 0 0.025734721871646372 -0.0098744120629889447 0 0.025596806412745973 -0.010584301604534203 0 0.026251568446433605 -0.0097976555953628378 0 0.025791236768988524 -0.0094815925751049555 0 0.025734721871646372 -0.0098744120629889447 0 0.026251568446433605 -0.0097976555953628378 0 0.024859076396261587 -0.015995103147267858 0 0.024844564412977221 -0.015839672080267278 0 0.025058956630320574 -0.015835715204602925 0 0.025279016679609762 -0.014806963997175118 0 0.025525597547410104 -0.01379748849899109 0 0.025058956630320574 -0.015835715204602925 0 0.024902496859018068 -0.015624062347289386 0 0.025237058388877454 -0.015425874204882461 0 0.025628763897581779 -0.013054815522662754 0 0.025499634123312638 -0.01320231586970992 0 0.025569570524845986 -0.013429154444753693 0 0.024844564412977221 -0.015839672080267278 0 0.025058956630320574 -0.015835715204602925 0 0.024902496859018068 -0.015624062347289386 0 0.025563679696627338 -0.011677912467310926 0 0.025525597547410104 -0.01379748849899109 0 0.025586778786846207 -0.010154627507431402 0 0.025714180229236386 -0.010595539502550521 0 0.025000008893572723 -0.011012862958351253 0 0.025714180229236386 -0.010595539502550521 0 0.025000008893572723 -0.011012862958351253 0 0.025878594852432678 -0.011172014697330455 0 0.024999993949944732 -0.009575170672241182 0 0.025586778786846207 -0.010154627507431402 0 0.025000008893572723 -0.011012862958351253 0 0.025506054540189074 -0.010384735558962455 0 0.025563679696627338 -0.011677912467310926 0 0.025000008893572723 -0.011012862958351253 0 0.025878594852432678 -0.011172014697330455 0 0.025386793529345079 -0.011775339867388391 0 0.025525597547410104 -0.01379748849899109 0 0.025277239753698701 -0.015462067678733378 0 0.025237058388877454 -0.015425874204882461 0 0.02497078340011237 -0.015288412324850408 0 0.025214133646383741 -0.01485432784848335 0 0.024902496859018068 -0.015624062347289386 0 0.025237058388877454 -0.015425874204882461 0 0.02497078340011237 -0.015288412324850408 0 0.025366931363418797 -0.015354487044751416 0 0.025214133646383741 -0.01485432784848335 0 0.025496440647195726 -0.014678706679978932 0 0.02497078340011237 -0.015288412324850408 0 0.025214133646383741 -0.01485432784848335 0 0.024962679620576293 -0.015005389641650364 0 0.025214133646383741 -0.01485432784848335 0 0.024929449029292474 -0.014742076203561544 0 0.024962679620576293 -0.015005389641650364 0 0.025235960946841905 -0.014646349426312587 0 0.025214133646383741 -0.01485432784848335 0 0.024929449029292474 -0.014742076203561544 0 0.025235960946841905 -0.014646349426312587 0 0.025214133646383741 -0.01485432784848335 0 0.025496440647195726 -0.014678706679978932 0 0.025525597547410104 -0.01379748849899109 0 0.025579042112058473 -0.013460466882496136 0 0.025878594852432678 -0.011172014697330455 0 0.025656567628263467 -0.012470330671269264 0 0.025386793529345079 -0.011775339867388391 0 0.025000008893572723 -0.011012862958351253 0 0.024999992806805236 -0.01245037032746959 0 0.025386793529345079 -0.011775339867388391 0 0.025656567628263467 -0.012470330671269264 0 0.024999992806805236 -0.01245037032746959 0 0.025386793529345079 -0.011775339867388391 0 0.024715821881097003 -0.015002101283291425 0 0.024327424055647889 -0.015203068334682447 0 0.024396444430681202 -0.015244514532661749 0 0.024638012474308316 -0.01552835902583488 0 0.024264992960279393 -0.01522291561903864 0 0.02475370834264216 -0.014476357539068575 0 0.024264992960279393 -0.01522291561903864 0 0.024929449029292474 -0.014742076203561544 0 0.024264992960279393 -0.01522291561903864 0 0.024929449029292474 -0.014742076203561544 0 0.024731494172389887 -0.015131081530814525 0 0.02497078340011237 -0.015288412324850408 0 0.024962679620576293 -0.015005389641650364 0 0.024731494172389887 -0.015131081530814525 0 0.024929449029292474 -0.014742076203561544 0 0.024962679620576293 -0.015005389641650364 0 0.024731494172389887 -0.015131081530814525 0 0.02497078340011237 -0.015288412324850408 0 0.024731494172389887 -0.015131081530814525 0 0.024542711458888429 -0.01535924049107818 0 0.02497078340011237 -0.015288412324850408 0 0.024542711458888429 -0.01535924049107818 0 0.024588254202365271 -0.015562810413548357 0 0.024902496859018068 -0.015624062347289386 0 0.02497078340011237 -0.015288412324850408 0 0.024588254202365271 -0.015562810413548357 0 0.024264992960279393 -0.01522291561903864 0 0.024731494172389887 -0.015131081530814525 0 0.024542711458888429 -0.01535924049107818 0 0.024542711458888429 -0.01535924049107818 0 0.024276948205393938 -0.01547284387849701 0 0.024588254202365271 -0.015562810413548357 0 0.024264992960279393 -0.01522291561903864 0 0.024542711458888429 -0.01535924049107818 0 0.024276948205393938 -0.01547284387849701 0 0.024264992960279393 -0.01522291561903864 0 0.024276948205393938 -0.01547284387849701 0 0.02401089853814593 -0.015442032149225278 0 0.024276948205393938 -0.01547284387849701 0 0.024321393327394938 -0.015667482949572778 0 0.023983667644759468 -0.015618252045814287 0 0.024321393327394938 -0.015667482949572778 0 0.024020942130347431 -0.015829607493222844 0 0.023983667644759468 -0.015618252045814287 0 0.024276948205393938 -0.01547284387849701 0 0.024321393327394938 -0.015667482949572778 0 0.024588254202365271 -0.015562810413548357 0 0.024321393327394938 -0.015667482949572778 0 0.024614334953113166 -0.015760527605302253 0 0.024314718637683128 -0.015888922220598116 0 0.024321393327394938 -0.015667482949572778 0 0.024314718637683128 -0.015888922220598116 0 0.024020942130347431 -0.015829607493222844 0 0.024902496859018068 -0.015624062347289386 0 0.024588254202365271 -0.015562810413548357 0 0.024614334953113166 -0.015760527605302253 0 0.024321393327394938 -0.015667482949572778 0 0.024588254202365271 -0.015562810413548357 0 0.024614334953113166 -0.015760527605302253 0 0.024844564412977221 -0.015839672080267278 0 0.024614334953113166 -0.015760527605302253 0 0.024695447236371758 -0.015971711130186382 0 0.024844564412977221 -0.015839672080267278 0 0.024902496859018068 -0.015624062347289386 0 0.024614334953113166 -0.015760527605302253 0 0.024695447236371758 -0.015971711130186382 0 0.024438591759312098 -0.016161919237373871 0 0.024314718637683128 -0.015888922220598116 0 0.024614334953113166 -0.015760527605302253 0 0.024695447236371758 -0.015971711130186382 0 0.024314718637683128 -0.015888922220598116 0 0.024859076396261587 -0.015995103147267858 0 0.024844564412977221 -0.015839672080267278 0 0.024695447236371758 -0.015971711130186382 0 0.024859076396261587 -0.015995103147267858 0 0.024695447236371758 -0.015971711130186382 0 0.024760144248119127 -0.016129602242413676 0 0.024695447236371758 -0.015971711130186382 0 0.024438591759312098 -0.016161919237373871 0 0.024760144248119127 -0.016129602242413676 0 0.024438591759312098 -0.016161919237373871 0 0.024314718637683128 -0.015888922220598116 0 0.023898959421831019 -0.016036990466877055 0 0.024314718637683128 -0.015888922220598116 0 0.023898959421831019 -0.016036990466877055 0 0.024020942130347431 -0.015829607493222844 0 0.023898959421831019 -0.016036990466877055 0 0.023385366709653348 -0.015946781274645248 0 0.02370910555643856 -0.015773924835131528 0 0.023898959421831019 -0.016036990466877055 0 0.023385366709653348 -0.015946781274645248 0 0.023635667689527896 -0.016306681505082611 0 0.023898959421831019 -0.016036990466877055 0 0.024020942130347431 -0.015829607493222844 0 0.02370910555643856 -0.015773924835131528 0 0.023385366709653348 -0.015946781274645248 0 0.023303724399467759 -0.015662907206379056 0 0.02370910555643856 -0.015773924835131528 0 0.023385366709653348 -0.015946781274645248 0 0.023303724399467759 -0.015662907206379056 0 0.023080695535716695 -0.015795811033263642 0 0.023303724399467759 -0.015662907206379056 0 0.02370910555643856 -0.015773924835131528 0 0.023688583640172567 -0.015553331363951315 0 0.024020942130347431 -0.015829607493222844 0 0.02370910555643856 -0.015773924835131528 0 0.023983667644759468 -0.015618252045814287 0 0.02370910555643856 -0.015773924835131528 0 0.023983667644759468 -0.015618252045814287 0 0.023688583640172567 -0.015553331363951315 0 0.023983667644759468 -0.015618252045814287 0 0.02401089853814593 -0.015442032149225278 0 0.023688583640172567 -0.015553331363951315 0 0.024276948205393938 -0.01547284387849701 0 0.023983667644759468 -0.015618252045814287 0 0.02401089853814593 -0.015442032149225278 0 0.02401089853814593 -0.015442032149225278 0 0.023688583640172567 -0.015553331363951315 0 0.023873617809550187 -0.015365176351480958 0 0.023303724399467759 -0.015662907206379056 0 0.023688583640172567 -0.015553331363951315 0 0.023421810285184419 -0.015472525002216892 0 0.023303724399467759 -0.015662907206379056 0 0.023421810285184419 -0.015472525002216892 0 0.023069751184160159 -0.015511733766394935 0 0.023421810285184419 -0.015472525002216892 0 0.023205584815377937 -0.015349326142656871 0 0.023069751184160159 -0.015511733766394935 0 0.023688583640172567 -0.015553331363951315 0 0.023421810285184419 -0.015472525002216892 0 0.023873617809550187 -0.015365176351480958 0 0.02353394503375511 -0.015326362387045994 0 0.023768223060423015 -0.015262992557636124 0 0.023873617809550187 -0.015365176351480958 0 0.023421810285184419 -0.015472525002216892 0 0.02353394503375511 -0.015326362387045994 0 0.023873617809550187 -0.015365176351480958 0 0.023421810285184419 -0.015472525002216892 0 0.02353394503375511 -0.015326362387045994 0 0.023205584815377937 -0.015349326142656871 0 0.023385191830084997 -0.015190594887201181 0 0.02353394503375511 -0.015326362387045994 0 0.023205584815377937 -0.015349326142656871 0 0.023385191830084997 -0.015190594887201181 0 0.023205584815377937 -0.015349326142656871 0 0.023072343723791876 -0.015195698302435428 0 0.023385191830084997 -0.015190594887201181 0 0.02353394503375511 -0.015326362387045994 0 0.023768223060423015 -0.015262992557636124 0 0.024396444430681202 -0.015244514532661749 0 0.023768223060423015 -0.015262992557636124 0 0.023873617809550187 -0.015365176351480958 0 0.024396444430681202 -0.015244514532661749 0 0.024264992960279393 -0.01522291561903864 0 0.023873617809550187 -0.015365176351480958 0 0.024264992960279393 -0.01522291561903864 0 0.02401089853814593 -0.015442032149225278 0 0.023873617809550187 -0.015365176351480958 0 0.022749539093493636 -0.015381768840042295 0 0.022596897680582446 -0.015253888551398623 0 0.022427042372727819 -0.015327606887346622 0 0.022400649368289366 -0.015210020962516104 0 0.022596897680582446 -0.015253888551398623 0 0.022427042372727819 -0.015327606887346622 0 0.022749539093493636 -0.015381768840042295 0 0.022596897680582446 -0.015253888551398623 0 0.022840437830760656 -0.015237548690570637 0 0.023205584815377937 -0.015349326142656871 0 0.022749539093493636 -0.015381768840042295 0 0.022840437830760656 -0.015237548690570637 0 0.023205584815377937 -0.015349326142656871 0 0.022840437830760656 -0.015237548690570637 0 0.023072343723791876 -0.015195698302435428 0 0.023205584815377937 -0.015349326142656871 0 0.022749539093493636 -0.015381768840042295 0 0.023069751184160159 -0.015511733766394935 0 0.022749539093493636 -0.015381768840042295 0 0.023069751184160159 -0.015511733766394935 0 0.022769233209267971 -0.015545992375344554 0 0.023069751184160159 -0.015511733766394935 0 0.022769233209267971 -0.015545992375344554 0 0.023002722155022057 -0.015647680065492237 0 0.022749539093493636 -0.015381768840042295 0 0.022475035762276715 -0.015454521016543108 0 0.022427042372727819 -0.015327606887346622 0 0.022749539093493636 -0.015381768840042295 0 0.022769233209267971 -0.015545992375344554 0 0.022475035762276715 -0.015454521016543108 0 0.022769233209267971 -0.015545992375344554 0 0.022475035762276715 -0.015454521016543108 0 0.022498916737142015 -0.015615494767530583 0 0.022769233209267971 -0.015545992375344554 0 0.022498916737142015 -0.015615494767530583 0 0.022784225431913666 -0.015748140079449722 0 0.022498916737142015 -0.015615494767530583 0 0.022784225431913666 -0.015748140079449722 0 0.022484351160877606 -0.015784488255213523 0 0.023303724399467759 -0.015662907206379056 0 0.023069751184160159 -0.015511733766394935 0 0.023002722155022057 -0.015647680065492237 0 0.023303724399467759 -0.015662907206379056 0 0.023002722155022057 -0.015647680065492237 0 0.023080695535716695 -0.015795811033263642 0 0.022769233209267971 -0.015545992375344554 0 0.022784225431913666 -0.015748140079449722 0 0.023002722155022057 -0.015647680065492237 0 0.022784225431913666 -0.015748140079449722 0 0.023002722155022057 -0.015647680065492237 0 0.023080695535716695 -0.015795811033263642 0 0.023033127228764324 -0.015963858779511918 0 0.022726313081422641 -0.016019580514138595 0 0.023192972491432481 -0.016204043043480051 0 0.022784225431913666 -0.015748140079449722 0 0.023033127228764324 -0.015963858779511918 0 0.022726313081422641 -0.016019580514138595 0 0.023385366709653348 -0.015946781274645248 0 0.023080695535716695 -0.015795811033263642 0 0.023033127228764324 -0.015963858779511918 0 0.022784225431913666 -0.015748140079449722 0 0.023080695535716695 -0.015795811033263642 0 0.023033127228764324 -0.015963858779511918 0 0.023385366709653348 -0.015946781274645248 0 0.023033127228764324 -0.015963858779511918 0 0.023192972491432481 -0.016204043043480051 0 0.022484351160877606 -0.015784488255213523 0 0.022726313081422641 -0.016019580514138595 0 0.022227499847610868 -0.015941105160014655 0 0.022784225431913666 -0.015748140079449722 0 0.022484351160877606 -0.015784488255213523 0 0.022726313081422641 -0.016019580514138595 0 0.022726313081422641 -0.016019580514138595 0 0.022527288951939891 -0.016262404137178589 0 0.022227499847610868 -0.015941105160014655 0 0.022726313081422641 -0.016019580514138595 0 0.022527288951939891 -0.016262404137178589 0 0.022883570628197059 -0.016334824430079761 0 0.021233507029502739 -0.016271130721875089 0 0.021444763035106316 -0.016117090143371784 0 0.022527288951939891 -0.016262404137178589 0 0.022702581323786077 -0.01665226069168144 0 0.02210694231181622 -0.016408265240137419 0 0.022527288951939891 -0.016262404137178589 0 0.022702581323786077 -0.01665226069168144 0 0.022883570628197059 -0.016334824430079761 0 0.021233507029502739 -0.016271130721875089 0 0.022644638996017846 -0.015275287458832616 0 0.022702581323786077 -0.01665226069168144 0 0.022883570628197059 -0.016334824430079761 0 0.023243774852375061 -0.016572439662470934 0 0.022702581323786077 -0.01665226069168144 0 0.023243774852375061 -0.016572439662470934 0 0.023273394108852822 -0.016772149639629075 0 0.022726313081422641 -0.016019580514138595 0 0.022883570628197059 -0.016334824430079761 0 0.023192972491432481 -0.016204043043480051 0 0.022883570628197059 -0.016334824430079761 0 0.023192972491432481 -0.016204043043480051 0 0.023243774852375061 -0.016572439662470934 0 0.023192972491432481 -0.016204043043480051 0 0.023382819364744855 -0.016384671370228539 0 0.023635667689527896 -0.016306681505082611 0 0.023192972491432481 -0.016204043043480051 0 0.023382819364744855 -0.016384671370228539 0 0.023243774852375061 -0.016572439662470934 0 0.023385366709653348 -0.015946781274645248 0 0.023192972491432481 -0.016204043043480051 0 0.023635667689527896 -0.016306681505082611 0 0.023382819364744855 -0.016384671370228539 0 0.023635667689527896 -0.016306681505082611 0 0.02355866367356816 -0.016585411560100464 0 0.024159630885902991 -0.016328914824761346 0 0.023635667689527896 -0.016306681505082611 0 0.023913106143796634 -0.016596341591105214 0 0.024159630885902991 -0.016328914824761346 0 0.023898959421831019 -0.016036990466877055 0 0.023635667689527896 -0.016306681505082611 0 0.024272646347840987 -0.016896162651925593 0 0.023913106143796634 -0.016596341591105214 0 0.023810725011463731 -0.016871507747331642 0 0.023635667689527896 -0.016306681505082611 0 0.023913106143796634 -0.016596341591105214 0 0.02355866367356816 -0.016585411560100464 0 0.023913106143796634 -0.016596341591105214 0 0.02355866367356816 -0.016585411560100464 0 0.023810725011463731 -0.016871507747331642 0 0.02355866367356816 -0.016585411560100464 0 0.023290563038987345 -0.016822166655050468 0 0.023810725011463731 -0.016871507747331642 0 0.022644638996017846 -0.015275287458832616 0 0.023945282455821292 -0.015256396404929181 0 0.023382819364744855 -0.016384671370228539 0 0.023243774852375061 -0.016572439662470934 0 0.02355866367356816 -0.016585411560100464 0 0.023243774852375061 -0.016572439662470934 0 0.02355866367356816 -0.016585411560100464 0 0.023290563038987345 -0.016822166655050468 0 0.023078473714142698 -0.016691891038434357 0 0.022644638996017846 -0.015275287458832616 0 0.019775413655608014 -0.015711433505894965 0 0.019687762320575779 -0.015229219703984912 0 0.019985597634573721 -0.01547598684145772 0 0.024176790808753682 -0.013664869577913439 0 0.023792858855999192 -0.013624575679260334 0 0.024097760459979981 -0.013149214942970562 0 0.022644638996017846 -0.015275287458832616 0 0.021828873353931934 -0.014073751639562225 0 0.023792858855999192 -0.013624575679260334 0 0.023637595024042293 -0.013262693359957532 0 0.024097760459979981 -0.013149214942970562 0 0.023637595024042293 -0.013262693359957532 0 0.024097760459979981 -0.013149214942970562 0 0.023646301164249976 -0.012870380521005472 0 0.019687762320575779 -0.015229219703984912 0 0.020039707024907091 -0.015196714989213786 0 0.019985597634573721 -0.01547598684145772 0 0.019687762320575779 -0.015229219703984912 0 0.020039707024907091 -0.015196714989213786 0 0.019969458039201991 -0.014965394364625302 0 0.020039707024907091 -0.015196714989213786 0 0.020219620797603269 -0.015399324652244414 0 0.019985597634573721 -0.01547598684145772 0 0.020365085841813256 -0.015108956915414036 0 0.020219620797603269 -0.015399324652244414 0 0.020528249581244707 -0.015459615647251174 0 0.020039707024907091 -0.015196714989213786 0 0.020365085841813256 -0.015108956915414036 0 0.020219620797603269 -0.015399324652244414 0 0.020183255415794136 -0.01577134351691882 0 0.020219620797603269 -0.015399324652244414 0 0.020528249581244707 -0.015459615647251174 0 0.020183255415794136 -0.01577134351691882 0 0.020219620797603269 -0.015399324652244414 0 0.019985597634573721 -0.01547598684145772 0 0.020183255415794136 -0.01577134351691882 0 0.019775413655608014 -0.015711433505894965 0 0.019985597634573721 -0.01547598684145772 0 0.020953546105489065 -0.015513833878698688 0 0.020528249581244707 -0.015459615647251174 0 0.020642606943214108 -0.01586651125423864 0 0.020183255415794136 -0.01577134351691882 0 0.020528249581244707 -0.015459615647251174 0 0.020642606943214108 -0.01586651125423864 0 0.020953546105489065 -0.015513833878698688 0 0.020528249581244707 -0.015459615647251174 0 0.020731181417926119 -0.015159822815588026 0 0.020365085841813256 -0.015108956915414036 0 0.020528249581244707 -0.015459615647251174 0 0.020731181417926119 -0.015159822815588026 0 0.020731181417926119 -0.015159822815588026 0 0.02106377549860285 -0.015293827640755124 0 0.02089704449053249 -0.015029015496654523 0 0.020953546105489065 -0.015513833878698688 0 0.020731181417926119 -0.015159822815588026 0 0.02106377549860285 -0.015293827640755124 0 0.02106377549860285 -0.015293827640755124 0 0.021261301199271797 -0.015343129570637846 0 0.021318978519762267 -0.015597630751475156 0 0.02106377549860285 -0.015293827640755124 0 0.021261301199271797 -0.015343129570637846 0 0.021094926007429193 -0.015106993263163745 0 0.021261301199271797 -0.015343129570637846 0 0.02135878961060542 -0.015516651956569051 0 0.021320460368600691 -0.01531167065289879 0 0.021261301199271797 -0.015343129570637846 0 0.021320460368600691 -0.01531167065289879 0 0.021235264461092002 -0.015150030607940752 0 0.021261301199271797 -0.015343129570637846 0 0.021235264461092002 -0.015150030607940752 0 0.021094926007429193 -0.015106993263163745 0 0.02135878961060542 -0.015516651956569051 0 0.021318978519762267 -0.015597630751475156 0 0.021454058488616295 -0.015705471813983855 0 0.021261301199271797 -0.015343129570637846 0 0.02135878961060542 -0.015516651956569051 0 0.021318978519762267 -0.015597630751475156 0 0.020953546105489065 -0.015513833878698688 0 0.021318978519762267 -0.015597630751475156 0 0.02138922710114444 -0.015930823509994394 0 0.020953546105489065 -0.015513833878698688 0 0.02106377549860285 -0.015293827640755124 0 0.021318978519762267 -0.015597630751475156 0 0.021318978519762267 -0.015597630751475156 0 0.02138922710114444 -0.015930823509994394 0 0.021454058488616295 -0.015705471813983855 0 0.021454058488616295 -0.015705471813983855 0 0.021636537089402955 -0.015756768628821038 0 0.021598673307050682 -0.015606466831704597 0 0.021454058488616295 -0.015705471813983855 0 0.021598673307050682 -0.015606466831704597 0 0.021442877475518953 -0.015551597191568746 0 0.02138922710114444 -0.015930823509994394 0 0.021454058488616295 -0.015705471813983855 0 0.021636537089402955 -0.015756768628821038 0 0.02138922710114444 -0.015930823509994394 0 0.021636537089402955 -0.015756768628821038 0 0.021780992520398938 -0.015911262154217412 0 0.021780992520398938 -0.015911262154217412 0 0.022227499847610868 -0.015941105160014655 0 0.021940090704666928 -0.015703806817390868 0 0.021636537089402955 -0.015756768628821038 0 0.021780992520398938 -0.015911262154217412 0 0.021940090704666928 -0.015703806817390868 0 0.02138922710114444 -0.015930823509994394 0 0.021780992520398938 -0.015911262154217412 0 0.02210694231181622 -0.016408265240137419 0 0.02139181349553199 -0.015983349338620514 0 0.021444763035106316 -0.016117090143371784 0 0.020953546105489065 -0.015513833878698688 0 0.02138922710114444 -0.015930823509994394 0 0.020642606943214108 -0.01586651125423864 0 0.021780992520398938 -0.015911262154217412 0 0.02210694231181622 -0.016408265240137419 0 0.022227499847610868 -0.015941105160014655 0 0.022527288951939891 -0.016262404137178589 0 0.02210694231181622 -0.016408265240137419 0 0.022227499847610868 -0.015941105160014655 0 0.022227499847610868 -0.015941105160014655 0 0.021940090704666928 -0.015703806817390868 0 0.022221317086134257 -0.015662619368359172 0 0.022484351160877606 -0.015784488255213523 0 0.022227499847610868 -0.015941105160014655 0 0.022221317086134257 -0.015662619368359172 0 0.021940090704666928 -0.015703806817390868 0 0.021980267511257423 -0.015494444023169369 0 0.021768616289832357 -0.015603606485268692 0 0.021940090704666928 -0.015703806817390868 0 0.021980267511257423 -0.015494444023169369 0 0.022221317086134257 -0.015662619368359172 0 0.021980267511257423 -0.015494444023169369 0 0.022221317086134257 -0.015662619368359172 0 0.022289501512932398 -0.015521354159735148 0 0.022498916737142015 -0.015615494767530583 0 0.022484351160877606 -0.015784488255213523 0 0.022221317086134257 -0.015662619368359172 0 0.022498916737142015 -0.015615494767530583 0 0.022221317086134257 -0.015662619368359172 0 0.022289501512932398 -0.015521354159735148 0 0.022475035762276715 -0.015454521016543108 0 0.022498916737142015 -0.015615494767530583 0 0.022289501512932398 -0.015521354159735148 0 0.022475035762276715 -0.015454521016543108 0 0.022204622921149279 -0.015401382524753333 0 0.022427042372727819 -0.015327606887346622 0 0.022475035762276715 -0.015454521016543108 0 0.022204622921149279 -0.015401382524753333 0 0.022289501512932398 -0.015521354159735148 0 0.021980267511257423 -0.015494444023169369 0 0.022204622921149279 -0.015401382524753333 0 0.022058469506448214 -0.015349404506462076 0 0.021980267511257423 -0.015494444023169369 0 0.022204622921149279 -0.015401382524753333 0 0.022289501512932398 -0.015521354159735148 0 0.022039372441833908 -0.015290834838100686 0 0.022208071485750356 -0.015286750706588555 0 0.022058469506448214 -0.015349404506462076 0 0.022204622921149279 -0.015401382524753333 0 0.022208071485750356 -0.015286750706588555 0 0.022058469506448214 -0.015349404506462076 0 0.022400649368289366 -0.015210020962516104 0 0.022208071485750356 -0.015286750706588555 0 0.022427042372727819 -0.015327606887346622 0 0.022204622921149279 -0.015401382524753333 0 0.022208071485750356 -0.015286750706588555 0 0.022427042372727819 -0.015327606887346622 0 0.021888613015570726 -0.015316735596550085 0 0.021876741219141842 -0.015359042878737798 0 0.021668536674494872 -0.015280413283388096 0 0.022039372441833908 -0.015290834838100686 0 0.022058469506448214 -0.015349404506462076 0 0.021876741219141842 -0.015359042878737798 0 0.022039372441833908 -0.015290834838100686 0 0.021888613015570726 -0.015316735596550085 0 0.021876741219141842 -0.015359042878737798 0 0.021980267511257423 -0.015494444023169369 0 0.021876741219141842 -0.015359042878737798 0 0.021729065169975186 -0.015461423388474093 0 0.021980267511257423 -0.015494444023169369 0 0.022058469506448214 -0.015349404506462076 0 0.021876741219141842 -0.015359042878737798 0 0.021876741219141842 -0.015359042878737798 0 0.021729065169975186 -0.015461423388474093 0 0.021668536674494872 -0.015280413283388096 0 0.021729065169975186 -0.015461423388474093 0 0.021598673307050682 -0.015606466831704597 0 0.021537203777697408 -0.015455797948968116 0 0.021980267511257423 -0.015494444023169369 0 0.021729065169975186 -0.015461423388474093 0 0.021768616289832357 -0.015603606485268692 0 0.021636537089402955 -0.015756768628821038 0 0.021940090704666928 -0.015703806817390868 0 0.021768616289832357 -0.015603606485268692 0 0.021636537089402955 -0.015756768628821038 0 0.021768616289832357 -0.015603606485268692 0 0.021598673307050682 -0.015606466831704597 0 0.021729065169975186 -0.015461423388474093 0 0.021768616289832357 -0.015603606485268692 0 0.021598673307050682 -0.015606466831704597 0 0.021598673307050682 -0.015606466831704597 0 0.021537203777697408 -0.015455797948968116 0 0.021442877475518953 -0.015551597191568746 0 0.021537203777697408 -0.015455797948968116 0 0.021322164416436203 -0.015441869754596715 0 0.021442877475518953 -0.015551597191568746 0 0.021386396625968741 -0.015336527907558579 0 0.021537203777697408 -0.015455797948968116 0 0.021322164416436203 -0.015441869754596715 0 0.021386396625968741 -0.015336527907558579 0 0.021537203777697408 -0.015455797948968116 0 0.021668536674494872 -0.015280413283388096 0 0.021729065169975186 -0.015461423388474093 0 0.021537203777697408 -0.015455797948968116 0 0.021668536674494872 -0.015280413283388096 0 0.021668536674494872 -0.015280413283388096 0 0.021378814117097231 -0.014900475811449895 0 0.021261059455061161 -0.015130570335506303 0 0.021386396625968741 -0.015336527907558579 0 0.021668536674494872 -0.015280413283388096 0 0.021261059455061161 -0.015130570335506303 0 0.021656916555090756 -0.015283585505498453 0 0.021732294383649334 -0.015053799380854193 0 0.021668536674494872 -0.015280413283388096 0 0.021848880508048112 -0.015319616741795527 0 0.021911560548218294 -0.015328454944064358 0 0.021888613015570726 -0.015316735596550085 0 0.021668536674494872 -0.015280413283388096 0 0.021848880508048112 -0.015319616741795527 0 0.021142528397626911 -0.015001909112277266 0 0.02114195022048895 -0.014894095139158254 0 0.021229499832385867 -0.014980854360907778 0 0.021142528397626911 -0.015001909112277266 0 0.021024844012782602 -0.014948685635081739 0 0.021049251035678146 -0.015082695573311683 0 0.021049067693731615 -0.014840617507260383 0 0.021024844012782602 -0.014948685635081739 0 0.02114195022048895 -0.014894095139158254 0 0.021049067693731615 -0.014840617507260383 0 0.021024844012782602 -0.014948685635081739 0 0.020983514497262726 -0.014899726413942122 0 0.021142528397626911 -0.015001909112277266 0 0.021024844012782602 -0.014948685635081739 0 0.02114195022048895 -0.014894095139158254 0 0.021378814117097231 -0.014900475811449895 0 0.021229499832385867 -0.014980854360907778 0 0.021261059455061161 -0.015130570335506303 0 0.021159389073698704 -0.0148128090546778 0 0.02114195022048895 -0.014894095139158254 0 0.021378814117097231 -0.014900475811449895 0 0.02114195022048895 -0.014894095139158254 0 0.021378814117097231 -0.014900475811449895 0 0.021229499832385867 -0.014980854360907778 0 0.021142528397626911 -0.015001909112277266 0 0.021229499832385867 -0.014980854360907778 0 0.021261059455061161 -0.015130570335506303 0 0.021049251035678146 -0.015082695573311683 0 0.021133637241057719 -0.01529229599688201 0 0.020878363629302281 -0.015148841716407046 0 0.021261059455061161 -0.015130570335506303 0 0.021049251035678146 -0.015082695573311683 0 0.021133637241057719 -0.01529229599688201 0 0.021142528397626911 -0.015001909112277266 0 0.021261059455061161 -0.015130570335506303 0 0.021049251035678146 -0.015082695573311683 0 0.021386396625968741 -0.015336527907558579 0 0.021133637241057719 -0.01529229599688201 0 0.021322164416436203 -0.015441869754596715 0 0.021386396625968741 -0.015336527907558579 0 0.021261059455061161 -0.015130570335506303 0 0.021133637241057719 -0.01529229599688201 0 0.021133637241057719 -0.01529229599688201 0 0.021322164416436203 -0.015441869754596715 0 0.021099754902908448 -0.015447209540510728 0 0.021133637241057719 -0.01529229599688201 0 0.021099754902908448 -0.015447209540510728 0 0.020964193949883289 -0.015338298838692895 0 0.021046575000905593 -0.015477652140501192 0 0.021215744674935689 -0.015482890960274472 0 0.021092752695339119 -0.015410991523510466 0 0.021099754902908448 -0.015447209540510728 0 0.021046575000905593 -0.015477652140501192 0 0.021215744674935689 -0.015482890960274472 0 0.021322164416436203 -0.015441869754596715 0 0.021099754902908448 -0.015447209540510728 0 0.021300636136193898 -0.015505573536411105 0 0.021099754902908448 -0.015447209540510728 0 0.021215744674935689 -0.015482890960274472 0 0.021300636136193898 -0.015505573536411105 0 0.021300636136193898 -0.015505573536411105 0 0.021442877475518953 -0.015551597191568746 0 0.021376365156132535 -0.015556092052609102 0 0.021322164416436203 -0.015441869754596715 0 0.021300636136193898 -0.015505573536411105 0 0.021442877475518953 -0.015551597191568746 0 0.021454058488616295 -0.015705471813983855 0 0.021442877475518953 -0.015551597191568746 0 0.021376365156132535 -0.015556092052609102 0 0.02135878961060542 -0.015516651956569051 0 0.021454058488616295 -0.015705471813983855 0 0.021376365156132535 -0.015556092052609102 0 0.021215744674935689 -0.015482890960274472 0 0.021300636136193898 -0.015505573536411105 0 0.021376365156132535 -0.015556092052609102 0 0.021215744674935689 -0.015482890960274472 0 0.021376365156132535 -0.015556092052609102 0 0.021327360566399885 -0.015457437806085892 0 0.021327360566399885 -0.015457437806085892 0 0.021303295379351734 -0.015322991297890618 0 0.021238322729446039 -0.015404493103900876 0 0.02135878961060542 -0.015516651956569051 0 0.021376365156132535 -0.015556092052609102 0 0.021327360566399885 -0.015457437806085892 0 0.02135878961060542 -0.015516651956569051 0 0.021327360566399885 -0.015457437806085892 0 0.021320460368600691 -0.01531167065289879 0 0.021327360566399885 -0.015457437806085892 0 0.021320460368600691 -0.01531167065289879 0 0.021303295379351734 -0.015322991297890618 0 0.021320460368600691 -0.01531167065289879 0 0.021303295379351734 -0.015322991297890618 0 0.021325790370053263 -0.015207622942075052 0 0.021303295379351734 -0.015322991297890618 0 0.02121212014766815 -0.015315218961375603 0 0.021314605521124432 -0.015176213014872176 0 0.021303295379351734 -0.015322991297890618 0 0.02121212014766815 -0.015315218961375603 0 0.021238322729446039 -0.015404493103900876 0 0.02121212014766815 -0.015315218961375603 0 0.021092752695339119 -0.015410991523510466 0 0.021096785170822561 -0.015270188497757893 0 0.021215744674935689 -0.015482890960274472 0 0.021327360566399885 -0.015457437806085892 0 0.021238322729446039 -0.015404493103900876 0 0.021215744674935689 -0.015482890960274472 0 0.021092752695339119 -0.015410991523510466 0 0.021238322729446039 -0.015404493103900876 0 0.02121212014766815 -0.015315218961375603 0 0.021092752695339119 -0.015410991523510466 0 0.021238322729446039 -0.015404493103900876 0 0.021360958881715797 -0.015092565874974149 0 0.021314605521124432 -0.015176213014872176 0 0.021371574771870173 -0.015021220675802338 0 0.021360958881715797 -0.015092565874974149 0 0.02112224939194857 -0.015182529827027721 0 0.021314605521124432 -0.015176213014872176 0 0.02112224939194857 -0.015182529827027721 0 0.021096785170822561 -0.015270188497757893 0 0.021314605521124432 -0.015176213014872176 0 0.02121212014766815 -0.015315218961375603 0 0.021096785170822561 -0.015270188497757893 0 0.021314605521124432 -0.015176213014872176 0 0.021303295379351734 -0.015322991297890618 0 0.021314605521124432 -0.015176213014872176 0 0.021325790370053263 -0.015207622942075052 0 0.021314605521124432 -0.015176213014872176 0 0.021325790370053263 -0.015207622942075052 0 0.021347254045965762 -0.015063337307001179 0 0.021320460368600691 -0.01531167065289879 0 0.021296219863398521 -0.015149610372766962 0 0.021235264461092002 -0.015150030607940752 0 0.021320460368600691 -0.01531167065289879 0 0.021325790370053263 -0.015207622942075052 0 0.021296219863398521 -0.015149610372766962 0 0.021325790370053263 -0.015207622942075052 0 0.021296219863398521 -0.015149610372766962 0 0.021347254045965762 -0.015063337307001179 0 0.021296219863398521 -0.015149610372766962 0 0.02124469339481648 -0.014974638765419912 0 0.021347254045965762 -0.015063337307001179 0 0.021296219863398521 -0.015149610372766962 0 0.02124469339481648 -0.014974638765419912 0 0.021235264461092002 -0.015150030607940752 0 0.02124469339481648 -0.014974638765419912 0 0.021357306699961387 -0.014890725519606404 0 0.021347254045965762 -0.015063337307001179 0 0.02124469339481648 -0.014974638765419912 0 0.021357306699961387 -0.014890725519606404 0 0.021181954623266282 -0.014749221807607495 0 0.021314605521124432 -0.015176213014872176 0 0.021347254045965762 -0.015063337307001179 0 0.021371574771870173 -0.015021220675802338 0 0.021357306699961387 -0.014890725519606404 0 0.021347254045965762 -0.015063337307001179 0 0.021371574771870173 -0.015021220675802338 0 0.021357306699961387 -0.014890725519606404 0 0.021371574771870173 -0.015021220675802338 0 0.021395061563922485 -0.014877476236408045 0 0.021360958881715797 -0.015092565874974149 0 0.021371574771870173 -0.015021220675802338 0 0.021395061563922485 -0.014877476236408045 0 0.021421532238961316 -0.014612723339198531 0 0.022837239860442927 -0.013433454266361649 0 0.024625364979926401 -0.013432469802562678 0 0.021395061563922485 -0.014877476236408045 0 0.021421532238961316 -0.014612723339198531 0 0.021410693514947003 -0.014827270475405675 0 0.021392653481894959 -0.014634658852501332 0 0.023224106026367222 -0.014052205811582152 0 0.021357306699961387 -0.014890725519606404 0 0.021395061563922485 -0.014877476236408045 0 0.021421532238961316 -0.014612723339198531 0 0.021181954623266282 -0.014749221807607495 0 0.021421532238961316 -0.014612723339198531 0 0.020934939152152998 -0.014380706185622903 0 0.021357306699961387 -0.014890725519606404 0 0.021181954623266282 -0.014749221807607495 0 0.021421532238961316 -0.014612723339198531 0 0.021421532238961316 -0.014612723339198531 0 0.021387108359108734 -0.013457690755210392 0 0.021918452284292733 -0.013470154393997623 0 0.021421532238961316 -0.014612723339198531 0 0.021918452284292733 -0.013470154393997623 0 0.022837239860442927 -0.013433454266361649 0 0.021421532238961316 -0.014612723339198531 0 0.020934939152152998 -0.014380706185622903 0 0.021387108359108734 -0.013457690755210392 0 0.020934939152152998 -0.014380706185622903 0 0.021387108359108734 -0.013457690755210392 0 0.020917223509009826 -0.012406834248204672 0 0.021387108359108734 -0.013457690755210392 0 0.021918452284292733 -0.013470154393997623 0 0.022017685202991077 -0.012346209427664711 0 0.021387108359108734 -0.013457690755210392 0 0.022017685202991077 -0.012346209427664711 0 0.020917223509009826 -0.012406834248204672 0 0.022837239860442927 -0.013433454266361649 0 0.023382867883874253 -0.012172737634526878 0 0.024625364979926401 -0.013432469802562678 0 0.021918452284292733 -0.013470154393997623 0 0.022017685202991077 -0.012346209427664711 0 0.022837239860442927 -0.013433454266361649 0 0.022017685202991077 -0.012346209427664711 0 0.022837239860442927 -0.013433454266361649 0 0.023382867883874253 -0.012172737634526878 0 0.024625364979926401 -0.013432469802562678 0 0.027577473006570083 -0.012360476689673393 0 0.024656722825842841 -0.011730181977697965 0 0.023382867883874253 -0.012172737634526878 0 0.024625364979926401 -0.013432469802562678 0 0.024656722825842841 -0.011730181977697965 0 0.021360958881715797 -0.015092565874974149 0 0.021410693514947003 -0.014827270475405675 0 0.021611626723825612 -0.014902712784745281 0 0.021360958881715797 -0.015092565874974149 0 0.021395061563922485 -0.014877476236408045 0 0.021410693514947003 -0.014827270475405675 0 0.021471455145162455 -0.014965922454573389 0 0.021102719725300936 -0.015428180039621892 0 0.021360958881715797 -0.015092565874974149 0 0.02112224939194857 -0.015182529827027721 0 0.021181310890652696 -0.01529895334926005 0 0.02112224939194857 -0.015182529827027721 0 0.021181310890652696 -0.01529895334926005 0 0.021069298110354927 -0.01530600752763157 0 0.025644646622411612 -0.01172535996561659 0 0.026134994784305643 -0.011888277597272363 0 0.027577473006570083 -0.012360476689673393 0 0.024656722825842841 -0.011730181977697965 0 0.027922398690396897 -0.011902804008227751 0 0.023224106026367222 -0.014052205811582152 0 0.023713372608315745 -0.013815742062626746 0 0.021102719725300936 -0.015428180039621892 0 0.023713372608315745 -0.013815742062626746 0 0.021181310890652696 -0.01529895334926005 0 0.021069298110354927 -0.01530600752763157 0 0.021079980793806338 -0.01539610554856294 0 0.021410693514947003 -0.014827270475405675 0 0.021611626723825612 -0.014902712784745281 0 0.021804937620437403 -0.014657551214687066 0 0.026465015719177885 -0.010453497051029612 0 0.027939098637697994 -0.0095954111281030575 0 0.028257282131213628 -0.011749087907269451 0 0.026465015719177885 -0.010453497051029612 0 0.024656722825842841 -0.011730181977697965 0 0.028257282131213628 -0.011749087907269451 0 0.025066719158840824 -0.010220643567923798 0 0.02420119198293014 -0.0091511630641336935 0 0.02310103339581104 -0.010446062108489383 0 0.024656722825842841 -0.011730181977697965 0 0.025066719158840824 -0.010220643567923798 0 0.02310103339581104 -0.010446062108489383 0 0.026465015719177885 -0.010453497051029612 0 0.024656722825842841 -0.011730181977697965 0 0.025066719158840824 -0.010220643567923798 0 0.026465015719177885 -0.010453497051029612 0 0.025066719158840824 -0.010220643567923798 0 0.026125936985338171 -0.0086497311036846884 0 0.025066719158840824 -0.010220643567923798 0 0.02420119198293014 -0.0091511630641336935 0 0.026125936985338171 -0.0086497311036846884 0 0.02420119198293014 -0.0091511630641336935 0 0.026125936985338171 -0.0086497311036846884 0 0.024596506575424656 -0.0075849823203264395 0 0.027939098637697994 -0.0095954111281030575 0 0.026125936985338171 -0.0086497311036846884 0 0.028482390037336831 -0.0071051231633948901 0 0.026465015719177885 -0.010453497051029612 0 0.027939098637697994 -0.0095954111281030575 0 0.026125936985338171 -0.0086497311036846884 0 0.025755806179120252 -0.0062520330264269142 0 0.027195488401696992 -0.0037840981874074707 0 0.028482390037336831 -0.0071051231633948901 0 0.026125936985338171 -0.0086497311036846884 0 0.025755806179120252 -0.0062520330264269142 0 0.028482390037336831 -0.0071051231633948901 0 0.025755806179120252 -0.0062520330264269142 0 0.024596506575424656 -0.0075849823203264395 0 0.02350752597552545 -0.006210074981249071 0 0.026125936985338171 -0.0086497311036846884 0 0.025755806179120252 -0.0062520330264269142 0 0.024596506575424656 -0.0075849823203264395 0 0.025755806179120252 -0.0062520330264269142 0 0.024621251811935488 -0.004167847942942806 0 0.027195488401696992 -0.0037840981874074707 0 0.025755806179120252 -0.0062520330264269142 0 0.024621251811935488 -0.004167847942942806 0 0.02350752597552545 -0.006210074981249071 0 0.021952191930021063 -0.0042553014629318547 0 0.019664944299038516 -0.0039025375461422675 0 0.019930513328030263 -0.0053432631759593218 0 0.021952191930021063 -0.0042553014629318547 0 0.021114154880554379 -0.007072780449806579 0 0.019930513328030263 -0.0053432631759593218 0 0.024621251811935488 -0.004167847942942806 0 0.021952191930021063 -0.0042553014629318547 0 0.02350752597552545 -0.006210074981249071 0 0.024621251811935488 -0.004167847942942806 0 0.021952191930021063 -0.0042553014629318547 0 0.023279300594125286 -0.0026476545567815524 0 0.02350752597552545 -0.006210074981249071 0 0.021114154880554379 -0.007072780449806579 0 0.022941425016552414 -0.008157123601891629 0 0.021952191930021063 -0.0042553014629318547 0 0.02350752597552545 -0.006210074981249071 0 0.021114154880554379 -0.007072780449806579 0 0.024596506575424656 -0.0075849823203264395 0 0.02350752597552545 -0.006210074981249071 0 0.022941425016552414 -0.008157123601891629 0 0.021114154880554379 -0.007072780449806579 0 0.021549285729426371 -0.0090789102300099771 0 0.020237450238136102 -0.0090657598458431816 0 0.021114154880554379 -0.007072780449806579 0 0.021549285729426371 -0.0090789102300099771 0 0.022941425016552414 -0.008157123601891629 0 0.021549285729426371 -0.0090789102300099771 0 0.020237450238136102 -0.0090657598458431816 0 0.021035362208646994 -0.01063173981393762 0 0.02420119198293014 -0.0091511630641336935 0 0.022941425016552414 -0.008157123601891629 0 0.02310103339581104 -0.010446062108489383 0 0.021549285729426371 -0.0090789102300099771 0 0.022941425016552414 -0.008157123601891629 0 0.02310103339581104 -0.010446062108489383 0 0.02420119198293014 -0.0091511630641336935 0 0.024596506575424656 -0.0075849823203264395 0 0.022941425016552414 -0.008157123601891629 0 0.022017685202991077 -0.012346209427664711 0 0.023382867883874253 -0.012172737634526878 0 0.02310103339581104 -0.010446062108489383 0 0.023382867883874253 -0.012172737634526878 0 0.024656722825842841 -0.011730181977697965 0 0.02310103339581104 -0.010446062108489383 0 0.022017685202991077 -0.012346209427664711 0 0.02310103339581104 -0.010446062108489383 0 0.021035362208646994 -0.01063173981393762 0 0.021549285729426371 -0.0090789102300099771 0 0.02310103339581104 -0.010446062108489383 0 0.021035362208646994 -0.01063173981393762 0 0.022017685202991077 -0.012346209427664711 0 0.020917223509009826 -0.012406834248204672 0 0.021035362208646994 -0.01063173981393762 0 0.020917223509009826 -0.012406834248204672 0 0.021035362208646994 -0.01063173981393762 0 0.019272274170121763 -0.011040896902617253 0 0.021426371705342423 -0.013598488251540071 0 0.020828148087320055 -0.013783200528439628 0 0.02109533190187237 -0.013981326203224606 0 0.020237450238136102 -0.0090657598458431816 0 0.021035362208646994 -0.01063173981393762 0 0.019272274170121763 -0.011040896902617253 0 0.020828148087320055 -0.013783200528439628 0 0.0206145797672228 -0.013838614900911653 0 0.020685006147919884 -0.013928035536102203 0 0.020817885158848526 -0.01379942719008345 0 0.01983287918504479 -0.013597373115384639 0 0.021426371705342423 -0.013598488251540071 0 0.020828148087320055 -0.013783200528439628 0 0.020405235782163064 -0.012552345542445605 0 0.020828148087320055 -0.013783200528439628 0 0.020405235782163064 -0.012552345542445605 0 0.019492216210413246 -0.013479813989971227 0 0.020405235782163064 -0.012552345542445605 0 0.021114278552935826 -0.011333794617507513 0 0.019257564137176518 -0.011148061433460482 0 0.021426371705342423 -0.013598488251540071 0 0.020405235782163064 -0.012552345542445605 0 0.021114278552935826 -0.011333794617507513 0 0.020399916311213843 -0.012223857949048142 0 0.01922460351533694 -0.0097321356818039339 0 0.020237450238136102 -0.0090657598458431816 0 0.019272274170121763 -0.011040896902617253 0 0.018200751419602635 -0.0075289959436029407 0 0.021114154880554379 -0.007072780449806579 0 0.020237450238136102 -0.0090657598458431816 0 0.018200751419602635 -0.0075289959436029407 0 0.018200751419602635 -0.0075289959436029407 0 0.018475385294511516 -0.0045600189001441943 0 0.019930513328030263 -0.0053432631759593218 0 0.021114154880554379 -0.007072780449806579 0 0.018200751419602635 -0.0075289959436029407 0 0.019930513328030263 -0.0053432631759593218 0 0.021114278552935826 -0.011333794617507513 0 0.020488087290659769 -0.0089273445090718787 0 0.019257564137176518 -0.011148061433460482 0 0.01922460351533694 -0.0097321356818039339 0 0.022347335974637863 -0.0046924411378628777 0 0.022347335974637863 -0.0046924411378628777 0 0.021638133506265242 -0.0091103448420695055 0 0.024569377925013524 -0.0059056909178807531 0 0.024554477218857139 -0.0058528660597556336 0 0.024007707994675092 -0.0061844943721007161 0 0.018200751419602635 -0.0075289959436029407 0 0.017242618393481814 -0.0041057061243742546 0 0.018475385294511516 -0.0045600189001441943 0 0.017242618393481814 -0.0041057061243742546 0 0.017486275091948941 -0.0036929526320109022 0 0.018475385294511516 -0.0045600189001441943 0 0.022347335974637863 -0.0046924411378628777 0 0.023728226444130304 -0.0014763497787087174 0 0.022347335974637863 -0.0046924411378628777 0 0.02319812002724805 -0.0013027059043277053 0 0.023728226444130304 -0.0014763497787087174 0 0.02319812002724805 -0.0013027059043277053 0 0.022955682507806816 -0.0011605949817127975 0 0.023093860142659916 -0.0016255690846496984 0 0.022506711214439614 -0.0019245737960233102 0 0.017486275091948941 -0.0036929526320109022 0 0.018475385294511516 -0.0045600189001441943 0 0.019664944299038516 -0.0039025375461422675 0 0.018475385294511516 -0.0045600189001441943 0 0.019664944299038516 -0.0039025375461422675 0 0.019930513328030263 -0.0053432631759593218 0 0.026127662513808776 0.0013307605434426703 0 0.026104179113939474 0.0012855069443073767 0 0.026284190258915444 0.00094112101611791641 0 0.026127662513808776 0.0013307605434426703 0 0.026104179113939474 0.0012855069443073767 0 0.025990857829664763 0.0014618012353462074 0 0.024569377925013524 -0.0059056909178807531 0 0.024007707994675092 -0.0061844943721007161 0 0.02422443093408598 -0.0065654118266876491 0 0.026022344867292765 0.0014226732962467515 0 0.026104179113939474 0.0012855069443073767 0 0.025990857829664763 0.0014618012353462074 0 0.023728226444130304 -0.0014763497787087174 0 0.025329262654466562 -0.0025013067267899512 0 0.024007707994675092 -0.0061844943721007161 0 0.02422443093408598 -0.0065654118266876491 0 0.023819587218659389 -0.0067077686552045402 0 0.024007707994675092 -0.0061844943721007161 0 0.023819587218659389 -0.0067077686552045402 0 0.023506991084074572 -0.0064934074418435753 0 0.025329262654466562 -0.0025013067267899512 0 0.02479000339540053 -0.0027302481664660482 0 0.02422443093408598 -0.0065654118266876491 0 0.023819587218659389 -0.0067077686552045402 0 0.023883308025162423 -0.0071569954997984155 0 0.023819587218659389 -0.0067077686552045402 0 0.023883308025162423 -0.0071569954997984155 0 0.023371272684415724 -0.0069883708557176485 0 0.021638133506265242 -0.0091103448420695055 0 0.021598136682648397 -0.01162946758374242 0 0.019257564137176518 -0.011148061433460482 0 0.019331714879749801 -0.012592150990660654 0 0.01817221420772017 -0.013170620818240305 0 0.020405235782163064 -0.012552345542445605 0 0.019257564137176518 -0.011148061433460482 0 0.019331714879749801 -0.012592150990660654 0 0.01983287918504479 -0.013597373115384639 0 0.021598136682648397 -0.01162946758374242 0 0.019331714879749801 -0.012592150990660654 0 0.019492216210413246 -0.013479813989971227 0 0.01817221420772017 -0.013170620818240305 0 0.020645176803466132 -0.013761068752269266 0 0.0206145797672228 -0.013838614900911653 0 0.020843600778737665 -0.014098501001759856 0 0.020405235782163064 -0.012552345542445605 0 0.019331714879749801 -0.012592150990660654 0 0.019492216210413246 -0.013479813989971227 0 0.020645176803466132 -0.013761068752269266 0 0.0206145797672228 -0.013838614900911653 0 0.020685006147919884 -0.013928035536102203 0 0.020645176803466132 -0.013761068752269266 0 0.020843600778737665 -0.014098501001759856 0 0.02140913332594515 -0.013035860780877732 0 0.021117198474306056 -0.013535836665713447 0 0.02140913332594515 -0.013035860780877732 0 0.021650296100487344 -0.013317322304870935 0 0.021598136682648397 -0.01162946758374242 0 0.021003072178879995 -0.013817120990838741 0 0.020645176803466132 -0.013761068752269266 0 0.02140913332594515 -0.013035860780877732 0 0.02169809832819641 -0.012675480003612892 0 0.020645176803466132 -0.013761068752269266 0 0.020474709860666924 -0.014094277981023856 0 0.020229700525648354 -0.014106534583058598 0 0.020675545224564634 -0.013695973300834576 0 0.021017751649078514 -0.013387743396701237 0 0.020645176803466132 -0.013761068752269266 0 0.020474709860666924 -0.014094277981023856 0 0.020627384906937683 -0.014029654789947265 0 0.020474709860666924 -0.014094277981023856 0 0.020558174640256232 -0.014322745082819423 0 0.020627384906937683 -0.014029654789947265 0 0.020474709860666924 -0.014094277981023856 0 0.020337740787012511 -0.014226406914336069 0 0.020229700525648354 -0.014106534583058598 0 0.020474709860666924 -0.014094277981023856 0 0.020337740787012511 -0.014226406914336069 0 0.020436748409662586 -0.014299750147651728 0 0.020337740787012511 -0.014226406914336069 0 0.020436748409662586 -0.014299750147651728 0 0.020325089059058981 -0.01437726158805076 0 0.020558174640256232 -0.014322745082819423 0 0.020452863619428989 -0.014491524602092009 0 0.020606056318904376 -0.014654085666150269 0 0.020474709860666924 -0.014094277981023856 0 0.020436748409662586 -0.014299750147651728 0 0.020558174640256232 -0.014322745082819423 0 0.020436748409662586 -0.014299750147651728 0 0.020558174640256232 -0.014322745082819423 0 0.020452863619428989 -0.014491524602092009 0 0.020452863619428989 -0.014491524602092009 0 0.020325089059058981 -0.01437726158805076 0 0.020325152579105027 -0.014586656980223824 0 0.020436748409662586 -0.014299750147651728 0 0.020452863619428989 -0.014491524602092009 0 0.020325089059058981 -0.01437726158805076 0 0.020558174640256232 -0.014322745082819423 0 0.02072883811764208 -0.014499550705292097 0 0.020606056318904376 -0.014654085666150269 0 0.02072883811764208 -0.014499550705292097 0 0.020681116682062 -0.01428367195936711 0 0.02081588930356864 -0.014336663676667399 0 0.020558174640256232 -0.014322745082819423 0 0.02072883811764208 -0.014499550705292097 0 0.020681116682062 -0.01428367195936711 0 0.020558174640256232 -0.014322745082819423 0 0.020681116682062 -0.01428367195936711 0 0.020627384906937683 -0.014029654789947265 0 0.020681116682062 -0.01428367195936711 0 0.020693996402302871 -0.014106170065256031 0 0.02081588930356864 -0.014336663676667399 0 0.020693996402302871 -0.014106170065256031 0 0.020627384906937683 -0.014029654789947265 0 0.020685006147919884 -0.013928035536102203 0 0.020681116682062 -0.01428367195936711 0 0.020693996402302871 -0.014106170065256031 0 0.020627384906937683 -0.014029654789947265 0 0.020645176803466132 -0.013761068752269266 0 0.020627384906937683 -0.014029654789947265 0 0.020685006147919884 -0.013928035536102203 0 0.020693996402302871 -0.014106170065256031 0 0.020685006147919884 -0.013928035536102203 0 0.020802727035548349 -0.014060085689738005 0 0.020828148087320055 -0.013783200528439628 0 0.020685006147919884 -0.013928035536102203 0 0.020802727035548349 -0.014060085689738005 0 0.020828148087320055 -0.013783200528439628 0 0.020802727035548349 -0.014060085689738005 0 0.02109533190187237 -0.013981326203224606 0 0.020802727035548349 -0.014060085689738005 0 0.02109533190187237 -0.013981326203224606 0 0.020992259430221153 -0.014180153401750516 0 0.020802727035548349 -0.014060085689738005 0 0.02081588930356864 -0.014336663676667399 0 0.0209025588742273 -0.014279137909939926 0 0.020802727035548349 -0.014060085689738005 0 0.020992259430221153 -0.014180153401750516 0 0.0209025588742273 -0.014279137909939926 0 0.020693996402302871 -0.014106170065256031 0 0.020802727035548349 -0.014060085689738005 0 0.02081588930356864 -0.014336663676667399 0 0.020934939152152998 -0.014380706185622903 0 0.020917223509009826 -0.012406834248204672 0 0.019272274170121763 -0.011040896902617253 0 0.020876146252128639 -0.014235691475447657 0 0.020399916311213843 -0.012223857949048142 0 0.020934939152152998 -0.014380706185622903 0 0.021426371705342423 -0.013598488251540071 0 0.02109533190187237 -0.013981326203224606 0 0.02109533190187237 -0.013981326203224606 0 0.020992259430221153 -0.014180153401750516 0 0.020999224759413571 -0.01429630924331849 0 0.020934939152152998 -0.014380706185622903 0 0.02109533190187237 -0.013981326203224606 0 0.020999224759413571 -0.01429630924331849 0 0.020934939152152998 -0.014380706185622903 0 0.020999224759413571 -0.01429630924331849 0 0.021028505493591115 -0.014513286384157973 0 0.020981733402047873 -0.014403379748540347 0 0.020999224759413571 -0.01429630924331849 0 0.021028505493591115 -0.014513286384157973 0 0.020992259430221153 -0.014180153401750516 0 0.020981733402047873 -0.014403379748540347 0 0.020999224759413571 -0.01429630924331849 0 0.020992259430221153 -0.014180153401750516 0 0.020981733402047873 -0.014403379748540347 0 0.0209025588742273 -0.014279137909939926 0 0.020981733402047873 -0.014403379748540347 0 0.020932019797284953 -0.014496295297819449 0 0.021048845886191513 -0.014700983541586247 0 0.020981733402047873 -0.014403379748540347 0 0.021028505493591115 -0.014513286384157973 0 0.021048845886191513 -0.014700983541586247 0 0.021181954623266282 -0.014749221807607495 0 0.020934939152152998 -0.014380706185622903 0 0.021028505493591115 -0.014513286384157973 0 0.021181954623266282 -0.014749221807607495 0 0.021028505493591115 -0.014513286384157973 0 0.021048845886191513 -0.014700983541586247 0 0.02081588930356864 -0.014336663676667399 0 0.0209025588742273 -0.014279137909939926 0 0.020932019797284953 -0.014496295297819449 0 0.020981733402047873 -0.014403379748540347 0 0.0209025588742273 -0.014279137909939926 0 0.020932019797284953 -0.014496295297819449 0 0.02081588930356864 -0.014336663676667399 0 0.020932019797284953 -0.014496295297819449 0 0.020903546490256154 -0.014639171714265081 0 0.02072883811764208 -0.014499550705292097 0 0.02081588930356864 -0.014336663676667399 0 0.020903546490256154 -0.014639171714265081 0 0.020932019797284953 -0.014496295297819449 0 0.020903546490256154 -0.014639171714265081 0 0.021048845886191513 -0.014700983541586247 0 0.020903546490256154 -0.014639171714265081 0 0.021085029364364714 -0.014917536451897943 0 0.020965534051900221 -0.014899327561522829 0 0.020903546490256154 -0.014639171714265081 0 0.020965534051900221 -0.014899327561522829 0 0.020801140184574837 -0.014765962551172941 0 0.02124469339481648 -0.014974638765419912 0 0.021048845886191513 -0.014700983541586247 0 0.021085029364364714 -0.014917536451897943 0 0.02124469339481648 -0.014974638765419912 0 0.021181954623266282 -0.014749221807607495 0 0.021048845886191513 -0.014700983541586247 0 0.020903546490256154 -0.014639171714265081 0 0.021048845886191513 -0.014700983541586247 0 0.021085029364364714 -0.014917536451897943 0 0.02124469339481648 -0.014974638765419912 0 0.021085029364364714 -0.014917536451897943 0 0.021235264461092002 -0.015150030607940752 0 0.021085029364364714 -0.014917536451897943 0 0.021235264461092002 -0.015150030607940752 0 0.021094926007429193 -0.015106993263163745 0 0.020965534051900221 -0.014899327561522829 0 0.02089704449053249 -0.015029015496654523 0 0.020801140184574837 -0.014765962551172941 0 0.020965534051900221 -0.014899327561522829 0 0.021094926007429193 -0.015106993263163745 0 0.02089704449053249 -0.015029015496654523 0 0.021085029364364714 -0.014917536451897943 0 0.020965534051900221 -0.014899327561522829 0 0.021094926007429193 -0.015106993263163745 0 0.02106377549860285 -0.015293827640755124 0 0.021094926007429193 -0.015106993263163745 0 0.02089704449053249 -0.015029015496654523 0 0.02089704449053249 -0.015029015496654523 0 0.020718425877910469 -0.014909848064506138 0 0.020801140184574837 -0.014765962551172941 0 0.020731181417926119 -0.015159822815588026 0 0.020718425877910469 -0.014909848064506138 0 0.020545859173211969 -0.0148742415179257 0 0.020731181417926119 -0.015159822815588026 0 0.02089704449053249 -0.015029015496654523 0 0.020718425877910469 -0.014909848064506138 0 0.020365085841813256 -0.015108956915414036 0 0.020731181417926119 -0.015159822815588026 0 0.020545859173211969 -0.0148742415179257 0 0.020365085841813256 -0.015108956915414036 0 0.020545859173211969 -0.0148742415179257 0 0.020339634960933831 -0.014825086835019142 0 0.020545859173211969 -0.0148742415179257 0 0.020459439115356422 -0.014698337402618456 0 0.020606056318904376 -0.014654085666150269 0 0.020718425877910469 -0.014909848064506138 0 0.020545859173211969 -0.0148742415179257 0 0.020606056318904376 -0.014654085666150269 0 0.020545859173211969 -0.0148742415179257 0 0.020459439115356422 -0.014698337402618456 0 0.020339634960933831 -0.014825086835019142 0 0.020459439115356422 -0.014698337402618456 0 0.020325152579105027 -0.014586656980223824 0 0.020339634960933831 -0.014825086835019142 0 0.020452863619428989 -0.014491524602092009 0 0.020459439115356422 -0.014698337402618456 0 0.020325152579105027 -0.014586656980223824 0 0.020452863619428989 -0.014491524602092009 0 0.020459439115356422 -0.014698337402618456 0 0.020606056318904376 -0.014654085666150269 0 0.02072883811764208 -0.014499550705292097 0 0.020606056318904376 -0.014654085666150269 0 0.020801140184574837 -0.014765962551172941 0 0.02072883811764208 -0.014499550705292097 0 0.020903546490256154 -0.014639171714265081 0 0.020801140184574837 -0.014765962551172941 0 0.020718425877910469 -0.014909848064506138 0 0.020606056318904376 -0.014654085666150269 0 0.020801140184574837 -0.014765962551172941 0 0.020003157341673402 -0.01474052175713055 0 0.020032598128068003 -0.014537028082491535 0 0.020180776509570529 -0.014682393752096816 0 0.020003157341673402 -0.01474052175713055 0 0.0198488585486098 -0.014593476610388496 0 0.019840814076332789 -0.014771900431308091 0 0.020003157341673402 -0.01474052175713055 0 0.0198488585486098 -0.014593476610388496 0 0.020032598128068003 -0.014537028082491535 0 0.020032598128068003 -0.014537028082491535 0 0.020180776509570529 -0.014682393752096816 0 0.020166562421033443 -0.01446437225494515 0 0.020325152579105027 -0.014586656980223824 0 0.020180776509570529 -0.014682393752096816 0 0.020166562421033443 -0.01446437225494515 0 0.020325152579105027 -0.014586656980223824 0 0.020180776509570529 -0.014682393752096816 0 0.020339634960933831 -0.014825086835019142 0 0.020003157341673402 -0.01474052175713055 0 0.020180776509570529 -0.014682393752096816 0 0.020155185068979696 -0.014917413279209479 0 0.020039707024907091 -0.015196714989213786 0 0.020365085841813256 -0.015108956915414036 0 0.020155185068979696 -0.014917413279209479 0 0.020180776509570529 -0.014682393752096816 0 0.020155185068979696 -0.014917413279209479 0 0.020339634960933831 -0.014825086835019142 0 0.020365085841813256 -0.015108956915414036 0 0.020155185068979696 -0.014917413279209479 0 0.020339634960933831 -0.014825086835019142 0 0.019687762320575779 -0.015229219703984912 0 0.019840814076332789 -0.014771900431308091 0 0.019969458039201991 -0.014965394364625302 0 0.020039707024907091 -0.015196714989213786 0 0.020155185068979696 -0.014917413279209479 0 0.019969458039201991 -0.014965394364625302 0 0.020003157341673402 -0.01474052175713055 0 0.020155185068979696 -0.014917413279209479 0 0.019969458039201991 -0.014965394364625302 0 0.020003157341673402 -0.01474052175713055 0 0.019840814076332789 -0.014771900431308091 0 0.019969458039201991 -0.014965394364625302 0 0.019687762320575779 -0.015229219703984912 0 0.019840814076332789 -0.014771900431308091 0 0.019618266570321313 -0.014746719428461645 0 0.021828873353931934 -0.014073751639562225 0 0.021678996643561505 -0.013628959325548183 0 0.024097760459979981 -0.013149214942970562 0 0.023646301164249976 -0.012870380521005472 0 0.024010438818556197 -0.01263997938625685 0 0.023646301164249976 -0.012870380521005472 0 0.024010438818556197 -0.01263997938625685 0 0.023445809640363503 -0.012563012639250448 0 0.021678996643561505 -0.013628959325548183 0 0.025439436963152519 -0.009582584118771607 0 0.02238838630300731 -0.012729409393498163 0 0.025439436963152519 -0.009582584118771607 0 0.022175111191232808 -0.011295541351824596 0 0.02244286511098011 -0.012864344238788822 0 0.025089696952686997 -0.011523615682546009 0 0.0198488585486098 -0.014593476610388496 0 0.019840814076332789 -0.014771900431308091 0 0.019664833387987763 -0.014737071933033341 0 0.019467053944581248 -0.01438860675488882 0 0.021678996643561505 -0.013628959325548183 0 0.021678996643561505 -0.013628959325548183 0 0.02238838630300731 -0.012729409393498163 0 0.0198488585486098 -0.014593476610388496 0 0.019664833387987763 -0.014737071933033341 0 0.019631664727606888 -0.014483700288903964 0 0.023649420666064857 -0.011518697352122045 0 0.023806534760080284 -0.012282948173626022 0 0.022657467500541928 -0.012052913486359156 0 0.0198488585486098 -0.014593476610388496 0 0.019631664727606888 -0.014483700288903964 0 0.019942374822403488 -0.014314574586965374 0 0.02238838630300731 -0.012729409393498163 0 0.021153080539415222 -0.013249174621178739 0 0.023603215960007803 -0.01122559253265523 0 0.024710079128077628 -0.011944471865120343 0 0.025224509188077435 -0.010386083330874917 0 0.02238838630300731 -0.012729409393498163 0 0.023716332583782661 -0.011811776216073929 0 0.023603215960007803 -0.01122559253265523 0 0.023806534760080284 -0.012282948173626022 0 0.024710079128077628 -0.011944471865120343 0 0.023902742997892863 -0.012723686808950745 0 0.024151567681169023 -0.013294950733880354 0 0.024710079128077628 -0.011944471865120343 0 0.027989239506935194 -0.0032555829258133443 0 0.027565197699152257 -0.0035700753918424762 0 0.027723277127018709 -0.004158198842355308 0 0.025155117307249803 -0.0084343875493354866 0 0.026485752564557079 -0.0076238659350763077 0 0.023806534760080284 -0.012282948173626022 0 0.023902742997892863 -0.012723686808950745 0 0.024710079128077628 -0.011944471865120343 0 0.023806534760080284 -0.012282948173626022 0 0.023177544491511215 -0.012802445887836236 0 0.022657467500541928 -0.012052913486359156 0 0.023902742997892863 -0.012723686808950745 0 0.023177544491511215 -0.012802445887836236 0 0.023624155227309311 -0.013143148225935413 0 0.023806534760080284 -0.012282948173626022 0 0.023902742997892863 -0.012723686808950745 0 0.023177544491511215 -0.012802445887836236 0 0.023177544491511215 -0.012802445887836236 0 0.022303182970611561 -0.012815677490440486 0 0.022657467500541928 -0.012052913486359156 0 0.023177544491511215 -0.012802445887836236 0 0.022303182970611561 -0.012815677490440486 0 0.022660752863657166 -0.013250505375430568 0 0.0198488585486098 -0.014593476610388496 0 0.020032598128068003 -0.014537028082491535 0 0.019942374822403488 -0.014314574586965374 0 0.020032598128068003 -0.014537028082491535 0 0.019942374822403488 -0.014314574586965374 0 0.020166562421033443 -0.01446437225494515 0 0.019942374822403488 -0.014314574586965374 0 0.020198989916048814 -0.014291475285474585 0 0.020229700525648354 -0.014106534583058598 0 0.019942374822403488 -0.014314574586965374 0 0.020166562421033443 -0.01446437225494515 0 0.020198989916048814 -0.014291475285474585 0 0.020325089059058981 -0.01437726158805076 0 0.020325152579105027 -0.014586656980223824 0 0.020166562421033443 -0.01446437225494515 0 0.020325089059058981 -0.01437726158805076 0 0.020166562421033443 -0.01446437225494515 0 0.020198989916048814 -0.014291475285474585 0 0.020337740787012511 -0.014226406914336069 0 0.020325089059058981 -0.01437726158805076 0 0.020198989916048814 -0.014291475285474585 0 0.022303182970611561 -0.012815677490440486 0 0.022657467500541928 -0.012052913486359156 0 0.02169809832819641 -0.012675480003612892 0 0.021153080539415222 -0.013249174621178739 0 0.021017751649078514 -0.013387743396701237 0 0.020337740787012511 -0.014226406914336069 0 0.020198989916048814 -0.014291475285474585 0 0.020229700525648354 -0.014106534583058598 0 0.022303182970611561 -0.012815677490440486 0 0.02169809832819641 -0.012675480003612892 0 0.021815937421178148 -0.013021598159973622 0 0.022303182970611561 -0.012815677490440486 0 0.021815937421178148 -0.013021598159973622 0 0.022028912323565485 -0.013233712842912998 0 0.02140913332594515 -0.013035860780877732 0 0.021815937421178148 -0.013021598159973622 0 0.021650296100487344 -0.013317322304870935 0 0.02140913332594515 -0.013035860780877732 0 0.02169809832819641 -0.012675480003612892 0 0.021815937421178148 -0.013021598159973622 0 0.021598136682648397 -0.01162946758374242 0 0.02278604704946275 -0.010667011328981723 0 0.021117198474306056 -0.013535836665713447 0 0.021650296100487344 -0.013317322304870935 0 0.022064517597085921 -0.013773260467323628 0 0.021815937421178148 -0.013021598159973622 0 0.021650296100487344 -0.013317322304870935 0 0.022028912323565485 -0.013233712842912998 0 0.021650296100487344 -0.013317322304870935 0 0.022028912323565485 -0.013233712842912998 0 0.022064517597085921 -0.013773260467323628 0 0.022660752863657166 -0.013250505375430568 0 0.022929363685659263 -0.013565159139183752 0 0.022064517597085921 -0.013773260467323628 0 0.022660752863657166 -0.013250505375430568 0 0.022929363685659263 -0.013565159139183752 0 0.023190941607104422 -0.013269524800941511 0 0.022303182970611561 -0.012815677490440486 0 0.022028912323565485 -0.013233712842912998 0 0.022660752863657166 -0.013250505375430568 0 0.022028912323565485 -0.013233712842912998 0 0.022660752863657166 -0.013250505375430568 0 0.022064517597085921 -0.013773260467323628 0 0.023055082975187133 -0.006761540038013397 0 0.023371272684415724 -0.0069883708557176485 0 0.023506991084074572 -0.0064934074418435753 0 0.02278604704946275 -0.010667011328981723 0 0.023954830838787682 -0.006667912066711898 0 0.023055082975187133 -0.006761540038013397 0 0.023371272684415724 -0.0069883708557176485 0 0.022908086444992856 -0.0068371396116497316 0 0.022929363685659263 -0.013565159139183752 0 0.022064517597085921 -0.013773260467323628 0 0.023246328415935991 -0.013996783392260591 0 0.023819587218659389 -0.0067077686552045402 0 0.023371272684415724 -0.0069883708557176485 0 0.023506991084074572 -0.0064934074418435753 0 0.026284190258915444 0.00094112101611791641 0 0.026283252675797814 0.0007919920369540809 0 0.026267860755571509 0.0010805210809504018 0 0.026272618716237012 0.0005133081782674869 0 0.026283252675797814 0.0007919920369540809 0 0.026293089707598572 0.00060092166621049847 0 0.024956632964333224 -0.0036800346565690071 0 0.02479000339540053 -0.0027302481664660482 0 0.026272618716237012 0.0005133081782674869 0 0.026284190258915444 0.00094112101611791641 0 0.026283252675797814 0.0007919920369540809 0 0.026267860755571509 0.0010805210809504018 0 0.026264822281799452 0.00084193106971750128 0 0.026222402146893198 0.0012974658247136919 0 0.026283252675797814 0.0007919920369540809 0 0.026267860755571509 0.0010805210809504018 0 0.026264822281799452 0.00084193106971750128 0 0.026127662513808776 0.0013307605434426703 0 0.026284190258915444 0.00094112101611791641 0 0.026205373773901846 0.0012766347624854186 0 0.026284190258915444 0.00094112101611791641 0 0.026267860755571509 0.0010805210809504018 0 0.026205373773901846 0.0012766347624854186 0 0.026152088828608356 0.00068055946627872165 0 0.026119664128549637 -0.00011806635325619242 0 0.025754224734145407 0.0010252374357284197 0 0.026152088828608356 0.00068055946627872165 0 0.025754224734145407 0.0010252374357284197 0 0.026091786746259837 0.0012176281307579274 0 0.026152088828608356 0.00068055946627872165 0 0.026264822281799452 0.00084193106971750128 0 0.026313365355690534 0.00036612647998990962 0 0.026152088828608356 0.00068055946627872165 0 0.026264822281799452 0.00084193106971750128 0 0.026091786746259837 0.0012176281307579274 0 0.026264822281799452 0.00084193106971750128 0 0.026293089707598572 0.00060092166621049847 0 0.026313365355690534 0.00036612647998990962 0 0.026283252675797814 0.0007919920369540809 0 0.026264822281799452 0.00084193106971750128 0 0.026293089707598572 0.00060092166621049847 0 0.026272618716237012 0.0005133081782674869 0 0.026293089707598572 0.00060092166621049847 0 0.026313365355690534 0.00036612647998990962 0 0.026152088828608356 0.00068055946627872165 0 0.026313365355690534 0.00036612647998990962 0 0.026119664128549637 -0.00011806635325619242 0 0.026313365355690534 0.00036612647998990962 0 0.026119664128549637 -0.00011806635325619242 0 0.026149852635525619 -0.00047245022448403538 0 0.026847162731459526 0.0019767336793764041 0 0.025244680707565505 -0.0042412601617693932 0 0.026313365355690534 0.00036612647998990962 0 0.026149852635525619 -0.00047245022448403538 0 0.026363713512605545 -0.00058859921033679429 0 0.026313365355690534 0.00036612647998990962 0 0.026272810700528511 0.00043113507346383947 0 0.026290998112041036 0.00039766617540967368 0 0.026272618716237012 0.0005133081782674869 0 0.026313365355690534 0.00036612647998990962 0 0.026272810700528511 0.00043113507346383947 0 0.024956632964333224 -0.0036800346565690071 0 0.023954830838787682 -0.006667912066711898 0 0.023954830838787682 -0.006667912066711898 0 0.025244680707565505 -0.0042412601617693932 0 0.023246328415935991 -0.013996783392260591 0 0.023430018583609588 -0.013528097289807736 0 0.023967257337021697 -0.013606148061238778 0 0.022929363685659263 -0.013565159139183752 0 0.023246328415935991 -0.013996783392260591 0 0.023430018583609588 -0.013528097289807736 0 0.022929363685659263 -0.013565159139183752 0 0.023430018583609588 -0.013528097289807736 0 0.023190941607104422 -0.013269524800941511 0 0.023430018583609588 -0.013528097289807736 0 0.023624155227309311 -0.013143148225935413 0 0.023967257337021697 -0.013606148061238778 0 0.023430018583609588 -0.013528097289807736 0 0.023624155227309311 -0.013143148225935413 0 0.023190941607104422 -0.013269524800941511 0 0.023177544491511215 -0.012802445887836236 0 0.023624155227309311 -0.013143148225935413 0 0.023190941607104422 -0.013269524800941511 0 0.023177544491511215 -0.012802445887836236 0 0.022660752863657166 -0.013250505375430568 0 0.023190941607104422 -0.013269524800941511 0 0.025129655314841487 -0.0052771733054544261 0 0.025344054849694656 -0.0046882201343545447 0 0.025979772044106324 -0.004842404462188349 0 0.025244680707565505 -0.0042412601617693932 0 0.026908337263182106 -0.0034634761757123809 0 0.026149852635525619 -0.00047245022448403538 0 0.026363713512605545 -0.00058859921033679429 0 0.026168309327038616 -0.00066636967281871902 0 0.025244680707565505 -0.0042412601617693932 0 0.025155117307249803 -0.0084343875493354866 0 0.023902742997892863 -0.012723686808950745 0 0.023624155227309311 -0.013143148225935413 0 0.024151567681169023 -0.013294950733880354 0 0.024231161293061753 -0.01139888176083995 0 0.025155117307249803 -0.0084343875493354866 0 0.023624155227309311 -0.013143148225935413 0 0.023967257337021697 -0.013606148061238778 0 0.024105284226476377 -0.01322445051474566 0 0.025155117307249803 -0.0084343875493354866 0 0.026908337263182106 -0.0034634761757123809 0 0.027989239506935194 -0.0032555829258133443 0 0.02769093858928813 -0.0031694144213875518 0 0.027565197699152257 -0.0035700753918424762 0 0.027388805836502342 -0.0031472641749676123 0 0.028058204033688049 -0.0028047005899832786 0 0.02664411687020516 -0.0024042994201373818 0 0.026908337263182106 -0.0034634761757123809 0 0.02624576395289915 -0.00144854312882395 0 0.027206195096082353 -0.0033725154529506756 0 0.02769093858928813 -0.0031694144213875518 0 0.027565197699152257 -0.0035700753918424762 0 0.027420404490373983 -0.0031909285454160712 0 0.026908337263182106 -0.0034634761757123809 0 0.027388805836502342 -0.0031472641749676123 0 0.02664411687020516 -0.0024042994201373818 0 0.02667953835942561 -0.0035262591344823405 0 0.025943892769873141 -0.00096811540495307733 0 0.025987111052308567 -0.00070367045978419107 0 0.026088491962013634 -0.00057496273320531421 0 0.026168309327038616 -0.00066636967281871902 0 0.025943892769873141 -0.00096811540495307733 0 0.026088491962013634 -0.00057496273320531421 0 0.026149852635525619 -0.00047245022448403538 0 0.026168309327038616 -0.00066636967281871902 0 0.026088491962013634 -0.00057496273320531421 0 0.026119664128549637 -0.00011806635325619242 0 0.026149852635525619 -0.00047245022448403538 0 0.026088491962013634 -0.00057496273320531421 0 0.026119664128549637 -0.00011806635325619242 0 0.026176937498899839 -0.00034970712962607983 0 0.026628259613535987 0.00012842523099157357 0 0.026119664128549637 -0.00011806635325619242 0 0.026088491962013634 -0.00057496273320531421 0 0.026176937498899839 -0.00034970712962607983 0 0.025987111052308567 -0.00070367045978419107 0 0.026088491962013634 -0.00057496273320531421 0 0.026176937498899839 -0.00034970712962607983 0 0.025987111052308567 -0.00070367045978419107 0 0.026176937498899839 -0.00034970712962607983 0 0.025953770941407113 -0.0003741977672438765 0 0.026628259613535987 0.00012842523099157357 0 0.025953770941407113 -0.0003741977672438765 0 0.026097968352263436 0.00048208303067197181 0 0.026176937498899839 -0.00034970712962607983 0 0.026628259613535987 0.00012842523099157357 0 0.025953770941407113 -0.0003741977672438765 0 0.026135186244070376 -4.1353329084012558e-05 0 0.02619347792239992 0.00059371859824524525 0 0.025585504866462282 -0.00030053535443846609 0 0.024999900907872057 -0.0010871028935429611 0 0.024999792312904286 0.00030726433083738583 0 0.025585504866462282 -0.00030053535443846609 0 0.025953770941407113 -0.0003741977672438765 0 0.026097968352263436 0.00048208303067197181 0 0.025585504866462282 -0.00030053535443846609 0 0.025953770941407113 -0.0003741977672438765 0 0.025714002676242787 -0.00096434576158729521 0 0.025987111052308567 -0.00070367045978419107 0 0.025953770941407113 -0.0003741977672438765 0 0.025714002676242787 -0.00096434576158729521 0 0.025585504866462282 -0.00030053535443846609 0 0.025714002676242787 -0.00096434576158729521 0 0.02537949924238973 -0.0010907052939089022 0 0.024999900907872057 -0.0010871028935429611 0 0.02537949924238973 -0.0010907052939089022 0 0.025220555512902261 -0.0018695439978523049 0 0.025585504866462282 -0.00030053535443846609 0 0.024999900907872057 -0.0010871028935429611 0 0.02537949924238973 -0.0010907052939089022 0 0.024999900907872057 -0.0010871028935429611 0 0.025220555512902261 -0.0018695439978523049 0 0.024999934319105382 -0.002482569434853523 0 0.025714002676242787 -0.00096434576158729521 0 0.02537949924238973 -0.0010907052939089022 0 0.025220555512902261 -0.0018695439978523049 0 0.025220555512902261 -0.0018695439978523049 0 0.024999934319105382 -0.002482569434853523 0 0.025671966699547601 -0.0024573017630230504 0 0.02624576395289915 -0.00144854312882395 0 0.025233834813112813 -0.00186872940680827 0 0.025943892769873141 -0.00096811540495307733 0 0.025987111052308567 -0.00070367045978419107 0 0.025714002676242787 -0.00096434576158729521 0 0.025943892769873141 -0.00096811540495307733 0 0.025714002676242787 -0.00096434576158729521 0 0.025220555512902261 -0.0018695439978523049 0 0.02664411687020516 -0.0024042994201373818 0 0.025220555512902261 -0.0018695439978523049 0 0.025671966699547601 -0.0024573017630230504 0 0.02664411687020516 -0.0024042994201373818 0 0.025814652126713956 -0.0030715924988370543 0 0.02667953835942561 -0.0035262591344823405 0 0.02664411687020516 -0.0024042994201373818 0 0.025814652126713956 -0.0030715924988370543 0 0.025671966699547601 -0.0024573017630230504 0 0.025814652126713956 -0.0030715924988370543 0 0.024999934319105382 -0.002482569434853523 0 0.025671966699547601 -0.0024573017630230504 0 0.025814652126713956 -0.0030715924988370543 0 0.024999934319105382 -0.002482569434853523 0 0.025000004173182312 -0.0038780701917078679 0 0.025814652126713956 -0.0030715924988370543 0 0.025000004173182312 -0.0038780701917078679 0 0.025993257977836463 -0.0038856053819488223 0 0.025000004173182312 -0.0038780701917078679 0 0.025746544941278208 -0.0045222103520947549 0 0.025993257977836463 -0.0038856053819488223 0 0.025000004173182312 -0.0038780701917078679 0 0.025746544941278208 -0.0045222103520947549 0 0.024999962996627819 -0.0052729122910320824 0 0.025746544941278208 -0.0045222103520947549 0 0.026678568578220714 -0.0043967725591821799 0 0.026205979195056163 -0.0047691847159672864 0 0.025746544941278208 -0.0045222103520947549 0 0.025993257977836463 -0.0038856053819488223 0 0.026678568578220714 -0.0043967725591821799 0 0.025814652126713956 -0.0030715924988370543 0 0.025993257977836463 -0.0038856053819488223 0 0.02667953835942561 -0.0035262591344823405 0 0.025993257977836463 -0.0038856053819488223 0 0.02667953835942561 -0.0035262591344823405 0 0.026678568578220714 -0.0043967725591821799 0 0.02667953835942561 -0.0035262591344823405 0 0.027199700438142446 -0.0039188211290734267 0 0.026678568578220714 -0.0043967725591821799 0 0.027420404490373983 -0.0031909285454160712 0 0.026723051552443394 -0.0035239591465124841 0 0.027206195096082353 -0.0033725154529506756 0 0.02667953835942561 -0.0035262591344823405 0 0.027199700438142446 -0.0039188211290734267 0 0.027206195096082353 -0.0033725154529506756 0 0.027565197699152257 -0.0035700753918424762 0 0.027199700438142446 -0.0039188211290734267 0 0.027565197699152257 -0.0035700753918424762 0 0.027199700438142446 -0.0039188211290734267 0 0.027723277127018709 -0.004158198842355308 0 0.027723277127018709 -0.004158198842355308 0 0.027165760597590738 -0.0045707535736449157 0 0.027413669889171967 -0.0052324114820511622 0 0.027199700438142446 -0.0039188211290734267 0 0.027723277127018709 -0.004158198842355308 0 0.027165760597590738 -0.0045707535736449157 0 0.027199700438142446 -0.0039188211290734267 0 0.027165760597590738 -0.0045707535736449157 0 0.026678568578220714 -0.0043967725591821799 0 0.027165760597590738 -0.0045707535736449157 0 0.026678568578220714 -0.0043967725591821799 0 0.026832547178874008 -0.0051700618850458041 0 0.026678568578220714 -0.0043967725591821799 0 0.026893319551341544 -0.0052371582133042055 0 0.026205979195056163 -0.0047691847159672864 0 0.026655475679936973 -0.0042474585525721382 0 0.026517100655938507 -0.0059939315465141951 0 0.027165760597590738 -0.0045707535736449157 0 0.026832547178874008 -0.0051700618850458041 0 0.027413669889171967 -0.0052324114820511622 0 0.026469415058067405 -0.0080304566652286344 0 0.025560278621493314 -0.007962634819414529 0 0.026352104006649509 -0.0075591911015642377 0 0.026517100655938507 -0.0059939315465141951 0 0.025439436963152519 -0.009582584118771607 0 0.026517100655938507 -0.0059939315465141951 0 0.026189646777138368 -0.0077572589249654596 0 0.026836914006844247 -0.0052990634028194051 0 0.026915267057308342 -0.0056264746305384932 0 0.026241621082151365 -0.0055455808963488394 0 0.026485752564557079 -0.0076238659350763077 0 0.025439436963152519 -0.009582584118771607 0 0.025439436963152519 -0.009582584118771607 0 0.026189646777138368 -0.0077572589249654596 0 0.023268946576444766 -0.013004168276494707 0 0.023646301164249976 -0.012870380521005472 0 0.023445809640363503 -0.012563012639250448 0 0.024784164542198957 -0.011140755173413714 0 0.025439436963152519 -0.009582584118771607 0 0.02617792761745704 -0.0094479936437952688 0 0.025928323106301308 -0.0084177440529592112 0 0.024877503917918774 -0.0089404641721173746 0 0.025323476909097014 -0.010288817781704353 0 0.025831162896218719 -0.0089988681004475445 0 0.025098546521306376 -0.0093651892654852079 0 0.026189646777138368 -0.0077572589249654596 0 0.025541509232950385 -0.0074597850755150638 0 0.026915267057308342 -0.0056264746305384932 0 0.026217355460037364 -0.0059706543842488937 0 0.026241621082151365 -0.0055455808963488394 0 0.024784164542198957 -0.011140755173413714 0 0.026189646777138368 -0.0077572589249654596 0 0.026217355460037364 -0.0059706543842488937 0 0.026241621082151365 -0.0055455808963488394 0 0.025703206919523113 -0.0056964674587581697 0 0.025039130073408338 -0.0073759588514219236 0 0.025541509232950385 -0.0074597850755150638 0 0.025499037550155656 -0.0063400276166192164 0 0.026217355460037364 -0.0059706543842488937 0 0.025703206919523113 -0.0056964674587581697 0 0.025039130073408338 -0.0073759588514219236 0 0.02499998747293327 -0.0052721210562469839 0 0.025499037550155656 -0.0063400276166192164 0 0.025703206919523113 -0.0056964674587581697 0 0.024999962996627819 -0.0052729122910320824 0 0.024999994212825553 -0.0066486624998876222 0 0.025530632583134389 -0.0063849076189546293 0 0.024999998575453014 -0.0052729724272032839 0 0.025703206919523113 -0.0056964674587581697 0 0.025522509746177247 -0.005131489889212807 0 0.024999962996627819 -0.0052729122910320824 0 0.025746544941278208 -0.0045222103520947549 0 0.025522509746177247 -0.005131489889212807 0 0.024999962996627819 -0.0052729122910320824 0 0.026893319551341544 -0.0052371582133042055 0 0.025522509746177247 -0.005131489889212807 0 0.026205979195056163 -0.0047691847159672864 0 0.026517100655938507 -0.0059939315465141951 0 0.025716665640226986 -0.0049456022796973368 0 0.025746544941278208 -0.0045222103520947549 0 0.025522509746177247 -0.005131489889212807 0 0.026205979195056163 -0.0047691847159672864 0 0.026241621082151365 -0.0055455808963488394 0 0.025703206919523113 -0.0056964674587581697 0 0.025522509746177247 -0.005131489889212807 0 0.026836914006844247 -0.0052990634028194051 0 0.026241621082151365 -0.0055455808963488394 0 0.025522509746177247 -0.005131489889212807 0 0.0049232851957448243 -0.022647731124730702 0 0.0048044930199911285 -0.022828271188191786 0 0.0050031728752388928 -0.022480698702497113 0 0.0050986949783571912 -0.022389421882346165 0 0.0050896494200064922 -0.022358005882438158 0 0.0050031728752388928 -0.022480698702497113 0 0.0052623245525478196 -0.023245687139163952 0 0.0044149576570917557 -0.023649452868608572 0 0.0050031728752388928 -0.022480698702497113 0 0.0053806357504724662 -0.022484624551125643 0 0.0052623245525478196 -0.023245687139163952 0 0.0053806357504724662 -0.022484624551125643 0 0.0057502934689712968 -0.022811624440062114 0 0.0052623245525478196 -0.023245687139163952 0 0.0057502934689712968 -0.022811624440062114 0 0.0052623245525478196 -0.023245687139163952 0 0.0059880076487583388 -0.023628826824836545 0 0.0052623245525478196 -0.023245687139163952 0 0.0054882257774579177 -0.024090124097151035 0 0.0059880076487583388 -0.023628826824836545 0 0.0054882257774579177 -0.024090124097151035 0 0.0059880076487583388 -0.023628826824836545 0 0.0059663772596310555 -0.024640981757863382 0 0.0052623245525478196 -0.023245687139163952 0 0.0054882257774579177 -0.024090124097151035 0 0.0048657581470052912 -0.024280827223775586 0 0.0048657581470052912 -0.024280827223775586 0 0.0044149576570917557 -0.023649452868608572 0 0.0041700124793616726 -0.024774012209798944 0 0.0048044930199911285 -0.022828271188191786 0 0.0052802514352052491 -0.024920875554371776 0 0.0052623245525478196 -0.023245687139163952 0 0.0048657581470052912 -0.024280827223775586 0 0.0044149576570917557 -0.023649452868608572 0 0.0050986949783571912 -0.022389421882346165 0 0.0050730431002765823 -0.022429494807905476 0 0.0051164801732337412 -0.022494924257493259 0 0.0050986949783571912 -0.022389421882346165 0 0.0050730431002765823 -0.022429494807905476 0 0.0050637181408147471 -0.022372731522725082 0 0.0050730431002765823 -0.022429494807905476 0 0.0050637181408147471 -0.022372731522725082 0 0.0049944445097887162 -0.022476226431317844 0 0.0050637181408147471 -0.022372731522725082 0 0.0049477010659704328 -0.02234379241859101 0 0.0049944445097887162 -0.022476226431317844 0 0.0049477010659704328 -0.02234379241859101 0 0.0050469938811868991 -0.02222265874136958 0 0.0048392548504228557 -0.022203596636515645 0 0.0050637181408147471 -0.022372731522725082 0 0.0049477010659704328 -0.02234379241859101 0 0.0050469938811868991 -0.02222265874136958 0 0.0050986949783571912 -0.022389421882346165 0 0.0050637181408147471 -0.022372731522725082 0 0.0050896494200064922 -0.022358005882438158 0 0.0050469938811868991 -0.02222265874136958 0 0.0050896494200064922 -0.022358005882438158 0 0.0051478941386451848 -0.022121572430710536 0 0.0050031728752388928 -0.022480698702497113 0 0.0050896494200064922 -0.022358005882438158 0 0.0051478941386451848 -0.022121572430710536 0 0.0050637181408147471 -0.022372731522725082 0 0.0050469938811868991 -0.02222265874136958 0 0.0050896494200064922 -0.022358005882438158 0 0.0051478941386451848 -0.022121572430710536 0 0.0050485511620926562 -0.021997689381063345 0 0.0052325629599043666 -0.021809788686079856 0 0.0050469938811868991 -0.02222265874136958 0 0.0050485511620926562 -0.021997689381063345 0 0.0048392548504228557 -0.022203596636515645 0 0.0050469938811868991 -0.02222265874136958 0 0.0051478941386451848 -0.022121572430710536 0 0.0050485511620926562 -0.021997689381063345 0 0.0050485511620926562 -0.021997689381063345 0 0.0050170839684450345 -0.021712452604017371 0 0.0048490187192674877 -0.021886861039300771 0 0.0050485511620926562 -0.021997689381063345 0 0.0052325629599043666 -0.021809788686079856 0 0.0050170839684450345 -0.021712452604017371 0 0.0052325629599043666 -0.021809788686079856 0 0.0050170839684450345 -0.021712452604017371 0 0.0051880128007581721 -0.02145931970265123 0 0.0050170839684450345 -0.021712452604017371 0 0.0049871626540821798 -0.021412240791549159 0 0.0051880128007581721 -0.02145931970265123 0 0.0051478941386451848 -0.022121572430710536 0 0.0052325629599043666 -0.021809788686079856 0 0.0052712376678578626 -0.021862374407142234 0 0.0051755710128212435 -0.021766808472580161 0 0.0059945570751415347 -0.022000963281979646 0 0.0052325629599043666 -0.021809788686079856 0 0.0062839191113110184 -0.021669696201212334 0 0.0057113477303372909 -0.021210256776448309 0 0.0052712376678578626 -0.021862374407142234 0 0.0052573402740562882 -0.022192109809749588 0 0.0056538995906497674 -0.0221591405268808 0 0.0050031728752388928 -0.022480698702497113 0 0.0051478941386451848 -0.022121572430710536 0 0.0052573402740562882 -0.022192109809749588 0 0.0051478941386451848 -0.022121572430710536 0 0.0052712376678578626 -0.021862374407142234 0 0.0052573402740562882 -0.022192109809749588 0 0.0050031728752388928 -0.022480698702497113 0 0.0053806357504724662 -0.022484624551125643 0 0.0052573402740562882 -0.022192109809749588 0 0.0053806357504724662 -0.022484624551125643 0 0.0057502934689712968 -0.022811624440062114 0 0.0056538995906497674 -0.0221591405268808 0 0.0053806357504724662 -0.022484624551125643 0 0.0052573402740562882 -0.022192109809749588 0 0.0056538995906497674 -0.0221591405268808 0 0.0059945570751415347 -0.022000963281979646 0 0.0055696592933349868 -0.019258370893688929 0 0.0052712376678578626 -0.021862374407142234 0 0.0056538995906497674 -0.0221591405268808 0 0.0058569852835112417 -0.021691285014832674 0 0.0055696592933349868 -0.019258370893688929 0 0.0047536245471204511 -0.021990811215719275 0 0.0041756994705298475 -0.019250633026458019 0 0.0046108273648377439 -0.019500735338005799 0 0.0044552102723355936 -0.019970560366133813 0 0.0046108273648377439 -0.019500735338005799 0 0.0050793750088084623 -0.019499903612367166 0 0.0049397288567545015 -0.019140777142917419 0 0.0041756994705298475 -0.019250633026458019 0 0.0046108273648377439 -0.019500735338005799 0 0.0049397288567545015 -0.019140777142917419 0 0.0046108273648377439 -0.019500735338005799 0 0.0044552102723355936 -0.019970560366133813 0 0.0050793750088084623 -0.019499903612367166 0 0.0047536245471204511 -0.021990811215719275 0 0.0031413685519352664 -0.020881703244078158 0 0.0018509710327416389 -0.022036824612816964 0 0.0013652945908635265 -0.022081112558456722 0 0.002266515982104022 -0.021423488811821382 0 0.0056538995906497674 -0.0221591405268808 0 0.0058569852835112417 -0.021691285014832674 0 0.0062096406037980383 -0.022384387616517315 0 0.0057502934689712968 -0.022811624440062114 0 0.0056538995906497674 -0.0221591405268808 0 0.0062096406037980383 -0.022384387616517315 0 0.0034229552481735894 -0.02125916095221881 0 0.002266515982104022 -0.021423488811821382 0 0.0031892947729726191 -0.021904535452345927 0 0.0034229552481735894 -0.02125916095221881 0 0.002266515982104022 -0.021423488811821382 0 0.0032042984329397253 -0.020761271735408069 0 0.0050793750088084623 -0.019499903612367166 0 0.0057015464863510862 -0.01900649671294705 0 0.0049397288567545015 -0.019140777142917419 0 0.0031413685519352664 -0.020881703244078158 0 0.0050076805195634656 -0.016861371880479512 0 0.002266515982104022 -0.021423488811821382 0 0.0024689675108446364 -0.022046137077334941 0 0.0031892947729726191 -0.021904535452345927 0 0.0018509710327416389 -0.022036824612816964 0 0.002266515982104022 -0.021423488811821382 0 0.0024689675108446364 -0.022046137077334941 0 0.0018509710327416389 -0.022036824612816964 0 0.0024689675108446364 -0.022046137077334941 0 0.0021289182516863905 -0.022620553595743137 0 0.0024689675108446364 -0.022046137077334941 0 0.0031892947729726191 -0.021904535452345927 0 0.0027218355901478457 -0.022751945498496001 0 0.0034499566365721337 -0.022650912292012403 0 0.0031892947729726191 -0.021904535452345927 0 0.0027218355901478457 -0.022751945498496001 0 0.0034499566365721337 -0.022650912292012403 0 0.0027218355901478457 -0.022751945498496001 0 0.0032875724120681681 -0.023352430638427079 0 0.0024689675108446364 -0.022046137077334941 0 0.0027218355901478457 -0.022751945498496001 0 0.0021289182516863905 -0.022620553595743137 0 0.0027218355901478457 -0.022751945498496001 0 0.0021289182516863905 -0.022620553595743137 0 0.0022258852574307208 -0.022957279850436565 0 0.0021289182516863905 -0.022620553595743137 0 0.0022258852574307208 -0.022957279850436565 0 0.0019331936635247433 -0.023012010506397056 0 0.0027218355901478457 -0.022751945498496001 0 0.0023549314235241049 -0.023358847953332148 0 0.0027978746885009773 -0.023612775590079689 0 0.0022258852574307208 -0.022957279850436565 0 0.0023549314235241049 -0.023358847953332148 0 0.0020197871326560059 -0.023287705913697988 0 0.0023549314235241049 -0.023358847953332148 0 0.0019386236576117793 -0.023652979480219573 0 0.0024030306654327662 -0.023907242475903551 0 0.0023549314235241049 -0.023358847953332148 0 0.0020197871326560059 -0.023287705913697988 0 0.0019386236576117793 -0.023652979480219573 0 0.0023549314235241049 -0.023358847953332148 0 0.0027978746885009773 -0.023612775590079689 0 0.0024030306654327662 -0.023907242475903551 0 0.0027218355901478457 -0.022751945498496001 0 0.0022258852574307208 -0.022957279850436565 0 0.0023549314235241049 -0.023358847953332148 0 0.0027218355901478457 -0.022751945498496001 0 0.0032875724120681681 -0.023352430638427079 0 0.0027978746885009773 -0.023612775590079689 0 0.0032875724120681681 -0.023352430638427079 0 0.0027978746885009773 -0.023612775590079689 0 0.003029670909440028 -0.024131931611921776 0 0.006205442480634973 -0.02261452506559793 0 0.0047536245471204511 -0.021990811215719275 0 0.0065814093719778494 -0.022269991115570077 0 0.0064591381154603788 -0.023189031468826955 0 0.0069801654323462829 -0.023299200899275712 0 0.0057502934689712968 -0.022811624440062114 0 0.0065814093719778494 -0.022269991115570077 0 0.0064591381154603788 -0.023189031468826955 0 0.0057502934689712968 -0.022811624440062114 0 0.0064591381154603788 -0.023189031468826955 0 0.0059880076487583388 -0.023628826824836545 0 0.0018509710327416389 -0.022036824612816964 0 0.0021289182516863905 -0.022620553595743137 0 0.0016014460795546509 -0.022964361831138192 0 0.0047536245471204511 -0.021990811215719275 0 0.0029087204678218802 -0.02304735034850729 0 0.0018509710327416389 -0.022036824612816964 0 0.0013652945908635265 -0.022081112558456722 0 0.0017077863965158421 -0.022872486553818971 0 0.0016618204102454885 -0.02212310097203141 0 0.0029087204678218802 -0.02304735034850729 0 0.0021289182516863905 -0.022620553595743137 0 0.0016014460795546509 -0.022964361831138192 0 0.0019331936635247433 -0.023012010506397056 0 0.0064591381154603788 -0.023189031468826955 0 0.0069801654323462829 -0.023299200899275712 0 0.0067925418354209876 -0.024115898963568101 0 0.0015886771202978595 -0.022957120523107451 0 0.0016903278356726087 -0.023224434901446891 0 0.0014035172211474701 -0.023759108522789948 0 0.0029087204678218802 -0.02304735034850729 0 0.0046967631088478453 -0.024615341449007934 0 0.0029087204678218802 -0.02304735034850729 0 0.0024756640485298462 -0.022912111711453645 0 0.0022258852574307208 -0.022957279850436565 0 0.0019331936635247433 -0.023012010506397056 0 0.0020197871326560059 -0.023287705913697988 0 0.0016014460795546509 -0.022964361831138192 0 0.0016903278356726087 -0.023224434901446891 0 0.0019331936635247433 -0.023012010506397056 0 0.0016903278356726087 -0.023224434901446891 0 0.0019331936635247433 -0.023012010506397056 0 0.0020197871326560059 -0.023287705913697988 0 0.0016903278356726087 -0.023224434901446891 0 0.0020197871326560059 -0.023287705913697988 0 0.0019386236576117793 -0.023652979480219573 0 0.0016903278356726087 -0.023224434901446891 0 0.0019386236576117793 -0.023652979480219573 0 0.0014035172211474701 -0.023759108522789948 0 0.0067565525034787291 -0.023370956181052421 0 0.0046967631088478453 -0.024615341449007934 0 0.0064591381154603788 -0.023189031468826955 0 0.0065135102756095483 -0.024020731397301286 0 0.0069238455504753056 -0.024439910186552918 0 0.0064591381154603788 -0.023189031468826955 0 0.0065135102756095483 -0.024020731397301286 0 0.0059880076487583388 -0.023628826824836545 0 0.0065135102756095483 -0.024020731397301286 0 0.0059880076487583388 -0.023628826824836545 0 0.0059663772596310555 -0.024640981757863382 0 0.0064981039821913472 -0.023880821363645732 0 0.0054153645514513635 -0.026153650734594604 0 0.0065135102756095483 -0.024020731397301286 0 0.0059663772596310555 -0.024640981757863382 0 0.006527587145186811 -0.025142522042750047 0 0.0065135102756095483 -0.024020731397301286 0 0.0067491928353577754 -0.025221800798482217 0 0.0069238455504753056 -0.024439910186552918 0 0.0059663772596310555 -0.024640981757863382 0 0.006527587145186811 -0.025142522042750047 0 0.0058510448918054712 -0.025498067286091587 0 0.0054153645514513635 -0.026153650734594604 0 0.0046967631088478453 -0.024615341449007934 0 0.0046967631088478453 -0.024615341449007934 0 0.0024689398350421564 -0.025940677062529099 0 0.0034009861756119464 -0.027007983980866117 0 0.003444660482671935 -0.026851478991889926 0 0.0034912016984507328 -0.027103981958064773 0 0.0014035172211474701 -0.023759108522789948 0 0.0019789863361402774 -0.024103084041934373 0 0.0017528348828371226 -0.024750380735990875 0 0.0019386236576117793 -0.023652979480219573 0 0.0014035172211474701 -0.023759108522789948 0 0.0019789863361402774 -0.024103084041934373 0 0.0019789863361402774 -0.024103084041934373 0 0.0017528348828371226 -0.024750380735990875 0 0.0023852754392174281 -0.024413365658926767 0 0.0034009861756119464 -0.027007983980866117 0 0.0034912016984507328 -0.027103981958064773 0 0.0034593558529176635 -0.027208721775890701 0 0.0024689398350421564 -0.025940677062529099 0 0.0028411159166466175 -0.026505934644467568 0 0.0054153645514513635 -0.026153650734594604 0 0.0041190340045749356 -0.027168858485096741 0 0.006527587145186811 -0.025142522042750047 0 0.0059991008756528855 -0.025969080494992743 0 0.0058510448918054712 -0.025498067286091587 0 0.0054153645514513635 -0.026153650734594604 0 0.0055545828504108509 -0.02639200884210469 0 0.0050715158599811119 -0.027256794637927642 0 0.0051328212283148714 -0.026925427821920631 0 0.0049423491138770844 -0.026816653862699835 0 0.0059991008756528855 -0.025969080494992743 0 0.0058510448918054712 -0.025498067286091587 0 0.0054322977230953258 -0.026126093592470482 0 0.0037965711648698746 -0.023864324151643287 0 0.0032875724120681681 -0.023352430638427079 0 0.003029670909440028 -0.024131931611921776 0 0.0037965711648698746 -0.023864324151643287 0 0.003029670909440028 -0.024131931611921776 0 0.0035182082608167181 -0.024687536644828055 0 0.003029670909440028 -0.024131931611921776 0 0.0024030306654327662 -0.023907242475903551 0 0.0023852754392174281 -0.024413365658926767 0 0.0027978746885009773 -0.023612775590079689 0 0.003029670909440028 -0.024131931611921776 0 0.0024030306654327662 -0.023907242475903551 0 0.0019386236576117793 -0.023652979480219573 0 0.0019789863361402774 -0.024103084041934373 0 0.0024030306654327662 -0.023907242475903551 0 0.0019789863361402774 -0.024103084041934373 0 0.0024030306654327662 -0.023907242475903551 0 0.0023852754392174281 -0.024413365658926767 0 0.0017528348828371226 -0.024750380735990875 0 0.0023852754392174281 -0.024413365658926767 0 0.0026810018918879135 -0.024966957669293487 0 0.0017528348828371226 -0.024750380735990875 0 0.0026810018918879135 -0.024966957669293487 0 0.0022428823475053377 -0.025842898840314182 0 0.003029670909440028 -0.024131931611921776 0 0.0023852754392174281 -0.024413365658926767 0 0.0026810018918879135 -0.024966957669293487 0 0.0026810018918879135 -0.024966957669293487 0 0.0035182082608167181 -0.024687536644828055 0 0.0032001043856917971 -0.025884770111198968 0 0.003029670909440028 -0.024131931611921776 0 0.0026810018918879135 -0.024966957669293487 0 0.0035182082608167181 -0.024687536644828055 0 0.0026810018918879135 -0.024966957669293487 0 0.0032001043856917971 -0.025884770111198968 0 0.0022428823475053377 -0.025842898840314182 0 0.0032001043856917971 -0.025884770111198968 0 0.0022428823475053377 -0.025842898840314182 0 0.0030763440918504929 -0.026925585911722776 0 0.0033999106284122514 -0.027214093127856713 0 0.0030763440918504929 -0.026925585911722776 0 0.0035331067754386042 -0.027004710977050577 0 0.0028411159166466175 -0.026505934644467568 0 0.0030239040791893556 -0.026863754040300055 0 0.0035762972151223552 -0.026570769125135323 0 0.0031863452043309694 -0.027195577392675373 0 0.0030763440918504929 -0.026925585911722776 0 0.0035762972151223552 -0.026570769125135323 0 0.0032001043856917971 -0.025884770111198968 0 0.0030763440918504929 -0.026925585911722776 0 0.0051328212283148714 -0.026925427821920631 0 0.0052396252143721393 -0.02652796487753644 0 0.0049423491138770844 -0.026816653862699835 0 0.0059991008756528855 -0.025969080494992743 0 0.0052396252143721393 -0.02652796487753644 0 0.0054322977230953258 -0.026126093592470482 0 0.0055545828504108509 -0.02639200884210469 0 0.005352817648516933 -0.026486152182262947 0 0.0052396252143721393 -0.02652796487753644 0 0.0052659242561584598 -0.02636840799122591 0 0.0054322977230953258 -0.026126093592470482 0 0.0034912016984507328 -0.027103981958064773 0 0.0033999106284122514 -0.027214093127856713 0 0.0034593558529176635 -0.027208721775890701 0 0.0041190340045749356 -0.027168858485096741 0 0.0040796291294880301 -0.026693863857334996 0 0.0052396252143721393 -0.02652796487753644 0 0.0049423491138770844 -0.026816653862699835 0 0.0046613643039165207 -0.026532419566333048 0 0.0033999106284122514 -0.027214093127856713 0 0.0034593558529176635 -0.027208721775890701 0 0.0035331067754386042 -0.027004710977050577 0 0.0052396252143721393 -0.02652796487753644 0 0.0046613643039165207 -0.026532419566333048 0 0.0049125150906425092 -0.026454053763604924 0 0.0052396252143721393 -0.02652796487753644 0 0.0049125150906425092 -0.026454053763604924 0 0.0051533678113638553 -0.026404492702340743 0 0.0051533678113638553 -0.026404492702340743 0 0.0052441262928922669 -0.02628982457688794 0 0.0052273470205692289 -0.026290607961097143 0 0.0051533678113638553 -0.026404492702340743 0 0.0052659242561584598 -0.02636840799122591 0 0.0052273470205692289 -0.026290607961097143 0 0.0052396252143721393 -0.02652796487753644 0 0.0051533678113638553 -0.026404492702340743 0 0.0052659242561584598 -0.02636840799122591 0 0.0052461541172248542 -0.026209443975761353 0 0.0051533678113638553 -0.026404492702340743 0 0.0052441262928922669 -0.02628982457688794 0 0.0052441262928922669 -0.02628982457688794 0 0.0051651654650702976 -0.026196721985172366 0 0.0053826969184171802 -0.026249547645882755 0 0.0051651654650702976 -0.026196721985172366 0 0.0052273470205692289 -0.026290607961097143 0 0.0051711360882811773 -0.025868670490186364 0 0.0051651654650702976 -0.026196721985172366 0 0.0051711360882811773 -0.025868670490186364 0 0.0049252938575196576 -0.025964350229569763 0 0.0052441262928922669 -0.02628982457688794 0 0.0051651654650702976 -0.026196721985172366 0 0.0052273470205692289 -0.026290607961097143 0 0.0052273470205692289 -0.026290607961097143 0 0.0054322977230953258 -0.026126093592470482 0 0.0051711360882811773 -0.025868670490186364 0 0.0052659242561584598 -0.02636840799122591 0 0.0052273470205692289 -0.026290607961097143 0 0.0054322977230953258 -0.026126093592470482 0 0.0058510448918054712 -0.025498067286091587 0 0.0054322977230953258 -0.026126093592470482 0 0.0053937905251584435 -0.025309728004857621 0 0.0054322977230953258 -0.026126093592470482 0 0.0051711360882811773 -0.025868670490186364 0 0.0053937905251584435 -0.025309728004857621 0 0.0051711360882811773 -0.025868670490186364 0 0.0048625860595491299 -0.025326542355755596 0 0.0053937905251584435 -0.025309728004857621 0 0.0051711360882811773 -0.025868670490186364 0 0.0048625860595491299 -0.025326542355755596 0 0.0049252938575196576 -0.025964350229569763 0 0.0052802514352052491 -0.024920875554371776 0 0.0050781358106500359 -0.025272312514292808 0 0.0048657581470052912 -0.024280827223775586 0 0.0041700124793616726 -0.024774012209798944 0 0.0053937905251584435 -0.025309728004857621 0 0.0054882257774579177 -0.024090124097151035 0 0.0048657581470052912 -0.024280827223775586 0 0.0053937905251584435 -0.025309728004857621 0 0.0054882257774579177 -0.024090124097151035 0 0.0059663772596310555 -0.024640981757863382 0 0.0053937905251584435 -0.025309728004857621 0 0.0059663772596310555 -0.024640981757863382 0 0.0058510448918054712 -0.025498067286091587 0 0.0053937905251584435 -0.025309728004857621 0 0.006241778456205071 -0.027001908528152881 0 0.0056985570715621173 -0.026477623364494322 0 0.0061271624419035123 -0.026404374271615988 0 0.006241778456205071 -0.027001908528152881 0 0.0061271624419035123 -0.026404374271615988 0 0.0065221570156645259 -0.02648325528041796 0 0.0053172729568802465 -0.026697536640831094 0 0.006241778456205071 -0.027001908528152881 0 0.0056985570715621173 -0.026477623364494322 0 0.0050730431002765823 -0.022429494807905476 0 0.0051164801732337412 -0.022494924257493259 0 0.0049944445097887162 -0.022476226431317844 0 0.0052802514352052491 -0.024920875554371776 0 0.0044812689340875018 -0.025030617456376754 0 0.0053172729568802465 -0.026697536640831094 0 0.0056985570715621173 -0.026477623364494322 0 0.0055095368145814099 -0.026127601356932761 0 0.0056985570715621173 -0.026477623364494322 0 0.0055095368145814099 -0.026127601356932761 0 0.0056788170311490027 -0.026127039050691858 0 0.0052802514352052491 -0.024920875554371776 0 0.0051949488856910721 -0.026268542253540007 0 0.0055095368145814099 -0.026127601356932761 0 0.0056788170311490027 -0.026127039050691858 0 0.0055394536822656352 -0.026189427370848034 0 0.0056788170311490027 -0.026127039050691858 0 0.0061271624419035123 -0.026404374271615988 0 0.0065579414175536178 -0.025728410069909998 0 0.0056985570715621173 -0.026477623364494322 0 0.0056788170311490027 -0.026127039050691858 0 0.0061271624419035123 -0.026404374271615988 0 0.0061271624419035123 -0.026404374271615988 0 0.0065221570156645259 -0.02648325528041796 0 0.0066500733033279186 -0.026002950828725092 0 0.0050616342693962446 -0.027021069882908463 0 0.010079862055192524 -0.022312704364435085 0 0.0065579414175536178 -0.025728410069909998 0 0.0072533289914832834 -0.02590935333577038 0 0.0071428999628758748 -0.025603153545161853 0 0.0061271624419035123 -0.026404374271615988 0 0.0065579414175536178 -0.025728410069909998 0 0.0072533289914832834 -0.02590935333577038 0 0.0056788170311490027 -0.026127039050691858 0 0.0065579414175536178 -0.025728410069909998 0 0.0069209381539238743 -0.024060938281936346 0 0.0055394536822656352 -0.026189427370848034 0 0.0053826969184171802 -0.026249547645882755 0 0.0056164636810155716 -0.026263523935536475 0 0.0056788170311490027 -0.026127039050691858 0 0.0055394536822656352 -0.026189427370848034 0 0.0056164636810155716 -0.026263523935536475 0 0.0065579414175536178 -0.025728410069909998 0 0.0069209381539238743 -0.024060938281936346 0 0.0071428999628758748 -0.025603153545161853 0 0.0057101741405889313 -0.026069885646662221 0 0.0062636749352378458 -0.025193789946765046 0 0.0051949488856910721 -0.026268542253540007 0 0.005355290775016344 -0.02609585639123874 0 0.0051651654650702976 -0.026196721985172366 0 0.0049252938575196576 -0.025964350229569763 0 0.0053826969184171802 -0.026249547645882755 0 0.0055095368145814099 -0.026127601356932761 0 0.0055394536822656352 -0.026189427370848034 0 0.0053826969184171802 -0.026249547645882755 0 0.0055716636545910508 -0.026161390019503832 0 0.0053898811424672984 -0.026200194605839441 0 0.0053826969184171802 -0.026249547645882755 0 0.0053898811424672984 -0.026200194605839441 0 0.0052441262928922669 -0.02628982457688794 0 0.0053826969184171802 -0.026249547645882755 0 0.0055716636545910508 -0.026161390019503832 0 0.0053826969184171802 -0.026249547645882755 0 0.0056164636810155716 -0.026263523935536475 0 0.0071062093229659253 -0.024148449309074019 0 0.0062636749352378458 -0.025193789946765046 0 0.0069209381539238743 -0.024060938281936346 0 0.0077436668785193325 -0.024797966084735369 0 0.0086059738545972674 -0.023735553667446157 0 0.0081640768756346266 -0.022333742991983475 0 0.0069209381539238743 -0.024060938281936346 0 0.0086059738545972674 -0.023735553667446157 0 0.0077436668785193325 -0.024797966084735369 0 0.0087007379879043001 -0.024955629237859569 0 0.0073082605375991922 -0.025914758909597459 0 0.0069209381539238743 -0.024060938281936346 0 0.0077436668785193325 -0.024797966084735369 0 0.0071428999628758748 -0.025603153545161853 0 0.013872589343476035 -0.020891208338540791 0 0.010079862055192524 -0.022312704364435085 0 0.0077436668785193325 -0.024797966084735369 0 0.0073082605375991922 -0.025914758909597459 0 0.0071428999628758748 -0.025603153545161853 0 0.018585181054316731 -0.017024424808763743 0 0.018686741743247328 -0.016985684647464284 0 0.018760110241367738 -0.017076610948870617 0 0.013872589343476035 -0.020891208338540791 0 0.015412312245773762 -0.019745725414503836 0 0.0077436668785193325 -0.024797966084735369 0 0.0087007379879043001 -0.024955629237859569 0 0.0086059738545972674 -0.023735553667446157 0 0.0087007379879043001 -0.024955629237859569 0 0.0086059738545972674 -0.023735553667446157 0 0.0099233268339067263 -0.024080848441972294 0 0.015024578918745011 -0.019373153474897029 0 0.015022424069952221 -0.019550546086607671 0 0.01512713210117104 -0.019479997735616289 0 0.0099664206980376799 -0.022358819744855016 0 0.0086059738545972674 -0.023735553667446157 0 0.0099233268339067263 -0.024080848441972294 0 0.012148033031703314 -0.021450584723915578 0 0.015412312245773762 -0.019745725414503836 0 0.015412312245773762 -0.019745725414503836 0 0.017289977813857136 -0.017879828805458256 0 0.019055721439090192 -0.016479604514058176 0 0.019295596252165297 -0.016634608650286629 0 0.019107838544176824 -0.016873862331000869 0 0.018770216342387663 -0.016675805742462625 0 0.019055721439090192 -0.016479604514058176 0 0.019107838544176824 -0.016873862331000869 0 0.019488872484545984 -0.016335978857866373 0 0.019464440744974453 -0.016242364600521687 0 0.019055721439090192 -0.016479604514058176 0 0.019488872484545984 -0.016335978857866373 0 0.019055721439090192 -0.016479604514058176 0 0.019295596252165297 -0.016634608650286629 0 0.018147723170850165 -0.017705493875272846 0 0.017289977813857136 -0.017879828805458256 0 0.015412312245773762 -0.019745725414503836 0 0.01930127593266056 -0.01586122966509855 0 0.018770216342387663 -0.016675805742462625 0 0.019107838544176824 -0.016873862331000869 0 0.018760110241367738 -0.017076610948870617 0 0.019107838544176824 -0.016873862331000869 0 0.018760110241367738 -0.017076610948870617 0 0.019014414191383087 -0.017106904139565341 0 0.018760110241367738 -0.017076610948870617 0 0.019014414191383087 -0.017106904139565341 0 0.018953231531314566 -0.017246919988142668 0 0.019107838544176824 -0.016873862331000869 0 0.019014414191383087 -0.017106904139565341 0 0.01922214804202951 -0.017183866185655809 0 0.019014414191383087 -0.017106904139565341 0 0.018953231531314566 -0.017246919988142668 0 0.01922214804202951 -0.017183866185655809 0 0.018953231531314566 -0.017246919988142668 0 0.01922214804202951 -0.017183866185655809 0 0.01904694427682806 -0.017297043803646085 0 0.018953231531314566 -0.017246919988142668 0 0.018726425336691235 -0.017239014193657372 0 0.018821649666844912 -0.01729214719291609 0 0.018760110241367738 -0.017076610948870617 0 0.018953231531314566 -0.017246919988142668 0 0.018726425336691235 -0.017239014193657372 0 0.018726425336691235 -0.017239014193657372 0 0.018503567921863074 -0.017270997717344496 0 0.01859538006385918 -0.017146978799337763 0 0.018726425336691235 -0.017239014193657372 0 0.018503567921863074 -0.017270997717344496 0 0.018623872255423959 -0.017396693731876564 0 0.012940884138228345 -0.02224465523446726 0 0.01194154623601686 -0.02091732762858102 0 0.006241778456205071 -0.027001908528152881 0 0.0069499200357378711 -0.026628037090436135 0 0.0065221570156645259 -0.02648325528041796 0 0.006241778456205071 -0.027001908528152881 0 0.0069499200357378711 -0.026628037090436135 0 0.0072839537422333192 -0.027216793791477602 0 0.018503567921863074 -0.017270997717344496 0 0.018376054124295257 -0.017135767025696271 0 0.01859538006385918 -0.017146978799337763 0 0.018585181054316731 -0.017024424808763743 0 0.018376054124295257 -0.017135767025696271 0 0.01859538006385918 -0.017146978799337763 0 0.0069499200357378711 -0.026628037090436135 0 0.0065221570156645259 -0.02648325528041796 0 0.0066500733033279186 -0.026002950828725092 0 0.012940884138228345 -0.02224465523446726 0 0.010079862055192524 -0.022312704364435085 0 0.010079862055192524 -0.022312704364435085 0 0.0098679644058790542 -0.023395769300933338 0 0.018585181054316731 -0.017024424808763743 0 0.018760110241367738 -0.017076610948870617 0 0.01859538006385918 -0.017146978799337763 0 0.018760110241367738 -0.017076610948870617 0 0.018726425336691235 -0.017239014193657372 0 0.01859538006385918 -0.017146978799337763 0 0.021049251035678146 -0.015082695573311683 0 0.020878363629302281 -0.015148841716407046 0 0.020902149436151873 -0.01498587687830528 0 0.020878363629302281 -0.015148841716407046 0 0.020902149436151873 -0.01498587687830528 0 0.020704911846726185 -0.015014916019625167 0 0.021024844012782602 -0.014948685635081739 0 0.021049251035678146 -0.015082695573311683 0 0.020902149436151873 -0.01498587687830528 0 0.01953390134394754 -0.016021052769188943 0 0.019569304466702464 -0.0160066793920291 0 0.019715545708469461 -0.015696408699498766 0 0.020923750479997824 -0.014873445818082452 0 0.020902149436151873 -0.01498587687830528 0 0.020704911846726185 -0.015014916019625167 0 0.021024844012782602 -0.014948685635081739 0 0.02095802945326565 -0.014926736520357592 0 0.020902149436151873 -0.01498587687830528 0 0.021049067693731615 -0.014840617507260383 0 0.020923750479997824 -0.014873445818082452 0 0.020983514497262726 -0.014899726413942122 0 0.021024844012782602 -0.014948685635081739 0 0.02095802945326565 -0.014926736520357592 0 0.020983514497262726 -0.014899726413942122 0 0.02095802945326565 -0.014926736520357592 0 0.020923750479997824 -0.014873445818082452 0 0.020902149436151873 -0.01498587687830528 0 0.02095802945326565 -0.014926736520357592 0 0.020923750479997824 -0.014873445818082452 0 0.020983514497262726 -0.014899726413942122 0 0.020156421683620883 -0.015430280528304738 0 0.020232646642426223 -0.015358655137439481 0 0.019569304466702464 -0.0160066793920291 0 0.019690817695516599 -0.015969913515827588 0 0.019715545708469461 -0.015696408699498766 0 0.019642864183524407 -0.016032021733102184 0 0.019569304466702464 -0.0160066793920291 0 0.019690817695516599 -0.015969913515827588 0 0.019745080404836808 -0.01610022654787174 0 0.019690817695516599 -0.015969913515827588 0 0.019788089010013825 -0.015984532363171055 0 0.019690817695516599 -0.015969913515827588 0 0.019788089010013825 -0.015984532363171055 0 0.019715545708469461 -0.015696408699498766 0 0.019788089010013825 -0.015984532363171055 0 0.019715545708469461 -0.015696408699498766 0 0.019925419185806044 -0.01591232039273147 0 0.020878363629302281 -0.015148841716407046 0 0.020704911846726185 -0.015014916019625167 0 0.020732866028328127 -0.015255869808619439 0 0.019715545708469461 -0.015696408699498766 0 0.019925419185806044 -0.01591232039273147 0 0.020392710699867474 -0.015570154243328934 0 0.019715545708469461 -0.015696408699498766 0 0.020392710699867474 -0.015570154243328934 0 0.020358543663520717 -0.015251397392276718 0 0.020232646642426223 -0.015358655137439481 0 0.020332696067699788 -0.015263908940653485 0 0.019895516382081299 -0.016202641033060485 0 0.019925419185806044 -0.01591232039273147 0 0.020392710699867474 -0.015570154243328934 0 0.019836148131864576 -0.016086014580189351 0 0.019788089010013825 -0.015984532363171055 0 0.019925419185806044 -0.01591232039273147 0 0.019895516382081299 -0.016202641033060485 0 0.019836148131864576 -0.016086014580189351 0 0.019925419185806044 -0.01591232039273147 0 0.019916874343656372 -0.016172055125734375 0 0.019942211103403919 -0.016169457464246754 0 0.019488872484545984 -0.016335978857866373 0 0.019895516382081299 -0.016202641033060485 0 0.01952257175470172 -0.016807207391338189 0 0.019488872484545984 -0.016335978857866373 0 0.019295596252165297 -0.016634608650286629 0 0.01952257175470172 -0.016807207391338189 0 0.019107838544176824 -0.016873862331000869 0 0.01952257175470172 -0.016807207391338189 0 0.01922214804202951 -0.017183866185655809 0 0.019295596252165297 -0.016634608650286629 0 0.019107838544176824 -0.016873862331000869 0 0.01952257175470172 -0.016807207391338189 0 0.019942211103403919 -0.016169457464246754 0 0.019801070906436423 -0.016178294900800062 0 0.020392710699867474 -0.015570154243328934 0 0.020390423394842431 -0.015175879496532806 0 0.020358543663520717 -0.015251397392276718 0 0.020390423394842431 -0.015175879496532806 0 0.0205929945892179 -0.01538178454193243 0 0.020487743403525386 -0.015447829598627913 0 0.019801070906436423 -0.016178294900800062 0 0.019529034047152085 -0.016411410315592834 0 0.020390423394842431 -0.015175879496532806 0 0.0205929945892179 -0.01538178454193243 0 0.020564262292604964 -0.015304368300613791 0 0.0205929945892179 -0.01538178454193243 0 0.020564262292604964 -0.015304368300613791 0 0.020824125184137413 -0.0154068704967201 0 0.020564262292604964 -0.015304368300613791 0 0.020358543663520717 -0.015251397392276718 0 0.020732866028328127 -0.015255869808619439 0 0.020390423394842431 -0.015175879496532806 0 0.020564262292604964 -0.015304368300613791 0 0.020358543663520717 -0.015251397392276718 0 0.020704911846726185 -0.015014916019625167 0 0.020358543663520717 -0.015251397392276718 0 0.020732866028328127 -0.015255869808619439 0 0.020564262292604964 -0.015304368300613791 0 0.020732866028328127 -0.015255869808619439 0 0.020824125184137413 -0.0154068704967201 0 0.020732866028328127 -0.015255869808619439 0 0.020824125184137413 -0.0154068704967201 0 0.020964193949883289 -0.015338298838692895 0 0.021099754902908448 -0.015447209540510728 0 0.020824125184137413 -0.0154068704967201 0 0.020964193949883289 -0.015338298838692895 0 0.020878363629302281 -0.015148841716407046 0 0.020732866028328127 -0.015255869808619439 0 0.020964193949883289 -0.015338298838692895 0 0.021133637241057719 -0.01529229599688201 0 0.020878363629302281 -0.015148841716407046 0 0.020964193949883289 -0.015338298838692895 0 0.021046575000905593 -0.015477652140501192 0 0.020916153547249558 -0.015492717591277639 0 0.020904150431183269 -0.015496203073728398 0 0.021099754902908448 -0.015447209540510728 0 0.021046575000905593 -0.015477652140501192 0 0.020916153547249558 -0.015492717591277639 0 0.021099754902908448 -0.015447209540510728 0 0.020824125184137413 -0.0154068704967201 0 0.020916153547249558 -0.015492717591277639 0 0.0205929945892179 -0.01538178454193243 0 0.020824125184137413 -0.0154068704967201 0 0.020765105241211917 -0.015563787083388035 0 0.020824125184137413 -0.0154068704967201 0 0.020916153547249558 -0.015492717591277639 0 0.020765105241211917 -0.015563787083388035 0 0.020916153547249558 -0.015492717591277639 0 0.020904150431183269 -0.015496203073728398 0 0.020765105241211917 -0.015563787083388035 0 0.020904150431183269 -0.015496203073728398 0 0.020765105241211917 -0.015563787083388035 0 0.020742140547793244 -0.01560014275966181 0 0.020765105241211917 -0.015563787083388035 0 0.020661351710376398 -0.015830295300735001 0 0.020742140547793244 -0.01560014275966181 0 0.020661351710376398 -0.015830295300735001 0 0.020779835586164471 -0.015600285060462356 0 0.020742140547793244 -0.01560014275966181 0 0.0205929945892179 -0.01538178454193243 0 0.020765105241211917 -0.015563787083388035 0 0.020487743403525386 -0.015447829598627913 0 0.020765105241211917 -0.015563787083388035 0 0.020487743403525386 -0.015447829598627913 0 0.020661351710376398 -0.015830295300735001 0 0.020487743403525386 -0.015447829598627913 0 0.020661351710376398 -0.015830295300735001 0 0.020017890782020441 -0.015429887503773545 0 0.020390423394842431 -0.015175879496532806 0 0.020487743403525386 -0.015447829598627913 0 0.020017890782020441 -0.015429887503773545 0 0.020661351710376398 -0.015830295300735001 0 0.020017890782020441 -0.015429887503773545 0 0.019212059667679544 -0.0172437575063276 0 0.020395533853489703 -0.016099871573590937 0 0.020771201650536229 -0.015993513986425366 0 0.020661351710376398 -0.015830295300735001 0 0.019212059667679544 -0.0172437575063276 0 0.019361878152664373 -0.017403246439141845 0 0.020661351710376398 -0.015830295300735001 0 0.020779835586164471 -0.015600285060462356 0 0.020931298805668075 -0.015562790447844716 0 0.020779835586164471 -0.015600285060462356 0 0.02082495651252619 -0.015500536957466598 0 0.02077492148261572 -0.015507347096598494 0 0.020779835586164471 -0.015600285060462356 0 0.020860978671108997 -0.015534547265638613 0 0.020931298805668075 -0.015562790447844716 0 0.020860978671108997 -0.015534547265638613 0 0.02082495651252619 -0.015500536957466598 0 0.020893350727143028 -0.015497122010632275 0 0.020779835586164471 -0.015600285060462356 0 0.020860978671108997 -0.015534547265638613 0 0.02082495651252619 -0.015500536957466598 0 0.020843338319814109 -0.01544105312689702 0 0.020893350727143028 -0.015497122010632275 0 0.020904725956625361 -0.015456302685893271 0 0.02082495651252619 -0.015500536957466598 0 0.020843338319814109 -0.01544105312689702 0 0.020893350727143028 -0.015497122010632275 0 0.020859007385347919 -0.015402307979407479 0 0.020843338319814109 -0.01544105312689702 0 0.020904725956625361 -0.015456302685893271 0 0.020859007385347919 -0.015402307979407479 0 0.020843338319814109 -0.01544105312689702 0 0.02078857824760447 -0.015360165942280013 0 0.020843338319814109 -0.01544105312689702 0 0.02079965774165022 -0.015437780457936078 0 0.02078857824760447 -0.015360165942280013 0 0.02079965774165022 -0.015437780457936078 0 0.020779020766551505 -0.015390783325763869 0 0.02078857824760447 -0.015360165942280013 0 0.02082495651252619 -0.015500536957466598 0 0.02079965774165022 -0.015437780457936078 0 0.02077492148261572 -0.015507347096598494 0 0.02082495651252619 -0.015500536957466598 0 0.020843338319814109 -0.01544105312689702 0 0.02079965774165022 -0.015437780457936078 0 0.020779020766551505 -0.015390783325763869 0 0.020806578194083658 -0.01545411042343644 0 0.020809691860517895 -0.015316164171509602 0 0.02079965774165022 -0.015437780457936078 0 0.020779020766551505 -0.015390783325763869 0 0.02077492148261572 -0.015507347096598494 0 0.020779020766551505 -0.015390783325763869 0 0.020748168203809994 -0.015289590219579331 0 0.02078857824760447 -0.015360165942280013 0 0.020779020766551505 -0.015390783325763869 0 0.020809691860517895 -0.015316164171509602 0 0.020748168203809994 -0.015289590219579331 0 0.020779020766551505 -0.015390783325763869 0 0.02077492148261572 -0.015507347096598494 0 0.020806578194083658 -0.01545411042343644 0 0.020779835586164471 -0.015600285060462356 0 0.02077492148261572 -0.015507347096598494 0 0.020742140547793244 -0.01560014275966181 0 0.02077492148261572 -0.015507347096598494 0 0.020742140547793244 -0.01560014275966181 0 0.020806578194083658 -0.01545411042343644 0 0.020904150431183269 -0.015496203073728398 0 0.020742140547793244 -0.01560014275966181 0 0.020806578194083658 -0.01545411042343644 0 0.020904150431183269 -0.015496203073728398 0 0.020806578194083658 -0.01545411042343644 0 0.020933815064041243 -0.015364806136163239 0 0.020806578194083658 -0.01545411042343644 0 0.020933815064041243 -0.015364806136163239 0 0.020809691860517895 -0.015316164171509602 0 0.021092752695339119 -0.015410991523510466 0 0.021096785170822561 -0.015270188497757893 0 0.020933815064041243 -0.015364806136163239 0 0.021046575000905593 -0.015477652140501192 0 0.021092752695339119 -0.015410991523510466 0 0.020904150431183269 -0.015496203073728398 0 0.021092752695339119 -0.015410991523510466 0 0.020904150431183269 -0.015496203073728398 0 0.020933815064041243 -0.015364806136163239 0 0.0048392548504228557 -0.022203596636515645 0 0.0047482940233446744 -0.022437550275391082 0 0.0045004155427201377 -0.022068597673834844 0 0.01194154623601686 -0.02091732762858102 0 0.01089698583801201 -0.01961359802137241 0 0.018648428303773903 -0.017232285991881709 0 0.018948804354025749 -0.017285325747034831 0 0.018802204769899845 -0.017352204666543955 0 0.0049477010659704328 -0.02234379241859101 0 0.0048392548504228557 -0.022203596636515645 0 0.0047482940233446744 -0.022437550275391082 0 0.0044812689340875018 -0.025030617456376754 0 0.01194154623601686 -0.02091732762858102 0 0.0049477010659704328 -0.02234379241859101 0 0.0049944445097887162 -0.022476226431317844 0 0.0047482940233446744 -0.022437550275391082 0 0.018726425336691235 -0.017239014193657372 0 0.018623872255423959 -0.017396693731876564 0 0.018821649666844912 -0.01729214719291609 0 0.01194154623601686 -0.02091732762858102 0 0.021415472181791653 -0.016818092127991343 0 0.018953231531314566 -0.017246919988142668 0 0.018821649666844912 -0.01729214719291609 0 0.018948804354025749 -0.017285325747034831 0 0.018623872255423959 -0.017396693731876564 0 0.018821649666844912 -0.01729214719291609 0 0.018948804354025749 -0.017285325747034831 0 0.018953231531314566 -0.017246919988142668 0 0.018948804354025749 -0.017285325747034831 0 0.01904694427682806 -0.017297043803646085 0 0.018948804354025749 -0.017285325747034831 0 0.01904694427682806 -0.017297043803646085 0 0.019056049078905759 -0.017277944568115527 0 0.019529034047152085 -0.016411410315592834 0 0.019238758542409265 -0.017220056676649793 0 0.01904694427682806 -0.017297043803646085 0 0.019056049078905759 -0.017277944568115527 0 0.019212059667679544 -0.0172437575063276 0 0.018948804354025749 -0.017285325747034831 0 0.019056049078905759 -0.017277944568115527 0 0.018996830734917761 -0.017306793912405631 0 0.019056049078905759 -0.017277944568115527 0 0.018996830734917761 -0.017306793912405631 0 0.019212059667679544 -0.0172437575063276 0 0.018948804354025749 -0.017285325747034831 0 0.018996830734917761 -0.017306793912405631 0 0.018802204769899845 -0.017352204666543955 0 0.019018046260446196 -0.017394571289086603 0 0.018901761378779958 -0.017738217741293787 0 0.018802204769899845 -0.017352204666543955 0 0.016678035934586416 -0.018135927971735671 0 0.01089698583801201 -0.01961359802137241 0 0.018996830734917761 -0.017306793912405631 0 0.019018046260446196 -0.017394571289086603 0 0.018802204769899845 -0.017352204666543955 0 0.019018046260446196 -0.017394571289086603 0 0.019361878152664373 -0.017403246439141845 0 0.018901761378779958 -0.017738217741293787 0 0.019212059667679544 -0.0172437575063276 0 0.019018046260446196 -0.017394571289086603 0 0.019361878152664373 -0.017403246439141845 0 0.018996830734917761 -0.017306793912405631 0 0.019212059667679544 -0.0172437575063276 0 0.019018046260446196 -0.017394571289086603 0 0.020860978671108997 -0.015534547265638613 0 0.020931298805668075 -0.015562790447844716 0 0.020893350727143028 -0.015497122010632275 0 0.020931298805668075 -0.015562790447844716 0 0.020893350727143028 -0.015497122010632275 0 0.020947475233482674 -0.01548256781376494 0 0.020771201650536229 -0.015993513986425366 0 0.016678035934586416 -0.018135927971735671 0 0.020931298805668075 -0.015562790447844716 0 0.020947475233482674 -0.01548256781376494 0 0.021002647179262552 -0.015491702398821692 0 0.020893350727143028 -0.015497122010632275 0 0.020947475233482674 -0.01548256781376494 0 0.020904725956625361 -0.015456302685893271 0 0.020947475233482674 -0.01548256781376494 0 0.021002647179262552 -0.015491702398821692 0 0.021027226933738197 -0.015483706356241571 0 0.020947475233482674 -0.01548256781376494 0 0.021027226933738197 -0.015483706356241571 0 0.020931950821524756 -0.015428433126324248 0 0.020859007385347919 -0.015402307979407479 0 0.020904725956625361 -0.015456302685893271 0 0.020931950821524756 -0.015428433126324248 0 0.020947475233482674 -0.01548256781376494 0 0.020904725956625361 -0.015456302685893271 0 0.020931950821524756 -0.015428433126324248 0 0.0042558115228327319 -0.021533334342538585 0 0.0044826464631824445 -0.021604958745986124 0 0.00443994729126913 -0.021176644169864495 0 0.0042558115228327319 -0.021533334342538585 0 0.0044826464631824445 -0.021604958745986124 0 0.0045004155427201377 -0.022068597673834844 0 0.016678035934586416 -0.018135927971735671 0 0.018515823227581173 -0.016725909886337154 0 0.0044826464631824445 -0.021604958745986124 0 0.0046477428836150161 -0.021758406534403887 0 0.0045743911712344361 -0.021398209112692322 0 0.0046477428836150161 -0.021758406534403887 0 0.0048072927812085001 -0.021572019499677752 0 0.0045743911712344361 -0.021398209112692322 0 0.0048392548504228557 -0.022203596636515645 0 0.0045004155427201377 -0.022068597673834844 0 0.0047186001614871334 -0.021994988022285812 0 0.0046477428836150161 -0.021758406534403887 0 0.0045004155427201377 -0.022068597673834844 0 0.0047186001614871334 -0.021994988022285812 0 0.0044826464631824445 -0.021604958745986124 0 0.0046477428836150161 -0.021758406534403887 0 0.0045004155427201377 -0.022068597673834844 0 0.0050485511620926562 -0.021997689381063345 0 0.0048392548504228557 -0.022203596636515645 0 0.0048490187192674877 -0.021886861039300771 0 0.0048392548504228557 -0.022203596636515645 0 0.0047186001614871334 -0.021994988022285812 0 0.0048490187192674877 -0.021886861039300771 0 0.0046477428836150161 -0.021758406534403887 0 0.0047186001614871334 -0.021994988022285812 0 0.0048490187192674877 -0.021886861039300771 0 0.0050170839684450345 -0.021712452604017371 0 0.0048490187192674877 -0.021886861039300771 0 0.0048072927812085001 -0.021572019499677752 0 0.0046477428836150161 -0.021758406534403887 0 0.0048490187192674877 -0.021886861039300771 0 0.0048072927812085001 -0.021572019499677752 0 0.0050170839684450345 -0.021712452604017371 0 0.0048072927812085001 -0.021572019499677752 0 0.0049871626540821798 -0.021412240791549159 0 0.0049871626540821798 -0.021412240791549159 0 0.0048190207208749303 -0.021138211950550444 0 0.0050594954164775536 -0.021079981953622567 0 0.0048072927812085001 -0.021572019499677752 0 0.0049871626540821798 -0.021412240791549159 0 0.0048190207208749303 -0.021138211950550444 0 0.0048190207208749303 -0.021138211950550444 0 0.0044643777912747283 -0.020563483565716124 0 0.0045743911712344361 -0.021398209112692322 0 0.0048072927812085001 -0.021572019499677752 0 0.0048190207208749303 -0.021138211950550444 0 0.0045743911712344361 -0.021398209112692322 0 0.0048190207208749303 -0.021138211950550444 0 0.0048960764322952943 -0.020630027739734626 0 0.0050594954164775536 -0.021079981953622567 0 0.0048190207208749303 -0.021138211950550444 0 0.0048960764322952943 -0.020630027739734626 0 0.0044643777912747283 -0.020563483565716124 0 0.0048960764322952943 -0.020630027739734626 0 0.0044643777912747283 -0.020563483565716124 0 0.0048527849427904782 -0.019851542567099114 0 0.010436671683904554 -0.017888876367790886 0 0.0072428211932815852 -0.018447262522730924 0 0.022037158768888902 -0.015118446195606936 0 0.021470221134193782 -0.015445510167154407 0 0.021455174089994835 -0.015109693927616392 0 0.022037158768888902 -0.015118446195606936 0 0.021455174089994835 -0.015109693927616392 0 0.021693613311638934 -0.014844677666808045 0 0.010436671683904554 -0.017888876367790886 0 0.012849494380253483 -0.018419750818575838 0 0.0049487803791287829 -0.020651096808799941 0 0.00443994729126913 -0.021176644169864495 0 0.0045743911712344361 -0.021398209112692322 0 0.010436671683904554 -0.017888876367790886 0 0.0033893240478539378 -0.022681576156310394 0 0.0044826464631824445 -0.021604958745986124 0 0.00443994729126913 -0.021176644169864495 0 0.0045743911712344361 -0.021398209112692322 0 0.021083109408592472 -0.015665657225267332 0 0.021470221134193782 -0.015445510167154407 0 0.02116719876140798 -0.01536763480881426 0 0.016678035934586416 -0.018135927971735671 0 0.012849494380253483 -0.018419750818575838 0 0.021083109408592472 -0.015665657225267332 0 0.021027226933738197 -0.015483706356241571 0 0.02116719876140798 -0.01536763480881426 0 0.021027226933738197 -0.015483706356241571 0 0.02116719876140798 -0.01536763480881426 0 0.02096899237189153 -0.015317567843912036 0 0.02116719876140798 -0.01536763480881426 0 0.02096899237189153 -0.015317567843912036 0 0.021077453936110546 -0.015128278463448584 0 0.021470221134193782 -0.015445510167154407 0 0.02116719876140798 -0.01536763480881426 0 0.021455174089994835 -0.015109693927616392 0 0.020859007385347919 -0.015402307979407479 0 0.020931950821524756 -0.015428433126324248 0 0.020839097526975315 -0.015315476301650933 0 0.020931950821524756 -0.015428433126324248 0 0.02096899237189153 -0.015317567843912036 0 0.020839097526975315 -0.015315476301650933 0 0.021027226933738197 -0.015483706356241571 0 0.020931950821524756 -0.015428433126324248 0 0.02096899237189153 -0.015317567843912036 0 0.02096899237189153 -0.015317567843912036 0 0.020839097526975315 -0.015315476301650933 0 0.020798754839934458 -0.015097708826656021 0 0.020798754839934458 -0.015097708826656021 0 0.02092744840663853 -0.014877300710957879 0 0.020684498448671297 -0.014692253793691443 0 0.02096899237189153 -0.015317567843912036 0 0.020798754839934458 -0.015097708826656021 0 0.021077453936110546 -0.015128278463448584 0 0.020798754839934458 -0.015097708826656021 0 0.02092744840663853 -0.014877300710957879 0 0.021077453936110546 -0.015128278463448584 0 0.02116719876140798 -0.01536763480881426 0 0.021455174089994835 -0.015109693927616392 0 0.021077453936110546 -0.015128278463448584 0 0.02092744840663853 -0.014877300710957879 0 0.021077453936110546 -0.015128278463448584 0 0.021276635110621649 -0.014808136354111033 0 0.021455174089994835 -0.015109693927616392 0 0.021077453936110546 -0.015128278463448584 0 0.021276635110621649 -0.014808136354111033 0 0.021455174089994835 -0.015109693927616392 0 0.021276635110621649 -0.014808136354111033 0 0.021693613311638934 -0.014844677666808045 0 0.021276635110621649 -0.014808136354111033 0 0.021693613311638934 -0.014844677666808045 0 0.021648955423199733 -0.014511380887523097 0 0.02092744840663853 -0.014877300710957879 0 0.021276635110621649 -0.014808136354111033 0 0.020895852275953211 -0.014426894986949381 0 0.021276635110621649 -0.014808136354111033 0 0.021229947684262888 -0.014318158911323282 0 0.020895852275953211 -0.014426894986949381 0 0.021229947684262888 -0.014318158911323282 0 0.021695671219415132 -0.013978740936367355 0 0.021648955423199733 -0.014511380887523097 0 0.021276635110621649 -0.014808136354111033 0 0.021229947684262888 -0.014318158911323282 0 0.021648955423199733 -0.014511380887523097 0 0.02092744840663853 -0.014877300710957879 0 0.020684498448671297 -0.014692253793691443 0 0.020895852275953211 -0.014426894986949381 0 0.020684498448671297 -0.014692253793691443 0 0.020895852275953211 -0.014426894986949381 0 0.020654065229024163 -0.01414287997524878 0 0.020654065229024163 -0.01414287997524878 0 0.020713727009667518 -0.013751208399023071 0 0.020590269056078497 -0.013765313098073068 0 0.020895852275953211 -0.014426894986949381 0 0.020654065229024163 -0.01414287997524878 0 0.020713727009667518 -0.013751208399023071 0 0.020713727009667518 -0.013751208399023071 0 0.021695671219415132 -0.013978740936367355 0 0.021956098280342472 -0.013119705625701963 0 0.021229947684262888 -0.014318158911323282 0 0.020713727009667518 -0.013751208399023071 0 0.021695671219415132 -0.013978740936367355 0 0.021229947684262888 -0.014318158911323282 0 0.020895852275953211 -0.014426894986949381 0 0.020713727009667518 -0.013751208399023071 0 0.021695671219415132 -0.013978740936367355 0 0.022216792838344917 -0.013946013575977611 0 0.021956098280342472 -0.013119705625701963 0 0.021695671219415132 -0.013978740936367355 0 0.022216792838344917 -0.013946013575977611 0 0.021978675830368881 -0.014300124159193047 0 0.022216792838344917 -0.013946013575977611 0 0.021978675830368881 -0.014300124159193047 0 0.02231493832002035 -0.014381906222446081 0 0.022216792838344917 -0.013946013575977611 0 0.022650981948215861 -0.01340107047419201 0 0.021956098280342472 -0.013119705625701963 0 0.015885983538225391 -0.012930216719080295 0 0.008422788644497527 -0.014034381485782664 0 0.022650981948215861 -0.01340107047419201 0 0.022887423937305078 -0.014351992512210088 0 0.023884540899937735 -0.012002046208416288 0 0.0092659923642533868 -0.010515009111977513 0 0.010572450538858271 -0.0053280951789552279 0 0.012315456756440439 -0.0099404445625012675 0 0.015885983538225391 -0.012930216719080295 0 0.017262052465408014 -0.0085259233533801892 0 0.022216792838344917 -0.013946013575977611 0 0.022650981948215861 -0.01340107047419201 0 0.022887423937305078 -0.014351992512210088 0 0.022216792838344917 -0.013946013575977611 0 0.022887423937305078 -0.014351992512210088 0 0.02231493832002035 -0.014381906222446081 0 0.015885983538225391 -0.012930216719080295 0 0.020887215013116456 -0.012890726558016192 0 0.010436671683904554 -0.017888876367790886 0 0.015885983538225391 -0.012930216719080295 0 0.010454967496750853 -0.015412348829378872 0 0.010710989630046849 -0.015857452961495395 0 0.011213978717582772 -0.01526404734618496 0 0.010181671519976052 -0.016462349789513712 0 0.010454967496750853 -0.015412348829378872 0 0.010710989630046849 -0.015857452961495395 0 0.022037158768888902 -0.015118446195606936 0 0.022507489850228157 -0.014331665923655704 0 0.02206543604378074 -0.014603137450411263 0 0.022507489850228157 -0.014331665923655704 0 0.02206543604378074 -0.014603137450411263 0 0.02231493832002035 -0.014381906222446081 0 0.022037158768888902 -0.015118446195606936 0 0.02206543604378074 -0.014603137450411263 0 0.021693613311638934 -0.014844677666808045 0 0.02206543604378074 -0.014603137450411263 0 0.021693613311638934 -0.014844677666808045 0 0.021648955423199733 -0.014511380887523097 0 0.02206543604378074 -0.014603137450411263 0 0.021648955423199733 -0.014511380887523097 0 0.021978675830368881 -0.014300124159193047 0 0.021695671219415132 -0.013978740936367355 0 0.021648955423199733 -0.014511380887523097 0 0.021978675830368881 -0.014300124159193047 0 0.02206543604378074 -0.014603137450411263 0 0.021978675830368881 -0.014300124159193047 0 0.02231493832002035 -0.014381906222446081 0 0.02112224939194857 -0.015182529827027721 0 0.02090286487573648 -0.015218335918701496 0 0.020937981829209546 -0.015214984283703464 0 0.021096785170822561 -0.015270188497757893 0 0.020933815064041243 -0.015364806136163239 0 0.02090286487573648 -0.015218335918701496 0 0.02112224939194857 -0.015182529827027721 0 0.021096785170822561 -0.015270188497757893 0 0.02090286487573648 -0.015218335918701496 0 0.020933815064041243 -0.015364806136163239 0 0.02090286487573648 -0.015218335918701496 0 0.020809691860517895 -0.015316164171509602 0 0.02090286487573648 -0.015218335918701496 0 0.020809691860517895 -0.015316164171509602 0 0.020696679701026822 -0.015162633609353233 0 0.02090286487573648 -0.015218335918701496 0 0.020696679701026822 -0.015162633609353233 0 0.020755007704533219 -0.015131148085583539 0 0.02090286487573648 -0.015218335918701496 0 0.020755007704533219 -0.015131148085583539 0 0.020937981829209546 -0.015214984283703464 0 0.020696679701026822 -0.015162633609353233 0 0.020473056974255888 -0.014947726005005098 0 0.020755007704533219 -0.015131148085583539 0 0.020696679701026822 -0.015162633609353233 0 0.02062972087106426 -0.01505022658737238 0 0.020473056974255888 -0.014947726005005098 0 0.020809691860517895 -0.015316164171509602 0 0.020696679701026822 -0.015162633609353233 0 0.020748168203809994 -0.015289590219579331 0 0.020696679701026822 -0.015162633609353233 0 0.020748168203809994 -0.015289590219579331 0 0.02071999165830531 -0.015216304652152837 0 0.020748168203809994 -0.015289590219579331 0 0.02071999165830531 -0.015216304652152837 0 0.02078857824760447 -0.015360165942280013 0 0.020839097526975315 -0.015315476301650933 0 0.02071999165830531 -0.015216304652152837 0 0.02078857824760447 -0.015360165942280013 0 0.020859007385347919 -0.015402307979407479 0 0.020839097526975315 -0.015315476301650933 0 0.02078857824760447 -0.015360165942280013 0 0.020839097526975315 -0.015315476301650933 0 0.020798754839934458 -0.015097708826656021 0 0.02071999165830531 -0.015216304652152837 0 0.020798754839934458 -0.015097708826656021 0 0.020684498448671297 -0.014692253793691443 0 0.02062972087106426 -0.01505022658737238 0 0.020798754839934458 -0.015097708826656021 0 0.02071999165830531 -0.015216304652152837 0 0.02062972087106426 -0.01505022658737238 0 0.020696679701026822 -0.015162633609353233 0 0.02071999165830531 -0.015216304652152837 0 0.02062972087106426 -0.01505022658737238 0 0.020684498448671297 -0.014692253793691443 0 0.020509797600397495 -0.014411731298265965 0 0.020473056974255888 -0.014947726005005098 0 0.020684498448671297 -0.014692253793691443 0 0.02062972087106426 -0.01505022658737238 0 0.020473056974255888 -0.014947726005005098 0 0.020684498448671297 -0.014692253793691443 0 0.020654065229024163 -0.01414287997524878 0 0.020509797600397495 -0.014411731298265965 0 0.020654065229024163 -0.01414287997524878 0 0.02047237223605277 -0.013980476943599903 0 0.020509797600397495 -0.014411731298265965 0 0.020509797600397495 -0.014411731298265965 0 0.020164872440536115 -0.013986493468500831 0 0.020473056974255888 -0.014947726005005098 0 0.020654065229024163 -0.01414287997524878 0 0.02047237223605277 -0.013980476943599903 0 0.020590269056078497 -0.013765313098073068 0 0.020357431314476353 -0.01402646622090082 0 0.021069338029720212 -0.014113175071598276 0 0.02047237223605277 -0.013980476943599903 0 0.020509797600397495 -0.014411731298265965 0 0.020164872440536115 -0.013986493468500831 0 0.021069338029720212 -0.014113175071598276 0 0.020310502917590546 -0.015149305742960884 0 0.020458738298895038 -0.015445665996659622 0 0.020657769932176637 -0.015237188674186187 0 0.020473056974255888 -0.014947726005005098 0 0.021069338029720212 -0.014113175071598276 0 0.021564399191369283 -0.014186034267188634 0 0.020458738298895038 -0.015445665996659622 0 0.020657769932176637 -0.015237188674186187 0 0.020776573401844578 -0.015428479421370668 0 0.020657769932176637 -0.015237188674186187 0 0.020473056974255888 -0.014947726005005098 0 0.020755007704533219 -0.015131148085583539 0 0.020657769932176637 -0.015237188674186187 0 0.020755007704533219 -0.015131148085583539 0 0.020831503682636667 -0.015262527772005924 0 0.020755007704533219 -0.015131148085583539 0 0.020831503682636667 -0.015262527772005924 0 0.020937981829209546 -0.015214984283703464 0 0.020776573401844578 -0.015428479421370668 0 0.020914495939209521 -0.015357744061398225 0 0.020977964642694601 -0.015430821826870273 0 0.021564399191369283 -0.014186034267188634 0 0.022951838762829638 -0.013036685011290156 0 0.020657769932176637 -0.015237188674186187 0 0.020831503682636667 -0.015262527772005924 0 0.020776573401844578 -0.015428479421370668 0 0.020831503682636667 -0.015262527772005924 0 0.020776573401844578 -0.015428479421370668 0 0.020914495939209521 -0.015357744061398225 0 0.020831503682636667 -0.015262527772005924 0 0.020914495939209521 -0.015357744061398225 0 0.020958676119183339 -0.015304471719828008 0 0.020914495939209521 -0.015357744061398225 0 0.020958676119183339 -0.015304471719828008 0 0.021008354024515813 -0.015366586592861133 0 0.020914495939209521 -0.015357744061398225 0 0.020977964642694601 -0.015430821826870273 0 0.021008354024515813 -0.015366586592861133 0 0.022951838762829638 -0.013036685011290156 0 0.026134994784305643 -0.011888277597272363 0 0.024779659850299729 -0.012708283058783125 0 0.023719070943176341 -0.013055459273922139 0 0.02448669874902492 -0.013090592185173909 0 0.023713372608315745 -0.013815742062626746 0 0.022951838762829638 -0.013036685011290156 0 0.021079980793806338 -0.01539610554856294 0 0.020977964642694601 -0.015430821826870273 0 0.021008354024515813 -0.015366586592861133 0 0.023713372608315745 -0.013815742062626746 0 0.026134994784305643 -0.011888277597272363 0 0.021069298110354927 -0.01530600752763157 0 0.020958676119183339 -0.015304471719828008 0 0.021008354024515813 -0.015366586592861133 0 0.021069298110354927 -0.01530600752763157 0 0.021079980793806338 -0.01539610554856294 0 0.021008354024515813 -0.015366586592861133 0 0.021069298110354927 -0.01530600752763157 0 0.020958676119183339 -0.015304471719828008 0 0.020937981829209546 -0.015214984283703464 0 0.02112224939194857 -0.015182529827027721 0 0.021069298110354927 -0.01530600752763157 0 0.020937981829209546 -0.015214984283703464 0 0.020831503682636667 -0.015262527772005924 0 0.020958676119183339 -0.015304471719828008 0 0.020937981829209546 -0.015214984283703464 0 0.027939098637697994 -0.0095954111281030575 0 0.029953535472623059 -0.0094412415931592053 0 0.028482390037336831 -0.0071051231633948901 0 0.024395743126119415 -0.011025856394774955 0 0.02413055996240452 -0.01101984595955895 0 0.024586412268251354 -0.010383216504463036 0 0.027939098637697994 -0.0095954111281030575 0 0.028257282131213628 -0.011749087907269451 0 0.029953535472623059 -0.0094412415931592053 0 0.026134994784305643 -0.011888277597272363 0 0.027255916051185339 -0.0098590997336150815 0 0.022591820680022558 -0.012919889481023846 0 0.022989454757093453 -0.012940474521273945 0 0.022587313354052823 -0.013068145720486883 0 0.022951838762829638 -0.013036685011290156 0 0.024245443473683657 -0.011760829202149981 0 0.024395743126119415 -0.011025856394774955 0 0.025007335598461609 -0.010806493594291618 0 0.024586412268251354 -0.010383216504463036 0 0.025007335598461609 -0.010806493594291618 0 0.024586412268251354 -0.010383216504463036 0 0.025206446617471383 -0.010239118542042038 0 0.027255916051185339 -0.0098590997336150815 0 0.028707343660665883 -0.0083622281584783634 0 0.024586412268251354 -0.010383216504463036 0 0.025206446617471383 -0.010239118542042038 0 0.025047973212846464 -0.0097256558714756015 0 0.029953535472623059 -0.0094412415931592053 0 0.031640098532355596 -0.0071042020880373279 0 0.028482390037336831 -0.0071051231633948901 0 0.025206446617471383 -0.010239118542042038 0 0.025628856139802394 -0.010598218118693345 0 0.025673008775443307 -0.0099875663972052026 0 0.025206446617471383 -0.010239118542042038 0 0.025673008775443307 -0.0099875663972052026 0 0.025431512576882902 -0.0096723184019215369 0 0.025007335598461609 -0.010806493594291618 0 0.025206446617471383 -0.010239118542042038 0 0.025628856139802394 -0.010598218118693345 0 0.022192999819281679 -0.012906074072901012 0 0.022591820680022558 -0.012919889481023846 0 0.022587313354052823 -0.013068145720486883 0 0.024245443473683657 -0.011760829202149981 0 0.022359174111442913 -0.012360415526079849 0 0.022192999819281679 -0.012906074072901012 0 0.022587313354052823 -0.013068145720486883 0 0.022183712918793303 -0.013200496142302986 0 0.021069338029720212 -0.014113175071598276 0 0.022359174111442913 -0.012360415526079849 0 0.022359174111442913 -0.012360415526079849 0 0.020209493016979791 -0.013413081920957361 0 0.020281834428027775 -0.0136353899599634 0 0.02042590076262275 -0.013769020215404562 0 0.020460981623178692 -0.013590156832624144 0 0.020590269056078497 -0.013765313098073068 0 0.020460981623178692 -0.013590156832624144 0 0.020653878281970489 -0.013477087140880714 0 0.02025130865072497 -0.013953085054424485 0 0.020281834428027775 -0.0136353899599634 0 0.02042590076262275 -0.013769020215404562 0 0.02047237223605277 -0.013980476943599903 0 0.02025130865072497 -0.013953085054424485 0 0.02042590076262275 -0.013769020215404562 0 0.02047237223605277 -0.013980476943599903 0 0.02042590076262275 -0.013769020215404562 0 0.020590269056078497 -0.013765313098073068 0 0.02042590076262275 -0.013769020215404562 0 0.020590269056078497 -0.013765313098073068 0 0.020460981623178692 -0.013590156832624144 0 0.020238822915367039 -0.013668105416009541 0 0.020224555729477605 -0.013206193233196497 0 0.020411519683820621 -0.013355592103363862 0 0.020460981623178692 -0.013590156832624144 0 0.020411519683820621 -0.013355592103363862 0 0.020653878281970489 -0.013477087140880714 0 0.022359174111442913 -0.012360415526079849 0 0.02293479005955168 -0.011769487962097255 0 0.020411519683820621 -0.013355592103363862 0 0.020280053110865438 -0.012647874395347274 0 0.020653878281970489 -0.013477087140880714 0 0.020238822915367039 -0.013668105416009541 0 0.020460981623178692 -0.013590156832624144 0 0.020411519683820621 -0.013355592103363862 0 0.021293797453751252 -0.0095819027550283382 0 0.019280035384400897 -0.012497678563100236 0 0.01713496590609238 -0.008840524492601887 0 0.018657083401657171 -0.011274117396643317 0 0.018828951555996815 -0.0093221344080542667 0 0.01713496590609238 -0.008840524492601887 0 0.018188937625745586 -0.0081748924373321076 0 0.018828951555996815 -0.0093221344080542667 0 0.02293479005955168 -0.011769487962097255 0 0.021293797453751252 -0.0095819027550283382 0 0.020224555729477605 -0.013206193233196497 0 0.020411519683820621 -0.013355592103363862 0 0.020280053110865438 -0.012647874395347274 0 0.021293797453751252 -0.0095819027550283382 0 0.020584407574052922 -0.0061963593761675956 0 0.01713496590609238 -0.008840524492601887 0 0.018188937625745586 -0.0081748924373321076 0 0.01721143706276531 -0.0073140060901127337 0 0.018188937625745586 -0.0081748924373321076 0 0.01721143706276531 -0.0073140060901127337 0 0.018649658590582079 -0.0072604325899617191 0 0.022065907161651167 -0.0083516159818094321 0 0.022156156620886644 -0.0062126356090911397 0 0.021373768875686219 -0.0072649329941917836 0 0.021293797453751252 -0.0095819027550283382 0 0.026080091905056287 -0.0060828075245915932 0 0.020584407574052922 -0.0061963593761675956 0 0.026080091905056287 -0.0060828075245915932 0 0.025673008775443307 -0.0099875663972052026 0 0.025708821467644107 -0.0093461990473194777 0 0.025431512576882902 -0.0096723184019215369 0 0.026080091905056287 -0.0060828075245915932 0 0.028707343660665883 -0.0083622281584783634 0 0.025523965710649684 -0.0090415125441872558 0 0.025431512576882902 -0.0096723184019215369 0 0.025047973212846464 -0.0097256558714756015 0 0.025708821467644107 -0.0093461990473194777 0 0.025523965710649684 -0.0090415125441872558 0 0.025431512576882902 -0.0096723184019215369 0 0.025206446617471383 -0.010239118542042038 0 0.025431512576882902 -0.0096723184019215369 0 0.025047973212846464 -0.0097256558714756015 0 0.031640098532355596 -0.0071042020880373279 0 0.030199205432498401 -0.004530567416825124 0 0.028482390037336831 -0.0071051231633948901 0 0.033328998692027649 -0.0047803602841771636 0 0.031640098532355596 -0.0071042020880373279 0 0.030199205432498401 -0.004530567416825124 0 0.033328998692027649 -0.0047803602841771636 0 0.030199205432498401 -0.004530567416825124 0 0.031389428324557989 -0.0017053660802530523 0 0.027195488401696992 -0.0037840981874074707 0 0.030199205432498401 -0.004530567416825124 0 0.028482390037336831 -0.0071051231633948901 0 0.027195488401696992 -0.0037840981874074707 0 0.030199205432498401 -0.004530567416825124 0 0.029155066739137054 -0.0027050739417747217 0 0.022418678376065978 -0.011610874401268166 0 0.021967298310785085 -0.010049727637672014 0 0.023140289954225908 -0.0093720055240786374 0 0.022418678376065978 -0.011610874401268166 0 0.021224127706780938 -0.010876288650283486 0 0.021967298310785085 -0.010049727637672014 0 0.022418678376065978 -0.011610874401268166 0 0.02131491790919408 -0.012197561694907398 0 0.021224127706780938 -0.010876288650283486 0 0.022418678376065978 -0.011610874401268166 0 0.023884540899937735 -0.012002046208416288 0 0.023140289954225908 -0.0093720055240786374 0 0.022650981948215861 -0.01340107047419201 0 0.023884540899937735 -0.012002046208416288 0 0.02271865280891161 -0.012546115001441527 0 0.022418678376065978 -0.011610874401268166 0 0.023884540899937735 -0.012002046208416288 0 0.02271865280891161 -0.012546115001441527 0 0.022418678376065978 -0.011610874401268166 0 0.02271865280891161 -0.012546115001441527 0 0.021956098280342472 -0.013119705625701963 0 0.022650981948215861 -0.01340107047419201 0 0.02271865280891161 -0.012546115001441527 0 0.021956098280342472 -0.013119705625701963 0 0.022418678376065978 -0.011610874401268166 0 0.021956098280342472 -0.013119705625701963 0 0.02131491790919408 -0.012197561694907398 0 0.020713727009667518 -0.013751208399023071 0 0.02131491790919408 -0.012197561694907398 0 0.020226143245410552 -0.011481477942297062 0 0.020713727009667518 -0.013751208399023071 0 0.021956098280342472 -0.013119705625701963 0 0.02131491790919408 -0.012197561694907398 0 0.020752269448579493 -0.013656498018916172 0 0.019280035384400897 -0.012497678563100236 0 0.020713727009667518 -0.013751208399023071 0 0.020590269056078497 -0.013765313098073068 0 0.020653878281970489 -0.013477087140880714 0 0.020713727009667518 -0.013751208399023071 0 0.018657083401657171 -0.011274117396643317 0 0.020226143245410552 -0.011481477942297062 0 0.018657083401657171 -0.011274117396643317 0 0.019483963257063867 -0.010338731292045229 0 0.018828951555996815 -0.0093221344080542667 0 0.018657083401657171 -0.011274117396643317 0 0.019483963257063867 -0.010338731292045229 0 0.020226143245410552 -0.011481477942297062 0 0.019483963257063867 -0.010338731292045229 0 0.020226143245410552 -0.011481477942297062 0 0.020297550639952044 -0.010079679949181373 0 0.02131491790919408 -0.012197561694907398 0 0.020226143245410552 -0.011481477942297062 0 0.021224127706780938 -0.010876288650283486 0 0.020226143245410552 -0.011481477942297062 0 0.021224127706780938 -0.010876288650283486 0 0.020297550639952044 -0.010079679949181373 0 0.021224127706780938 -0.010876288650283486 0 0.020297550639952044 -0.010079679949181373 0 0.02093550342804134 -0.0093463750042850364 0 0.021224127706780938 -0.010876288650283486 0 0.02093550342804134 -0.0093463750042850364 0 0.021967298310785085 -0.010049727637672014 0 0.020297550639952044 -0.010079679949181373 0 0.02023902075146481 -0.0092081843153179552 0 0.02093550342804134 -0.0093463750042850364 0 0.020297550639952044 -0.010079679949181373 0 0.02023902075146481 -0.0092081843153179552 0 0.019700261937814295 -0.009523460781062686 0 0.02023902075146481 -0.0092081843153179552 0 0.019702054530990644 -0.0087514145265120812 0 0.020486511777109185 -0.0085461864164506091 0 0.02023902075146481 -0.0092081843153179552 0 0.02093550342804134 -0.0093463750042850364 0 0.020486511777109185 -0.0085461864164506091 0 0.02093550342804134 -0.0093463750042850364 0 0.021176632083769849 -0.0084288513932433157 0 0.021943051818366852 -0.0089133557249568389 0 0.02093550342804134 -0.0093463750042850364 0 0.021176632083769849 -0.0084288513932433157 0 0.020486511777109185 -0.0085461864164506091 0 0.019483963257063867 -0.010338731292045229 0 0.020297550639952044 -0.010079679949181373 0 0.019700261937814295 -0.009523460781062686 0 0.019483963257063867 -0.010338731292045229 0 0.019700261937814295 -0.009523460781062686 0 0.018828951555996815 -0.0093221344080542667 0 0.02023902075146481 -0.0092081843153179552 0 0.019700261937814295 -0.009523460781062686 0 0.019702054530990644 -0.0087514145265120812 0 0.019700261937814295 -0.009523460781062686 0 0.019702054530990644 -0.0087514145265120812 0 0.018828951555996815 -0.0093221344080542667 0 0.019702054530990644 -0.0087514145265120812 0 0.018828951555996815 -0.0093221344080542667 0 0.01911626656699834 -0.0081473845925124095 0 0.018188937625745586 -0.0081748924373321076 0 0.018828951555996815 -0.0093221344080542667 0 0.01911626656699834 -0.0081473845925124095 0 0.019702054530990644 -0.0087514145265120812 0 0.01911626656699834 -0.0081473845925124095 0 0.019970151060802823 -0.0080585492082339543 0 0.01911626656699834 -0.0081473845925124095 0 0.019493716148597368 -0.0075309376848694595 0 0.019970151060802823 -0.0080585492082339543 0 0.019493716148597368 -0.0075309376848694595 0 0.019970151060802823 -0.0080585492082339543 0 0.020181631434942948 -0.0074000958478975688 0 0.019493716148597368 -0.0075309376848694595 0 0.020181631434942948 -0.0074000958478975688 0 0.01954279391067347 -0.0067912216655147189 0 0.01911626656699834 -0.0081473845925124095 0 0.019493716148597368 -0.0075309376848694595 0 0.018649658590582079 -0.0072604325899617191 0 0.018188937625745586 -0.0081748924373321076 0 0.01911626656699834 -0.0081473845925124095 0 0.018649658590582079 -0.0072604325899617191 0 0.021176632083769849 -0.0084288513932433157 0 0.020656850552458136 -0.0078672016656254288 0 0.021236781913742068 -0.0076506532081126238 0 0.021176632083769849 -0.0084288513932433157 0 0.020486511777109185 -0.0085461864164506091 0 0.020656850552458136 -0.0078672016656254288 0 0.019702054530990644 -0.0087514145265120812 0 0.020486511777109185 -0.0085461864164506091 0 0.019970151060802823 -0.0080585492082339543 0 0.020486511777109185 -0.0085461864164506091 0 0.019970151060802823 -0.0080585492082339543 0 0.020656850552458136 -0.0078672016656254288 0 0.019970151060802823 -0.0080585492082339543 0 0.020656850552458136 -0.0078672016656254288 0 0.020181631434942948 -0.0074000958478975688 0 0.020656850552458136 -0.0078672016656254288 0 0.020181631434942948 -0.0074000958478975688 0 0.020831230606656551 -0.0072724782887542911 0 0.020656850552458136 -0.0078672016656254288 0 0.020831230606656551 -0.0072724782887542911 0 0.021236781913742068 -0.0076506532081126238 0 0.020831230606656551 -0.0072724782887542911 0 0.021236781913742068 -0.0076506532081126238 0 0.021240826058399921 -0.0069910600165451779 0 0.021236781913742068 -0.0076506532081126238 0 0.021789078114003799 -0.0074095792687754085 0 0.021755031909790768 -0.0081650914504558976 0 0.021236781913742068 -0.0076506532081126238 0 0.021789078114003799 -0.0074095792687754085 0 0.021240826058399921 -0.0069910600165451779 0 0.021789078114003799 -0.0074095792687754085 0 0.022454019389652125 -0.008003623143037767 0 0.021755031909790768 -0.0081650914504558976 0 0.022454019389652125 -0.008003623143037767 0 0.023032723456710494 -0.0073355054640925768 0 0.022330179654989329 -0.0069169949817023176 0 0.021789078114003799 -0.0074095792687754085 0 0.022454019389652125 -0.008003623143037767 0 0.022330179654989329 -0.0069169949817023176 0 0.021176632083769849 -0.0084288513932433157 0 0.021755031909790768 -0.0081650914504558976 0 0.021943051818366852 -0.0089133557249568389 0 0.021176632083769849 -0.0084288513932433157 0 0.021236781913742068 -0.0076506532081126238 0 0.021755031909790768 -0.0081650914504558976 0 0.022454019389652125 -0.008003623143037767 0 0.021755031909790768 -0.0081650914504558976 0 0.021943051818366852 -0.0089133557249568389 0 0.02093550342804134 -0.0093463750042850364 0 0.021943051818366852 -0.0089133557249568389 0 0.021967298310785085 -0.010049727637672014 0 0.021943051818366852 -0.0089133557249568389 0 0.021967298310785085 -0.010049727637672014 0 0.023140289954225908 -0.0093720055240786374 0 0.022454019389652125 -0.008003623143037767 0 0.021943051818366852 -0.0089133557249568389 0 0.023140289954225908 -0.0093720055240786374 0 0.023884540899937735 -0.012002046208416288 0 0.023140289954225908 -0.0093720055240786374 0 0.024665416873053559 -0.0091534363834902162 0 0.023140289954225908 -0.0093720055240786374 0 0.023599688468679485 -0.0081718314909821239 0 0.024665416873053559 -0.0091534363834902162 0 0.022454019389652125 -0.008003623143037767 0 0.023140289954225908 -0.0093720055240786374 0 0.023599688468679485 -0.0081718314909821239 0 0.022454019389652125 -0.008003623143037767 0 0.023599688468679485 -0.0081718314909821239 0 0.023032723456710494 -0.0073355054640925768 0 0.023599688468679485 -0.0081718314909821239 0 0.024344459847549269 -0.0073191074222740847 0 0.023687714506296267 -0.0070218253215154668 0 0.023599688468679485 -0.0081718314909821239 0 0.023032723456710494 -0.0073355054640925768 0 0.023687714506296267 -0.0070218253215154668 0 0.023599688468679485 -0.0081718314909821239 0 0.024344459847549269 -0.0073191074222740847 0 0.024665416873053559 -0.0091534363834902162 0 0.024344459847549269 -0.0073191074222740847 0 0.024665416873053559 -0.0091534363834902162 0 0.025236234321459029 -0.0063278828467957004 0 0.018296592470990681 -0.004647444685177627 0 0.019373392266105523 -0.0008939659204390333 0 0.013749640800717416 0.0021317577483655052 0 0.011935892747736189 -7.3799290862861062e-05 0 0.013531570811684815 0.0046857111461248071 0 0.013749640800717416 0.0021317577483655052 0 0.015738251248268314 0.00012947004172435324 0 0.014099460744620141 0.0045544930165946594 0 0.014045767222499596 0.0046611357321917988 0 0.014007845101046183 0.0047267864522576837 0 0.014031927726094766 0.0047267388876434668 0 0.014045767222499596 0.0046611357321917988 0 0.014007845101046183 0.0047267864522576837 0 0.014099460744620141 0.0045544930165946594 0 0.015147469033783317 0.0028020932790535392 0 0.014103647856483523 0.0042935272454627084 0 0.013749640800717416 0.0021317577483655052 0 0.015738251248268314 0.00012947004172435324 0 0.011935892747736189 -7.3799290862861062e-05 0 0.015738251248268314 0.00012947004172435324 0 0.011935892747736189 -7.3799290862861062e-05 0 0.015250220575258959 -0.0021561066408069653 0 0.011935892747736189 -7.3799290862861062e-05 0 0.0131959052965909 -0.0032112539800088955 0 0.015250220575258959 -0.0021561066408069653 0 0.014059662255021789 0.0047751303279563962 0 0.014079431417016498 0.0048479933242888736 0 0.014083209933421752 0.0048649247118997324 0 0.014059662255021789 0.0047751303279563962 0 0.014049476304489288 0.0047121682420998125 0 0.014079431417016498 0.0048479933242888736 0 0.014059662255021789 0.0047751303279563962 0 0.014075820447444095 0.0048047319135146134 0 0.014083209933421752 0.0048649247118997324 0 0.014059662255021789 0.0047751303279563962 0 0.014031927726094766 0.0047267388876434668 0 0.014049476304489288 0.0047121682420998125 0 0.014059662255021789 0.0047751303279563962 0 0.014055393253176465 0.004734873308186378 0 0.014075820447444095 0.0048047319135146134 0 0.014059662255021789 0.0047751303279563962 0 0.014031927726094766 0.0047267388876434668 0 0.014055393253176465 0.004734873308186378 0 0.014045767222499596 0.0046611357321917988 0 0.014031927726094766 0.0047267388876434668 0 0.014055393253176465 0.004734873308186378 0 0.014007845101046183 0.0047267864522576837 0 0.014031402710617638 0.0046505803801473377 0 0.014049476304489288 0.0047121682420998125 0 0.014007845101046183 0.0047267864522576837 0 0.014031927726094766 0.0047267388876434668 0 0.014049476304489288 0.0047121682420998125 0 0.014031402710617638 0.0046505803801473377 0 0.014049476304489288 0.0047121682420998125 0 0.014061524030034659 0.0046431388049502633 0 0.014049476304489288 0.0047121682420998125 0 0.014094679193674851 0.0046337655930914594 0 0.014079431417016498 0.0048479933242888736 0 0.014049476304489288 0.0047121682420998125 0 0.014094679193674851 0.0046337655930914594 0 0.014061524030034659 0.0046431388049502633 0 0.01041388489840803 -0.0013221913638983963 0 0.008742647530887028 -0.0042558113925986385 0 0.012049008625665329 -0.0044585382161126215 0 0.013235864464500048 0.0021074740454639341 0 0.013385383433220282 0.002724039501059804 0 0.014094679193674851 0.0046337655930914594 0 0.014061524030034659 0.0046431388049502633 0 0.01402286900867734 0.00458612211772108 0 0.013235864464500048 0.0021074740454639341 0 0.010748715137818513 -0.0037980641482000827 0 0.014997639879168963 0.00070003606468301016 0 0.01156081672115377 -0.00026452604630330625 0 0.012998582136229559 -0.0028523988005974251 0 0.014007845101046183 0.0047267864522576837 0 0.014031402710617638 0.0046505803801473377 0 0.013967295932935176 0.0044716544170197202 0 0.014031402710617638 0.0046505803801473377 0 0.014033041734924296 0.0045959705309285975 0 0.013967295932935176 0.0044716544170197202 0 0.01156081672115377 -0.00026452604630330625 0 0.0097770561986324309 -0.0022009774528441799 0 0.012998582136229559 -0.0028523988005974251 0 0.014033041734924296 0.0045959705309285975 0 0.014043792683801659 0.0045612049947109171 0 0.013967295932935176 0.0044716544170197202 0 0.014061524030034659 0.0046431388049502633 0 0.014033041734924296 0.0045959705309285975 0 0.014043792683801659 0.0045612049947109171 0 0.014031402710617638 0.0046505803801473377 0 0.014061524030034659 0.0046431388049502633 0 0.014033041734924296 0.0045959705309285975 0 0.014376850497168279 0.0044516696625689616 0 0.013385383433220282 0.002724039501059804 0 0.013385383433220282 0.002724039501059804 0 0.013036940141100833 -0.0020223623931206157 0 0.013092473451216027 -0.0049629709225262886 0 0.013999503355959014 -0.0051754347548721236 0 0.01712718697511571 -0.0046128739859751374 0 0.016704873636081821 -0.0050621946236220957 0 0.016360787930891942 -0.0042127264505067109 0 0.0097770561986324309 -0.0022009774528441799 0 0.012998582136229559 -0.0028523988005974251 0 0.010981419932848246 -0.0064198004062589161 0 0.008742647530887028 -0.0042558113925986385 0 0.0070701491181391065 -0.0072225080728613453 0 0.0092520256934528512 -0.0081515127388334385 0 0.011440689288855688 -0.0041999874631131629 0 0.011005240354168886 -0.0046701021578960311 0 0.012315453211565791 -0.0073883965558783149 0 0.013036940141100833 -0.0020223623931206157 0 0.01034523932536374 -0.0083668714545265394 0 0.013036940141100833 -0.0020223623931206157 0 0.013092473451216027 -0.0049629709225262886 0 0.013092473451216027 -0.0049629709225262886 0 0.01034523932536374 -0.0083668714545265394 0 0.010748715137818513 -0.0037980641482000827 0 0.01034523932536374 -0.0083668714545265394 0 0.007428541723379178 -0.010934020715560652 0 0.010530159225227069 -0.0049606005258318727 0 0.008742647530887028 -0.0042558113925986385 0 0.0092520256934528512 -0.0081515127388334385 0 0.012049008625665329 -0.0044585382161126215 0 0.0057240497611045797 -0.0098076472587592476 0 0.0095109017535950826 -0.0091151779893888368 0 0.0085884501505118713 -0.0060537259882169989 0 0.017262052465408014 -0.0085259233533801892 0 0.018296592470990681 -0.004647444685177627 0 0.010572450538858271 -0.0053280951789552279 0 0.0131959052965909 -0.0032112539800088955 0 0.01469070447170533 -0.005436615679131963 0 0.010572450538858271 -0.0053280951789552279 0 0.011935892747736189 -7.3799290862861062e-05 0 0.0131959052965909 -0.0032112539800088955 0 0.0131959052965909 -0.0032112539800088955 0 0.015250220575258959 -0.0021561066408069653 0 0.014873704688929684 -0.0037532056893797836 0 0.015738251248268314 0.00012947004172435324 0 0.01712718697511571 -0.0046128739859751374 0 0.015250220575258959 -0.0021561066408069653 0 0.015147469033783317 0.0028020932790535392 0 0.013036940141100833 -0.0020223623931206157 0 0.015250220575258959 -0.0021561066408069653 0 0.016360787930891942 -0.0042127264505067109 0 0.014873704688929684 -0.0037532056893797836 0 0.01712718697511571 -0.0046128739859751374 0 0.015250220575258959 -0.0021561066408069653 0 0.016360787930891942 -0.0042127264505067109 0 0.016360787930891942 -0.0042127264505067109 0 0.014873704688929684 -0.0037532056893797836 0 0.01469070447170533 -0.005436615679131963 0 0.0131959052965909 -0.0032112539800088955 0 0.014873704688929684 -0.0037532056893797836 0 0.01469070447170533 -0.005436615679131963 0 0.011349029933032662 -0.0073640724090301033 0 0.0093183907652554712 -0.0095859598012077267 0 0.012521648230397238 -0.009763882184439715 0 0.016715687435412532 -0.0050803034826517757 0 0.016360787930891942 -0.0042127264505067109 0 0.01469070447170533 -0.005436615679131963 0 0.016715687435412532 -0.0050803034826517757 0 0.01469070447170533 -0.005436615679131963 0 0.014508986367820512 -0.0075171622190938724 0 0.013092473451216027 -0.0049629709225262886 0 0.012273556126550844 -0.0081752153668032748 0 0.010572450538858271 -0.0053280951789552279 0 0.01469070447170533 -0.005436615679131963 0 0.014508986367820512 -0.0075171622190938724 0 0.010572450538858271 -0.0053280951789552279 0 0.014508986367820512 -0.0075171622190938724 0 0.012315456756440439 -0.0099404445625012675 0 0.012273556126550844 -0.0081752153668032748 0 0.008422788644497527 -0.014034381485782664 0 0.0072428211932815852 -0.018447262522730924 0 0.008422788644497527 -0.014034381485782664 0 0.0048527849427904782 -0.019851542567099114 0 0.0054411079094222638 -0.019070264068943472 0 0.0060410534450280407 -0.01964421530123759 0 0.0048527849427904782 -0.019851542567099114 0 0.0060410534450280407 -0.01964421530123759 0 0.0054098180332270819 -0.020651865446750878 0 0.0060410534450280407 -0.01964421530123759 0 0.0067880327053171817 -0.019100830034920541 0 0.0064085539230542589 -0.020432938820948494 0 0.0054411079094222638 -0.019070264068943472 0 0.0060410534450280407 -0.01964421530123759 0 0.0067880327053171817 -0.019100830034920541 0 0.0093183907652554712 -0.0095859598012077267 0 0.0072991683631219812 -0.011803069683127975 0 0.01184331168420868 -0.010956876584015396 0 0.0054411079094222638 -0.019070264068943472 0 0.0067880327053171817 -0.019100830034920541 0 0.0070135928456283962 -0.018687598692147513 0 0.008422788644497527 -0.014034381485782664 0 0.0083212462354336093 -0.014503453924258478 0 0.0093183907652554712 -0.0095859598012077267 0 0.012521648230397238 -0.009763882184439715 0 0.01184331168420868 -0.010956876584015396 0 0.0082201274113289854 -0.012708220861301002 0 0.0083212462354336093 -0.014503453924258478 0 0.01034523932536374 -0.0083668714545265394 0 0.0083212462354336093 -0.014503453924258478 0 0.0070701491181391065 -0.0072225080728613453 0 0.0074333237998700317 -0.0084880798441970533 0 0.0092520256934528512 -0.0081515127388334385 0 0.0082201274113289854 -0.012708220861301002 0 0.007428541723379178 -0.010934020715560652 0 0.01034523932536374 -0.0083668714545265394 0 0.0082201274113289854 -0.012708220861301002 0 0.0094523301631974123 -0.011019502882883806 0 0.0099099916321634951 -0.012617754181896127 0 0.0083873616741550056 -0.012896468332542608 0 0.0073947643856011915 -0.018577062738831814 0 0.0074669461278953405 -0.018848795903977363 0 0.0070259763452221327 -0.018652194179710656 0 0.0067365758006090693 -0.012977077626965282 0 0.0069242804438046516 -0.013634114661639263 0 0.0081360079500373446 -0.012716360532811014 0 0.0069242804438046516 -0.013634114661639263 0 0.0071029791956147958 -0.014072162046120499 0 0.0081360079500373446 -0.012716360532811014 0 0.0082201274113289854 -0.012708220861301002 0 0.0072915940919122194 -0.015617941236195873 0 0.0074669461278953405 -0.018848795903977363 0 0.007536706406129523 -0.019030499531457291 0 0.0070437467967315011 -0.019227152747631725 0 0.0072915940919122194 -0.015617941236195873 0 0.0066077646881677974 -0.016864229582742002 0 0.0074669461278953405 -0.018848795903977363 0 0.0070259763452221327 -0.018652194179710656 0 0.0070437467967315011 -0.019227152747631725 0 0.0067880327053171817 -0.019100830034920541 0 0.0070259763452221327 -0.018652194179710656 0 0.0070437467967315011 -0.019227152747631725 0 0.0065517999862776772 -0.018445812396813758 0 0.0083212462354336093 -0.014503453924258478 0 0.0054207790651120899 -0.012859035561472477 0 0.0055341058485409225 -0.013050240596350881 0 0.0058792477351038682 -0.012764185398369371 0 0.0055341058485409225 -0.013050240596350881 0 0.0055958283286806987 -0.013374524401132754 0 0.0058792477351038682 -0.012764185398369371 0 0.007428541723379178 -0.010934020715560652 0 0.0066636695365724892 -0.010467840194476989 0 0.0052650206804008004 -0.01308895711406929 0 0.0054207790651120899 -0.012859035561472477 0 0.0055341058485409225 -0.013050240596350881 0 0.0066077646881677974 -0.016864229582742002 0 0.007428541723379178 -0.010934020715560652 0 0.0052650206804008004 -0.01308895711406929 0 0.0055958283286806987 -0.013374524401132754 0 0.0054823013404296378 -0.013659638200595339 0 0.0063175247808597585 -0.018481590576934031 0 0.0069336575033130329 -0.020185566215552297 0 0.0066027519530867983 -0.0197523998176127 0 0.0066077646881677974 -0.016864229582742002 0 0.006152258139592668 -0.016434220334062121 0 0.0052650206804008004 -0.01308895711406929 0 0.0055341058485409225 -0.013050240596350881 0 0.0055958283286806987 -0.013374524401132754 0 0.0066077646881677974 -0.016864229582742002 0 0.0060159194642943857 -0.020875367526037403 0 0.0067880327053171817 -0.019100830034920541 0 0.0070437467967315011 -0.019227152747631725 0 0.0064085539230542589 -0.020432938820948494 0 0.007536706406129523 -0.019030499531457291 0 0.0070437467967315011 -0.019227152747631725 0 0.0064085539230542589 -0.020432938820948494 0 0.0064837924935244049 -0.019315347425755393 0 0.0063240374097456864 -0.019984221713893437 0 0.0067037007065554348 -0.020176386450689785 0 0.0064837924935244049 -0.019315347425755393 0 0.0063240374097456864 -0.019984221713893437 0 0.0057004038737870138 -0.02041904193136158 0 0.0066077646881677974 -0.016864229582742002 0 0.006735632638100719 -0.020339222913655176 0 0.0063240374097456864 -0.019984221713893437 0 0.0062720421813021307 -0.020290290885043638 0 0.0057004038737870138 -0.02041904193136158 0 0.0063240374097456864 -0.019984221713893437 0 0.0062720421813021307 -0.020290290885043638 0 0.0067037007065554348 -0.020176386450689785 0 0.0062720421813021307 -0.020290290885043638 0 0.0062653619382290904 -0.020744921317503568 0 0.0067037007065554348 -0.020176386450689785 0 0.0062720421813021307 -0.020290290885043638 0 0.0062653619382290904 -0.020744921317503568 0 0.0057004038737870138 -0.02041904193136158 0 0.006735632638100719 -0.020339222913655176 0 0.0068580748045510374 -0.020671853863862218 0 0.0062653619382290904 -0.020744921317503568 0 0.0067037007065554348 -0.020176386450689785 0 0.0069190975038478496 -0.020889953215870852 0 0.0069336575033130329 -0.020185566215552297 0 0.0066027519530867983 -0.0197523998176127 0 0.0069190975038478496 -0.020889953215870852 0 0.0055696592933349868 -0.019258370893688929 0 0.006152258139592668 -0.016434220334062121 0 0.007447078938193484 -0.02159244956478976 0 0.0069336575033130329 -0.020185566215552297 0 0.0069190975038478496 -0.020889953215870852 0 0.0062839191113110184 -0.021669696201212334 0 0.007447078938193484 -0.02159244956478976 0 0.0069190975038478496 -0.020889953215870852 0 0.0062839191113110184 -0.021669696201212334 0 0.0062653619382290904 -0.020744921317503568 0 0.0069190975038478496 -0.020889953215870852 0 0.0062839191113110184 -0.021669696201212334 0 0.0062653619382290904 -0.020744921317503568 0 0.0057113477303372909 -0.021210256776448309 0 0.0057113477303372909 -0.021210256776448309 0 0.0051880128007581721 -0.02145931970265123 0 0.0057004038737870138 -0.02041904193136158 0 0.0052325629599043666 -0.021809788686079856 0 0.0057113477303372909 -0.021210256776448309 0 0.0051880128007581721 -0.02145931970265123 0 0.0052998788259702176 -0.021219317049269906 0 0.0060159194642943857 -0.020875367526037403 0 0.0051880128007581721 -0.02145931970265123 0 0.0050594954164775536 -0.021079981953622567 0 0.0054098180332270819 -0.020651865446750878 0 0.0049871626540821798 -0.021412240791549159 0 0.0051880128007581721 -0.02145931970265123 0 0.0050594954164775536 -0.021079981953622567 0 0.0048960764322952943 -0.020630027739734626 0 0.0048527849427904782 -0.019851542567099114 0 0.0054098180332270819 -0.020651865446750878 0 0.0051880128007581721 -0.02145931970265123 0 0.0054098180332270819 -0.020651865446750878 0 0.0064085539230542589 -0.020432938820948494 0 0.0048960764322952943 -0.020630027739734626 0 0.0050594954164775536 -0.021079981953622567 0 0.0054098180332270819 -0.020651865446750878 0 0.0062653619382290904 -0.020744921317503568 0 0.0057113477303372909 -0.021210256776448309 0 0.0057004038737870138 -0.02041904193136158 0 0.0060410534450280407 -0.01964421530123759 0 0.0054098180332270819 -0.020651865446750878 0 0.0064085539230542589 -0.020432938820948494 0 0.0069634438093354734 -0.013422454377691382 0 0.0065277841647315834 -0.013629158644047332 0 0.006833392869348592 -0.013980458521463035 0 0.0065277841647315834 -0.013629158644047332 0 0.006833392869348592 -0.013980458521463035 0 0.0062750999243703183 -0.014093379789052979 0 0.0050076805195634656 -0.016861371880479512 0 0.0057692947030625035 -0.0162327655609164 0 0.0065277841647315834 -0.013629158644047332 0 0.0062750999243703183 -0.014093379789052979 0 0.0059223048341777041 -0.01366315807957931 0 0.0055696592933349868 -0.019258370893688929 0 0.0057692947030625035 -0.0162327655609164 0 0.0056933374089421056 -0.014212931268359741 0 0.0062750999243703183 -0.014093379789052979 0 0.0059223048341777041 -0.01366315807957931 0 0.0056933374089421056 -0.014212931268359741 0 0.0054823013404296378 -0.013659638200595339 0 0.0059223048341777041 -0.01366315807957931 0 0.0055958283286806987 -0.013374524401132754 0 0.0054823013404296378 -0.013659638200595339 0 0.0059223048341777041 -0.01366315807957931 0 0.0065277841647315834 -0.013629158644047332 0 0.0059223048341777041 -0.01366315807957931 0 0.0062730659685829972 -0.013255990697449043 0 0.0059223048341777041 -0.01366315807957931 0 0.0062730659685829972 -0.013255990697449043 0 0.0059415992433927639 -0.013154891776850013 0 0.0055958283286806987 -0.013374524401132754 0 0.0059223048341777041 -0.01366315807957931 0 0.0059415992433927639 -0.013154891776850013 0 0.0055958283286806987 -0.013374524401132754 0 0.0059415992433927639 -0.013154891776850013 0 0.0057946387643988372 -0.01279417662474543 0 0.0052442593202754947 -0.014314859799971316 0 0.0066636695365724892 -0.010467840194476989 0 0.0059415992433927639 -0.013154891776850013 0 0.0057946387643988372 -0.01279417662474543 0 0.0064188439750613559 -0.012666369054207306 0 0.0062730659685829972 -0.013255990697449043 0 0.0059415992433927639 -0.013154891776850013 0 0.0064188439750613559 -0.012666369054207306 0 0.0062730659685829972 -0.013255990697449043 0 0.0066310534845102336 -0.013180537702271285 0 0.0064188439750613559 -0.012666369054207306 0 0.0065277841647315834 -0.013629158644047332 0 0.0062730659685829972 -0.013255990697449043 0 0.0066310534845102336 -0.013180537702271285 0 0.0069634438093354734 -0.013422454377691382 0 0.0066310534845102336 -0.013180537702271285 0 0.006959710387042321 -0.012915059211445579 0 0.0069634438093354734 -0.013422454377691382 0 0.0065277841647315834 -0.013629158644047332 0 0.0066310534845102336 -0.013180537702271285 0 0.0066310534845102336 -0.013180537702271285 0 0.006959710387042321 -0.012915059211445579 0 0.0064188439750613559 -0.012666369054207306 0 0.010172347423632912 -0.0069164458035211873 0 0.0085239146494190884 -0.0072361720888934767 0 0.0089958645975669379 -0.0063692452622324466 0 0.010501719461302499 -0.0025786555597975581 0 0.010261947589375851 -0.0024638305748394588 0 0.01031113282212557 -0.0024334933282730343 0 0.010501719461302499 -0.0025786555597975581 0 0.010594943320910585 -0.0025158140429970407 0 0.01031113282212557 -0.0024334933282730343 0 0.0070372507399844948 -0.012524685306018798 0 0.006959710387042321 -0.012915059211445579 0 0.0064188439750613559 -0.012666369054207306 0 0.0089803865085045006 -0.0070349266219509954 0 0.0096803323302427392 -0.0044099861218797037 0 0.0089803865085045006 -0.0070349266219509954 0 0.007274737039772535 -0.010307944715528036 0 0.0085239146494190884 -0.0072361720888934767 0 0.0089958645975669379 -0.0063692452622324466 0 0.008002836888409524 -0.0065919431495173033 0 0.0089958645975669379 -0.0063692452622324466 0 0.008002836888409524 -0.0065919431495173033 0 0.0077842058514005566 -0.0057692565942287308 0 0.0096803323302427392 -0.0044099861218797037 0 0.0099164316361350924 -0.0019274585427869167 0 0.011483328485640732 -0.00033563688144473312 0 0.0099164316361350924 -0.0019274585427869167 0 0.012296274835908935 0.0017120087796971182 0 0.011334781469376868 0.0019709316292771764 0 0.012180429930350085 0.0025736007792264083 0 0.010261947589375851 -0.0024638305748394588 0 0.01031113282212557 -0.0024334933282730343 0 0.0099993121601251664 -0.002327084302154728 0 0.011738051057380036 0.00081597244597042767 0 0.011483328485640732 -0.00033563688144473312 0 0.013172671069896643 0.0021414560626436129 0 0.012296274835908935 0.0017120087796971182 0 0.012180429930350085 0.0025736007792264083 0 0.0067875736219062096 -0.0075875264922614285 0 0.0071639914476141634 -0.0066210461397435095 0 0.008002836888409524 -0.0065919431495173033 0 0.0095109017535950826 -0.0091151779893888368 0 0.0085884501505118713 -0.0060537259882169989 0 0.010815271910295543 -0.0058480276355927707 0 0.0066636695365724892 -0.010467840194476989 0 0.0089828594347708401 -0.0062285286848935755 0 0.0067875736219062096 -0.0075875264922614285 0 0.0085239146494190884 -0.0072361720888934767 0 0.008002836888409524 -0.0065919431495173033 0 0.0066636695365724892 -0.010467840194476989 0 0.007274737039772535 -0.010307944715528036 0 0.0089828594347708401 -0.0062285286848935755 0 0.010384757660926855 -0.0016302363098924645 0 0.0071639914476141634 -0.0066210461397435095 0 0.0077842058514005566 -0.0057692565942287308 0 0.0075511213577721288 -0.0056561562066752818 0 0.010815271910295543 -0.0058480276355927707 0 0.011479741846012208 -0.002261923936855966 0 0.012117391701888188 -0.0025514356031322676 0 0.011334781469376868 0.0019709316292771764 0 0.01118501738227058 0.0020354163091242765 0 0.01128973289465107 0.0022994119221319978 0 0.0099164316361350924 -0.0019274585427869167 0 0.010384757660926855 -0.0016302363098924645 0 0.012200458673081954 -0.0011307871263616914 0 0.010384757660926855 -0.0016302363098924645 0 0.0071639914476141634 -0.0066210461397435095 0 0.008002836888409524 -0.0065919431495173033 0 0.0077842058514005566 -0.0057692565942287308 0 0.0085884501505118713 -0.0060537259882169989 0 0.010815271910295543 -0.0058480276355927707 0 0.011479741846012208 -0.002261923936855966 0 0.010530159225227069 -0.0049606005258318727 0 0.012200458673081954 -0.0011307871263616914 0 0.01041388489840803 -0.0013221913638983963 0 0.012049008625665329 -0.0044585382161126215 0 0.01441446006116546 -0.00064991361634961242 0 0.012049008625665329 -0.0044585382161126215 0 0.014793074125207613 -0.0008224641521381549 0 0.01441446006116546 -0.00064991361634961242 0 0.012200458673081954 -0.0011307871263616914 0 0.012504562310110193 -0.0012052049575290746 0 0.013977890711823454 0.0047289469872718697 0 0.014076537501070184 0.0048324553859239684 0 0.014096519355259731 0.0047902897510822828 0 0.013235864464500048 0.0021074740454639341 0 0.013612869345293448 0.0022378903934190085 0 0.013977890711823454 0.0047289469872718697 0 0.014076537501070184 0.0048324553859239684 0 0.014079431417016498 0.0048479933242888736 0 0.013235864464500048 0.0021074740454639341 0 0.014510231220033724 0.0058788147239349263 0 0.01041388489840803 -0.0013221913638983963 0 0.01441446006116546 -0.00064991361634961242 0 0.015499703452155091 0.00010527249963222877 0 0.011334781469376868 0.0019709316292771764 0 0.01128973289465107 0.0022994119221319978 0 0.012180429930350085 0.0025736007792264083 0 0.013722624799966993 0.005240387638822991 0 0.013723791767631093 0.0052484681391969283 0 0.013717993993600481 0.0052723512532559125 0 0.014076537501070184 0.0048324553859239684 0 0.014105364140362875 0.0048257285981619684 0 0.014095888796680226 0.0048986516072048155 0 0.014076537501070184 0.0048324553859239684 0 0.014096519355259731 0.0047902897510822828 0 0.014105364140362875 0.0048257285981619684 0 0.012200458673081954 -0.0011307871263616914 0 0.013612869345293448 0.0022378903934190085 0 0.014789370317865683 -0.00081876407235729608 0 0.01441446006116546 -0.00064991361634961242 0 0.015499703452155091 0.00010527249963222877 0 0.010753535883576477 -0.00037646295169464197 0 0.011846000747612676 -0.00087206073337242152 0 0.012036871257383576 0.0012932983384118944 0 0.010384757660926855 -0.0016302363098924645 0 0.012883042935389008 0.0025778279133548661 0 0.011846000747612676 -0.00087206073337242152 0 0.012791018839702259 0.0015042208566434831 0 0.012036871257383576 0.0012932983384118944 0 0.013612869345293448 0.0022378903934190085 0 0.013967960741871543 0.0043575250360666238 0 0.012883042935389008 0.0025778279133548661 0 0.013967960741871543 0.0043575250360666238 0 0.013568584905299077 0.0025697996223579041 0 0.013010841556667728 0.0024134734605401231 0 0.01403517191412954 0.0037507875382905729 0 0.012883042935389008 0.0025778279133548661 0 0.013612869345293448 0.0022378903934190085 0 0.013967960741871543 0.0043575250360666238 0 0.01414181375043802 0.0048960250897628049 0 0.014123472372722037 0.0048281621888780994 0 0.014095888796680226 0.0048986516072048155 0 0.014055308519913014 0.0050277877138353699 0 0.014095888796680226 0.0048986516072048155 0 0.014078970484529215 0.0049079258665139791 0 0.014069830810418729 0.0049777066144765297 0 0.014076537501070184 0.0048324553859239684 0 0.014095888796680226 0.0048986516072048155 0 0.014078970484529215 0.0049079258665139791 0 0.014078970484529215 0.0049079258665139791 0 0.014079431417016498 0.0048479933242888736 0 0.014083209933421752 0.0048649247118997324 0 0.014076537501070184 0.0048324553859239684 0 0.014078970484529215 0.0049079258665139791 0 0.014079431417016498 0.0048479933242888736 0 0.013172671069896643 0.0021414560626436129 0 0.01308185920794025 0.0028450403908174974 0 0.012180429930350085 0.0025736007792264083 0 0.013546246569073991 0.0043338566455820111 0 0.012857125736310523 0.0040033023039312181 0 0.012883042935389008 0.0025778279133548661 0 0.012857125736310523 0.0040033023039312181 0 0.013723791767631093 0.0052484681391969283 0 0.013717993993600481 0.0052723512532559125 0 0.013733478943251385 0.005241391985487117 0 0.013967960741871543 0.0043575250360666238 0 0.013908922165995629 0.0052530568996720095 0 0.014095888796680226 0.0048986516072048155 0 0.014055308519913014 0.0050277877138353699 0 0.014069830810418729 0.0049777066144765297 0 0.013596932001817807 0.0053098901284337648 0 0.013717993993600481 0.0052723512532559125 0 0.013690499299672818 0.0052507323832967651 0 0.013717993993600481 0.0052723512532559125 0 0.013733478943251385 0.005241391985487117 0 0.013690499299672818 0.0052507323832967651 0 0.013690499299672818 0.0052507323832967651 0 0.013789482729011433 0.0051388448438297457 0 0.013598528468516504 0.0052391764429831561 0 0.013908922165995629 0.0052530568996720095 0 0.013772383343873897 0.0050684048910652748 0 0.013733478943251385 0.005241391985487117 0 0.013690499299672818 0.0052507323832967651 0 0.013789482729011433 0.0051388448438297457 0 0.014055308519913014 0.0050277877138353699 0 0.01402692054233092 0.0050561615259956134 0 0.013789482729011433 0.0051388448438297457 0 0.014055308519913014 0.0050277877138353699 0 0.01402692054233092 0.0050561615259956134 0 0.014069830810418729 0.0049777066144765297 0 0.01402692054233092 0.0050561615259956134 0 0.013789482729011433 0.0051388448438297457 0 0.014019889955607476 0.0050710703723734511 0 0.01408085130953946 0.0049684449329242611 0 0.014099151739203215 0.0049508143429389919 0 0.014083209933421752 0.0048649247118997324 0 0.014078970484529215 0.0049079258665139791 0 0.01408085130953946 0.0049684449329242611 0 0.014083209933421752 0.0048649247118997324 0 0.01408085130953946 0.0049684449329242611 0 0.014070494937690263 0.0050230193734916153 0 0.014099151739203215 0.0049508143429389919 0 0.01402692054233092 0.0050561615259956134 0 0.01408085130953946 0.0049684449329242611 0 0.014069830810418729 0.0049777066144765297 0 0.01402692054233092 0.0050561615259956134 0 0.01408085130953946 0.0049684449329242611 0 0.014070494937690263 0.0050230193734916153 0 0.014078970484529215 0.0049079258665139791 0 0.01408085130953946 0.0049684449329242611 0 0.014069830810418729 0.0049777066144765297 0 0.01402692054233092 0.0050561615259956134 0 0.014070494937690263 0.0050230193734916153 0 0.014019889955607476 0.0050710703723734511 0 0.014070494937690263 0.0050230193734916153 0 0.014104941434873416 0.0050193409577900657 0 0.014019889955607476 0.0050710703723734511 0 0.014099151739203215 0.0049508143429389919 0 0.014104941434873416 0.0050193409577900657 0 0.014116469023254379 0.0049571071342209118 0 0.014070494937690263 0.0050230193734916153 0 0.014099151739203215 0.0049508143429389919 0 0.014104941434873416 0.0050193409577900657 0 0.014105680445023796 0.0050622203121544491 0 0.014160991638711285 0.0050696356795358758 0 0.014133078706252416 0.0050178345096396019 0 0.014104941434873416 0.0050193409577900657 0 0.014105680445023796 0.0050622203121544491 0 0.014133078706252416 0.0050178345096396019 0 0.014104941434873416 0.0050193409577900657 0 0.014133078706252416 0.0050178345096396019 0 0.014116469023254379 0.0049571071342209118 0 0.014105680445023796 0.0050622203121544491 0 0.014019889955607476 0.0050710703723734511 0 0.014039087293709019 0.0050921813373727377 0 0.014104941434873416 0.0050193409577900657 0 0.014105680445023796 0.0050622203121544491 0 0.014019889955607476 0.0050710703723734511 0 0.014122110168768987 0.0050938320871677959 0 0.014039087293709019 0.0050921813373727377 0 0.014079318569199157 0.0051136360270677599 0 0.014105680445023796 0.0050622203121544491 0 0.014122110168768987 0.0050938320871677959 0 0.014039087293709019 0.0050921813373727377 0 0.014122110168768987 0.0050938320871677959 0 0.014160991638711285 0.0050696356795358758 0 0.014167969388626647 0.0051044326322835839 0 0.014105680445023796 0.0050622203121544491 0 0.014122110168768987 0.0050938320871677959 0 0.014160991638711285 0.0050696356795358758 0 0.013789482729011433 0.0051388448438297457 0 0.013878006007622736 0.0050945522880822131 0 0.013642634340249407 0.0051000622233702006 0 0.013789482729011433 0.0051388448438297457 0 0.014019889955607476 0.0050710703723734511 0 0.013878006007622736 0.0050945522880822131 0 0.014019889955607476 0.0050710703723734511 0 0.014039087293709019 0.0050921813373727377 0 0.013878006007622736 0.0050945522880822131 0 0.014039087293709019 0.0050921813373727377 0 0.013878006007622736 0.0050945522880822131 0 0.013969293139316535 0.0051093805084134608 0 0.014039087293709019 0.0050921813373727377 0 0.013969293139316535 0.0051093805084134608 0 0.014079318569199157 0.0051136360270677599 0 0.013878006007622736 0.0050945522880822131 0 0.013969293139316535 0.0051093805084134608 0 0.01378389349665092 0.0050973133752583782 0 0.013916187778850311 0.0051130890035279656 0 0.013969293139316535 0.0051093805084134608 0 0.01378389349665092 0.0050973133752583782 0 0.013916187778850311 0.0051130890035279656 0 0.013859133259682608 0.0050917535802464759 0 0.014056900394026553 0.0051339972566173866 0 0.013916187778850311 0.0051130890035279656 0 0.013859133259682608 0.0050917535802464759 0 0.013726053127961104 0.0050870116171294688 0 0.013916187778850311 0.0051130890035279656 0 0.013726053127961104 0.0050870116171294688 0 0.01378389349665092 0.0050973133752583782 0 0.013916187778850311 0.0051130890035279656 0 0.014100816747784017 0.0051405241258194569 0 0.014056900394026553 0.0051339972566173866 0 0.013969293139316535 0.0051093805084134608 0 0.014079318569199157 0.0051136360270677599 0 0.014100816747784017 0.0051405241258194569 0 0.013916187778850311 0.0051130890035279656 0 0.013969293139316535 0.0051093805084134608 0 0.014100816747784017 0.0051405241258194569 0 0.014122110168768987 0.0050938320871677959 0 0.014164720181633964 0.0051295607575001859 0 0.014167969388626647 0.0051044326322835839 0 0.014122110168768987 0.0050938320871677959 0 0.014079318569199157 0.0051136360270677599 0 0.014164720181633964 0.0051295607575001859 0 0.014079318569199157 0.0051136360270677599 0 0.014164720181633964 0.0051295607575001859 0 0.014100816747784017 0.0051405241258194569 0 0.014164720181633964 0.0051295607575001859 0 0.014219541364043438 0.0051186524074318361 0 0.014239454622264369 0.0051634993626162107 0 0.014160991638711285 0.0050696356795358758 0 0.014167969388626647 0.0051044326322835839 0 0.014219541364043438 0.0051186524074318361 0 0.014164720181633964 0.0051295607575001859 0 0.014167969388626647 0.0051044326322835839 0 0.014219541364043438 0.0051186524074318361 0 0.014219541364043438 0.0051186524074318361 0 0.014239454622264369 0.0051634993626162107 0 0.014296320396606879 0.0051654644777493867 0 0.014239454622264369 0.0051634993626162107 0 0.014219937128303857 0.0051757803752655292 0 0.014336774364849007 0.0052097887524059448 0 0.014239454622264369 0.0051634993626162107 0 0.014336774364849007 0.0052097887524059448 0 0.014296320396606879 0.0051654644777493867 0 0.014336774364849007 0.0052097887524059448 0 0.014377932463950712 0.00521594691329548 0 0.014296320396606879 0.0051654644777493867 0 0.014239454622264369 0.0051634993626162107 0 0.014100816747784017 0.0051405241258194569 0 0.014219937128303857 0.0051757803752655292 0 0.014100816747784017 0.0051405241258194569 0 0.014219937128303857 0.0051757803752655292 0 0.014056900394026553 0.0051339972566173866 0 0.014164720181633964 0.0051295607575001859 0 0.014239454622264369 0.0051634993626162107 0 0.014100816747784017 0.0051405241258194569 0 0.014219937128303857 0.0051757803752655292 0 0.014189702371492354 0.0051564217269778933 0 0.014056900394026553 0.0051339972566173866 0 0.014189702371492354 0.0051564217269778933 0 0.01433865113765103 0.0052128967235272597 0 0.014347035951706957 0.0051586279089861379 0 0.014219937128303857 0.0051757803752655292 0 0.014189702371492354 0.0051564217269778933 0 0.01433865113765103 0.0052128967235272597 0 0.014336774364849007 0.0052097887524059448 0 0.014422884533038173 0.0052593246296447271 0 0.014377932463950712 0.00521594691329548 0 0.014336774364849007 0.0052097887524059448 0 0.01433865113765103 0.0052128967235272597 0 0.014422884533038173 0.0052593246296447271 0 0.014219937128303857 0.0051757803752655292 0 0.014336774364849007 0.0052097887524059448 0 0.01433865113765103 0.0052128967235272597 0 0.014422884533038173 0.0052593246296447271 0 0.014478719482762905 0.0052501876453281563 0 0.014515674996687655 0.0053272823874510678 0 0.01433865113765103 0.0052128967235272597 0 0.014422884533038173 0.0052593246296447271 0 0.014478719482762905 0.0052501876453281563 0 0.01433865113765103 0.0052128967235272597 0 0.014478719482762905 0.0052501876453281563 0 0.014347035951706957 0.0051586279089861379 0 0.01457790819755914 0.0051597613999288285 0 0.014347035951706957 0.0051586279089861379 0 0.014449239857531477 0.0050887969816308014 0 0.014478719482762905 0.0052501876453281563 0 0.01457790819755914 0.0051597613999288285 0 0.014347035951706957 0.0051586279089861379 0 0.014478719482762905 0.0052501876453281563 0 0.01457790819755914 0.0051597613999288285 0 0.014823222833721667 0.0052205129547047112 0 0.014189702371492354 0.0051564217269778933 0 0.014347035951706957 0.0051586279089861379 0 0.014128008156907455 0.00509779940123678 0 0.014347035951706957 0.0051586279089861379 0 0.014128008156907455 0.00509779940123678 0 0.014262460742989334 0.0050407972091395048 0 0.014128008156907455 0.00509779940123678 0 0.014101585476602885 0.0050220380073492336 0 0.014262460742989334 0.0050407972091395048 0 0.014128008156907455 0.00509779940123678 0 0.013958991327681374 0.0050200490179575378 0 0.013966608768613872 0.0050849940967040361 0 0.014128008156907455 0.00509779940123678 0 0.013958991327681374 0.0050200490179575378 0 0.014101585476602885 0.0050220380073492336 0 0.013958991327681374 0.0050200490179575378 0 0.013816812036296918 0.0050393593209424837 0 0.013966608768613872 0.0050849940967040361 0 0.013816812036296918 0.0050393593209424837 0 0.013966608768613872 0.0050849940967040361 0 0.013859133259682608 0.0050917535802464759 0 0.013966608768613872 0.0050849940967040361 0 0.013859133259682608 0.0050917535802464759 0 0.014056900394026553 0.0051339972566173866 0 0.014128008156907455 0.00509779940123678 0 0.013966608768613872 0.0050849940967040361 0 0.014056900394026553 0.0051339972566173866 0 0.014189702371492354 0.0051564217269778933 0 0.014128008156907455 0.00509779940123678 0 0.014056900394026553 0.0051339972566173866 0 0.016315690391425039 0.0054817751030468058 0 0.016825187727629365 0.0056430426578642319 0 0.015925463418988709 0.0058171468219234274 0 0.016741221343588679 0.0052627366233902002 0 0.016315690391425039 0.0054817751030468058 0 0.016825187727629365 0.0056430426578642319 0 0.016741221343588679 0.0052627366233902002 0 0.016315690391425039 0.0054817751030468058 0 0.016205707332953373 0.0050668528908816334 0 0.016825187727629365 0.0056430426578642319 0 0.017243260330821308 0.0053048337197717484 0 0.01748205739879969 0.0057378919667463038 0 0.017243260330821308 0.0053048337197717484 0 0.01748205739879969 0.0057378919667463038 0 0.017672006835204344 0.0054078162927718755 0 0.016741221343588679 0.0052627366233902002 0 0.016825187727629365 0.0056430426578642319 0 0.017243260330821308 0.0053048337197717484 0 0.017243260330821308 0.0053048337197717484 0 0.016937330885274986 0.0047525252082375033 0 0.017576834122772896 0.0048719084269803134 0 0.016741221343588679 0.0052627366233902002 0 0.017243260330821308 0.0053048337197717484 0 0.016937330885274986 0.0047525252082375033 0 0.016741221343588679 0.0052627366233902002 0 0.016937330885274986 0.0047525252082375033 0 0.016205707332953373 0.0050668528908816334 0 0.016937330885274986 0.0047525252082375033 0 0.016205707332953373 0.0050668528908816334 0 0.016322093274335175 0.0043650955442268522 0 0.01505016870568658 0.0053371402569612541 0 0.015894362960241663 0.004853707364460608 0 0.016205707332953373 0.0050668528908816334 0 0.014985759273258879 0.005347638386699478 0 0.016322093274335175 0.0043650955442268522 0 0.014985759273258879 0.005347638386699478 0 0.015109801852662199 0.0052339613785148042 0 0.015477871675316477 0.0053362409023945791 0 0.014823222833721667 0.0052205129547047112 0 0.014985759273258879 0.005347638386699478 0 0.015109801852662199 0.0052339613785148042 0 0.01457790819755914 0.0051597613999288285 0 0.014823222833721667 0.0052205129547047112 0 0.014884144140126355 0.0051283001351469905 0 0.014823222833721667 0.0052205129547047112 0 0.014515674996687655 0.0053272823874510678 0 0.014985759273258879 0.005347638386699478 0 0.014478719482762905 0.0052501876453281563 0 0.014823222833721667 0.0052205129547047112 0 0.014515674996687655 0.0053272823874510678 0 0.013211460537607231 0.0054885566737677789 0 0.0188580349066453 0.0039373207333034147 0 0.014515674996687655 0.0053272823874510678 0 0.014377932463950712 0.00521594691329548 0 0.014184875392625468 0.0052051460865377361 0 0.014515674996687655 0.0053272823874510678 0 0.014985759273258879 0.005347638386699478 0 0.015848690091632766 0.0060032557960534244 0 0.014422884533038173 0.0052593246296447271 0 0.014515674996687655 0.0053272823874510678 0 0.014377932463950712 0.00521594691329548 0 0.016205707332953373 0.0050668528908816334 0 0.014985759273258879 0.005347638386699478 0 0.01573376967749919 0.0055068980918255329 0 0.016315690391425039 0.0054817751030468058 0 0.016205707332953373 0.0050668528908816334 0 0.01573376967749919 0.0055068980918255329 0 0.014985759273258879 0.005347638386699478 0 0.01573376967749919 0.0055068980918255329 0 0.015848690091632766 0.0060032557960534244 0 0.017389765562798754 0.0052107569101285927 0 0.0188580349066453 0.0039373207333034147 0 0.016315690391425039 0.0054817751030468058 0 0.01573376967749919 0.0055068980918255329 0 0.015925463418988709 0.0058171468219234274 0 0.014184875392625468 0.0052051460865377361 0 0.014274739013058068 0.0051562625877500596 0 0.014208654245185037 0.0051115238028117205 0 0.0188580349066453 0.0039373207333034147 0 0.020413532580467412 0.0019046813132096601 0 0.014184875392625468 0.0052051460865377361 0 0.014208654245185037 0.0051115238028117205 0 0.014152136609724274 0.0050500601320453758 0 0.014377932463950712 0.00521594691329548 0 0.014184875392625468 0.0052051460865377361 0 0.014274739013058068 0.0051562625877500596 0 0.014377932463950712 0.00521594691329548 0 0.014274739013058068 0.0051562625877500596 0 0.014296320396606879 0.0051654644777493867 0 0.014274739013058068 0.0051562625877500596 0 0.014237738194650452 0.0051207566588320659 0 0.014208654245185037 0.0051115238028117205 0 0.014219541364043438 0.0051186524074318361 0 0.014296320396606879 0.0051654644777493867 0 0.014237738194650452 0.0051207566588320659 0 0.014274739013058068 0.0051562625877500596 0 0.014296320396606879 0.0051654644777493867 0 0.014237738194650452 0.0051207566588320659 0 0.014219541364043438 0.0051186524074318361 0 0.014237738194650452 0.0051207566588320659 0 0.014182096866216012 0.0050722686600891739 0 0.014160991638711285 0.0050696356795358758 0 0.014219541364043438 0.0051186524074318361 0 0.014182096866216012 0.0050722686600891739 0 0.014237738194650452 0.0051207566588320659 0 0.014182096866216012 0.0050722686600891739 0 0.014208654245185037 0.0051115238028117205 0 0.014182096866216012 0.0050722686600891739 0 0.014208654245185037 0.0051115238028117205 0 0.014152136609724274 0.0050500601320453758 0 0.026209771388318485 -0.0010527986519965353 0 0.025301961498116587 -0.00042938529720575383 0 0.025178129101208275 -0.0020238293148238124 0 0.026762263666938318 0.0016006846547713313 0 0.025301961498116587 -0.00042938529720575383 0 0.024484861374224402 0.00032152850905730045 0 0.026762263666938318 0.0016006846547713313 0 0.026209771388318485 -0.0010527986519965353 0 0.025301961498116587 -0.00042938529720575383 0 0.016825187727629365 0.0056430426578642319 0 0.015925463418988709 0.0058171468219234274 0 0.017143627443496363 0.0062388043136636451 0 0.0188580349066453 0.0039373207333034147 0 0.021354515881348214 0.0032492979909083007 0 0.016825187727629365 0.0056430426578642319 0 0.01748205739879969 0.0057378919667463038 0 0.017143627443496363 0.0062388043136636451 0 0.01748205739879969 0.0057378919667463038 0 0.017143627443496363 0.0062388043136636451 0 0.017866366561123222 0.006252969911424963 0 0.025301961498116587 -0.00042938529720575383 0 0.024057220563405514 -0.00096979886870015328 0 0.025178129101208275 -0.0020238293148238124 0 0.025301961498116587 -0.00042938529720575383 0 0.024484861374224402 0.00032152850905730045 0 0.024057220563405514 -0.00096979886870015328 0 0.024399337891944498 -0.0025420990497721607 0 0.025178129101208275 -0.0020238293148238124 0 0.023713760379032986 -0.0019420249046968186 0 0.024979106370752804 -0.0020112679938439474 0 0.023658889509549856 -0.0019123380971528931 0 0.024399337891944498 -0.0025420990497721607 0 0.025178129101208275 -0.0020238293148238124 0 0.025699936084609909 -0.0037010015067730183 0 0.024057220563405514 -0.00096979886870015328 0 0.025178129101208275 -0.0020238293148238124 0 0.023334876006957574 -0.0018008051335201387 0 0.014152136609724274 0.0050500601320453758 0 0.01407543980760049 0.0050172555948826865 0 0.014126865901236529 0.0050308354284028349 0 0.026209771388318485 -0.0010527986519965353 0 0.025178129101208275 -0.0020238293148238124 0 0.025699936084609909 -0.0037010015067730183 0 0.020413532580467412 0.0019046813132096601 0 0.019838457541289937 0.00066283579482733304 0 0.01407543980760049 0.0050172555948826865 0 0.014110004459970717 0.0049770981351686845 0 0.014069732451812762 0.0048735807992995196 0 0.024399337891944498 -0.0025420990497721607 0 0.025699936084609909 -0.0037010015067730183 0 0.024181195787266681 -0.0035536208114812515 0 0.025699936084609909 -0.0037010015067730183 0 0.024181195787266681 -0.0035536208114812515 0 0.024499877410706489 -0.0043735230622783429 0 0.024181195787266681 -0.0035536208114812515 0 0.024499877410706489 -0.0043735230622783429 0 0.02358212723221656 -0.0044092020665563369 0 0.014160991638711285 0.0050696356795358758 0 0.014182096866216012 0.0050722686600891739 0 0.014141202627165709 0.0050252010274664041 0 0.014182096866216012 0.0050722686600891739 0 0.014126865901236529 0.0050308354284028349 0 0.014141202627165709 0.0050252010274664041 0 0.014182096866216012 0.0050722686600891739 0 0.014152136609724274 0.0050500601320453758 0 0.014126865901236529 0.0050308354284028349 0 0.01407543980760049 0.0050172555948826865 0 0.014126865901236529 0.0050308354284028349 0 0.014110004459970717 0.0049770981351686845 0 0.014110004459970717 0.0049770981351686845 0 0.014141202627165709 0.0050252010274664041 0 0.014122153022100167 0.0049712838461375749 0 0.014126865901236529 0.0050308354284028349 0 0.014110004459970717 0.0049770981351686845 0 0.014141202627165709 0.0050252010274664041 0 0.014160991638711285 0.0050696356795358758 0 0.014141202627165709 0.0050252010274664041 0 0.014133078706252416 0.0050178345096396019 0 0.014141202627165709 0.0050252010274664041 0 0.014122153022100167 0.0049712838461375749 0 0.014133078706252416 0.0050178345096396019 0 0.014122153022100167 0.0049712838461375749 0 0.014133078706252416 0.0050178345096396019 0 0.014116469023254379 0.0049571071342209118 0 0.014099151739203215 0.0049508143429389919 0 0.014116469023254379 0.0049571071342209118 0 0.01409658204297461 0.0048687650654080719 0 0.014122153022100167 0.0049712838461375749 0 0.014116469023254379 0.0049571071342209118 0 0.014104572163689488 0.0048992722118476181 0 0.014116469023254379 0.0049571071342209118 0 0.014104572163689488 0.0048992722118476181 0 0.01409658204297461 0.0048687650654080719 0 0.014110004459970717 0.0049770981351686845 0 0.014122153022100167 0.0049712838461375749 0 0.014104572163689488 0.0048992722118476181 0 0.014110004459970717 0.0049770981351686845 0 0.014104572163689488 0.0048992722118476181 0 0.014069732451812762 0.0048735807992995196 0 0.014104572163689488 0.0048992722118476181 0 0.014069732451812762 0.0048735807992995196 0 0.014082421585459505 0.0047991797769968546 0 0.014069732451812762 0.0048735807992995196 0 0.014082421585459505 0.0047991797769968546 0 0.014059405117456149 0.0047118348324503385 0 0.014045767222499596 0.0046611357321917988 0 0.014055393253176465 0.004734873308186378 0 0.014059405117456149 0.0047118348324503385 0 0.014055393253176465 0.004734873308186378 0 0.014082421585459505 0.0047991797769968546 0 0.014059405117456149 0.0047118348324503385 0 0.014055393253176465 0.004734873308186378 0 0.014082421585459505 0.0047991797769968546 0 0.014075820447444095 0.0048047319135146134 0 0.014082421585459505 0.0047991797769968546 0 0.01409658204297461 0.0048687650654080719 0 0.014075820447444095 0.0048047319135146134 0 0.014104572163689488 0.0048992722118476181 0 0.014082421585459505 0.0047991797769968546 0 0.01409658204297461 0.0048687650654080719 0 0.014099151739203215 0.0049508143429389919 0 0.01409658204297461 0.0048687650654080719 0 0.014083209933421752 0.0048649247118997324 0 0.01409658204297461 0.0048687650654080719 0 0.014075820447444095 0.0048047319135146134 0 0.014083209933421752 0.0048649247118997324 0 0.025699936084609909 -0.0037010015067730183 0 0.024819349934364417 -0.005185469240433135 0 0.025236234321459029 -0.0063278828467957004 0 0.025699936084609909 -0.0037010015067730183 0 0.024819349934364417 -0.005185469240433135 0 0.024499877410706489 -0.0043735230622783429 0 0.024819349934364417 -0.005185469240433135 0 0.024399441694559668 -0.0056085075703141297 0 0.024701352644903241 -0.0059547990033537463 0 0.024399441694559668 -0.0056085075703141297 0 0.024153182442704653 -0.005145240978700838 0 0.023910087108708601 -0.0057897877386566066 0 0.024819349934364417 -0.005185469240433135 0 0.024399441694559668 -0.0056085075703141297 0 0.024153182442704653 -0.005145240978700838 0 0.024153182442704653 -0.005145240978700838 0 0.024499877410706489 -0.0043735230622783429 0 0.02358212723221656 -0.0044092020665563369 0 0.024819349934364417 -0.005185469240433135 0 0.024153182442704653 -0.005145240978700838 0 0.024499877410706489 -0.0043735230622783429 0 0.01407543980760049 0.0050172555948826865 0 0.014069732451812762 0.0048735807992995196 0 0.013978144745042987 0.0047996578246051027 0 0.019838457541289937 0.00066283579482733304 0 0.019373392266105523 -0.0008939659204390333 0 0.01407543980760049 0.0050172555948826865 0 0.013978144745042987 0.0047996578246051027 0 0.013531570811684815 0.0046857111461248071 0 0.014069732451812762 0.0048735807992995196 0 0.013978144745042987 0.0047996578246051027 0 0.014059405117456149 0.0047118348324503385 0 0.013978144745042987 0.0047996578246051027 0 0.014099460744620141 0.0045544930165946594 0 0.013531570811684815 0.0046857111461248071 0 0.013749640800717416 0.0021317577483655052 0 0.014099460744620141 0.0045544930165946594 0 0.013531570811684815 0.0046857111461248071 0 0.013978144745042987 0.0047996578246051027 0 0.014059405117456149 0.0047118348324503385 0 0.014099460744620141 0.0045544930165946594 0 0.014045767222499596 0.0046611357321917988 0 0.014059405117456149 0.0047118348324503385 0 0.014099460744620141 0.0045544930165946594 0 0.024819349934364417 -0.005185469240433135 0 0.025236234321459029 -0.0063278828467957004 0 0.024701352644903241 -0.0059547990033537463 0 0.025236234321459029 -0.0063278828467957004 0 0.024701352644903241 -0.0059547990033537463 0 0.02455047846233354 -0.0064940154757029819 0 0.024399441694559668 -0.0056085075703141297 0 0.024316938799538113 -0.0061502262761496803 0 0.023910087108708601 -0.0057897877386566066 0 0.024399441694559668 -0.0056085075703141297 0 0.024701352644903241 -0.0059547990033537463 0 0.024316938799538113 -0.0061502262761496803 0 0.024701352644903241 -0.0059547990033537463 0 0.024316938799538113 -0.0061502262761496803 0 0.02455047846233354 -0.0064940154757029819 0 0.024344459847549269 -0.0073191074222740847 0 0.024153994911911811 -0.0067329074524643531 0 0.02455047846233354 -0.0064940154757029819 0 0.024316938799538113 -0.0061502262761496803 0 0.024153994911911811 -0.0067329074524643531 0 0.02455047846233354 -0.0064940154757029819 0 0.024344459847549269 -0.0073191074222740847 0 0.025236234321459029 -0.0063278828467957004 0 0.02455047846233354 -0.0064940154757029819 0 0.024344459847549269 -0.0073191074222740847 0 0.024153994911911811 -0.0067329074524643531 0 0.023687714506296267 -0.0070218253215154668 0 0.023687714506296267 -0.0070218253215154668 0 0.023092501443459708 -0.0065724190525533388 0 0.023759844608990964 -0.0063661635810448643 0 0.024153994911911811 -0.0067329074524643531 0 0.023687714506296267 -0.0070218253215154668 0 0.023759844608990964 -0.0063661635810448643 0 0.024316938799538113 -0.0061502262761496803 0 0.024153994911911811 -0.0067329074524643531 0 0.023759844608990964 -0.0063661635810448643 0 0.023032723456710494 -0.0073355054640925768 0 0.023092501443459708 -0.0065724190525533388 0 0.022330179654989329 -0.0069169949817023176 0 0.023032723456710494 -0.0073355054640925768 0 0.023687714506296267 -0.0070218253215154668 0 0.023092501443459708 -0.0065724190525533388 0 0.023092501443459708 -0.0065724190525533388 0 0.022892501590362671 -0.0060713765947752853 0 0.022550464901439537 -0.0063268599964989448 0 0.023092501443459708 -0.0065724190525533388 0 0.023328128170976011 -0.0059594918482373405 0 0.022892501590362671 -0.0060713765947752853 0 0.023328128170976011 -0.0059594918482373405 0 0.022892501590362671 -0.0060713765947752853 0 0.02292817027210662 -0.0055910270324791992 0 0.022892501590362671 -0.0060713765947752853 0 0.02292817027210662 -0.0055910270324791992 0 0.02250256082347259 -0.0058798159916047402 0 0.024316938799538113 -0.0061502262761496803 0 0.023759844608990964 -0.0063661635810448643 0 0.023910087108708601 -0.0057897877386566066 0 0.023092501443459708 -0.0065724190525533388 0 0.023328128170976011 -0.0059594918482373405 0 0.023759844608990964 -0.0063661635810448643 0 0.023328128170976011 -0.0059594918482373405 0 0.023759844608990964 -0.0063661635810448643 0 0.023910087108708601 -0.0057897877386566066 0 0.024153182442704653 -0.005145240978700838 0 0.023910087108708601 -0.0057897877386566066 0 0.023472827484774125 -0.005327109693817134 0 0.023328128170976011 -0.0059594918482373405 0 0.023910087108708601 -0.0057897877386566066 0 0.023472827484774125 -0.005327109693817134 0 0.023328128170976011 -0.0059594918482373405 0 0.023472827484774125 -0.005327109693817134 0 0.02292817027210662 -0.0055910270324791992 0 0.02292817027210662 -0.0055910270324791992 0 0.022908743943030625 -0.0049165467963300565 0 0.022453831492240603 -0.0053303660903874662 0 0.023472827484774125 -0.005327109693817134 0 0.02292817027210662 -0.0055910270324791992 0 0.022908743943030625 -0.0049165467963300565 0 0.022908743943030625 -0.0049165467963300565 0 0.02358212723221656 -0.0044092020665563369 0 0.022635635478106254 -0.0042296941413914107 0 0.023472827484774125 -0.005327109693817134 0 0.022908743943030625 -0.0049165467963300565 0 0.02358212723221656 -0.0044092020665563369 0 0.024153182442704653 -0.005145240978700838 0 0.023472827484774125 -0.005327109693817134 0 0.02358212723221656 -0.0044092020665563369 0 0.021609939143146656 -0.0049149121329738936 0 0.022224430384380756 -0.0048272525315950464 0 0.021955691285892066 -0.0052599392384814776 0 0.021609939143146656 -0.0049149121329738936 0 0.021745232734135936 -0.0043647225658499187 0 0.022224430384380756 -0.0048272525315950464 0 0.021609939143146656 -0.0049149121329738936 0 0.021745232734135936 -0.0043647225658499187 0 0.021182476418142512 -0.0045298416904569179 0 0.021745232734135936 -0.0043647225658499187 0 0.022224430384380756 -0.0048272525315950464 0 0.022635635478106254 -0.0042296941413914107 0 0.022908743943030625 -0.0049165467963300565 0 0.022224430384380756 -0.0048272525315950464 0 0.022635635478106254 -0.0042296941413914107 0 0.022908743943030625 -0.0049165467963300565 0 0.022224430384380756 -0.0048272525315950464 0 0.022453831492240603 -0.0053303660903874662 0 0.022224430384380756 -0.0048272525315950464 0 0.022453831492240603 -0.0053303660903874662 0 0.021955691285892066 -0.0052599392384814776 0 0.02292817027210662 -0.0055910270324791992 0 0.022453831492240603 -0.0053303660903874662 0 0.02250256082347259 -0.0058798159916047402 0 0.022453831492240603 -0.0053303660903874662 0 0.02250256082347259 -0.0058798159916047402 0 0.022018534206044636 -0.0057757874411130689 0 0.022453831492240603 -0.0053303660903874662 0 0.021955691285892066 -0.0052599392384814776 0 0.022018534206044636 -0.0057757874411130689 0 0.021955691285892066 -0.0052599392384814776 0 0.02145009219384476 -0.0055267095660405767 0 0.022018534206044636 -0.0057757874411130689 0 0.021609939143146656 -0.0049149121329738936 0 0.021955691285892066 -0.0052599392384814776 0 0.02145009219384476 -0.0055267095660405767 0 0.021609939143146656 -0.0049149121329738936 0 0.02145009219384476 -0.0055267095660405767 0 0.021014082107227869 -0.005098534303504273 0 0.02145009219384476 -0.0055267095660405767 0 0.021560445138016616 -0.0061125946476152573 0 0.02103024650304218 -0.0060355108359588698 0 0.02145009219384476 -0.0055267095660405767 0 0.021560445138016616 -0.0061125946476152573 0 0.022018534206044636 -0.0057757874411130689 0 0.021560445138016616 -0.0061125946476152573 0 0.022018534206044636 -0.0057757874411130689 0 0.022087329610894164 -0.0062719388358636729 0 0.021560445138016616 -0.0061125946476152573 0 0.022087329610894164 -0.0062719388358636729 0 0.021697468334925044 -0.0066513247180822119 0 0.021560445138016616 -0.0061125946476152573 0 0.021697468334925044 -0.0066513247180822119 0 0.021272090753316715 -0.0064753366123132998 0 0.02250256082347259 -0.0058798159916047402 0 0.022018534206044636 -0.0057757874411130689 0 0.022087329610894164 -0.0062719388358636729 0 0.02250256082347259 -0.0058798159916047402 0 0.022087329610894164 -0.0062719388358636729 0 0.022550464901439537 -0.0063268599964989448 0 0.022892501590362671 -0.0060713765947752853 0 0.02250256082347259 -0.0058798159916047402 0 0.022550464901439537 -0.0063268599964989448 0 0.023092501443459708 -0.0065724190525533388 0 0.022550464901439537 -0.0063268599964989448 0 0.022330179654989329 -0.0069169949817023176 0 0.022087329610894164 -0.0062719388358636729 0 0.022550464901439537 -0.0063268599964989448 0 0.022330179654989329 -0.0069169949817023176 0 0.022087329610894164 -0.0062719388358636729 0 0.022330179654989329 -0.0069169949817023176 0 0.021697468334925044 -0.0066513247180822119 0 0.021789078114003799 -0.0074095792687754085 0 0.022330179654989329 -0.0069169949817023176 0 0.021697468334925044 -0.0066513247180822119 0 0.021789078114003799 -0.0074095792687754085 0 0.021697468334925044 -0.0066513247180822119 0 0.021240826058399921 -0.0069910600165451779 0 0.021697468334925044 -0.0066513247180822119 0 0.021240826058399921 -0.0069910600165451779 0 0.021272090753316715 -0.0064753366123132998 0 0.021240826058399921 -0.0069910600165451779 0 0.021272090753316715 -0.0064753366123132998 0 0.020829988301417506 -0.006590434478123631 0 0.020831230606656551 -0.0072724782887542911 0 0.021240826058399921 -0.0069910600165451779 0 0.020829988301417506 -0.006590434478123631 0 0.020831230606656551 -0.0072724782887542911 0 0.020829988301417506 -0.006590434478123631 0 0.02026049769684251 -0.0067860897093693041 0 0.020181631434942948 -0.0074000958478975688 0 0.020831230606656551 -0.0072724782887542911 0 0.02026049769684251 -0.0067860897093693041 0 0.020181631434942948 -0.0074000958478975688 0 0.02026049769684251 -0.0067860897093693041 0 0.01954279391067347 -0.0067912216655147189 0 0.02026049769684251 -0.0067860897093693041 0 0.020341263444311863 -0.0063315204296565406 0 0.01988682861049431 -0.0063269297744126679 0 0.020829988301417506 -0.006590434478123631 0 0.02026049769684251 -0.0067860897093693041 0 0.020341263444311863 -0.0063315204296565406 0 0.020829988301417506 -0.006590434478123631 0 0.020341263444311863 -0.0063315204296565406 0 0.020683959320677781 -0.0061744322722005413 0 0.020341263444311863 -0.0063315204296565406 0 0.019953574456665062 -0.0058192349544325776 0 0.01988682861049431 -0.0063269297744126679 0 0.020341263444311863 -0.0063315204296565406 0 0.019953574456665062 -0.0058192349544325776 0 0.020534210518244389 -0.0057422054203329232 0 0.020341263444311863 -0.0063315204296565406 0 0.020534210518244389 -0.0057422054203329232 0 0.020683959320677781 -0.0061744322722005413 0 0.020534210518244389 -0.0057422054203329232 0 0.02103024650304218 -0.0060355108359588698 0 0.020683959320677781 -0.0061744322722005413 0 0.020534210518244389 -0.0057422054203329232 0 0.02103024650304218 -0.0060355108359588698 0 0.020922502880017652 -0.0055497188155988596 0 0.021272090753316715 -0.0064753366123132998 0 0.020829988301417506 -0.006590434478123631 0 0.02103024650304218 -0.0060355108359588698 0 0.021560445138016616 -0.0061125946476152573 0 0.021272090753316715 -0.0064753366123132998 0 0.02103024650304218 -0.0060355108359588698 0 0.020829988301417506 -0.006590434478123631 0 0.02103024650304218 -0.0060355108359588698 0 0.020683959320677781 -0.0061744322722005413 0 0.018649658590582079 -0.0072604325899617191 0 0.018860349257078902 -0.0063208136594949393 0 0.018091957456748291 -0.0061438778103635877 0 0.018649658590582079 -0.0072604325899617191 0 0.01954279391067347 -0.0067912216655147189 0 0.018860349257078902 -0.0063208136594949393 0 0.02026049769684251 -0.0067860897093693041 0 0.01954279391067347 -0.0067912216655147189 0 0.01988682861049431 -0.0063269297744126679 0 0.019493716148597368 -0.0075309376848694595 0 0.018649658590582079 -0.0072604325899617191 0 0.01954279391067347 -0.0067912216655147189 0 0.01954279391067347 -0.0067912216655147189 0 0.019330716261621448 -0.0059070653398876714 0 0.018860349257078902 -0.0063208136594949393 0 0.01954279391067347 -0.0067912216655147189 0 0.01988682861049431 -0.0063269297744126679 0 0.019330716261621448 -0.0059070653398876714 0 0.019953574456665062 -0.0058192349544325776 0 0.019330716261621448 -0.0059070653398876714 0 0.019586385700050606 -0.0054683531548262972 0 0.019953574456665062 -0.0058192349544325776 0 0.01988682861049431 -0.0063269297744126679 0 0.019330716261621448 -0.0059070653398876714 0 0.019330716261621448 -0.0059070653398876714 0 0.018860349257078902 -0.0063208136594949393 0 0.018680748391077074 -0.0055098929262638423 0 0.018860349257078902 -0.0063208136594949393 0 0.018680748391077074 -0.0055098929262638423 0 0.018091957456748291 -0.0061438778103635877 0 0.018680748391077074 -0.0055098929262638423 0 0.019056963097761025 -0.0052397171566411372 0 0.018743155108972613 -0.0045597305039635381 0 0.018680748391077074 -0.0055098929262638423 0 0.018743155108972613 -0.0045597305039635381 0 0.018473895039004561 -0.0049297867962343721 0 0.019056963097761025 -0.0052397171566411372 0 0.019459910181853449 -0.005100651731824119 0 0.018743155108972613 -0.0045597305039635381 0 0.019330716261621448 -0.0059070653398876714 0 0.018680748391077074 -0.0055098929262638423 0 0.019056963097761025 -0.0052397171566411372 0 0.019056963097761025 -0.0052397171566411372 0 0.019459910181853449 -0.005100651731824119 0 0.019586385700050606 -0.0054683531548262972 0 0.019330716261621448 -0.0059070653398876714 0 0.019056963097761025 -0.0052397171566411372 0 0.019586385700050606 -0.0054683531548262972 0 0.019586385700050606 -0.0054683531548262972 0 0.019939383632685943 -0.0054987548644626722 0 0.019767951759446952 -0.0052287196754536381 0 0.019953574456665062 -0.0058192349544325776 0 0.019586385700050606 -0.0054683531548262972 0 0.019939383632685943 -0.0054987548644626722 0 0.019459910181853449 -0.005100651731824119 0 0.019586385700050606 -0.0054683531548262972 0 0.019767951759446952 -0.0052287196754536381 0 0.019459910181853449 -0.005100651731824119 0 0.019767951759446952 -0.0052287196754536381 0 0.019996836091366037 -0.0038701145489914699 0 0.018743155108972613 -0.0045597305039635381 0 0.0183508696968783 -0.004522013172015343 0 0.018473895039004561 -0.0049297867962343721 0 0.019767951759446952 -0.0052287196754536381 0 0.020555300410529706 -0.0048488197725050034 0 0.020955039344659976 -0.0034787312681016673 0 0.019848331284177897 -0.0050613533270064378 0 0.021129002664733217 -0.0034563081931162148 0 0.020650806687966688 -0.0053283691061909678 0 0.021014082107227869 -0.005098534303504273 0 0.020922502880017652 -0.0055497188155988596 0 0.020650806687966688 -0.0053283691061909678 0 0.021014082107227869 -0.005098534303504273 0 0.020555300410529706 -0.0048488197725050034 0 0.02145009219384476 -0.0055267095660405767 0 0.02103024650304218 -0.0060355108359588698 0 0.020922502880017652 -0.0055497188155988596 0 0.02145009219384476 -0.0055267095660405767 0 0.021014082107227869 -0.005098534303504273 0 0.020922502880017652 -0.0055497188155988596 0 0.020534210518244389 -0.0057422054203329232 0 0.020650806687966688 -0.0053283691061909678 0 0.020922502880017652 -0.0055497188155988596 0 0.020534210518244389 -0.0057422054203329232 0 0.020650806687966688 -0.0053283691061909678 0 0.020228316316269916 -0.0054089278050725139 0 0.019767951759446952 -0.0052287196754536381 0 0.020228316316269916 -0.0054089278050725139 0 0.020555300410529706 -0.0048488197725050034 0 0.019953574456665062 -0.0058192349544325776 0 0.019939383632685943 -0.0054987548644626722 0 0.020228316316269916 -0.0054089278050725139 0 0.019953574456665062 -0.0058192349544325776 0 0.020534210518244389 -0.0057422054203329232 0 0.020228316316269916 -0.0054089278050725139 0 0.019939383632685943 -0.0054987548644626722 0 0.019767951759446952 -0.0052287196754536381 0 0.020228316316269916 -0.0054089278050725139 0 0.020650806687966688 -0.0053283691061909678 0 0.020228316316269916 -0.0054089278050725139 0 0.020555300410529706 -0.0048488197725050034 0 0.021014082107227869 -0.005098534303504273 0 0.020555300410529706 -0.0048488197725050034 0 0.021182476418142512 -0.0045298416904569179 0 0.021609939143146656 -0.0049149121329738936 0 0.021014082107227869 -0.005098534303504273 0 0.021182476418142512 -0.0045298416904569179 0 0.019767951759446952 -0.0052287196754536381 0 0.019996836091366037 -0.0038701145489914699 0 0.021202878705692305 -0.0031142977725708851 0 0.021745232734135936 -0.0043647225658499187 0 0.021182476418142512 -0.0045298416904569179 0 0.020955039344659976 -0.0034787312681016673 0 0.020555300410529706 -0.0048488197725050034 0 0.021182476418142512 -0.0045298416904569179 0 0.020955039344659976 -0.0034787312681016673 0 0.019996836091366037 -0.0038701145489914699 0 0.021202878705692305 -0.0031142977725708851 0 0.019937616683726105 -0.0028746402130668154 0 0.021202878705692305 -0.0031142977725708851 0 0.019937616683726105 -0.0028746402130668154 0 0.020290724950402673 -0.0018479284482645262 0 0.019459910181853449 -0.005100651731824119 0 0.019996836091366037 -0.0038701145489914699 0 0.018599001224299104 -0.0027540546011763207 0 0.018743155108972613 -0.0045597305039635381 0 0.018778142331116597 -0.0029481338318619725 0 0.018291939633800072 -0.0038583188027220701 0 0.019937616683726105 -0.0028746402130668154 0 0.018599001224299104 -0.0027540546011763207 0 0.020290724950402673 -0.0018479284482645262 0 0.019459910181853449 -0.005100651731824119 0 0.018743155108972613 -0.0045597305039635381 0 0.018778142331116597 -0.0029481338318619725 0 0.019453579536974838 -0.0051358814752005162 0 0.018659584171233406 -0.0023629375182843385 0 0.019996836091366037 -0.0038701145489914699 0 0.019937616683726105 -0.0028746402130668154 0 0.018599001224299104 -0.0027540546011763207 0 0.018659584171233406 -0.0023629375182843385 0 0.020135323065489218 -0.00053124138965771484 0 0.018737086272577436 0.00014397433717521407 0 0.019047219295451029 0.00088965290032044829 0 0.018247811755242222 0.0015456174158569255 0 0.019047219295451029 0.00088965290032044829 0 0.018247811755242222 0.0015456174158569255 0 0.019505981795197146 0.0013948888326858349 0 0.018737086272577436 0.00014397433717521407 0 0.019047219295451029 0.00088965290032044829 0 0.019752393376371347 0.00070342320746038373 0 0.019047219295451029 0.00088965290032044829 0 0.019752393376371347 0.00070342320746038373 0 0.019505981795197146 0.0013948888326858349 0 0.021202878705692305 -0.0031142977725708851 0 0.020290724950402673 -0.0018479284482645262 0 0.021957469843158845 -0.00094298638075499181 0 0.020135323065489218 -0.00053124138965771484 0 0.020234264435457807 0.0018482155084054096 0 0.020234264435457807 0.0018482155084054096 0 0.01901766936537359 0.0041010796986888989 0 0.019752393376371347 0.00070342320746038373 0 0.020753473761099459 0.0012516867043294683 0 0.019505981795197146 0.0013948888326858349 0 0.020955039344659976 -0.0034787312681016673 0 0.022112897306282579 -0.0025827287595968215 0 0.02213592892251064 -0.0017518262705097918 0 0.021129002664733217 -0.0034563081931162148 0 0.021444386365463957 -0.00036536620499290503 0 0.021202878705692305 -0.0031142977725708851 0 0.021957469843158845 -0.00094298638075499181 0 0.022610633349964191 -0.0010177315115632202 0 0.020234264435457807 0.0018482155084054096 0 0.021444386365463957 -0.00036536620499290503 0 0.022112897306282579 -0.0025827287595968215 0 0.022866537318861468 -0.0024073767882432642 0 0.022257134702118174 -0.0030434633685034844 0 0.022112897306282579 -0.0025827287595968215 0 0.02213592892251064 -0.0017518262705097918 0 0.022866537318861468 -0.0024073767882432642 0 0.021444386365463957 -0.00036536620499290503 0 0.023658889509549856 -0.0019123380971528931 0 0.02213592892251064 -0.0017518262705097918 0 0.023713760379032986 -0.0019420249046968186 0 0.022866537318861468 -0.0024073767882432642 0 0.023713760379032986 -0.0019420249046968186 0 0.022866537318861468 -0.0024073767882432642 0 0.023206280832537597 -0.0032917110977086295 0 0.021565330280146858 -0.0015642212509659704 0 0.023334876006957574 -0.0018008051335201387 0 0.021986126836055556 -0.00095692895151400844 0 0.024399337891944498 -0.0025420990497721607 0 0.023713760379032986 -0.0019420249046968186 0 0.023206280832537597 -0.0032917110977086295 0 0.022866537318861468 -0.0024073767882432642 0 0.023206280832537597 -0.0032917110977086295 0 0.022257134702118174 -0.0030434633685034844 0 0.024399337891944498 -0.0025420990497721607 0 0.024181195787266681 -0.0035536208114812515 0 0.023206280832537597 -0.0032917110977086295 0 0.024181195787266681 -0.0035536208114812515 0 0.02358212723221656 -0.0044092020665563369 0 0.023206280832537597 -0.0032917110977086295 0 0.02358212723221656 -0.0044092020665563369 0 0.023206280832537597 -0.0032917110977086295 0 0.022635635478106254 -0.0042296941413914107 0 0.021745232734135936 -0.0043647225658499187 0 0.022635635478106254 -0.0042296941413914107 0 0.021982201660356269 -0.0036746848448965027 0 0.023206280832537597 -0.0032917110977086295 0 0.022635635478106254 -0.0042296941413914107 0 0.021982201660356269 -0.0036746848448965027 0 0.021745232734135936 -0.0043647225658499187 0 0.020955039344659976 -0.0034787312681016673 0 0.021982201660356269 -0.0036746848448965027 0 0.020955039344659976 -0.0034787312681016673 0 0.022112897306282579 -0.0025827287595968215 0 0.022257134702118174 -0.0030434633685034844 0 0.020955039344659976 -0.0034787312681016673 0 0.021982201660356269 -0.0036746848448965027 0 0.022257134702118174 -0.0030434633685034844 0 0.023206280832537597 -0.0032917110977086295 0 0.021982201660356269 -0.0036746848448965027 0 0.022257134702118174 -0.0030434633685034844 0 0.027935836509435964 -0.00069920052263940894 0 0.031389428324557989 -0.0017053660802530523 0 0.029310519518497585 0.0012890638293646458 0 0.027935836509435964 -0.00069920052263940894 0 0.029155066739137054 -0.0027050739417747217 0 0.031389428324557989 -0.0017053660802530523 0 0.027195488401696992 -0.0037840981874074707 0 0.027935836509435964 -0.00069920052263940894 0 0.029155066739137054 -0.0027050739417747217 0 0.030199205432498401 -0.004530567416825124 0 0.029155066739137054 -0.0027050739417747217 0 0.031389428324557989 -0.0017053660802530523 0 0.028065852915052709 -0.0021554674880155241 0 0.026021954868864983 -0.00021808219119451639 0 0.023892409204938923 -0.0029502879327761512 0 0.024323069626553558 -0.0020121651634417239 0 0.023079233642638974 -0.001574676275938077 0 0.024323069626553558 -0.0020121651634417239 0 0.024639981785957062 -0.003213292700347196 0 0.025125619941991851 -0.0025794340234640101 0 0.023892409204938923 -0.0029502879327761512 0 0.024323069626553558 -0.0020121651634417239 0 0.024639981785957062 -0.003213292700347196 0 0.026080091905056287 -0.0060828075245915932 0 0.028065852915052709 -0.0021554674880155241 0 0.025082811824788828 -0.0039088110099424547 0 0.0247478515489226 -0.0043662388055525836 0 0.024639981785957062 -0.003213292700347196 0 0.0247478515489226 -0.0043662388055525836 0 0.023892409204938923 -0.0029502879327761512 0 0.024639981785957062 -0.003213292700347196 0 0.025082811824788828 -0.0039088110099424547 0 0.024639981785957062 -0.003213292700347196 0 0.025125619941991851 -0.0025794340234640101 0 0.020584407574052922 -0.0061963593761675956 0 0.02129836117824668 -0.0036938019955517999 0 0.01731903136981278 -0.0072123557531043065 0 0.018091957456748291 -0.0061438778103635877 0 0.017348749167221782 -0.0051863662264182622 0 0.020584407574052922 -0.0061963593761675956 0 0.017629755590766492 -0.0070760413724601529 0 0.01721143706276531 -0.0073140060901127337 0 0.018649658590582079 -0.0072604325899617191 0 0.018091957456748291 -0.0061438778103635877 0 0.018091957456748291 -0.0061438778103635877 0 0.018116570243589643 -0.0051238350714861072 0 0.017348749167221782 -0.0051863662264182622 0 0.018680748391077074 -0.0055098929262638423 0 0.018091957456748291 -0.0061438778103635877 0 0.018116570243589643 -0.0051238350714861072 0 0.017348749167221782 -0.0051863662264182622 0 0.017915329534088979 -0.0044470527782756132 0 0.017532712262095615 -0.0035647806100893094 0 0.018680748391077074 -0.0055098929262638423 0 0.018116570243589643 -0.0051238350714861072 0 0.018473895039004561 -0.0049297867962343721 0 0.018116570243589643 -0.0051238350714861072 0 0.017348749167221782 -0.0051863662264182622 0 0.017915329534088979 -0.0044470527782756132 0 0.017915329534088979 -0.0044470527782756132 0 0.0183508696968783 -0.004522013172015343 0 0.018291939633800072 -0.0038583188027220701 0 0.018743155108972613 -0.0045597305039635381 0 0.0183508696968783 -0.004522013172015343 0 0.018291939633800072 -0.0038583188027220701 0 0.018116570243589643 -0.0051238350714861072 0 0.0183508696968783 -0.004522013172015343 0 0.018473895039004561 -0.0049297867962343721 0 0.018116570243589643 -0.0051238350714861072 0 0.017915329534088979 -0.0044470527782756132 0 0.0183508696968783 -0.004522013172015343 0 0.02129836117824668 -0.0036938019955517999 0 0.02126502172925001 -0.0023475493810248987 0 0.017348749167221782 -0.0051863662264182622 0 0.017532712262095615 -0.0035647806100893094 0 0.017463438472621502 -0.0028538917784744935 0 0.018778142331116597 -0.0029481338318619725 0 0.018291939633800072 -0.0038583188027220701 0 0.017532712262095615 -0.0035647806100893094 0 0.017915329534088979 -0.0044470527782756132 0 0.018291939633800072 -0.0038583188027220701 0 0.017532712262095615 -0.0035647806100893094 0 0.019098571238176272 -0.0028170399809427831 0 0.017532712262095615 -0.0035647806100893094 0 0.017463438472621502 -0.0028538917784744935 0 0.018659584171233406 -0.0023629375182843385 0 0.017718194966214941 -0.0034215854078304513 0 0.018659584171233406 -0.0023629375182843385 0 0.019312687423462337 0.0024054623929896479 0 0.02126502172925001 -0.0023475493810248987 0 0.021788205896415922 0.0011364520471075499 0 0.017463438472621502 -0.0028538917784744935 0 0.017613054188234174 -8.7338433042388159e-05 0 0.018213469489821808 -0.00016035716731075113 0 0.019098571238176272 -0.0028170399809427831 0 0.017463438472621502 -0.0028538917784744935 0 0.018213469489821808 -0.00016035716731075113 0 0.025151940538855118 -0.0012902515754898963 0 0.024242544446867288 -0.00083988757132402183 0 0.025179903205953327 -4.3597856642390923e-05 0 0.024323069626553558 -0.0020121651634417239 0 0.025125619941991851 -0.0025794340234640101 0 0.025151940538855118 -0.0012902515754898963 0 0.024323069626553558 -0.0020121651634417239 0 0.025151940538855118 -0.0012902515754898963 0 0.024242544446867288 -0.00083988757132402183 0 0.024323069626553558 -0.0020121651634417239 0 0.024242544446867288 -0.00083988757132402183 0 0.023079233642638974 -0.001574676275938077 0 0.024242544446867288 -0.00083988757132402183 0 0.023211056776287094 -0.00045705353969783402 0 0.023895583690456568 0.00011039676169446506 0 0.024242544446867288 -0.00083988757132402183 0 0.023211056776287094 -0.00045705353969783402 0 0.023079233642638974 -0.001574676275938077 0 0.026021954868864983 -0.00021808219119451639 0 0.025656675331432482 0.0021107965169160957 0 0.023211056776287094 -0.00045705353969783402 0 0.023079233642638974 -0.001574676275938077 0 0.022290620850320804 -0.00025773587780017216 0 0.029310519518497585 0.0012890638293646458 0 0.027465046251894405 0.0014898165047568467 0 0.027314611637508025 0.0037785700109536744 0 0.027935836509435964 -0.00069920052263940894 0 0.029310519518497585 0.0012890638293646458 0 0.027465046251894405 0.0014898165047568467 0 0.025318120915308794 0.0039326701110799058 0 0.025438242513689008 0.0039416244861842815 0 0.02459555694884388 0.0041568395515677236 0 0.025551297688189565 0.0038234087743259774 0 0.025318120915308794 0.0039326701110799058 0 0.025654649518926414 0.0037930572656219796 0 0.025551297688189565 0.0038234087743259774 0 0.025654649518926414 0.0037930572656219796 0 0.025667218788584481 0.0037229017825899896 0 0.025318120915308794 0.0039326701110799058 0 0.025438242513689008 0.0039416244861842815 0 0.025654649518926414 0.0037930572656219796 0 0.025901238023476974 0.0037541322291953965 0 0.025654649518926414 0.0037930572656219796 0 0.025739023660725457 0.0035870023537874782 0 0.024608250118061191 0.0048442162056358653 0 0.02545088233497772 0.004476524045955799 0 0.025654649518926414 0.0037930572656219796 0 0.025739023660725457 0.0035870023537874782 0 0.025718946713398354 0.0036297356838257636 0 0.025901238023476974 0.0037541322291953965 0 0.025739023660725457 0.0035870023537874782 0 0.025786431353670987 0.003440253281898834 0 0.024608250118061191 0.0048442162056358653 0 0.02391942489572426 0.0025658655394526489 0 0.023211056776287094 -0.00045705353969783402 0 0.022620569478565979 0.00027679021583547635 0 0.023895583690456568 0.00011039676169446506 0 0.023211056776287094 -0.00045705353969783402 0 0.022620569478565979 0.00027679021583547635 0 0.022290620850320804 -0.00025773587780017216 0 0.025739023660725457 0.0035870023537874782 0 0.025766428774971525 0.0034500305114680261 0 0.02578760801632083 0.0034953173417889569 0 0.023942249623707522 0.0033661690400157637 0 0.024253885263366012 0.0038627020862741033 0 0.023080825951016848 0.0040039906761552314 0 0.025739023660725457 0.0035870023537874782 0 0.025766428774971525 0.0034500305114680261 0 0.025786431353670987 0.003440253281898834 0 0.02430903554232421 0.0025889679754199542 0 0.02391942489572426 0.0025658655394526489 0 0.025766428774971525 0.0034500305114680261 0 0.025719597343948394 0.0034545970769843132 0 0.025863900248825178 0.0036120613499489875 0 0.02391942489572426 0.0025658655394526489 0 0.025656675331432482 0.0021107965169160957 0 0.023942249623707522 0.0033661690400157637 0 0.023080825951016848 0.0040039906761552314 0 0.02293596784047441 0.0033934160907602663 0 0.02391942489572426 0.0025658655394526489 0 0.023740861871440873 0.0020830453443829253 0 0.024608250118061191 0.0048442162056358653 0 0.024088997122796836 0.0049604532883213703 0 0.024447728283971397 0.0070148070033791907 0 0.023013606758087446 0.007069990016623849 0 0.023598272824669031 0.0056293810564943918 0 0.024608250118061191 0.0048442162056358653 0 0.022950493654163202 0.0051867900345188896 0 0.023013606758087446 0.007069990016623849 0 0.021904005143339504 0.0061361244255861043 0 0.022748828308981929 0.0060359851616244211 0 0.02293596784047441 0.0033934160907602663 0 0.022250563810872617 0.0036588425314227515 0 0.021866706757139965 0.0034317861093354001 0 0.022950493654163202 0.0051867900345188896 0 0.021413547707062837 0.0061332518847159482 0 0.023013606758087446 0.007069990016623849 0 0.021466520163830164 0.0071059447248115488 0 0.021904005143339504 0.0061361244255861043 0 0.023740861871440873 0.0020830453443829253 0 0.021788205896415922 0.0011364520471075499 0 0.024242544446867288 -0.00083988757132402183 0 0.023895583690456568 0.00011039676169446506 0 0.025179903205953327 -4.3597856642390923e-05 0 0.023080825951016848 0.0040039906761552314 0 0.02293596784047441 0.0033934160907602663 0 0.022636933827739819 0.0037696885782836078 0 0.02293596784047441 0.0033934160907602663 0 0.022636933827739819 0.0037696885782836078 0 0.022250563810872617 0.0036588425314227515 0 0.023080825951016848 0.0040039906761552314 0 0.022636933827739819 0.0037696885782836078 0 0.022187255799511463 0.0040228043071739352 0 0.023080825951016848 0.0040039906761552314 0 0.022187255799511463 0.0040228043071739352 0 0.021894202925300126 0.0041337768328715942 0 0.022636933827739819 0.0037696885782836078 0 0.022187255799511463 0.0040228043071739352 0 0.022250563810872617 0.0036588425314227515 0 0.022187255799511463 0.0040228043071739352 0 0.022250563810872617 0.0036588425314227515 0 0.021832146438030067 0.0037052247797332151 0 0.022250563810872617 0.0036588425314227515 0 0.021832146438030067 0.0037052247797332151 0 0.021875514878473994 0.0035828261644150739 0 0.021023748809116186 0.0046464607516881473 0 0.021788205896415922 0.0011364520471075499 0 0.022187255799511463 0.0040228043071739352 0 0.021813636351777667 0.0036823719561734631 0 0.021894202925300126 0.0041337768328715942 0 0.021023748809116186 0.0046464607516881473 0 0.02118392195581693 0.0051737240476558317 0 0.021754077513936741 0.0042872184384423178 0 0.021023748809116186 0.0046464607516881473 0 0.020701069341809198 0.0037932251627869028 0 0.020406737938194065 0.0019490606954480547 0 0.021393759028831037 0.0018338757956699459 0 0.021788205896415922 0.0011364520471075499 0 0.019312687423462337 0.0024054623929896479 0 0.01976590394983398 0.0060285691555259664 0 0.019652941259083529 0.0063318539729322419 0 0.019576143788777915 0.0060941081145756424 0 0.021023748809116186 0.0046464607516881473 0 0.019312687423462337 0.0024054623929896479 0 0.019576143788777915 0.0060941081145756424 0 0.019574624999436997 0.0058574804888593714 0 0.019310194865707779 0.0061557947822639411 0 0.019652941259083529 0.0063318539729322419 0 0.019576143788777915 0.0060941081145756424 0 0.019310194865707779 0.0061557947822639411 0 0.01976590394983398 0.0060285691555259664 0 0.019576143788777915 0.0060941081145756424 0 0.019574624999436997 0.0058574804888593714 0 0.021023748809116186 0.0046464607516881473 0 0.020177625024734195 0.0059657835819869158 0 0.020177625024734195 0.0059657835819869158 0 0.021413547707062837 0.0061332518847159482 0 0.020841481045523452 0.0056265925576713819 0 0.021046554946731879 0.0057120618837015408 0 0.021042295556342044 0.005620431348710756 0 0.021019597451697087 0.0057859978485085397 0 0.020841481045523452 0.0056265925576713819 0 0.021046554946731879 0.0057120618837015408 0 0.02118392195581693 0.0051737240476558317 0 0.021413547707062837 0.0061332518847159482 0 0.022250563810872617 0.0036588425314227515 0 0.021875514878473994 0.0035828261644150739 0 0.021866706757139965 0.0034317861093354001 0 0.021413547707062837 0.0061332518847159482 0 0.021705352581002726 0.0064865874603447062 0 0.020353463858227418 0.0069140597563464691 0 0.0207283237318391 0.0068968528405366821 0 0.020177485927800762 0.0060938830682273097 0 0.021413547707062837 0.0061332518847159482 0 0.020982902005225703 0.0055551654097759917 0 0.0207283237318391 0.0068968528405366821 0 0.020681606356571246 0.0054931143527227472 0 0.020177485927800762 0.0060938830682273097 0 0.021468166260604854 0.0071084815481920255 0 0.021369649253720778 0.0052828281790584398 0 0.021904005143339504 0.0061361244255861043 0 0.021369649253720778 0.0052828281790584398 0 0.022325574680695352 0.0052736319283242664 0 0.021904005143339504 0.0061361244255861043 0 0.020681606356571246 0.0054931143527227472 0 0.020177485927800762 0.0060938830682273097 0 0.019855448936775349 0.0053036300580166472 0 0.020681606356571246 0.0054931143527227472 0 0.019855448936775349 0.0053036300580166472 0 0.020124038249237825 0.0047181157674549843 0 0.020982902005225703 0.0055551654097759917 0 0.020906084946381246 0.0038037852937453211 0 0.020681606356571246 0.0054931143527227472 0 0.020124038249237825 0.0047181157674549843 0 0.020883413497165899 0.0038415710476230633 0 0.021369649253720778 0.0052828281790584398 0 0.02184498245407597 0.0044003419237199307 0 0.020883413497165899 0.0038415710476230633 0 0.021369649253720778 0.0052828281790584398 0 0.02184498245407597 0.0044003419237199307 0 0.022325574680695352 0.0052736319283242664 0 0.022812704605846935 0.0040430549159525403 0 0.022325574680695352 0.0052736319283242664 0 0.023598272824669031 0.0056293810564943918 0 0.02184498245407597 0.0044003419237199307 0 0.022812704605846935 0.0040430549159525403 0 0.022325574680695352 0.0052736319283242664 0 0.022325574680695352 0.0052736319283242664 0 0.022748828308981929 0.0060359851616244211 0 0.023598272824669031 0.0056293810564943918 0 0.022325574680695352 0.0052736319283242664 0 0.021904005143339504 0.0061361244255861043 0 0.022748828308981929 0.0060359851616244211 0 0.023013606758087446 0.007069990016623849 0 0.022748828308981929 0.0060359851616244211 0 0.023598272824669031 0.0056293810564943918 0 0.022812704605846935 0.0040430549159525403 0 0.02459555694884388 0.0041568395515677236 0 0.024686453949495216 0.003658961885763513 0 0.022903827594127509 0.0039217547073992706 0 0.024088997122796836 0.0049604532883213703 0 0.023596687733717071 0.0039688254692818959 0 0.024227307916024111 0.0035492314751616651 0 0.024510828415101434 0.0037634664479908242 0 0.024101283510647012 0.0038364160468662345 0 0.025275692086847365 0.0038321008469422366 0 0.023596687733717071 0.0039688254692818959 0 0.024510828415101434 0.0037634664479908242 0 0.024926372628640926 0.0039575196020776729 0 0.02459555694884388 0.0041568395515677236 0 0.024686453949495216 0.003658961885763513 0 0.025275115487684033 0.0038851206727963938 0 0.024686453949495216 0.003658961885763513 0 0.025275115487684033 0.0038851206727963938 0 0.025697679516110933 0.0037217463100567673 0 0.025318120915308794 0.0039326701110799058 0 0.02459555694884388 0.0041568395515677236 0 0.025275115487684033 0.0038851206727963938 0 0.025551297688189565 0.0038234087743259774 0 0.025318120915308794 0.0039326701110799058 0 0.025275115487684033 0.0038851206727963938 0 0.025551297688189565 0.0038234087743259774 0 0.025275115487684033 0.0038851206727963938 0 0.025592307423668911 0.0037895906931205161 0 0.018378002289540969 0.0057640346301094415 0 0.017972142339257924 0.0060338860184954209 0 0.018815428331374194 0.0060622717499721817 0 0.018080085875831049 0.0060269144310344082 0 0.018658395335785866 0.0059891150440450477 0 0.018378002289540969 0.0057640346301094415 0 0.018091157303114665 0.0057597132525809662 0 0.017972142339257924 0.0060338860184954209 0 0.018091157303114665 0.0057597132525809662 0 0.017863902559791537 0.0057357286106510547 0 0.017972142339257924 0.0060338860184954209 0 0.01748205739879969 0.0057378919667463038 0 0.017863902559791537 0.0057357286106510547 0 0.017812297538065666 0.0060464950807278825 0 0.017501056980557442 0.0057124486538482448 0 0.018064972729311547 0.0062936647406903095 0 0.017863902559791537 0.0057357286106510547 0 0.017972142339257924 0.0060338860184954209 0 0.017812297538065666 0.0060464950807278825 0 0.021354515881348214 0.0032492979909083007 0 0.019758046964028643 0.0034164260194232761 0 0.018064972729311547 0.0062936647406903095 0 0.019758046964028643 0.0034164260194232761 0 0.017972142339257924 0.0060338860184954209 0 0.017812297538065666 0.0060464950807278825 0 0.018089060873191353 0.0063556521482796315 0 0.017143627443496363 0.0062388043136636451 0 0.017866366561123222 0.006252969911424963 0 0.018244861511933105 0.0067196765396277608 0 0.024484861374224402 0.00032152850905730045 0 0.024057220563405514 -0.00096979886870015328 0 0.021986126836055556 -0.00095692895151400844 0 0.024057220563405514 -0.00096979886870015328 0 0.023334876006957574 -0.0018008051335201387 0 0.021986126836055556 -0.00095692895151400844 0 0.020198997573045149 0.0021803783952433625 0 0.020233661391386524 0.0021773389680813213 0 0.020256062666564087 0.002218775431868139 0 0.020234264435457807 0.0018482155084054096 0 0.019758046964028643 0.0034164260194232761 0 0.021444386365463957 -0.00036536620499290503 0 0.019758046964028643 0.0034164260194232761 0 0.017972142339257924 0.0060338860184954209 0 0.018431644247122125 0.0062122433242459713 0 0.018759052486595963 0.0059134960651681277 0 0.017972142339257924 0.0060338860184954209 0 0.018089060873191353 0.0063556521482796315 0 0.018431644247122125 0.0062122433242459713 0 0.018408595542836848 0.0065085626741489761 0 0.018089060873191353 0.0063556521482796315 0 0.018431644247122125 0.0062122433242459713 0 0.018431644247122125 0.0062122433242459713 0 0.019020816976464374 0.0064262348242048869 0 0.018759052486595963 0.0059134960651681277 0 0.018408595542836848 0.0065085626741489761 0 0.018431644247122125 0.0062122433242459713 0 0.019020816976464374 0.0064262348242048869 0 0.019574624999436997 0.0058574804888593714 0 0.019310194865707779 0.0061557947822639411 0 0.018759052486595963 0.0059134960651681277 0 0.019020816976464374 0.0064262348242048869 0 0.019310194865707779 0.0061557947822639411 0 0.018759052486595963 0.0059134960651681277 0 0.019652941259083529 0.0063318539729322419 0 0.019020816976464374 0.0064262348242048869 0 0.019310194865707779 0.0061557947822639411 0 0.019312687423462337 0.0024054623929896479 0 0.01901766936537359 0.0041010796986888989 0 0.020353463858227418 0.0069140597563464691 0 0.019123548082150131 0.0057398138019967605 0 0.020177485927800762 0.0060938830682273097 0 0.020177625024734195 0.0059657835819869158 0 0.018658395335785866 0.0059891150440450477 0 0.019697660017947337 0.0060422634459546048 0 0.018815428331374194 0.0060622717499721817 0 0.018953053703352152 0.0053570353079803292 0 0.020177625024734195 0.0059657835819869158 0 0.019033328596866513 0.005629954056637969 0 0.018378002289540969 0.0057640346301094415 0 0.018815428331374194 0.0060622717499721817 0 0.018953053703352152 0.0053570353079803292 0 0.019123548082150131 0.0057398138019967605 0 0.020177485927800762 0.0060938830682273097 0 0.019855448936775349 0.0053036300580166472 0 0.019123548082150131 0.0057398138019967605 0 0.019855448936775349 0.0053036300580166472 0 0.019166849315111974 0.0044534205516099804 0 0.019855448936775349 0.0053036300580166472 0 0.020124038249237825 0.0047181157674549843 0 0.019166849315111974 0.0044534205516099804 0 0.019123548082150131 0.0057398138019967605 0 0.018182936294144237 0.0046325248201629296 0 0.019166849315111974 0.0044534205516099804 0 0.019033328596866513 0.005629954056637969 0 0.01821382173297487 0.0046543052397492006 0 0.018378002289540969 0.0057640346301094415 0 0.018953053703352152 0.0053570353079803292 0 0.018123473927264898 0.0053347914579220572 0 0.018953053703352152 0.0053570353079803292 0 0.018182936294144237 0.0046325248201629296 0 0.018123473927264898 0.0053347914579220572 0 0.018091157303114665 0.0057597132525809662 0 0.017863902559791537 0.0057357286106510547 0 0.018123473927264898 0.0053347914579220572 0 0.018378002289540969 0.0057640346301094415 0 0.018091157303114665 0.0057597132525809662 0 0.018123473927264898 0.0053347914579220572 0 0.018123473927264898 0.0053347914579220572 0 0.017672006835204344 0.0054078162927718755 0 0.017576834122772896 0.0048719084269803134 0 0.01748205739879969 0.0057378919667463038 0 0.017863902559791537 0.0057357286106510547 0 0.017672006835204344 0.0054078162927718755 0 0.017863902559791537 0.0057357286106510547 0 0.018123473927264898 0.0053347914579220572 0 0.017672006835204344 0.0054078162927718755 0 0.017243260330821308 0.0053048337197717484 0 0.017672006835204344 0.0054078162927718755 0 0.017576834122772896 0.0048719084269803134 0 0.018182936294144237 0.0046325248201629296 0 0.018123473927264898 0.0053347914579220572 0 0.017576834122772896 0.0048719084269803134 0 0.018347810773600058 0.0037427925412838329 0 0.018238559836099535 0.0034453912343797486 0 0.017349627067232923 0.0037429099061271412 0 0.018182936294144237 0.0046325248201629296 0 0.018347810773600058 0.0037427925412838329 0 0.017349627067232923 0.0037429099061271412 0 0.018182936294144237 0.0046325248201629296 0 0.017576834122772896 0.0048719084269803134 0 0.017349627067232923 0.0037429099061271412 0 0.018182936294144237 0.0046325248201629296 0 0.018347810773600058 0.0037427925412838329 0 0.019166849315111974 0.0044534205516099804 0 0.018347810773600058 0.0037427925412838329 0 0.019166849315111974 0.0044534205516099804 0 0.018885494954475075 0.0033342055072064915 0 0.019166849315111974 0.0044534205516099804 0 0.01983450207724155 0.003950240007763858 0 0.018885494954475075 0.0033342055072064915 0 0.020124038249237825 0.0047181157674549843 0 0.019166849315111974 0.0044534205516099804 0 0.01983450207724155 0.003950240007763858 0 0.020216309726794529 0.0033786538730329161 0 0.018885494954475075 0.0033342055072064915 0 0.020300316240388146 0.0024800350227847266 0 0.01983450207724155 0.003950240007763858 0 0.020216309726794529 0.0033786538730329161 0 0.018885494954475075 0.0033342055072064915 0 0.018347810773600058 0.0037427925412838329 0 0.018885494954475075 0.0033342055072064915 0 0.018368508026565269 0.0035548110614222086 0 0.018885494954475075 0.0033342055072064915 0 0.018368508026565269 0.0035548110614222086 0 0.018178456299121987 0.0038082685165853015 0 0.018885494954475075 0.0033342055072064915 0 0.018178456299121987 0.0038082685165853015 0 0.017751295269257887 0.003835654716486094 0 0.018885494954475075 0.0033342055072064915 0 0.020300316240388146 0.0024800350227847266 0 0.02052651581349246 0.0017975325446390627 0 0.018839648453021624 0.0033936640629816765 0 0.019139385060705283 0.0026791749437820494 0 0.018178456299121987 0.0038082685165853015 0 0.017867670348350476 0.0040025335309153707 0 0.017751295269257887 0.003835654716486094 0 0.018178456299121987 0.0038082685165853015 0 0.017935573984988483 0.0041056674542950177 0 0.017867670348350476 0.0040025335309153707 0 0.017935573984988483 0.0041056674542950177 0 0.017867670348350476 0.0040025335309153707 0 0.017821335278258209 0.0041213311528320359 0 0.018368508026565269 0.0035548110614222086 0 0.018178456299121987 0.0038082685165853015 0 0.017966900635353163 0.0041904924492585614 0 0.018178456299121987 0.0038082685165853015 0 0.017935573984988483 0.0041056674542950177 0 0.017966900635353163 0.0041904924492585614 0 0.017929045820183329 0.004176087242047744 0 0.017591358408798958 0.0041891530007205488 0 0.018368508026565269 0.0035548110614222086 0 0.017966900635353163 0.0041904924492585614 0 0.018238559836099535 0.0034453912343797486 0 0.016975288096165241 0.0049119093828215079 0 0.016182513295878526 0.0051941613119867898 0 0.016334052208488617 0.0045354912694194095 0 0.017966900635353163 0.0041904924492585614 0 0.016975288096165241 0.0049119093828215079 0 0.017169676928152963 0.0042762200554615553 0 0.016975288096165241 0.0049119093828215079 0 0.017169676928152963 0.0042762200554615553 0 0.016334052208488617 0.0045354912694194095 0 0.017591358408798958 0.0041891530007205488 0 0.016773977944844389 0.0044674454442616704 0 0.018347810773600058 0.0037427925412838329 0 0.018368508026565269 0.0035548110614222086 0 0.018238559836099535 0.0034453912343797486 0 0.023939800682309546 0.0026765076640429971 0 0.023816851969235952 0.0032962480438904966 0 0.023028983615703578 0.0031943506406678967 0 0.023939800682309546 0.0026765076640429971 0 0.023816851969235952 0.0032962480438904966 0 0.024386031131898602 0.0032659901950109695 0 0.024227307916024111 0.0035492314751616651 0 0.023816851969235952 0.0032962480438904966 0 0.024386031131898602 0.0032659901950109695 0 0.023596687733717071 0.0039688254692818959 0 0.024227307916024111 0.0035492314751616651 0 0.023816851969235952 0.0032962480438904966 0 0.023596687733717071 0.0039688254692818959 0 0.023028983615703578 0.0031943506406678967 0 0.02199329827455045 0.0036024331299380334 0 0.023596687733717071 0.0039688254692818959 0 0.023816851969235952 0.0032962480438904966 0 0.023028983615703578 0.0031943506406678967 0 0.024101283510647012 0.0038364160468662345 0 0.022178746998133117 0.0035526505369084301 0 0.023939800682309546 0.0026765076640429971 0 0.023028983615703578 0.0031943506406678967 0 0.022352994993848699 0.0023872706623113676 0 0.024564380071311422 0.0040908953527553525 0 0.022337704443911491 0.0034547194964975507 0 0.023622212709418843 0.003022294384242165 0 0.024221449688398067 0.0033713206304068146 0 0.02235195819914039 0.002929790915115952 0 0.023028983615703578 0.0031943506406678967 0 0.022352994993848699 0.0023872706623113676 0 0.022338977943621881 0.0030890982719400848 0 0.022338977943621881 0.0030890982719400848 0 0.02199329827455045 0.0036024331299380334 0 0.021352707345318855 0.003125419102620864 0 0.022352994993848699 0.0023872706623113676 0 0.022338977943621881 0.0030890982719400848 0 0.021352707345318855 0.003125419102620864 0 0.022812704605846935 0.0040430549159525403 0 0.024686453949495216 0.003658961885763513 0 0.02199329827455045 0.0036024331299380334 0 0.023028983615703578 0.0031943506406678967 0 0.022338977943621881 0.0030890982719400848 0 0.02199329827455045 0.0036024331299380334 0 0.02184498245407597 0.0044003419237199307 0 0.022812704605846935 0.0040430549159525403 0 0.02199329827455045 0.0036024331299380334 0 0.02199329827455045 0.0036024331299380334 0 0.020883413497165899 0.0038415710476230633 0 0.021352707345318855 0.003125419102620864 0 0.02184498245407597 0.0044003419237199307 0 0.02199329827455045 0.0036024331299380334 0 0.020883413497165899 0.0038415710476230633 0 0.020124038249237825 0.0047181157674549843 0 0.01983450207724155 0.003950240007763858 0 0.020883413497165899 0.0038415710476230633 0 0.01983450207724155 0.003950240007763858 0 0.020216309726794529 0.0033786538730329161 0 0.020883413497165899 0.0038415710476230633 0 0.020216309726794529 0.0033786538730329161 0 0.020883413497165899 0.0038415710476230633 0 0.021352707345318855 0.003125419102620864 0 0.022352994993848699 0.0023872706623113676 0 0.021352707345318855 0.003125419102620864 0 0.020300316240388146 0.0024800350227847266 0 0.020216309726794529 0.0033786538730329161 0 0.021352707345318855 0.003125419102620864 0 0.020300316240388146 0.0024800350227847266 0 0.02235195819914039 0.002929790915115952 0 0.020463128460306377 0.002506702242205032 0 0.020300316240388146 0.0024800350227847266 0 0.02052651581349246 0.0017975325446390627 0 0.021853583649948653 0.0023253183645629135 0 0.019139385060705283 0.0026791749437820494 0 0.019996559352756862 0.0032204731299585857 0 0.02052651581349246 0.0017975325446390627 0 0.02176387417500739 0.0015545467232571334 0 0.021842754797123561 0.00042591075973307131 0 0.017751295269257887 0.003835654716486094 0 0.017753390611207752 0.0040585816858893361 0 0.0175828701790317 0.0041820296490568485 0 0.02052651581349246 0.0017975325446390627 0 0.02176387417500739 0.0015545467232571334 0 0.021853583649948653 0.0023253183645629135 0 0.017867670348350476 0.0040025335309153707 0 0.017751295269257887 0.003835654716486094 0 0.017753390611207752 0.0040585816858893361 0 0.017867670348350476 0.0040025335309153707 0 0.017753390611207752 0.0040585816858893361 0 0.017821335278258209 0.0041213311528320359 0 0.02176387417500739 0.0015545467232571334 0 0.02276694267105403 0.0016274692478240611 0 0.021842754797123561 0.00042591075973307131 0 0.02176387417500739 0.0015545467232571334 0 0.021853583649948653 0.0023253183645629135 0 0.02276694267105403 0.0016274692478240611 0 0.022337704443911491 0.0034547194964975507 0 0.020300316240388146 0.0024800350227847266 0 0.021853583649948653 0.0023253183645629135 0 0.022337704443911491 0.0034547194964975507 0 0.021853583649948653 0.0023253183645629135 0 0.023622212709418843 0.003022294384242165 0 0.021853583649948653 0.0023253183645629135 0 0.023622212709418843 0.003022294384242165 0 0.02276694267105403 0.0016274692478240611 0 0.02276694267105403 0.0016274692478240611 0 0.023775384745242066 0.0018978801050259537 0 0.024064255177420044 0.00083000626597779068 0 0.023622212709418843 0.003022294384242165 0 0.02276694267105403 0.0016274692478240611 0 0.023775384745242066 0.0018978801050259537 0 0.02276694267105403 0.0016274692478240611 0 0.024064255177420044 0.00083000626597779068 0 0.021842754797123561 0.00042591075973307131 0 0.024819766596361974 0.0030177757074870836 0 0.023084524375021426 0.004396289831309034 0 0.0252051999328744 0.0043631801889463771 0 0.025196046267744229 0.0041466543135368541 0 0.025265689783070259 0.0043991304970842872 0 0.023775384745242066 0.0018978801050259537 0 0.024672038724368711 0.0021777261607542073 0 0.024064255177420044 0.00083000626597779068 0 0.0252051999328744 0.0043631801889463771 0 0.025133837324766269 0.0042653609702440901 0 0.025196046267744229 0.0041466543135368541 0 0.023894167433483677 0.0055463188755186356 0 0.024487796744641646 0.0053779994658736258 0 0.025133837324766269 0.0042653609702440901 0 0.025150120779281346 0.0043681871600562 0 0.02509164162698025 0.0043537977593643869 0 0.0252051999328744 0.0043631801889463771 0 0.025133837324766269 0.0042653609702440901 0 0.025150120779281346 0.0043681871600562 0 0.024602638704314259 0.0052661821609795096 0 0.023894167433483677 0.0055463188755186356 0 0.025133837324766269 0.0042653609702440901 0 0.025196046267744229 0.0041466543135368541 0 0.025012308351080981 0.0040670893712535638 0 0.024819766596361974 0.0030177757074870836 0 0.025008571434624777 0.0037213878969199984 0 0.025196046267744229 0.0041466543135368541 0 0.024951154755568333 0.0037846574409807813 0 0.025012308351080981 0.0040670893712535638 0 0.024672038724368711 0.0021777261607542073 0 0.024390894744297769 0.0031108126146940913 0 0.024951154755568333 0.0037846574409807813 0 0.023622212709418843 0.003022294384242165 0 0.023775384745242066 0.0018978801050259537 0 0.024390894744297769 0.0031108126146940913 0 0.023775384745242066 0.0018978801050259537 0 0.024672038724368711 0.0021777261607542073 0 0.024390894744297769 0.0031108126146940913 0 0.024564380071311422 0.0040908953527553525 0 0.023622212709418843 0.003022294384242165 0 0.024390894744297769 0.0031108126146940913 0 0.024564380071311422 0.0040908953527553525 0 0.024390894744297769 0.0031108126146940913 0 0.024951154755568333 0.0037846574409807813 0 0.020438328308271619 0.0068048524781617837 0 0.021487611240000388 0.0080857851414538971 0 0.020855122975246304 0.0070427749216105126 0 0.019931432518406456 0.0079846515131824902 0 0.021733274035988622 0.0079983315130527297 0 0.020855122975246304 0.0070427749216105126 0 0.021733274035988622 0.0079983315130527297 0 0.022211352860474699 0.0067985470431852092 0 0.021264290727858865 0.0085715346197159491 0 0.022118947764619104 0.0085111854540617128 0 0.021733274035988622 0.0079983315130527297 0 0.021264290727858865 0.0085715346197159491 0 0.020349205704508117 0.0079401648822879853 0 0.021733274035988622 0.0079983315130527297 0 0.021264290727858865 0.0085715346197159491 0 0.02147213306326326 0.0092042044705500977 0 0.022118947764619104 0.0085111854540617128 0 0.021264290727858865 0.0085715346197159491 0 0.02147213306326326 0.0092042044705500977 0 0.020832020770117934 0.0090604476792982332 0 0.0252051999328744 0.0043631801889463771 0 0.025140286041853147 0.0043757229229307451 0 0.025265689783070259 0.0043991304970842872 0 0.023894167433483677 0.0055463188755186356 0 0.023084524375021426 0.004396289831309034 0 0.021264290727858865 0.0085715346197159491 0 0.020832020770117934 0.0090604476792982332 0 0.020349205704508117 0.0079401648822879853 0 0.02168835417541919 0.0050321238305947305 0 0.021334195661565254 0.0042442808747155825 0 0.020679808445783571 0.0042185425443956731 0 0.023084524375021426 0.004396289831309034 0 0.019996559352756862 0.0032204731299585857 0 0.02168835417541919 0.0050321238305947305 0 0.020679808445783571 0.0042185425443956731 0 0.020231350407186384 0.0047575066669019199 0 0.023084524375021426 0.004396289831309034 0 0.020438328308271619 0.0068048524781617837 0 0.019768553845972356 0.0058902912893481381 0 0.019698598901883968 0.0057336699210363759 0 0.019576394561374645 0.0058791321447980872 0 0.020438328308271619 0.0068048524781617837 0 0.01936012080492195 0.0048755032586245226 0 0.019401264641840811 0.0059641826398694631 0 0.01936012080492195 0.0048755032586245226 0 0.020438328308271619 0.0068048524781617837 0 0.019401264641840811 0.0059641826398694631 0 0.020855122975246304 0.0070427749216105126 0 0.019931432518406456 0.0079846515131824902 0 0.019511339849506953 0.0070479220245066457 0 0.01846571860493313 0.004564871920206299 0 0.018412663103757179 0.0046900029922996985 0 0.018368076158844466 0.004521590707004218 0 0.018176383893663165 0.0045326434324850758 0 0.018412663103757179 0.0046900029922996985 0 0.01794293970022641 0.0045935662409443334 0 0.01936012080492195 0.0048755032586245226 0 0.017977378409989083 0.0042742375539949499 0 0.018176383893663165 0.0045326434324850758 0 0.018412663103757179 0.0046900029922996985 0 0.018368076158844466 0.004521590707004218 0 0.018995656972849845 0.0041001559862313304 0 0.018739579468659708 0.0044042050999985481 0 0.018281627382909931 0.0040847675853790391 0 0.01936012080492195 0.0048755032586245226 0 0.019996559352756862 0.0032204731299585857 0 0.0175828701790317 0.0041820296490568485 0 0.017755115376477563 0.0041338509331177841 0 0.017797584020001939 0.0041911178865035184 0 0.019996559352756862 0.0032204731299585857 0 0.017698191692301534 0.0042252742222107509 0 0.017753390611207752 0.0040585816858893361 0 0.0175828701790317 0.0041820296490568485 0 0.017755115376477563 0.0041338509331177841 0 0.018739579468659708 0.0044042050999985481 0 0.01822098271246755 0.0042995093256725349 0 0.018281627382909931 0.0040847675853790391 0 0.017755115376477563 0.0041338509331177841 0 0.017797584020001939 0.0041911178865035184 0 0.017821335278258209 0.0041213311528320359 0 0.017753390611207752 0.0040585816858893361 0 0.017755115376477563 0.0041338509331177841 0 0.017821335278258209 0.0041213311528320359 0 0.018176383893663165 0.0045326434324850758 0 0.01794293970022641 0.0045935662409443334 0 0.017935326811361677 0.0043982740599068917 0 0.01794293970022641 0.0045935662409443334 0 0.017935326811361677 0.0043982740599068917 0 0.017759189702188951 0.0043367370089576283 0 0.017935326811361677 0.0043982740599068917 0 0.017992510548335457 0.0042663077811260792 0 0.017685093027317054 0.0042075761681350287 0 0.017935326811361677 0.0043982740599068917 0 0.017992510548335457 0.0042663077811260792 0 0.018187152463654755 0.0044472330748365936 0 0.018176383893663165 0.0045326434324850758 0 0.017935326811361677 0.0043982740599068917 0 0.018187152463654755 0.0044472330748365936 0 0.017556752872509487 0.0038985114360992109 0 0.017992510548335457 0.0042663077811260792 0 0.017685093027317054 0.0042075761681350287 0 0.017556752872509487 0.0038985114360992109 0 0.017992510548335457 0.0042663077811260792 0 0.018265109782840201 0.0036741508495324749 0 0.017992510548335457 0.0042663077811260792 0 0.018638925855104956 0.0044539983179662356 0 0.018265109782840201 0.0036741508495324749 0 0.017992510548335457 0.0042663077811260792 0 0.018638925855104956 0.0044539983179662356 0 0.018187152463654755 0.0044472330748365936 0 0.018638925855104956 0.0044539983179662356 0 0.018187152463654755 0.0044472330748365936 0 0.018368076158844466 0.004521590707004218 0 0.01846571860493313 0.004564871920206299 0 0.018638925855104956 0.0044539983179662356 0 0.018368076158844466 0.004521590707004218 0 0.018176383893663165 0.0045326434324850758 0 0.018187152463654755 0.0044472330748365936 0 0.018368076158844466 0.004521590707004218 0 0.019401264641840811 0.0059641826398694631 0 0.01850868254975389 0.0043825528941838212 0 0.01952377570715404 0.0068077263988326874 0 0.018638925855104956 0.0044539983179662356 0 0.020828824683823102 0.0053426424254083898 0 0.019401264641840811 0.0059641826398694631 0 0.020682563926191059 0.0057266868432681965 0 0.018638925855104956 0.0044539983179662356 0 0.020828824683823102 0.0053426424254083898 0 0.020203552783009296 0.0037128270695522951 0 0.020828824683823102 0.0053426424254083898 0 0.021447509983771769 0.0039455571410231703 0 0.020203552783009296 0.0037128270695522951 0 0.020855122975246304 0.0070427749216105126 0 0.020828824683823102 0.0053426424254083898 0 0.022211352860474699 0.0067985470431852092 0 0.020855122975246304 0.0070427749216105126 0 0.019511339849506953 0.0070479220245066457 0 0.020828824683823102 0.0053426424254083898 0 0.017325234919930828 0.0040628301291114966 0 0.01681969310113713 0.0041111993518539924 0 0.016911498394036696 0.003913054269325391 0 0.01681969310113713 0.0041111993518539924 0 0.016911498394036696 0.003913054269325391 0 0.01625497997820971 0.0040756103235907171 0 0.01681969310113713 0.0041111993518539924 0 0.017169676928152963 0.0042762200554615553 0 0.016334052208488617 0.0045354912694194095 0 0.017325234919930828 0.0040628301291114966 0 0.017169676928152963 0.0042762200554615553 0 0.017692597229062676 0.004166282513721014 0 0.017325234919930828 0.0040628301291114966 0 0.01681969310113713 0.0041111993518539924 0 0.017169676928152963 0.0042762200554615553 0 0.017966900635353163 0.0041904924492585614 0 0.017169676928152963 0.0042762200554615553 0 0.017692597229062676 0.004166282513721014 0 0.017966900635353163 0.0041904924492585614 0 0.017868246957760327 0.004187793146158328 0 0.017692597229062676 0.004166282513721014 0 0.017935573984988483 0.0041056674542950177 0 0.017966900635353163 0.0041904924492585614 0 0.017868246957760327 0.004187793146158328 0 0.017692597229062676 0.004166282513721014 0 0.01778920928935666 0.0042281748827140506 0 0.017668356450424545 0.0041837991961265171 0 0.017868246957760327 0.004187793146158328 0 0.017692597229062676 0.004166282513721014 0 0.01778920928935666 0.0042281748827140506 0 0.017797584020001939 0.0041911178865035184 0 0.017838908103230997 0.0041781753669438123 0 0.01778920928935666 0.0042281748827140506 0 0.01822098271246755 0.0042995093256725349 0 0.018281627382909931 0.0040847675853790391 0 0.01778920928935666 0.0042281748827140506 0 0.017698191692301534 0.0042252742222107509 0 0.017921917547366592 0.0042438907033429396 0 0.017797584020001939 0.0041911178865035184 0 0.017838908103230997 0.0041781753669438123 0 0.017821335278258209 0.0041213311528320359 0 0.017935573984988483 0.0041056674542950177 0 0.017838908103230997 0.0041781753669438123 0 0.017821335278258209 0.0041213311528320359 0 0.017935573984988483 0.0041056674542950177 0 0.017868246957760327 0.004187793146158328 0 0.017838908103230997 0.0041781753669438123 0 0.017868246957760327 0.004187793146158328 0 0.017838908103230997 0.0041781753669438123 0 0.01778920928935666 0.0042281748827140506 0 0.017977378409989083 0.0042742375539949499 0 0.01778703045714982 0.0042279090616857799 0 0.01794293970022641 0.0045935662409443334 0 0.017759189702188951 0.0043367370089576283 0 0.017668356450424545 0.0041837991961265171 0 0.018281627382909931 0.0040847675853790391 0 0.01778920928935666 0.0042281748827140506 0 0.017668356450424545 0.0041837991961265171 0 0.017636655743560672 0.0042111963494889304 0 0.017759189702188951 0.0043367370089576283 0 0.017668356450424545 0.0041837991961265171 0 0.017325234919930828 0.0040628301291114966 0 0.017692597229062676 0.004166282513721014 0 0.017572527698129548 0.0041511700910490199 0 0.017692597229062676 0.004166282513721014 0 0.017668356450424545 0.0041837991961265171 0 0.017572527698129548 0.0041511700910490199 0 0.017636655743560672 0.0042111963494889304 0 0.017572527698129548 0.0041511700910490199 0 0.017505364765958927 0.0040932242098473248 0 0.017636655743560672 0.0042111963494889304 0 0.017668356450424545 0.0041837991961265171 0 0.017572527698129548 0.0041511700910490199 0 0.017325234919930828 0.0040628301291114966 0 0.017572527698129548 0.0041511700910490199 0 0.017505364765958927 0.0040932242098473248 0 0.017325234919930828 0.0040628301291114966 0 0.017505364765958927 0.0040932242098473248 0 0.017286762321255287 0.0039484761271988585 0 0.017505364765958927 0.0040932242098473248 0 0.017471653046143742 0.0039503419770123881 0 0.017286762321255287 0.0039484761271988585 0 0.017636655743560672 0.0042111963494889304 0 0.017505364765958927 0.0040932242098473248 0 0.017685093027317054 0.0042075761681350287 0 0.017505364765958927 0.0040932242098473248 0 0.017685093027317054 0.0042075761681350287 0 0.017471653046143742 0.0039503419770123881 0 0.017935326811361677 0.0043982740599068917 0 0.017759189702188951 0.0043367370089576283 0 0.017685093027317054 0.0042075761681350287 0 0.017636655743560672 0.0042111963494889304 0 0.017759189702188951 0.0043367370089576283 0 0.017685093027317054 0.0042075761681350287 0 0.017556752872509487 0.0038985114360992109 0 0.017685093027317054 0.0042075761681350287 0 0.017471653046143742 0.0039503419770123881 0 0.017471653046143742 0.0039503419770123881 0 0.017286762321255287 0.0039484761271988585 0 0.017377153963776606 0.0038762201701447022 0 0.016911498394036696 0.003913054269325391 0 0.016499716681082292 0.0037023502684942842 0 0.017091611677180336 0.0037409535415187331 0 0.017286762321255287 0.0039484761271988585 0 0.017091611677180336 0.0037409535415187331 0 0.017377153963776606 0.0038762201701447022 0 0.017286762321255287 0.0039484761271988585 0 0.016911498394036696 0.003913054269325391 0 0.017091611677180336 0.0037409535415187331 0 0.017325234919930828 0.0040628301291114966 0 0.017286762321255287 0.0039484761271988585 0 0.016911498394036696 0.003913054269325391 0 0.013247700551973109 0.0077366485627440732 0 0.01383266530438634 0.0076856380300944537 0 0.016499716681082292 0.0037023502684942842 0 0.015813643170111368 0.0038092166839817205 0 0.01625497997820971 0.0040756103235907171 0 0.016911498394036696 0.003913054269325391 0 0.016499716681082292 0.0037023502684942842 0 0.01625497997820971 0.0040756103235907171 0 0.0099946965302523203 0.011769061142577295 0 0.0095547224285420698 0.011942546671963259 0 0.0095421267828424867 0.011595030964713034 0 0.0099946965302523203 0.011769061142577295 0 0.0095421267828424867 0.011595030964713034 0 0.0098977095363142215 0.011533647279853143 0 0.013247700551973109 0.0077366485627440732 0 0.012665654610144702 0.0078971209917071492 0 0.015813643170111368 0.0038092166839817205 0 0.01625497997820971 0.0040756103235907171 0 0.015527792397824425 0.0043664644460084511 0 0.01625497997820971 0.0040756103235907171 0 0.016334052208488617 0.0045354912694194095 0 0.015527792397824425 0.0043664644460084511 0 0.01681969310113713 0.0041111993518539924 0 0.01625497997820971 0.0040756103235907171 0 0.016334052208488617 0.0045354912694194095 0 0.015813643170111368 0.0038092166839817205 0 0.015133584046119484 0.0040521149218015976 0 0.015527792397824425 0.0043664644460084511 0 0.0095547224285420698 0.011942546671963259 0 0.0092204030266164385 0.012035404033701536 0 0.0091393880698532135 0.011914497235720708 0 0.015133584046119484 0.0040521149218015976 0 0.014838575048714808 0.0045631435942570407 0 0.015527792397824425 0.0043664644460084511 0 0.012665654610144702 0.0078971209917071492 0 0.012240084902404483 0.0079818245004562912 0 0.0095547224285420698 0.011942546671963259 0 0.0091393880698532135 0.011914497235720708 0 0.0092341860350819722 0.011759851644926966 0 0.0095547224285420698 0.011942546671963259 0 0.0092341860350819722 0.011759851644926966 0 0.0095421267828424867 0.011595030964713034 0 0.0092341860350819722 0.011759851644926966 0 0.0089784365770787019 0.011719468595894648 0 0.0091788240467342973 0.011577753764380506 0 0.0089784365770787019 0.011719468595894648 0 0.0088200902381314773 0.011858571588438477 0 0.0089592086276252501 0.011970581937407972 0 0.0091393880698532135 0.011914497235720708 0 0.0092341860350819722 0.011759851644926966 0 0.0089784365770787019 0.011719468595894648 0 0.0091393880698532135 0.011914497235720708 0 0.0089784365770787019 0.011719468595894648 0 0.0089592086276252501 0.011970581937407972 0 0.0089784365770787019 0.011719468595894648 0 0.0088200902381314773 0.011858571588438477 0 0.008799649156646501 0.011690595050328897 0 0.0088200902381314773 0.011858571588438477 0 0.0087198508194360515 0.012052759961588838 0 0.0089592086276252501 0.011970581937407972 0 0.0085805627353502806 0.011761314226800931 0 0.0088200902381314773 0.011858571588438477 0 0.008799649156646501 0.011690595050328897 0 0.0085805627353502806 0.011761314226800931 0 0.0087198508194360515 0.012052759961588838 0 0.0084121659348821015 0.011936621976870411 0 0.0085805627353502806 0.011761314226800931 0 0.0088200902381314773 0.011858571588438477 0 0.0087198508194360515 0.012052759961588838 0 0.0087198508194360515 0.012052759961588838 0 0.0089592086276252501 0.011970581937407972 0 0.0089104225159909178 0.01203960989621799 0 0.0087198508194360515 0.012052759961588838 0 0.0083021435907841227 0.012280707978072177 0 0.0084239699189896395 0.012741461029996981 0 0.0087198508194360515 0.012052759961588838 0 0.0089104225159909178 0.01203960989621799 0 0.0089216991556468513 0.012035676966594062 0 0.0088074485122108231 0.0123091545112367 0 0.008246642683336549 0.011737491620746677 0 0.0092352581224005355 0.01208923650644109 0 0.008246642683336549 0.011737491620746677 0 0.0087198508194360515 0.012052759961588838 0 0.0089216991556468513 0.012035676966594062 0 0.0088598208389322457 0.012041788681574562 0 0.0089104225159909178 0.01203960989621799 0 0.0089633015097515725 0.012052632243519951 0 0.0089216991556468513 0.012035676966594062 0 0.0092204030266164385 0.012035404033701536 0 0.0091393880698532135 0.011914497235720708 0 0.0089592086276252501 0.011970581937407972 0 0.0089592086276252501 0.011970581937407972 0 0.0089104225159909178 0.01203960989621799 0 0.0089633015097515725 0.012052632243519951 0 0.012240084902404483 0.0079818245004562912 0 0.011504032831731119 0.0084924707854571822 0 0.0092204030266164385 0.012035404033701536 0 0.0089592086276252501 0.011970581937407972 0 0.0089633015097515725 0.012052632243519951 0 0.015133584046119484 0.0040521149218015976 0 0.014838575048714808 0.0045631435942570407 0 0.014538682557580264 0.0043273083498354585 0 0.014838575048714808 0.0045631435942570407 0 0.014538682557580264 0.0043273083498354585 0 0.014422926779310284 0.0045334308159502403 0 0.014538682557580264 0.0043273083498354585 0 0.014422926779310284 0.0045334308159502403 0 0.013898911228183547 0.0047293466966265687 0 0.011504032831731119 0.0084924707854571822 0 0.012356218076362915 0.0067437909981687052 0 0.015142139459889228 0.0040676786031946738 0 0.012356218076362915 0.0067437909981687052 0 0.014422926779310284 0.0045334308159502403 0 0.014342115883675075 0.0046618647769644172 0 0.014118649645754364 0.0046097588224192293 0 0.014422926779310284 0.0045334308159502403 0 0.014342115883675075 0.0046618647769644172 0 0.014560371859347951 0.004697175470923738 0 0.014342115883675075 0.0046618647769644172 0 0.014249861235019506 0.0047280029806886469 0 0.0143885070774761 0.0047480022388588653 0 0.014249861235019506 0.0047280029806886469 0 0.0143885070774761 0.0047480022388588653 0 0.014294566166555346 0.0048198191402798662 0 0.014342115883675075 0.0046618647769644172 0 0.014249861235019506 0.0047280029806886469 0 0.014118649645754364 0.0046097588224192293 0 0.014342115883675075 0.0046618647769644172 0 0.0143885070774761 0.0047480022388588653 0 0.014560371859347951 0.004697175470923738 0 0.0143885070774761 0.0047480022388588653 0 0.014560371859347951 0.004697175470923738 0 0.014500447102286294 0.0048610262590310831 0 0.014838575048714808 0.0045631435942570407 0 0.014422926779310284 0.0045334308159502403 0 0.014560371859347951 0.004697175470923738 0 0.014838575048714808 0.0045631435942570407 0 0.014560371859347951 0.004697175470923738 0 0.01486545525397207 0.0048137780154211534 0 0.014560371859347951 0.004697175470923738 0 0.014500447102286294 0.0048610262590310831 0 0.01486545525397207 0.0048137780154211534 0 0.0089633015097515725 0.012052632243519951 0 0.0089216991556468513 0.012035676966594062 0 0.008920711392255325 0.011818634640283239 0 0.0091379275859269447 0.011838893855775528 0 0.0089216991556468513 0.012035676966594062 0 0.0092784404253776591 0.012115056989270572 0 0.0091379275859269447 0.011838893855775528 0 0.0089216991556468513 0.012035676966594062 0 0.008920711392255325 0.011818634640283239 0 0.014249861235019506 0.0047280029806886469 0 0.014118649645754364 0.0046097588224192293 0 0.014130166507563735 0.0048073501371934295 0 0.012356218076362915 0.0067437909981687052 0 0.014569809352500797 0.0043438674156641172 0 0.014118649645754364 0.0046097588224192293 0 0.013925752874555318 0.0047335115387625954 0 0.014130166507563735 0.0048073501371934295 0 0.012356218076362915 0.0067437909981687052 0 0.011455153028174797 0.0082941553843959258 0 0.014021183928955086 0.0046988266265219755 0 0.013925752874555318 0.0047335115387625954 0 0.013819631496777514 0.004730713177727967 0 0.0091379275859269447 0.011838893855775528 0 0.008920711392255325 0.011818634640283239 0 0.0092171881809266984 0.011511089449349881 0 0.013834971644358273 0.0048195831080482098 0 0.013921493294925508 0.0048745682374631135 0 0.013803680367038235 0.0049351348068831253 0 0.013925752874555318 0.0047335115387625954 0 0.013819631496777514 0.004730713177727967 0 0.013834971644358273 0.0048195831080482098 0 0.013819631496777514 0.004730713177727967 0 0.013834971644358273 0.0048195831080482098 0 0.01372774444295906 0.0048471874950524168 0 0.013925752874555318 0.0047335115387625954 0 0.013834971644358273 0.0048195831080482098 0 0.013990372950837722 0.0048235591569309394 0 0.013834971644358273 0.0048195831080482098 0 0.013921493294925508 0.0048745682374631135 0 0.013990372950837722 0.0048235591569309394 0 0.013990372950837722 0.0048235591569309394 0 0.014130166507563735 0.0048073501371934295 0 0.014091951574857176 0.0049343101586871779 0 0.013921493294925508 0.0048745682374631135 0 0.013990372950837722 0.0048235591569309394 0 0.014091951574857176 0.0049343101586871779 0 0.013925752874555318 0.0047335115387625954 0 0.013990372950837722 0.0048235591569309394 0 0.014130166507563735 0.0048073501371934295 0 0.014130166507563735 0.0048073501371934295 0 0.014091951574857176 0.0049343101586871779 0 0.014267311411811739 0.0049239309681553718 0 0.014091951574857176 0.0049343101586871779 0 0.014101585476602885 0.0050220380073492336 0 0.014262460742989334 0.0050407972091395048 0 0.013958991327681374 0.0050200490179575378 0 0.014101585476602885 0.0050220380073492336 0 0.013962552046417871 0.0049520184352581697 0 0.013921493294925508 0.0048745682374631135 0 0.014091951574857176 0.0049343101586871779 0 0.013962552046417871 0.0049520184352581697 0 0.014091951574857176 0.0049343101586871779 0 0.014101585476602885 0.0050220380073492336 0 0.013962552046417871 0.0049520184352581697 0 0.013958991327681374 0.0050200490179575378 0 0.013816812036296918 0.0050393593209424837 0 0.013803680367038235 0.0049351348068831253 0 0.013921493294925508 0.0048745682374631135 0 0.013962552046417871 0.0049520184352581697 0 0.013803680367038235 0.0049351348068831253 0 0.013958991327681374 0.0050200490179575378 0 0.013962552046417871 0.0049520184352581697 0 0.013803680367038235 0.0049351348068831253 0 0.014500447102286294 0.0048610262590310831 0 0.014765931983077353 0.0049878607396322914 0 0.01486545525397207 0.0048137780154211534 0 0.014500447102286294 0.0048610262590310831 0 0.014470052831330595 0.0049915164376397574 0 0.014765931983077353 0.0049878607396322914 0 0.0143885070774761 0.0047480022388588653 0 0.014500447102286294 0.0048610262590310831 0 0.014294566166555346 0.0048198191402798662 0 0.014249861235019506 0.0047280029806886469 0 0.014130166507563735 0.0048073501371934295 0 0.014294566166555346 0.0048198191402798662 0 0.014130166507563735 0.0048073501371934295 0 0.014294566166555346 0.0048198191402798662 0 0.014267311411811739 0.0049239309681553718 0 0.014500447102286294 0.0048610262590310831 0 0.014294566166555346 0.0048198191402798662 0 0.014267311411811739 0.0049239309681553718 0 0.014500447102286294 0.0048610262590310831 0 0.014267311411811739 0.0049239309681553718 0 0.014470052831330595 0.0049915164376397574 0 0.014267311411811739 0.0049239309681553718 0 0.014262460742989334 0.0050407972091395048 0 0.014470052831330595 0.0049915164376397574 0 0.014091951574857176 0.0049343101586871779 0 0.014267311411811739 0.0049239309681553718 0 0.014262460742989334 0.0050407972091395048 0 0.014347035951706957 0.0051586279089861379 0 0.014262460742989334 0.0050407972091395048 0 0.014449239857531477 0.0050887969816308014 0 0.014262460742989334 0.0050407972091395048 0 0.014449239857531477 0.0050887969816308014 0 0.014470052831330595 0.0049915164376397574 0 0.014449239857531477 0.0050887969816308014 0 0.014470052831330595 0.0049915164376397574 0 0.014622310202884976 0.0050728604092510239 0 0.014470052831330595 0.0049915164376397574 0 0.014622310202884976 0.0050728604092510239 0 0.014765931983077353 0.0049878607396322914 0 0.01457790819755914 0.0051597613999288285 0 0.014449239857531477 0.0050887969816308014 0 0.014622310202884976 0.0050728604092510239 0 0.01457790819755914 0.0051597613999288285 0 0.014622310202884976 0.0050728604092510239 0 0.014884144140126355 0.0051283001351469905 0 0.014884144140126355 0.0051283001351469905 0 0.014765931983077353 0.0049878607396322914 0 0.015255827059551391 0.005043034147774246 0 0.014823222833721667 0.0052205129547047112 0 0.014884144140126355 0.0051283001351469905 0 0.015109801852662199 0.0052339613785148042 0 0.014622310202884976 0.0050728604092510239 0 0.014884144140126355 0.0051283001351469905 0 0.014765931983077353 0.0049878607396322914 0 0.014765931983077353 0.0049878607396322914 0 0.015255827059551391 0.005043034147774246 0 0.01486545525397207 0.0048137780154211534 0 0.015255827059551391 0.005043034147774246 0 0.01486545525397207 0.0048137780154211534 0 0.015225049628668573 0.0047284556489957177 0 0.014884144140126355 0.0051283001351469905 0 0.015255827059551391 0.005043034147774246 0 0.015109801852662199 0.0052339613785148042 0 0.015255827059551391 0.005043034147774246 0 0.015109801852662199 0.0052339613785148042 0 0.015477871675316477 0.0053362409023945791 0 0.015255827059551391 0.005043034147774246 0 0.015477871675316477 0.0053362409023945791 0 0.016182513295878526 0.0051941613119867898 0 0.015894362960241663 0.004853707364460608 0 0.016773977944844389 0.0044674454442616704 0 0.016937330885274986 0.0047525252082375033 0 0.016322093274335175 0.0043650955442268522 0 0.017349627067232923 0.0037429099061271412 0 0.015255827059551391 0.005043034147774246 0 0.016182513295878526 0.0051941613119867898 0 0.015690735179699569 0.0047778646205110988 0 0.016937330885274986 0.0047525252082375033 0 0.017576834122772896 0.0048719084269803134 0 0.017349627067232923 0.0037429099061271412 0 0.016182513295878526 0.0051941613119867898 0 0.015690735179699569 0.0047778646205110988 0 0.016334052208488617 0.0045354912694194095 0 0.015690735179699569 0.0047778646205110988 0 0.016334052208488617 0.0045354912694194095 0 0.015527792397824425 0.0043664644460084511 0 0.015690735179699569 0.0047778646205110988 0 0.015527792397824425 0.0043664644460084511 0 0.015225049628668573 0.0047284556489957177 0 0.014838575048714808 0.0045631435942570407 0 0.015527792397824425 0.0043664644460084511 0 0.015225049628668573 0.0047284556489957177 0 0.014838575048714808 0.0045631435942570407 0 0.01486545525397207 0.0048137780154211534 0 0.015225049628668573 0.0047284556489957177 0 0.015255827059551391 0.005043034147774246 0 0.015690735179699569 0.0047778646205110988 0 0.015225049628668573 0.0047284556489957177 0 0.025716658071313531 0.0049764927317917816 0 0.025770913564214161 0.0060060721151636211 0 0.026130009841194027 0.0046260757401215486 0 0.025603750960311256 0.0068131011814510549 0 0.02572046021596219 0.0045804337017953094 0 0.025450133063281734 0.0071886155727706345 0 0.025874076681598794 0.0069247300669349312 0 0.025619018319771932 0.0065496640998871647 0 0.025716658071313531 0.0049764927317917816 0 0.025917346334910586 0.0046316778787550182 0 0.026130009841194027 0.0046260757401215486 0 0.025716658071313531 0.0049764927317917816 0 0.025373720909077066 0.0052152709703556831 0 0.025770913564214161 0.0060060721151636211 0 0.025516360589546972 0.00467016657523026 0 0.025716658071313531 0.0049764927317917816 0 0.025373720909077066 0.0052152709703556831 0 0.025373720909077066 0.0052152709703556831 0 0.024999975625229567 0.0058874447847696975 0 0.024999920958319703 0.0044923079014017077 0 0.025516360589546972 0.00467016657523026 0 0.025716658071313531 0.0049764927317917816 0 0.025917346334910586 0.0046316778787550182 0 0.025516360589546972 0.00467016657523026 0 0.025373720909077066 0.0052152709703556831 0 0.024999920958319703 0.0044923079014017077 0 0.025373720909077066 0.0052152709703556831 0 0.024999975625229567 0.0058874447847696975 0 0.025770913564214161 0.0060060721151636211 0 0.025450133063281734 0.0071886155727706345 0 0.025874076681598794 0.0069247300669349312 0 0.026002053139271484 0.0073800065033590477 0 0.02626155563968673 0.0069773041990585025 0 0.025874076681598794 0.0069247300669349312 0 0.026002053139271484 0.0073800065033590477 0 0.02626155563968673 0.0069773041990585025 0 0.026700433174778507 0.0070455438770867553 0 0.026432358238881546 0.0074752565786946846 0 0.02626155563968673 0.0069773041990585025 0 0.026432358238881546 0.0074752565786946846 0 0.026002053139271484 0.0073800065033590477 0 0.02626155563968673 0.0069773041990585025 0 0.026451592843971382 0.0065005737071724013 0 0.026700433174778507 0.0070455438770867553 0 0.02626155563968673 0.0069773041990585025 0 0.02603658612789372 0.0065291250106847909 0 0.026451592843971382 0.0065005737071724013 0 0.02626155563968673 0.0069773041990585025 0 0.025874076681598794 0.0069247300669349312 0 0.02603658612789372 0.0065291250106847909 0 0.025874076681598794 0.0069247300669349312 0 0.02603658612789372 0.0065291250106847909 0 0.025619018319771932 0.0065496640998871647 0 0.026210627227367778 0.0043471075264977588 0 0.02572046021596219 0.0045804337017953094 0 0.026245211469475498 0.002159049312754405 0 0.026218968946883331 0.0021370991696426389 0 0.026304097773133056 0.0022120443845829309 0 0.026245211469475498 0.002159049312754405 0 0.026240258337084293 0.0021636074434552648 0 0.026218968946883331 0.0021370991696426389 0 0.026171969370940108 0.0037594574029061515 0 0.026029828333277907 0.0016289130767199536 0 0.026194160641522711 0.0020163867997442723 0 0.026218968946883331 0.0021370991696426389 0 0.02617362294127443 0.0020198423222176683 0 0.026210627227367778 0.0043471075264977588 0 0.026171969370940108 0.0037594574029061515 0 0.026218968946883331 0.0021370991696426389 0 0.026267412228192098 0.0020632011597320706 0 0.02617362294127443 0.0020198423222176683 0 0.026218968946883331 0.0021370991696426389 0 0.02626521002742636 0.0024247873603969175 0 0.026267412228192098 0.0020632011597320706 0 0.026218968946883331 0.0021370991696426389 0 0.026304097773133056 0.0022120443845829309 0 0.02626521002742636 0.0024247873603969175 0 0.025746766905781954 0.0029905077306400006 0 0.026294709088083207 0.0036347463517044723 0 0.02626521002742636 0.0024247873603969175 0 0.025746766905781954 0.0029905077306400006 0 0.026294709088083207 0.0036347463517044723 0 0.025606106840912295 0.0040066373607999832 0 0.026339585028231735 0.0027131917643568311 0 0.026275780622688885 0.0025960023010193336 0 0.026294709088083207 0.0036347463517044723 0 0.026127014740748189 0.0046104213078572423 0 0.025606106840912295 0.0040066373607999832 0 0.026339585028231735 0.0027131917643568311 0 0.02572046021596219 0.0045804337017953094 0 0.026245211469475498 0.002159049312754405 0 0.026304097773133056 0.0022120443845829309 0 0.026306921464569873 0.0021739737488034724 0 0.025917346334910586 0.0046316778787550182 0 0.026127014740748189 0.0046104213078572423 0 0.025606106840912295 0.0040066373607999832 0 0.025841509914561873 0.0045829850684074927 0 0.02572046021596219 0.0045804337017953094 0 0.025516360589546972 0.00467016657523026 0 0.025917346334910586 0.0046316778787550182 0 0.025606106840912295 0.0040066373607999832 0 0.025516360589546972 0.00467016657523026 0 0.024999920958319703 0.0044923079014017077 0 0.025606106840912295 0.0040066373607999832 0 0.025746766905781954 0.0029905077306400006 0 0.025606106840912295 0.0040066373607999832 0 0.024999825646020067 0.003096866740366903 0 0.024999920958319703 0.0044923079014017077 0 0.025606106840912295 0.0040066373607999832 0 0.024999825646020067 0.003096866740366903 0 0.025746766905781954 0.0029905077306400006 0 0.024999825646020067 0.003096866740366903 0 0.025679425958890313 0.0022576343738648311 0 0.024999825646020067 0.003096866740366903 0 0.025679425958890313 0.0022576343738648311 0 0.024999908571729765 0.0017021341937444921 0 0.025679425958890313 0.0022576343738648311 0 0.026231065006028488 0.001936138947335832 0 0.02626521002742636 0.0024247873603969175 0 0.025746766905781954 0.0029905077306400006 0 0.025679425958890313 0.0022576343738648311 0 0.02626521002742636 0.0024247873603969175 0 0.025679425958890313 0.0022576343738648311 0 0.025937888370723996 0.0014274503041003471 0 0.026231065006028488 0.001936138947335832 0 0.025679425958890313 0.0022576343738648311 0 0.024999908571729765 0.0017021341937444921 0 0.025937888370723996 0.0014274503041003471 0 0.024999908571729765 0.0017021341937444921 0 0.025937888370723996 0.0014274503041003471 0 0.025584135138795802 0.00074404014155080933 0 0.024999908571729765 0.0017021341937444921 0 0.025584135138795802 0.00074404014155080933 0 0.024999792312904286 0.00030726433083738583 0 0.025937888370723996 0.0014274503041003471 0 0.025584135138795802 0.00074404014155080933 0 0.026097968352263436 0.00048208303067197181 0 0.025585504866462282 -0.00030053535443846609 0 0.025584135138795802 0.00074404014155080933 0 0.026097968352263436 0.00048208303067197181 0 0.025585504866462282 -0.00030053535443846609 0 0.025584135138795802 0.00074404014155080933 0 0.024999792312904286 0.00030726433083738583 0 0.026628259613535987 0.00012842523099157357 0 0.026097968352263436 0.00048208303067197181 0 0.026715202983315148 0.0012524737160154711 0 0.02619347792239992 0.00059371859824524525 0 0.026294950919542225 0.0014206644525748986 0 0.025937888370723996 0.0014274503041003471 0 0.026097968352263436 0.00048208303067197181 0 0.026715202983315148 0.0012524737160154711 0 0.025901433585984058 0.0016285180782965511 0 0.026267412228192098 0.0020632011597320706 0 0.026161873621491354 0.0019049887843196375 0 0.026294950919542225 0.0014206644525748986 0 0.02627415334576768 0.0019923764949516211 0 0.026715202983315148 0.0012524737160154711 0 0.026231065006028488 0.001936138947335832 0 0.026267412228192098 0.0020632011597320706 0 0.025937888370723996 0.0014274503041003471 0 0.026715202983315148 0.0012524737160154711 0 0.026231065006028488 0.001936138947335832 0 0.026231065006028488 0.001936138947335832 0 0.02626521002742636 0.0024247873603969175 0 0.026267412228192098 0.0020632011597320706 0 0.026267412228192098 0.0020632011597320706 0 0.026161873621491354 0.0019049887843196375 0 0.02617362294127443 0.0020198423222176683 0 0.026161873621491354 0.0019049887843196375 0 0.026188696897725346 0.00177784238874017 0 0.02616874658210111 0.0019222783550872098 0 0.026161873621491354 0.0019049887843196375 0 0.026159650799814558 0.0015954412736426244 0 0.026188696897725346 0.00177784238874017 0 0.025901433585984058 0.0016285180782965511 0 0.026161873621491354 0.0019049887843196375 0 0.026159650799814558 0.0015954412736426244 0 0.025901433585984058 0.0016285180782965511 0 0.026159650799814558 0.0015954412736426244 0 0.026091786746259837 0.0012176281307579274 0 0.026159650799814558 0.0015954412736426244 0 0.026222402146893198 0.0012974658247136919 0 0.026091786746259837 0.0012176281307579274 0 0.026159650799814558 0.0015954412736426244 0 0.026222402146893198 0.0012974658247136919 0 0.026218721376663093 0.0015492889859225723 0 0.026264822281799452 0.00084193106971750128 0 0.026222402146893198 0.0012974658247136919 0 0.026091786746259837 0.0012176281307579274 0 0.025754224734145407 0.0010252374357284197 0 0.025901433585984058 0.0016285180782965511 0 0.026091786746259837 0.0012176281307579274 0 0.026267860755571509 0.0010805210809504018 0 0.026215575108382436 0.0013904461211456853 0 0.026205373773901846 0.0012766347624854186 0 0.026215575108382436 0.0013904461211456853 0 0.026205373773901846 0.0012766347624854186 0 0.026104692842726568 0.0015314858301786287 0 0.026267860755571509 0.0010805210809504018 0 0.026222402146893198 0.0012974658247136919 0 0.026215575108382436 0.0013904461211456853 0 0.026222402146893198 0.0012974658247136919 0 0.026215575108382436 0.0013904461211456853 0 0.026218721376663093 0.0015492889859225723 0 0.026215575108382436 0.0013904461211456853 0 0.026218721376663093 0.0015492889859225723 0 0.026104692842726568 0.0015314858301786287 0 0.026218721376663093 0.0015492889859225723 0 0.026204011118681411 0.0016848993870404133 0 0.026104692842726568 0.0015314858301786287 0 0.026159650799814558 0.0015954412736426244 0 0.026218721376663093 0.0015492889859225723 0 0.026188696897725346 0.00177784238874017 0 0.026218721376663093 0.0015492889859225723 0 0.026204011118681411 0.0016848993870404133 0 0.026188696897725346 0.00177784238874017 0 0.026204011118681411 0.0016848993870404133 0 0.026195864370802804 0.0017925496139758138 0 0.026188696897725346 0.00177784238874017 0 0.026195864370802804 0.0017925496139758138 0 0.026188696897725346 0.00177784238874017 0 0.026181639135602047 0.0018772990979816057 0 0.026188696897725346 0.00177784238874017 0 0.026181639135602047 0.0018772990979816057 0 0.02616874658210111 0.0019222783550872098 0 0.026195864370802804 0.0017925496139758138 0 0.026225435161704832 0.0018526264306965529 0 0.026181639135602047 0.0018772990979816057 0 0.026204011118681411 0.0016848993870404133 0 0.026195864370802804 0.0017925496139758138 0 0.026225435161704832 0.0018526264306965529 0 0.026204011118681411 0.0016848993870404133 0 0.026225435161704832 0.0018526264306965529 0 0.026324809129938717 0.0017241372182298113 0 0.026208232380245108 0.001928386065304856 0 0.026191355123978903 0.0019667337816054579 0 0.026188539830959451 0.0019259206026564302 0 0.026225435161704832 0.0018526264306965529 0 0.026208232380245108 0.001928386065304856 0 0.026188539830959451 0.0019259206026564302 0 0.026225435161704832 0.0018526264306965529 0 0.026234965165242076 0.0019554503238552487 0 0.026300554154755709 0.0019184691385504661 0 0.026225435161704832 0.0018526264306965529 0 0.026208232380245108 0.001928386065304856 0 0.026234965165242076 0.0019554503238552487 0 0.026234965165242076 0.0019554503238552487 0 0.026196518723731334 0.0020083812683862616 0 0.026265689219319641 0.0020108135048751267 0 0.026234965165242076 0.0019554503238552487 0 0.026191355123978903 0.0019667337816054579 0 0.026196518723731334 0.0020083812683862616 0 0.026208232380245108 0.001928386065304856 0 0.026234965165242076 0.0019554503238552487 0 0.026191355123978903 0.0019667337816054579 0 0.026191355123978903 0.0019667337816054579 0 0.026196518723731334 0.0020083812683862616 0 0.026180535847973547 0.001975241594800455 0 0.026196518723731334 0.0020083812683862616 0 0.025951067521095144 0.0020190225577268982 0 0.026143396808223408 0.0021326711218588182 0 0.02607497859386371 0.0020700105441512477 0 0.026482681708688723 0.0026314753777196137 0 0.026196518723731334 0.0020083812683862616 0 0.026245129400367471 0.0021235915952743495 0 0.026265689219319641 0.0020108135048751267 0 0.026196518723731334 0.0020083812683862616 0 0.026143396808223408 0.0021326711218588182 0 0.026245129400367471 0.0021235915952743495 0 0.026191355123978903 0.0019667337816054579 0 0.026180535847973547 0.001975241594800455 0 0.026182384795272899 0.0019622213668506164 0 0.026482681708688723 0.0026314753777196137 0 0.02637195892262565 0.0021343950215986802 0 0.026191355123978903 0.0019667337816054579 0 0.026182384795272899 0.0019622213668506164 0 0.026188539830959451 0.0019259206026564302 0 0.02618322587548385 0.0019732942499696925 0 0.026182384795272899 0.0019622213668506164 0 0.026166593708912358 0.0019659584807817073 0 0.026182384795272899 0.0019622213668506164 0 0.026188539830959451 0.0019259206026564302 0 0.026166593708912358 0.0019659584807817073 0 0.026188539830959451 0.0019259206026564302 0 0.026181639135602047 0.0018772990979816057 0 0.026166593708912358 0.0019659584807817073 0 0.026225435161704832 0.0018526264306965529 0 0.026188539830959451 0.0019259206026564302 0 0.026181639135602047 0.0018772990979816057 0 0.02616874658210111 0.0019222783550872098 0 0.02617362294127443 0.0020198423222176683 0 0.026166593708912358 0.0019659584807817073 0 0.026181639135602047 0.0018772990979816057 0 0.02616874658210111 0.0019222783550872098 0 0.026166593708912358 0.0019659584807817073 0 0.026161873621491354 0.0019049887843196375 0 0.02616874658210111 0.0019222783550872098 0 0.02617362294127443 0.0020198423222176683 0 0.026171969370940108 0.0037594574029061515 0 0.026045501809568279 0.0029308566151229685 0 0.026194160641522711 0.0020163867997442723 0 0.02617362294127443 0.0020198423222176683 0 0.026162438059033288 0.0019898120192042737 0 0.02618322587548385 0.0019732942499696925 0 0.026162438059033288 0.0019898120192042737 0 0.026166593708912358 0.0019659584807817073 0 0.02617362294127443 0.0020198423222176683 0 0.026162438059033288 0.0019898120192042737 0 0.026166593708912358 0.0019659584807817073 0 0.026482681708688723 0.0026314753777196137 0 0.026045501809568279 0.0029308566151229685 0 0.026075717944125758 0.0039390809852357369 0 0.026322610070783247 0.0045159913873987741 0 0.025672274799297172 0.0048037981838207535 0 0.026880615617750115 0.0038825153984155805 0 0.026075717944125758 0.0039390809852357369 0 0.026322610070783247 0.0045159913873987741 0 0.026171969370940108 0.0037594574029061515 0 0.026290590652567305 0.0062119930205244839 0 0.025277469718162901 0.0039906697257193454 0 0.026075717944125758 0.0039390809852357369 0 0.025672274799297172 0.0048037981838207535 0 0.025672274799297172 0.0048037981838207535 0 0.026506997107885615 0.0051235563101140495 0 0.026072365855145441 0.0056293688785824629 0 0.026322610070783247 0.0045159913873987741 0 0.025672274799297172 0.0048037981838207535 0 0.026506997107885615 0.0051235563101140495 0 0.026322610070783247 0.0045159913873987741 0 0.026506997107885615 0.0051235563101140495 0 0.026937909965291038 0.0046190918683938929 0 0.025591289572621554 0.0050483103057713721 0 0.025855458275227727 0.0034762847734542976 0 0.024614488352742086 0.0037978957691476192 0 0.025855458275227727 0.0034762847734542976 0 0.024735502885459771 0.0049209961555391072 0 0.025047125827823726 0.0049040233355821519 0 0.025030295693840941 0.0045682607246226963 0 0.024614488352742086 0.0037978957691476192 0 0.024825863242546934 0.0024859496083420884 0 0.025985349363334072 0.0024737788215634759 0 0.026130855452860473 0.0022591903596192366 0 0.026293907955033079 0.0022914198842401002 0 0.022590737294345721 0.0032337171676257606 0 0.023311940663861781 0.0029042037056400743 0 0.023102913654817304 0.0034203946332622822 0 0.025985349363334072 0.0024737788215634759 0 0.026130855452860473 0.0022591903596192366 0 0.025975264161446025 0.0022919376496714399 0 0.026130855452860473 0.0022591903596192366 0 0.026143396808223408 0.0021326711218588182 0 0.025975264161446025 0.0022919376496714399 0 0.025951067521095144 0.0020190225577268982 0 0.026143396808223408 0.0021326711218588182 0 0.025969617742545255 0.002343160120789296 0 0.026333899052401244 0.0019356800425038847 0 0.025855458275227727 0.0034762847734542976 0 0.026130855452860473 0.0022591903596192366 0 0.026143396808223408 0.0021326711218588182 0 0.026245129400367471 0.0021235915952743495 0 0.026482681708688723 0.0026314753777196137 0 0.025855458275227727 0.0034762847734542976 0 0.026880615617750115 0.0038825153984155805 0 0.026322610070783247 0.0045159913873987741 0 0.026937909965291038 0.0046190918683938929 0 0.024825863242546934 0.0024859496083420884 0 0.024954265042337175 0.0022540700199503421 0 0.026293907955033079 0.0022914198842401002 0 0.026517888833069669 0.0021513943419955851 0 0.026352922995978408 0.002075627935183426 0 0.026245129400367471 0.0021235915952743495 0 0.026293907955033079 0.0022914198842401002 0 0.026352922995978408 0.002075627935183426 0 0.026130855452860473 0.0022591903596192366 0 0.026245129400367471 0.0021235915952743495 0 0.026293907955033079 0.0022914198842401002 0 0.023311940663861781 0.0029042037056400743 0 0.023720971706675718 0.0032513651466891213 0 0.023102913654817304 0.0034203946332622822 0 0.023311940663861781 0.0029042037056400743 0 0.023720971706675718 0.0032513651466891213 0 0.024018888265120532 0.0025853058814920447 0 0.023720971706675718 0.0032513651466891213 0 0.024244008652185896 0.003249483545863159 0 0.024018888265120532 0.0025853058814920447 0 0.024244008652185896 0.003249483545863159 0 0.024595504104649731 0.0029265508093714097 0 0.023986623818276459 0.0026129630560564067 0 0.024037816846852033 0.003276432131438931 0 0.024954265042337175 0.0022540700199503421 0 0.024244008652185896 0.003249483545863159 0 0.024696748817430419 0.0032961304589856299 0 0.024595504104649731 0.0029265508093714097 0 0.024696748817430419 0.0032961304589856299 0 0.024595504104649731 0.0029265508093714097 0 0.024982474049592918 0.0032296352905183492 0 0.024595504104649731 0.0029265508093714097 0 0.024797578666807121 0.0026977031352654474 0 0.025020785902527654 0.0029845110609990101 0 0.024595504104649731 0.0029265508093714097 0 0.024797578666807121 0.0026977031352654474 0 0.024456214977864446 0.0023754030472140676 0 0.024797578666807121 0.0026977031352654474 0 0.024456214977864446 0.0023754030472140676 0 0.024995026690982688 0.0024522370772708307 0 0.024954265042337175 0.0022540700199503421 0 0.024840697758028763 0.00205820567405338 0 0.024595504104649731 0.0029265508093714097 0 0.023986623818276459 0.0026129630560564067 0 0.024456214977864446 0.0023754030472140676 0 0.025397804177114434 0.0016576446203732673 0 0.025371275178874598 0.0017614763772523453 0 0.025269471742462444 0.0017251942002194246 0 0.025269471742462444 0.0017251942002194246 0 0.025216927513359085 0.0018474685797071422 0 0.025070431831485496 0.0019939665848188863 0 0.024840697758028763 0.00205820567405338 0 0.025076754118234491 0.0019801808169202322 0 0.024456214977864446 0.0023754030472140676 0 0.025070431831485496 0.0019939665848188863 0 0.024995026690982688 0.0024522370772708307 0 0.025371275178874598 0.0017614763772523453 0 0.025269471742462444 0.0017251942002194246 0 0.025216927513359085 0.0018474685797071422 0 0.025216927513359085 0.0018474685797071422 0 0.025206769627896617 0.0019160631887451302 0 0.025146497354598785 0.0018646954134868131 0 0.025182518639213128 0.0019892010704068109 0 0.02513863597071031 0.0024114157830109006 0 0.025371275178874598 0.0017614763772523453 0 0.025216927513359085 0.0018474685797071422 0 0.025458796322205809 0.0017690542676087294 0 0.025371275178874598 0.0017614763772523453 0 0.025481364329992384 0.0017450104137495168 0 0.025458796322205809 0.0017690542676087294 0 0.026079956412165931 0.0017955290147159729 0 0.026001378884441245 0.0017143209664862273 0 0.025397804177114434 0.0016576446203732673 0 0.025371275178874598 0.0017614763772523453 0 0.025481364329992384 0.0017450104137495168 0 0.026517888833069669 0.0021513943419955851 0 0.026427576367926441 0.0019190194134234551 0 0.026352922995978408 0.002075627935183426 0 0.024954265042337175 0.0022540700199503421 0 0.026079956412165931 0.0017955290147159729 0 0.026427576367926441 0.0019190194134234551 0 0.026352922995978408 0.002075627935183426 0 0.026300554154755709 0.0019184691385504661 0 0.026265689219319641 0.0020108135048751267 0 0.026352922995978408 0.002075627935183426 0 0.026300554154755709 0.0019184691385504661 0 0.026245129400367471 0.0021235915952743495 0 0.026265689219319641 0.0020108135048751267 0 0.026352922995978408 0.002075627935183426 0 0.026234965165242076 0.0019554503238552487 0 0.026265689219319641 0.0020108135048751267 0 0.026300554154755709 0.0019184691385504661 0 0.026427576367926441 0.0019190194134234551 0 0.026300554154755709 0.0019184691385504661 0 0.026324809129938717 0.0017241372182298113 0 0.026225435161704832 0.0018526264306965529 0 0.026300554154755709 0.0019184691385504661 0 0.026324809129938717 0.0017241372182298113 0 0.025481364329992384 0.0017450104137495168 0 0.025677927010926836 0.0016665814277330982 0 0.025458796322205809 0.0017690542676087294 0 0.025677927010926836 0.0016665814277330982 0 0.025614672856505701 0.0016802859594536757 0 0.025458796322205809 0.0017690542676087294 0 0.026204011118681411 0.0016848993870404133 0 0.026324809129938717 0.0017241372182298113 0 0.026104692842726568 0.0015314858301786287 0 0.026001378884441245 0.0017143209664862273 0 0.026093653879537694 0.0015763666407950874 0 0.025677927010926836 0.0016665814277330982 0 0.025614672856505701 0.0016802859594536757 0 0.026104692842726568 0.0015314858301786287 0 0.025614672856505701 0.0016802859594536757 0 0.026104692842726568 0.0015314858301786287 0 0.025742992924109889 0.0016517500403862618 0 0.026104692842726568 0.0015314858301786287 0 0.025990857829664763 0.0014618012353462074 0 0.025742992924109889 0.0016517500403862618 0 0.026022344867292765 0.0014226732962467515 0 0.025990857829664763 0.0014618012353462074 0 0.025742992924109889 0.0016517500403862618 0 0.026127662513808776 0.0013307605434426703 0 0.026104692842726568 0.0015314858301786287 0 0.025990857829664763 0.0014618012353462074 0 0.026127662513808776 0.0013307605434426703 0 0.026205373773901846 0.0012766347624854186 0 0.026104692842726568 0.0015314858301786287 0 0.02319812002724805 -0.0013027059043277053 0 0.022470727574443544 -0.00028072180735549875 0 0.025285773665513871 0.0016797531529832933 0 0.025329978318984325 0.001753225168546478 0 0.025306078422216532 0.0017055053301197618 0 0.017486275091948941 -0.0036929526320109022 0 0.019664944299038516 -0.0039025375461422675 0 0.020320907485176391 -0.002176482439968186 0 0.025509383292146574 0.0020417946316317491 0 0.025329978318984325 0.001753225168546478 0 0.025742992924109889 0.0016517500403862618 0 0.023728226444130304 -0.0014763497787087174 0 0.026025364320985841 0.0027957379596894923 0 0.02319812002724805 -0.0013027059043277053 0 0.02602030427093149 0.0029164758921655155 0 0.025553024820056364 0.0020624379047130444 0 0.025509383292146574 0.0020417946316317491 0 0.025742992924109889 0.0016517500403862618 0 0.025329978318984325 0.001753225168546478 0 0.025742992924109889 0.0016517500403862618 0 0.025403155891657314 0.0017195780889397074 0 0.025329978318984325 0.001753225168546478 0 0.025263896181755251 0.0017570472303908376 0 0.025306078422216532 0.0017055053301197618 0 0.025329978318984325 0.001753225168546478 0 0.025403155891657314 0.0017195780889397074 0 0.025263896181755251 0.0017570472303908376 0 0.025403155891657314 0.0017195780889397074 0 0.025206769627896617 0.0019160631887451302 0 0.025263896181755251 0.0017570472303908376 0 0.025614672856505701 0.0016802859594536757 0 0.025403155891657314 0.0017195780889397074 0 0.025206769627896617 0.0019160631887451302 0 0.025614672856505701 0.0016802859594536757 0 0.025742992924109889 0.0016517500403862618 0 0.025403155891657314 0.0017195780889397074 0 0.025614672856505701 0.0016802859594536757 0 0.025458796322205809 0.0017690542676087294 0 0.025206769627896617 0.0019160631887451302 0 0.025216927513359085 0.0018474685797071422 0 0.025458796322205809 0.0017690542676087294 0 0.025206769627896617 0.0019160631887451302 0 0.025206769627896617 0.0019160631887451302 0 0.02525457131382405 0.0021361862434050478 0 0.025049325376965352 0.0029260122234158071 0 0.02525457131382405 0.0021361862434050478 0 0.025395423954154478 0.0023893937195438452 0 0.025461377216417759 0.002002634427323003 0 0.025395423954154478 0.0023893937195438452 0 0.02562465842180088 0.0025426595996967255 0 0.025514027097209784 0.0028614166469399425 0 0.02525457131382405 0.0021361862434050478 0 0.025395423954154478 0.0023893937195438452 0 0.025289162440722952 0.0026574945928797898 0 0.025395423954154478 0.0023893937195438452 0 0.025461377216417759 0.002002634427323003 0 0.02562465842180088 0.0025426595996967255 0 0.02525457131382405 0.0021361862434050478 0 0.025337507462763472 0.0018509239161105945 0 0.025461377216417759 0.002002634427323003 0 0.025337507462763472 0.0018509239161105945 0 0.025461377216417759 0.002002634427323003 0 0.025399809939566559 0.0015298155485392103 0 0.02525457131382405 0.0021361862434050478 0 0.025337507462763472 0.0018509239161105945 0 0.025263896181755251 0.0017570472303908376 0 0.025206769627896617 0.0019160631887451302 0 0.02525457131382405 0.0021361862434050478 0 0.025263896181755251 0.0017570472303908376 0 0.025263896181755251 0.0017570472303908376 0 0.025399809939566559 0.0015298155485392103 0 0.025306078422216532 0.0017055053301197618 0 0.025337507462763472 0.0018509239161105945 0 0.025263896181755251 0.0017570472303908376 0 0.025399809939566559 0.0015298155485392103 0 0.024391829081223233 0.0005017405621855881 0 0.022470727574443544 -0.00028072180735549875 0 0.023106986945708886 -0.00059509019255833814 0 0.023279300594125286 -0.0026476545567815524 0 0.020320907485176391 -0.002176482439968186 0 0.023106986945708886 -0.00059509019255833814 0 0.023279300594125286 -0.0026476545567815524 0 0.025376092797015561 -0.0018103332655620024 0 0.021952191930021063 -0.0042553014629318547 0 0.019664944299038516 -0.0039025375461422675 0 0.020320907485176391 -0.002176482439968186 0 0.021952191930021063 -0.0042553014629318547 0 0.023279300594125286 -0.0026476545567815524 0 0.020320907485176391 -0.002176482439968186 0 0.027195488401696992 -0.0037840981874074707 0 0.027935836509435964 -0.00069920052263940894 0 0.025376092797015561 -0.0018103332655620024 0 0.024621251811935488 -0.004167847942942806 0 0.023279300594125286 -0.0026476545567815524 0 0.025376092797015561 -0.0018103332655620024 0 0.024621251811935488 -0.004167847942942806 0 0.027195488401696992 -0.0037840981874074707 0 0.025376092797015561 -0.0018103332655620024 0 0.023106986945708886 -0.00059509019255833814 0 0.025376092797015561 -0.0018103332655620024 0 0.026045954661024932 0.0011687820170434738 0 0.024391829081223233 0.0005017405621855881 0 0.025932808143818469 0.0011605027332868847 0 0.027935836509435964 -0.00069920052263940894 0 0.025376092797015561 -0.0018103332655620024 0 0.026045954661024932 0.0011687820170434738 0 0.026045954661024932 0.0011687820170434738 0 0.025863239683542847 0.0022388421624126463 0 0.026534796258153488 0.0024862887799613717 0 0.027465046251894405 0.0014898165047568467 0 0.026045954661024932 0.0011687820170434738 0 0.026534796258153488 0.0024862887799613717 0 0.027935836509435964 -0.00069920052263940894 0 0.027465046251894405 0.0014898165047568467 0 0.026045954661024932 0.0011687820170434738 0 0.025461377216417759 0.002002634427323003 0 0.025399809939566559 0.0015298155485392103 0 0.026045954661024932 0.0011687820170434738 0 0.025461377216417759 0.002002634427323003 0 0.026045954661024932 0.0011687820170434738 0 0.025863239683542847 0.0022388421624126463 0 0.025461377216417759 0.002002634427323003 0 0.025863239683542847 0.0022388421624126463 0 0.02562465842180088 0.0025426595996967255 0 0.025863239683542847 0.0022388421624126463 0 0.025919158584397941 0.0027838448153204268 0 0.026534796258153488 0.0024862887799613717 0 0.025863239683542847 0.0022388421624126463 0 0.025919158584397941 0.0027838448153204268 0 0.02562465842180088 0.0025426595996967255 0 0.025919158584397941 0.0027838448153204268 0 0.02562465842180088 0.0025426595996967255 0 0.025710869689933698 0.0029540353891611367 0 0.027465046251894405 0.0014898165047568467 0 0.026534796258153488 0.0024862887799613717 0 0.027314611637508025 0.0037785700109536744 0 0.025919158584397941 0.0027838448153204268 0 0.026534796258153488 0.0024862887799613717 0 0.026160043052714691 0.0029519947896358236 0 0.026534796258153488 0.0024862887799613717 0 0.02649785694213809 0.0029247145789821601 0 0.026160043052714691 0.0029519947896358236 0 0.02669502965242683 0.0030191418509474127 0 0.025656675331432482 0.0021107965169160957 0 0.025766428774971525 0.0034500305114680261 0 0.025863900248825178 0.0036120613499489875 0 0.026019378281529736 0.0033524829753650599 0 0.02649785694213809 0.0029247145789821601 0 0.026160043052714691 0.0029519947896358236 0 0.026019378281529736 0.0033524829753650599 0 0.025656675331432482 0.0021107965169160957 0 0.025714759386362022 0.0031659881999392655 0 0.026160043052714691 0.0029519947896358236 0 0.026019378281529736 0.0033524829753650599 0 0.025827051573014993 0.0032180859799303407 0 0.026019378281529736 0.0033524829753650599 0 0.025835524162572607 0.0034302081279689888 0 0.025795266027424383 0.0035256250182509915 0 0.026019378281529736 0.0033524829753650599 0 0.025835524162572607 0.0034302081279689888 0 0.025827051573014993 0.0032180859799303407 0 0.026019378281529736 0.0033524829753650599 0 0.02578760801632083 0.0034953173417889569 0 0.025795266027424383 0.0035256250182509915 0 0.025766428774971525 0.0034500305114680261 0 0.026019378281529736 0.0033524829753650599 0 0.02578760801632083 0.0034953173417889569 0 0.025739023660725457 0.0035870023537874782 0 0.02578760801632083 0.0034953173417889569 0 0.025718946713398354 0.0036297356838257636 0 0.025667218788584481 0.0037229017825899896 0 0.025795266027424383 0.0035256250182509915 0 0.025743937484233894 0.0035784640934726259 0 0.025718946713398354 0.0036297356838257636 0 0.025667218788584481 0.0037229017825899896 0 0.025795266027424383 0.0035256250182509915 0 0.02578760801632083 0.0034953173417889569 0 0.025718946713398354 0.0036297356838257636 0 0.025795266027424383 0.0035256250182509915 0 0.025654649518926414 0.0037930572656219796 0 0.025718946713398354 0.0036297356838257636 0 0.025667218788584481 0.0037229017825899896 0 0.025835524162572607 0.0034302081279689888 0 0.025743937484233894 0.0035784640934726259 0 0.025716033482663929 0.0034480511037133349 0 0.025835524162572607 0.0034302081279689888 0 0.025795266027424383 0.0035256250182509915 0 0.025743937484233894 0.0035784640934726259 0 0.025665720105549749 0.0037174937576103717 0 0.025677736367994079 0.0036015275609319621 0 0.025665230187907225 0.0037024433944695856 0 0.025743937484233894 0.0035784640934726259 0 0.025665720105549749 0.0037174937576103717 0 0.025677736367994079 0.0036015275609319621 0 0.025551297688189565 0.0038234087743259774 0 0.025665720105549749 0.0037174937576103717 0 0.025592307423668911 0.0037895906931205161 0 0.025667218788584481 0.0037229017825899896 0 0.025743937484233894 0.0035784640934726259 0 0.025665720105549749 0.0037174937576103717 0 0.025551297688189565 0.0038234087743259774 0 0.025667218788584481 0.0037229017825899896 0 0.025665720105549749 0.0037174937576103717 0 0.02552504205188252 0.0035097056017840715 0 0.025599795228866889 0.0036312666847218623 0 0.025425848034893738 0.003620715331955026 0 0.02552504205188252 0.0035097056017840715 0 0.025599795228866889 0.0036312666847218623 0 0.025627346877233649 0.0034814421381625642 0 0.025599795228866889 0.0036312666847218623 0 0.025677736367994079 0.0036015275609319621 0 0.025627346877233649 0.0034814421381625642 0 0.025599795228866889 0.0036312666847218623 0 0.025677736367994079 0.0036015275609319621 0 0.025665230187907225 0.0037024433944695856 0 0.025743937484233894 0.0035784640934726259 0 0.025677736367994079 0.0036015275609319621 0 0.025716033482663929 0.0034480511037133349 0 0.025716033482663929 0.0034480511037133349 0 0.025627346877233649 0.0034814421381625642 0 0.025644640892680901 0.0032376342659521454 0 0.025677736367994079 0.0036015275609319621 0 0.025716033482663929 0.0034480511037133349 0 0.025627346877233649 0.0034814421381625642 0 0.025627346877233649 0.0034814421381625642 0 0.025535126754566373 0.0033550024697168832 0 0.025644640892680901 0.0032376342659521454 0 0.02552504205188252 0.0035097056017840715 0 0.025627346877233649 0.0034814421381625642 0 0.025535126754566373 0.0033550024697168832 0 0.025535126754566373 0.0033550024697168832 0 0.025644640892680901 0.0032376342659521454 0 0.025475274682514499 0.0031303682168875835 0 0.025644640892680901 0.0032376342659521454 0 0.025827051573014993 0.0032180859799303407 0 0.025710869689933698 0.0029540353891611367 0 0.025716033482663929 0.0034480511037133349 0 0.025644640892680901 0.0032376342659521454 0 0.025827051573014993 0.0032180859799303407 0 0.025835524162572607 0.0034302081279689888 0 0.025716033482663929 0.0034480511037133349 0 0.025827051573014993 0.0032180859799303407 0 0.025919158584397941 0.0027838448153204268 0 0.025827051573014993 0.0032180859799303407 0 0.025710869689933698 0.0029540353891611367 0 0.025919158584397941 0.0027838448153204268 0 0.026160043052714691 0.0029519947896358236 0 0.025827051573014993 0.0032180859799303407 0 0.02562465842180088 0.0025426595996967255 0 0.025710869689933698 0.0029540353891611367 0 0.025514027097209784 0.0028614166469399425 0 0.025644640892680901 0.0032376342659521454 0 0.025710869689933698 0.0029540353891611367 0 0.025514027097209784 0.0028614166469399425 0 0.025395423954154478 0.0023893937195438452 0 0.025514027097209784 0.0028614166469399425 0 0.025289162440722952 0.0026574945928797898 0 0.025514027097209784 0.0028614166469399425 0 0.025289162440722952 0.0026574945928797898 0 0.025377110632952907 0.0029274472354352682 0 0.025289162440722952 0.0026574945928797898 0 0.025377110632952907 0.0029274472354352682 0 0.02526134443621076 0.002898494978085287 0 0.025377110632952907 0.0029274472354352682 0 0.02526134443621076 0.002898494978085287 0 0.025322305427009872 0.0030816986236743963 0 0.025514027097209784 0.0028614166469399425 0 0.025377110632952907 0.0029274472354352682 0 0.025475274682514499 0.0031303682168875835 0 0.025644640892680901 0.0032376342659521454 0 0.025514027097209784 0.0028614166469399425 0 0.025475274682514499 0.0031303682168875835 0 0.025377110632952907 0.0029274472354352682 0 0.025322305427009872 0.0030816986236743963 0 0.025475274682514499 0.0031303682168875835 0 0.025216927513359085 0.0018474685797071422 0 0.025146497354598785 0.0018646954134868131 0 0.025070431831485496 0.0019939665848188863 0 0.02525457131382405 0.0021361862434050478 0 0.025289162440722952 0.0026574945928797898 0 0.025049325376965352 0.0029260122234158071 0 0.025289162440722952 0.0026574945928797898 0 0.02526134443621076 0.002898494978085287 0 0.025049325376965352 0.0029260122234158071 0 0.02526134443621076 0.002898494978085287 0 0.025322305427009872 0.0030816986236743963 0 0.025049325376965352 0.0029260122234158071 0 0.025146497354598785 0.0018646954134868131 0 0.025256657099359439 0.0024259796356290576 0 0.025132182539507126 0.0021591480700908572 0 0.025146497354598785 0.0018646954134868131 0 0.025070431831485496 0.0019939665848188863 0 0.025132182539507126 0.0021591480700908572 0 0.025256657099359439 0.0024259796356290576 0 0.025132182539507126 0.0021591480700908572 0 0.024995026690982688 0.0024522370772708307 0 0.025070431831485496 0.0019939665848188863 0 0.025132182539507126 0.0021591480700908572 0 0.024995026690982688 0.0024522370772708307 0 0.025322305427009872 0.0030816986236743963 0 0.025049325376965352 0.0029260122234158071 0 0.02540004601629979 0.0033065072465635606 0 0.025049325376965352 0.0029260122234158071 0 0.02540004601629979 0.0033065072465635606 0 0.025425848034893738 0.003620715331955026 0 0.025146497354598785 0.0018646954134868131 0 0.025256657099359439 0.0024259796356290576 0 0.025544773077894458 0.0026951130431561296 0 0.025049325376965352 0.0029260122234158071 0 0.025425848034893738 0.003620715331955026 0 0.025379104737495092 0.0037928342295436425 0 0.02513863597071031 0.0024114157830109006 0 0.025421330878385145 0.0032213794254778274 0 0.02552504205188252 0.0035097056017840715 0 0.025535126754566373 0.0033550024697168832 0 0.02540004601629979 0.0033065072465635606 0 0.025535126754566373 0.0033550024697168832 0 0.025475274682514499 0.0031303682168875835 0 0.02540004601629979 0.0033065072465635606 0 0.025322305427009872 0.0030816986236743963 0 0.025475274682514499 0.0031303682168875835 0 0.02540004601629979 0.0033065072465635606 0 0.02552504205188252 0.0035097056017840715 0 0.02540004601629979 0.0033065072465635606 0 0.025425848034893738 0.003620715331955026 0 0.025425848034893738 0.003620715331955026 0 0.025379104737495092 0.0037928342295436425 0 0.025203820780250765 0.0037656031772187229 0 0.025256657099359439 0.0024259796356290576 0 0.025544773077894458 0.0026951130431561296 0 0.025318503232696909 0.0026968059064920971 0 0.025544773077894458 0.0026951130431561296 0 0.025318503232696909 0.0026968059064920971 0 0.025359903634511363 0.0028524417740391256 0 0.025318503232696909 0.0026968059064920971 0 0.025359903634511363 0.0028524417740391256 0 0.025222421012715438 0.0028657670191012102 0 0.025359903634511363 0.0028524417740391256 0 0.025222421012715438 0.0028657670191012102 0 0.025321257348048434 0.0030149965237561724 0 0.025359903634511363 0.0028524417740391256 0 0.025406318194133283 0.0029493021870825348 0 0.025321257348048434 0.0030149965237561724 0 0.025544773077894458 0.0026951130431561296 0 0.025406318194133283 0.0029493021870825348 0 0.025396716897100491 0.003085705526077673 0 0.025544773077894458 0.0026951130431561296 0 0.025359903634511363 0.0028524417740391256 0 0.025406318194133283 0.0029493021870825348 0 0.024995026690982688 0.0024522370772708307 0 0.025166368862356892 0.0026324868534868028 0 0.025036476786574797 0.0027512582056885017 0 0.024797578666807121 0.0026977031352654474 0 0.024995026690982688 0.0024522370772708307 0 0.025036476786574797 0.0027512582056885017 0 0.025256657099359439 0.0024259796356290576 0 0.024995026690982688 0.0024522370772708307 0 0.025166368862356892 0.0026324868534868028 0 0.025256657099359439 0.0024259796356290576 0 0.025318503232696909 0.0026968059064920971 0 0.025166368862356892 0.0026324868534868028 0 0.025166368862356892 0.0026324868534868028 0 0.025222421012715438 0.0028657670191012102 0 0.025036476786574797 0.0027512582056885017 0 0.025222421012715438 0.0028657670191012102 0 0.025036476786574797 0.0027512582056885017 0 0.025020785902527654 0.0029845110609990101 0 0.025318503232696909 0.0026968059064920971 0 0.025166368862356892 0.0026324868534868028 0 0.025222421012715438 0.0028657670191012102 0 0.024797578666807121 0.0026977031352654474 0 0.025036476786574797 0.0027512582056885017 0 0.025020785902527654 0.0029845110609990101 0 0.024595504104649731 0.0029265508093714097 0 0.025020785902527654 0.0029845110609990101 0 0.024982474049592918 0.0032296352905183492 0 0.025222421012715438 0.0028657670191012102 0 0.025020785902527654 0.0029845110609990101 0 0.02521366977407262 0.0030442506578173397 0 0.025020785902527654 0.0029845110609990101 0 0.02521366977407262 0.0030442506578173397 0 0.025183724022172591 0.0031655929772914089 0 0.025020785902527654 0.0029845110609990101 0 0.025183724022172591 0.0031655929772914089 0 0.024982474049592918 0.0032296352905183492 0 0.025183724022172591 0.0031655929772914089 0 0.025157438382682945 0.0032672075518509784 0 0.024982474049592918 0.0032296352905183492 0 0.025157438382682945 0.0032672075518509784 0 0.024982474049592918 0.0032296352905183492 0 0.025121554480544168 0.0033704033935969954 0 0.025183724022172591 0.0031655929772914089 0 0.025157438382682945 0.0032672075518509784 0 0.025236016631263829 0.0032489815820078783 0 0.025367963681521343 0.0030897231531379745 0 0.025326427728730387 0.0031257917727863988 0 0.025343934313681926 0.0031830215296359231 0 0.025367963681521343 0.0030897231531379745 0 0.025343934313681926 0.0031830215296359231 0 0.025372650296167254 0.0031740626016640377 0 0.025367963681521343 0.0030897231531379745 0 0.025396716897100491 0.003085705526077673 0 0.025372650296167254 0.0031740626016640377 0 0.025406318194133283 0.0029493021870825348 0 0.025367963681521343 0.0030897231531379745 0 0.025396716897100491 0.003085705526077673 0 0.025406318194133283 0.0029493021870825348 0 0.025367963681521343 0.0030897231531379745 0 0.025321257348048434 0.0030149965237561724 0 0.025222421012715438 0.0028657670191012102 0 0.02521366977407262 0.0030442506578173397 0 0.025321257348048434 0.0030149965237561724 0 0.02521366977407262 0.0030442506578173397 0 0.025321257348048434 0.0030149965237561724 0 0.025271852772864551 0.0031257798371159603 0 0.02521366977407262 0.0030442506578173397 0 0.025183724022172591 0.0031655929772914089 0 0.025271852772864551 0.0031257798371159603 0 0.025321257348048434 0.0030149965237561724 0 0.025271852772864551 0.0031257798371159603 0 0.025326427728730387 0.0031257917727863988 0 0.025367963681521343 0.0030897231531379745 0 0.025321257348048434 0.0030149965237561724 0 0.025326427728730387 0.0031257917727863988 0 0.025326427728730387 0.0031257917727863988 0 0.025306712128549715 0.0031913319945852227 0 0.025343934313681926 0.0031830215296359231 0 0.025271852772864551 0.0031257798371159603 0 0.025306712128549715 0.0031913319945852227 0 0.025264188510759945 0.0032023895203142894 0 0.025271852772864551 0.0031257798371159603 0 0.025326427728730387 0.0031257917727863988 0 0.025306712128549715 0.0031913319945852227 0 0.025306712128549715 0.0031913319945852227 0 0.025264188510759945 0.0032023895203142894 0 0.025289634600104874 0.0032435245764196284 0 0.025183724022172591 0.0031655929772914089 0 0.025264188510759945 0.0032023895203142894 0 0.025236016631263829 0.0032489815820078783 0 0.025183724022172591 0.0031655929772914089 0 0.025271852772864551 0.0031257798371159603 0 0.025264188510759945 0.0032023895203142894 0 0.025157438382682945 0.0032672075518509784 0 0.025236016631263829 0.0032489815820078783 0 0.025228541026545172 0.0033109338653673588 0 0.025264188510759945 0.0032023895203142894 0 0.025236016631263829 0.0032489815820078783 0 0.025289634600104874 0.0032435245764196284 0 0.025236016631263829 0.0032489815820078783 0 0.025289634600104874 0.0032435245764196284 0 0.025273777533723417 0.0032985973863786035 0 0.025306712128549715 0.0031913319945852227 0 0.025289634600104874 0.0032435245764196284 0 0.02532598170026789 0.0032326505336990898 0 0.025289634600104874 0.0032435245764196284 0 0.025309201588491932 0.0032801409327459894 0 0.025273777533723417 0.0032985973863786035 0 0.025289634600104874 0.0032435245764196284 0 0.025309201588491932 0.0032801409327459894 0 0.02532598170026789 0.0032326505336990898 0 0.025309201588491932 0.0032801409327459894 0 0.025337379470022455 0.0032603248660083798 0 0.02532598170026789 0.0032326505336990898 0 0.025337379470022455 0.0032603248660083798 0 0.025363963712870748 0.0032618669080686307 0 0.025325082300499964 0.0033022882161943146 0 0.025337379470022455 0.0032603248660083798 0 0.02532598170026789 0.0032326505336990898 0 0.025355127353212263 0.003224991813781553 0 0.025343934313681926 0.0031830215296359231 0 0.025372650296167254 0.0031740626016640377 0 0.025355127353212263 0.003224991813781553 0 0.025306712128549715 0.0031913319945852227 0 0.02532598170026789 0.0032326505336990898 0 0.025343934313681926 0.0031830215296359231 0 0.02532598170026789 0.0032326505336990898 0 0.025343934313681926 0.0031830215296359231 0 0.025355127353212263 0.003224991813781553 0 0.025372650296167254 0.0031740626016640377 0 0.025373577234859709 0.0032241560429806331 0 0.025355127353212263 0.003224991813781553 0 0.025373577234859709 0.0032241560429806331 0 0.025355127353212263 0.003224991813781553 0 0.025363963712870748 0.0032618669080686307 0 0.025337379470022455 0.0032603248660083798 0 0.025355127353212263 0.003224991813781553 0 0.025363963712870748 0.0032618669080686307 0 0.02539019396964029 0.0032504047763228993 0 0.025369762252832235 0.0032204251544873438 0 0.025208055728430049 0.0034635147255182627 0 0.025363963712870748 0.0032618669080686307 0 0.02539019396964029 0.0032504047763228993 0 0.025413598008314508 0.0032155915753911057 0 0.025373577234859709 0.0032241560429806331 0 0.025363963712870748 0.0032618669080686307 0 0.02539019396964029 0.0032504047763228993 0 0.025421330878385145 0.0032213794254778274 0 0.025232073565876329 0.0034034413364815142 0 0.025544773077894458 0.0026951130431561296 0 0.025396716897100491 0.003085705526077673 0 0.025208055728430049 0.0034635147255182627 0 0.025372650296167254 0.0031740626016640377 0 0.025373577234859709 0.0032241560429806331 0 0.025369762252832235 0.0032204251544873438 0 0.025373577234859709 0.0032241560429806331 0 0.02539019396964029 0.0032504047763228993 0 0.025369762252832235 0.0032204251544873438 0 0.025396716897100491 0.003085705526077673 0 0.025369762252832235 0.0032204251544873438 0 0.025208055728430049 0.0034635147255182627 0 0.025396716897100491 0.003085705526077673 0 0.025372650296167254 0.0031740626016640377 0 0.025369762252832235 0.0032204251544873438 0 0.025208055728430049 0.0034635147255182627 0 0.025030874408554289 0.0037502401670355353 0 0.025203820780250765 0.0037656031772187229 0 0.02539019396964029 0.0032504047763228993 0 0.025208055728430049 0.0034635147255182627 0 0.025413598008314508 0.0032155915753911057 0 0.024510828415101434 0.0037634664479908242 0 0.024660186039321602 0.0034739966719064966 0 0.025111753411266768 0.0035334422407852202 0 0.025208055728430049 0.0034635147255182627 0 0.024510828415101434 0.0037634664479908242 0 0.025413598008314508 0.0032155915753911057 0 0.024556664715085306 0.0037265087417090465 0 0.025301212330225288 0.0033737815189718969 0 0.024227307916024111 0.0035492314751616651 0 0.024510828415101434 0.0037634664479908242 0 0.024660186039321602 0.0034739966719064966 0 0.025208055728430049 0.0034635147255182627 0 0.024510828415101434 0.0037634664479908242 0 0.025030874408554289 0.0037502401670355353 0 0.024510828415101434 0.0037634664479908242 0 0.025030874408554289 0.0037502401670355353 0 0.024926372628640926 0.0039575196020776729 0 0.025275115487684033 0.0038851206727963938 0 0.025697679516110933 0.0037217463100567673 0 0.025592307423668911 0.0037895906931205161 0 0.025697679516110933 0.0037217463100567673 0 0.025592307423668911 0.0037895906931205161 0 0.025665230187907225 0.0037024433944695856 0 0.025599795228866889 0.0036312666847218623 0 0.025697679516110933 0.0037217463100567673 0 0.025665230187907225 0.0037024433944695856 0 0.025665720105549749 0.0037174937576103717 0 0.025592307423668911 0.0037895906931205161 0 0.025665230187907225 0.0037024433944695856 0 0.02539364194428646 0.0036405174045475385 0 0.025275692086847365 0.0038321008469422366 0 0.025379104737495092 0.0037928342295436425 0 0.025208055728430049 0.0034635147255182627 0 0.025203820780250765 0.0037656031772187229 0 0.025425848034893738 0.003620715331955026 0 0.024926372628640926 0.0039575196020776729 0 0.025203820780250765 0.0037656031772187229 0 0.025599795228866889 0.0036312666847218623 0 0.025425848034893738 0.003620715331955026 0 0.025697679516110933 0.0037217463100567673 0 0.025030874408554289 0.0037502401670355353 0 0.024926372628640926 0.0039575196020776729 0 0.025203820780250765 0.0037656031772187229 0 0.025045455673300517 0.0040337720553877861 0 0.0249691014963647 0.0040413460964905954 0 0.024892857591598649 0.0040566516431503582 0 0.0249691014963647 0.0040413460964905954 0 0.024892857591598649 0.0040566516431503582 0 0.024886352090161202 0.0041286515549250518 0 0.025045455673300517 0.0040337720553877861 0 0.0249691014963647 0.0040413460964905954 0 0.02501283296739162 0.0039244695089039354 0 0.0249691014963647 0.0040413460964905954 0 0.02501283296739162 0.0039244695089039354 0 0.024944845577752117 0.0040924066824351776 0 0.024221449688398067 0.0033713206304068146 0 0.02500204657630789 0.0035328667625622078 0 0.024564380071311422 0.0040908953527553525 0 0.02501283296739162 0.0039244695089039354 0 0.024951154755568333 0.0037846574409807813 0 0.023939800682309546 0.0026765076640429971 0 0.024963856569495225 0.0030142997954785773 0 0.024386031131898602 0.0032659901950109695 0 0.024564380071311422 0.0040908953527553525 0 0.025045455673300517 0.0040337720553877861 0 0.02501283296739162 0.0039244695089039354 0 0.024963856569495225 0.0030142997954785773 0 0.024386031131898602 0.0032659901950109695 0 0.024660186039321602 0.0034739966719064966 0 0.024227307916024111 0.0035492314751616651 0 0.024386031131898602 0.0032659901950109695 0 0.024660186039321602 0.0034739966719064966 0 0.024963856569495225 0.0030142997954785773 0 0.024660186039321602 0.0034739966719064966 0 0.025111753411266768 0.0035334422407852202 0 0.024963856569495225 0.0030142997954785773 0 0.025111753411266768 0.0035334422407852202 0 0.025767668943576398 0.0032426598212493226 0 0.025301212330225288 0.0033737815189718969 0 0.025222662245737913 0.0035241887383227447 0 0.02500204657630789 0.0035328667625622078 0 0.025222662245737913 0.0035241887383227447 0 0.025363963712870748 0.0032618669080686307 0 0.025413598008314508 0.0032155915753911057 0 0.025323285440186982 0.003341288744157349 0 0.025413598008314508 0.0032155915753911057 0 0.025323285440186982 0.003341288744157349 0 0.025273196278481052 0.0034802017627463249 0 0.025323285440186982 0.003341288744157349 0 0.025325082300499964 0.0033022882161943146 0 0.025297952593364884 0.0033318902697615062 0 0.025363963712870748 0.0032618669080686307 0 0.025323285440186982 0.003341288744157349 0 0.025325082300499964 0.0033022882161943146 0 0.025309201588491932 0.0032801409327459894 0 0.025337379470022455 0.0032603248660083798 0 0.025325082300499964 0.0033022882161943146 0 0.025309201588491932 0.0032801409327459894 0 0.025325082300499964 0.0033022882161943146 0 0.025297952593364884 0.0033318902697615062 0 0.025309201588491932 0.0032801409327459894 0 0.025273777533723417 0.0032985973863786035 0 0.025297952593364884 0.0033318902697615062 0 0.025297952593364884 0.0033318902697615062 0 0.025263077147147001 0.0033510279548505419 0 0.025283683634888754 0.003364142291546439 0 0.025273777533723417 0.0032985973863786035 0 0.025297952593364884 0.0033318902697615062 0 0.025263077147147001 0.0033510279548505419 0 0.025297952593364884 0.0033318902697615062 0 0.025298890056658242 0.0033572679603392549 0 0.025283683634888754 0.003364142291546439 0 0.025323285440186982 0.003341288744157349 0 0.025297952593364884 0.0033318902697615062 0 0.025298890056658242 0.0033572679603392549 0 0.025273777533723417 0.0032985973863786035 0 0.025228541026545172 0.0033109338653673588 0 0.025263077147147001 0.0033510279548505419 0 0.025236016631263829 0.0032489815820078783 0 0.025273777533723417 0.0032985973863786035 0 0.025228541026545172 0.0033109338653673588 0 0.025228541026545172 0.0033109338653673588 0 0.025263077147147001 0.0033510279548505419 0 0.025225455617766648 0.0033858730187594625 0 0.025225455617766648 0.0033858730187594625 0 0.025264944030027107 0.0034037863230062539 0 0.025273196278481052 0.0034802017627463249 0 0.025264944030027107 0.0034037863230062539 0 0.025288798425904306 0.0033915870798050204 0 0.025273196278481052 0.0034802017627463249 0 0.025263077147147001 0.0033510279548505419 0 0.025264944030027107 0.0034037863230062539 0 0.025283683634888754 0.003364142291546439 0 0.025263077147147001 0.0033510279548505419 0 0.025225455617766648 0.0033858730187594625 0 0.025264944030027107 0.0034037863230062539 0 0.025323285440186982 0.003341288744157349 0 0.025298890056658242 0.0033572679603392549 0 0.025288798425904306 0.0033915870798050204 0 0.025323285440186982 0.003341288744157349 0 0.025288798425904306 0.0033915870798050204 0 0.025273196278481052 0.0034802017627463249 0 0.025264944030027107 0.0034037863230062539 0 0.025283683634888754 0.003364142291546439 0 0.025288798425904306 0.0033915870798050204 0 0.025298890056658242 0.0033572679603392549 0 0.025283683634888754 0.003364142291546439 0 0.025288798425904306 0.0033915870798050204 0 0.025222662245737913 0.0035241887383227447 0 0.024606753017101218 0.0039472996498871194 0 0.025273196278481052 0.0034802017627463249 0 0.024925992020432147 0.0034633111657521661 0 0.024796302773681771 0.0038111218224221406 0 0.024982474049592918 0.0032296352905183492 0 0.024925992020432147 0.0034633111657521661 0 0.025121554480544168 0.0033704033935969954 0 0.024696748817430419 0.0032961304589856299 0 0.024982474049592918 0.0032296352905183492 0 0.024925992020432147 0.0034633111657521661 0 0.025273196278481052 0.0034802017627463249 0 0.024925992020432147 0.0034633111657521661 0 0.025121554480544168 0.0033704033935969954 0 0.025157438382682945 0.0032672075518509784 0 0.025228541026545172 0.0033109338653673588 0 0.025121554480544168 0.0033704033935969954 0 0.025228541026545172 0.0033109338653673588 0 0.025225455617766648 0.0033858730187594625 0 0.025121554480544168 0.0033704033935969954 0 0.025225455617766648 0.0033858730187594625 0 0.025273196278481052 0.0034802017627463249 0 0.025121554480544168 0.0033704033935969954 0 0.024788822584220185 0.0039235661829096474 0 0.024721351490402832 0.0041039637634148465 0 0.024544182891509961 0.0040241156899848297 0 0.024721351490402832 0.0041039637634148465 0 0.024526462177078347 0.0042608357894373845 0 0.024544182891509961 0.0040241156899848297 0 0.025045455673300517 0.0040337720553877861 0 0.024788822584220185 0.0039235661829096474 0 0.024892857591598649 0.0040566516431503582 0 0.024788822584220185 0.0039235661829096474 0 0.024721351490402832 0.0041039637634148465 0 0.024892857591598649 0.0040566516431503582 0 0.024721351490402832 0.0041039637634148465 0 0.024892857591598649 0.0040566516431503582 0 0.024808100436986141 0.0041628236060244931 0 0.024892857591598649 0.0040566516431503582 0 0.024886352090161202 0.0041286515549250518 0 0.024808100436986141 0.0041628236060244931 0 0.024886352090161202 0.0041286515549250518 0 0.024808100436986141 0.0041628236060244931 0 0.024819023334261909 0.0042576892387801157 0 0.024808100436986141 0.0041628236060244931 0 0.024819023334261909 0.0042576892387801157 0 0.024700942834282792 0.0042757222326038737 0 0.024819023334261909 0.0042576892387801157 0 0.024700942834282792 0.0042757222326038737 0 0.024712854695833265 0.0044594900712226909 0 0.024886352090161202 0.0041286515549250518 0 0.024819023334261909 0.0042576892387801157 0 0.024897273143566243 0.0042277609538592872 0 0.024721351490402832 0.0041039637634148465 0 0.024700942834282792 0.0042757222326038737 0 0.024526462177078347 0.0042608357894373845 0 0.024721351490402832 0.0041039637634148465 0 0.024808100436986141 0.0041628236060244931 0 0.024700942834282792 0.0042757222326038737 0 0.024700942834282792 0.0042757222326038737 0 0.024544988933817499 0.0044880032928543215 0 0.024526462177078347 0.0042608357894373845 0 0.024700942834282792 0.0042757222326038737 0 0.024712854695833265 0.0044594900712226909 0 0.024544988933817499 0.0044880032928543215 0 0.024712854695833265 0.0044594900712226909 0 0.024586485686843941 0.0046328871013845497 0 0.02475678718996176 0.0046501095360024737 0 0.024712854695833265 0.0044594900712226909 0 0.024586485686843941 0.0046328871013845497 0 0.024544988933817499 0.0044880032928543215 0 0.024712854695833265 0.0044594900712226909 0 0.024843447295731458 0.0043987847415157552 0 0.02475678718996176 0.0046501095360024737 0 0.024819023334261909 0.0042576892387801157 0 0.024843447295731458 0.0043987847415157552 0 0.024897273143566243 0.0042277609538592872 0 0.024819023334261909 0.0042576892387801157 0 0.024712854695833265 0.0044594900712226909 0 0.024843447295731458 0.0043987847415157552 0 0.024843447295731458 0.0043987847415157552 0 0.024926852967318617 0.0043002941455647587 0 0.024931314919103012 0.0044498196028084532 0 0.024926852967318617 0.0043002941455647587 0 0.024997172668652118 0.0042676666527823297 0 0.024931314919103012 0.0044498196028084532 0 0.024926852967318617 0.0043002941455647587 0 0.024965941960465535 0.0041442054260335173 0 0.024997172668652118 0.0042676666527823297 0 0.024926852967318617 0.0043002941455647587 0 0.024897273143566243 0.0042277609538592872 0 0.024965941960465535 0.0041442054260335173 0 0.024843447295731458 0.0043987847415157552 0 0.024926852967318617 0.0043002941455647587 0 0.024897273143566243 0.0042277609538592872 0 0.024897273143566243 0.0042277609538592872 0 0.024965941960465535 0.0041442054260335173 0 0.024944845577752117 0.0040924066824351776 0 0.02501283296739162 0.0039244695089039354 0 0.024965941960465535 0.0041442054260335173 0 0.024944845577752117 0.0040924066824351776 0 0.0249691014963647 0.0040413460964905954 0 0.024886352090161202 0.0041286515549250518 0 0.024944845577752117 0.0040924066824351776 0 0.024886352090161202 0.0041286515549250518 0 0.024897273143566243 0.0042277609538592872 0 0.024944845577752117 0.0040924066824351776 0 0.02501283296739162 0.0039244695089039354 0 0.024951154755568333 0.0037846574409807813 0 0.025012308351080981 0.0040670893712535638 0 0.02501283296739162 0.0039244695089039354 0 0.024965941960465535 0.0041442054260335173 0 0.025012308351080981 0.0040670893712535638 0 0.025133837324766269 0.0042653609702440901 0 0.025012308351080981 0.0040670893712535638 0 0.024997172668652118 0.0042676666527823297 0 0.024997172668652118 0.0042676666527823297 0 0.02509164162698025 0.0043537977593643869 0 0.024931314919103012 0.0044498196028084532 0 0.024965941960465535 0.0041442054260335173 0 0.025012308351080981 0.0040670893712535638 0 0.024997172668652118 0.0042676666527823297 0 0.025133837324766269 0.0042653609702440901 0 0.024997172668652118 0.0042676666527823297 0 0.02509164162698025 0.0043537977593643869 0 0.02512929621096921 0.004351324944025633 0 0.02509164162698025 0.0043537977593643869 0 0.024931314919103012 0.0044498196028084532 0 0.02147213306326326 0.0092042044705500977 0 0.022118947764619104 0.0085111854540617128 0 0.023337490127746961 0.0089142228716009696 0 0.023894167433483677 0.0055463188755186356 0 0.023973211559042702 0.0068228493408570897 0 0.022118947764619104 0.0085111854540617128 0 0.023337490127746961 0.0089142228716009696 0 0.022824233756716158 0.0078366006501999312 0 0.022118947764619104 0.0085111854540617128 0 0.021733274035988622 0.0079983315130527297 0 0.022824233756716158 0.0078366006501999312 0 0.023337490127746961 0.0089142228716009696 0 0.024032578592210817 0.0078897525554700379 0 0.022824233756716158 0.0078366006501999312 0 0.024032578592210817 0.0078897525554700379 0 0.022824233756716158 0.0078366006501999312 0 0.023552764411375514 0.006674131284792004 0 0.022824233756716158 0.0078366006501999312 0 0.022211352860474699 0.0067985470431852092 0 0.023552764411375514 0.006674131284792004 0 0.021733274035988622 0.0079983315130527297 0 0.022824233756716158 0.0078366006501999312 0 0.022211352860474699 0.0067985470431852092 0 0.020828824683823102 0.0053426424254083898 0 0.022211352860474699 0.0067985470431852092 0 0.022559882649322623 0.005354624143140827 0 0.022211352860474699 0.0067985470431852092 0 0.023552764411375514 0.006674131284792004 0 0.022559882649322623 0.005354624143140827 0 0.023552764411375514 0.006674131284792004 0 0.022559882649322623 0.005354624143140827 0 0.024684103963520339 0.0052825416425596036 0 0.025955309518895048 0.0070229920607922016 0 0.02622525952432397 0.0069675178401692912 0 0.022559882649322623 0.005354624143140827 0 0.024684103963520339 0.0052825416425596036 0 0.022967490332269885 0.0038278332584463625 0 0.022559882649322623 0.005354624143140827 0 0.022967490332269885 0.0038278332584463625 0 0.021447509983771769 0.0039455571410231703 0 0.020828824683823102 0.0053426424254083898 0 0.022559882649322623 0.005354624143140827 0 0.021447509983771769 0.0039455571410231703 0 0.025781205995345783 0.0080816271100013857 0 0.026678637950425989 0.0099882590192154272 0 0.025463831882840494 0.010232086090362282 0 0.027511703419604051 0.0088093695945434727 0 0.025781205995345783 0.0080816271100013857 0 0.026678637950425989 0.0099882590192154272 0 0.023552764411375514 0.006674131284792004 0 0.024684103963520339 0.0052825416425596036 0 0.024935781348610329 0.006614975277737755 0 0.025955309518895048 0.0070229920607922016 0 0.025846889676690181 0.007053516889000762 0 0.024684103963520339 0.0052825416425596036 0 0.024935781348610329 0.006614975277737755 0 0.025821664583659063 0.0071088959811613879 0 0.023552764411375514 0.006674131284792004 0 0.024935781348610329 0.006614975277737755 0 0.025584992264558581 0.0072925485932840792 0 0.024935781348610329 0.006614975277737755 0 0.025821664583659063 0.0071088959811613879 0 0.025584992264558581 0.0072925485932840792 0 0.027511703419604051 0.0088093695945434727 0 0.025821664583659063 0.0071088959811613879 0 0.025781205995345783 0.0080816271100013857 0 0.025821664583659063 0.0071088959811613879 0 0.025781205995345783 0.0080816271100013857 0 0.025313159405915088 0.0075344467922541175 0 0.025821664583659063 0.0071088959811613879 0 0.025408598256333039 0.0070715492053631725 0 0.025313159405915088 0.0075344467922541175 0 0.025821664583659063 0.0071088959811613879 0 0.025584992264558581 0.0072925485932840792 0 0.025408598256333039 0.0070715492053631725 0 0.025428937101248862 0.0074950629514907528 0 0.025477148082880534 0.0066061442854886991 0 0.025584992264558581 0.0072925485932840792 0 0.025312751663153995 0.006620682870206852 0 0.025408598256333039 0.0070715492053631725 0 0.023599273776082983 0.0066555491259688328 0 0.025428937101248862 0.0074950629514907528 0 0.024032578592210817 0.0078897525554700379 0 0.025137487240800321 0.007513404629258048 0 0.025082313222549293 0.0085530309931162642 0 0.024032578592210817 0.0078897525554700379 0 0.023552764411375514 0.006674131284792004 0 0.025137487240800321 0.007513404629258048 0 0.023973211559042702 0.0068228493408570897 0 0.024957566465593443 0.0065832289833577919 0 0.024843447295731458 0.0043987847415157552 0 0.024931314919103012 0.0044498196028084532 0 0.02475678718996176 0.0046501095360024737 0 0.023337490127746961 0.0089142228716009696 0 0.024032578592210817 0.0078897525554700379 0 0.025082313222549293 0.0085530309931162642 0 0.025137487240800321 0.007513404629258048 0 0.025082313222549293 0.0085530309931162642 0 0.026675850720170313 0.0082579377849953117 0 0.024586485686843941 0.0046328871013845497 0 0.02475678718996176 0.0046501095360024737 0 0.024491636873861876 0.0048634903729041206 0 0.024957566465593443 0.0065832289833577919 0 0.025477148082880534 0.0066061442854886991 0 0.024491636873861876 0.0048634903729041206 0 0.024259234295367839 0.0049131423854316689 0 0.024438927595341952 0.0047040274869906504 0 0.025477148082880534 0.0066061442854886991 0 0.024469682833903161 0.0052124959924958244 0 0.024586485686843941 0.0046328871013845497 0 0.024491636873861876 0.0048634903729041206 0 0.024438927595341952 0.0047040274869906504 0 0.024469682833903161 0.0052124959924958244 0 0.024065870916442571 0.0051013767949881113 0 0.025984929652116944 0.0061510273734084612 0 0.024963785115888454 0.0056479309373525131 0 0.024408495648909304 0.0064129201662524466 0 0.024963785115888454 0.0056479309373525131 0 0.024408495648909304 0.0064129201662524466 0 0.023862108123185431 0.0058336846183849487 0 0.025477148082880534 0.0066061442854886991 0 0.024535737943360388 0.0063865360745497344 0 0.025312751663153995 0.006620682870206852 0 0.024408495648909304 0.0064129201662524466 0 0.024873349299340399 0.0069309342972490992 0 0.024408495648909304 0.0064129201662524466 0 0.024873349299340399 0.0069309342972490992 0 0.024241523843598057 0.0072193080146498974 0 0.025312751663153995 0.006620682870206852 0 0.024873349299340399 0.0069309342972490992 0 0.025408598256333039 0.0070715492053631725 0 0.024873349299340399 0.0069309342972490992 0 0.025408598256333039 0.0070715492053631725 0 0.02484500372710886 0.007454860385267853 0 0.025408598256333039 0.0070715492053631725 0 0.025313159405915088 0.0075344467922541175 0 0.02484500372710886 0.007454860385267853 0 0.025313159405915088 0.0075344467922541175 0 0.02484500372710886 0.007454860385267853 0 0.024834962779097421 0.0083013546967712938 0 0.024873349299340399 0.0069309342972490992 0 0.02484500372710886 0.007454860385267853 0 0.024241523843598057 0.0072193080146498974 0 0.02484500372710886 0.007454860385267853 0 0.02410989457605563 0.0079632405662952554 0 0.024241523843598057 0.0072193080146498974 0 0.024834962779097421 0.0083013546967712938 0 0.02410989457605563 0.0079632405662952554 0 0.023877619106444165 0.0087932196887475656 0 0.02484500372710886 0.007454860385267853 0 0.024834962779097421 0.0083013546967712938 0 0.02410989457605563 0.0079632405662952554 0 0.025781205995345783 0.0080816271100013857 0 0.025313159405915088 0.0075344467922541175 0 0.024834962779097421 0.0083013546967712938 0 0.025781205995345783 0.0080816271100013857 0 0.024050003851854209 0.0096351869484702386 0 0.025463831882840494 0.010232086090362282 0 0.025756611685887124 0.008126597384720019 0 0.024476342727942569 0.008942746424569931 0 0.02410989457605563 0.0079632405662952554 0 0.023362398907347565 0.0074530527690373155 0 0.022993994803911056 0.0084092904838048901 0 0.02410989457605563 0.0079632405662952554 0 0.023877619106444165 0.0087932196887475656 0 0.022993994803911056 0.0084092904838048901 0 0.02410989457605563 0.0079632405662952554 0 0.024241523843598057 0.0072193080146498974 0 0.023362398907347565 0.0074530527690373155 0 0.024241523843598057 0.0072193080146498974 0 0.023362398907347565 0.0074530527690373155 0 0.023760103678493304 0.0066833216395933938 0 0.023362398907347565 0.0074530527690373155 0 0.023107749906036819 0.0066846769540908823 0 0.022710211891210728 0.0071033821143782648 0 0.023362398907347565 0.0074530527690373155 0 0.023107749906036819 0.0066846769540908823 0 0.023760103678493304 0.0066833216395933938 0 0.023107749906036819 0.0066846769540908823 0 0.023760103678493304 0.0066833216395933938 0 0.023388017819459563 0.0061262026956957882 0 0.024408495648909304 0.0064129201662524466 0 0.024241523843598057 0.0072193080146498974 0 0.023760103678493304 0.0066833216395933938 0 0.024963785115888454 0.0056479309373525131 0 0.023862108123185431 0.0058336846183849487 0 0.023968066889566018 0.0050952219817886916 0 0.024408495648909304 0.0064129201662524466 0 0.023760103678493304 0.0066833216395933938 0 0.023862108123185431 0.0058336846183849487 0 0.023760103678493304 0.0066833216395933938 0 0.023862108123185431 0.0058336846183849487 0 0.023388017819459563 0.0061262026956957882 0 0.023388017819459563 0.0061262026956957882 0 0.023157983452445411 0.0050774471514980577 0 0.022830606734016538 0.0059937978180371809 0 0.023862108123185431 0.0058336846183849487 0 0.023388017819459563 0.0061262026956957882 0 0.023157983452445411 0.0050774471514980577 0 0.023107749906036819 0.0066846769540908823 0 0.023388017819459563 0.0061262026956957882 0 0.022830606734016538 0.0059937978180371809 0 0.023157983452445411 0.0050774471514980577 0 0.023070273450129439 0.0045988264540310544 0 0.022880987608551728 0.0048679764067280805 0 0.023157983452445411 0.0050774471514980577 0 0.023070273450129439 0.0045988264540310544 0 0.023629284947857092 0.0043920794945921287 0 0.023070273450129439 0.0045988264540310544 0 0.023629284947857092 0.0043920794945921287 0 0.023098901023270148 0.0041231599855289574 0 0.023157983452445411 0.0050774471514980577 0 0.023971148713764216 0.0046327906205346154 0 0.023629284947857092 0.0043920794945921287 0 0.023971148713764216 0.0046327906205346154 0 0.023629284947857092 0.0043920794945921287 0 0.024226792512689103 0.0041314088686268792 0 0.023862108123185431 0.0058336846183849487 0 0.023157983452445411 0.0050774471514980577 0 0.023968066889566018 0.0050952219817886916 0 0.023157983452445411 0.0050774471514980577 0 0.023971148713764216 0.0046327906205346154 0 0.023968066889566018 0.0050952219817886916 0 0.023971148713764216 0.0046327906205346154 0 0.023968066889566018 0.0050952219817886916 0 0.024280764273129168 0.0045928576999215926 0 0.024259234295367839 0.0049131423854316689 0 0.024280764273129168 0.0045928576999215926 0 0.024438927595341952 0.0047040274869906504 0 0.024259234295367839 0.0049131423854316689 0 0.023968066889566018 0.0050952219817886916 0 0.024280764273129168 0.0045928576999215926 0 0.024280764273129168 0.0045928576999215926 0 0.024438927595341952 0.0047040274869906504 0 0.024544988933817499 0.0044880032928543215 0 0.024586485686843941 0.0046328871013845497 0 0.024438927595341952 0.0047040274869906504 0 0.024544988933817499 0.0044880032928543215 0 0.024280764273129168 0.0045928576999215926 0 0.024544988933817499 0.0044880032928543215 0 0.024526462177078347 0.0042608357894373845 0 0.023971148713764216 0.0046327906205346154 0 0.024280764273129168 0.0045928576999215926 0 0.024226792512689103 0.0041314088686268792 0 0.024280764273129168 0.0045928576999215926 0 0.024526462177078347 0.0042608357894373845 0 0.024226792512689103 0.0041314088686268792 0 0.024226792512689103 0.0041314088686268792 0 0.024796302773681771 0.0038111218224221406 0 0.023979907115873014 0.0036824895728032204 0 0.024274413026006147 0.0041054025349091094 0 0.024606753017101218 0.0039472996498871194 0 0.024526462177078347 0.0042608357894373845 0 0.024226792512689103 0.0041314088686268792 0 0.024544182891509961 0.0040241156899848297 0 0.024696748817430419 0.0032961304589856299 0 0.024925992020432147 0.0034633111657521661 0 0.024796302773681771 0.0038111218224221406 0 0.024244008652185896 0.003249483545863159 0 0.024696748817430419 0.0032961304589856299 0 0.024796302773681771 0.0038111218224221406 0 0.024244008652185896 0.003249483545863159 0 0.024796302773681771 0.0038111218224221406 0 0.023979907115873014 0.0036824895728032204 0 0.023720971706675718 0.0032513651466891213 0 0.024244008652185896 0.003249483545863159 0 0.023979907115873014 0.0036824895728032204 0 0.023720971706675718 0.0032513651466891213 0 0.023979907115873014 0.0036824895728032204 0 0.023481240383756645 0.0037371151130727864 0 0.023720971706675718 0.0032513651466891213 0 0.023102913654817304 0.0034203946332622822 0 0.023481240383756645 0.0037371151130727864 0 0.023102913654817304 0.0034203946332622822 0 0.023481240383756645 0.0037371151130727864 0 0.023098901023270148 0.0041231599855289574 0 0.023629284947857092 0.0043920794945921287 0 0.023481240383756645 0.0037371151130727864 0 0.023098901023270148 0.0041231599855289574 0 0.023629284947857092 0.0043920794945921287 0 0.024226792512689103 0.0041314088686268792 0 0.023979907115873014 0.0036824895728032204 0 0.023629284947857092 0.0043920794945921287 0 0.023979907115873014 0.0036824895728032204 0 0.023481240383756645 0.0037371151130727864 0 0.025057382499222042 0.0054137079790196468 0 0.024803051554662447 0.0052669776834508419 0 0.024754652025266166 0.0058250227254224799 0 0.023102913654817304 0.0034203946332622822 0 0.023098901023270148 0.0041231599855289574 0 0.022610673693545445 0.0038692733927088978 0 0.023776944293753214 0.0046852651586615762 0 0.023900659600753681 0.0052195475086438776 0 0.023098901023270148 0.0041231599855289574 0 0.022610673693545445 0.0038692733927088978 0 0.022613326557262257 0.0045449262975565206 0 0.022590737294345721 0.0032337171676257606 0 0.023102913654817304 0.0034203946332622822 0 0.022610673693545445 0.0038692733927088978 0 0.024614488352742086 0.0037978957691476192 0 0.023776944293753214 0.0046852651586615762 0 0.025047125827823726 0.0049040233355821519 0 0.025057382499222042 0.0054137079790196468 0 0.024803051554662447 0.0052669776834508419 0 0.024735502885459771 0.0049209961555391072 0 0.025047125827823726 0.0049040233355821519 0 0.024803051554662447 0.0052669776834508419 0 0.024735502885459771 0.0049209961555391072 0 0.024803051554662447 0.0052669776834508419 0 0.024471041920914718 0.0052526777351922004 0 0.025591289572621554 0.0050483103057713721 0 0.025835911432268256 0.0066287277992240082 0 0.026290590652567305 0.0062119930205244839 0 0.025835911432268256 0.0066287277992240082 0 0.026700433174778507 0.0070455438770867553 0 0.026932463660536893 0.0075708017776795339 0 0.026432358238881546 0.0074752565786946846 0 0.026932463660536893 0.0075708017776795339 0 0.026556160126988266 0.0079725997173609106 0 0.026432358238881546 0.0074752565786946846 0 0.025835911432268256 0.0066287277992240082 0 0.026265537168274913 0.0083760519050117763 0 0.025835911432268256 0.0066287277992240082 0 0.025455638941383089 0.0073170518640971165 0 0.025891797773813056 0.0084971624929914714 0 0.025992288782286519 0.0084126733666082983 0 0.025799247162341207 0.0083572606149339007 0 0.024803051554662447 0.0052669776834508419 0 0.024471041920914718 0.0052526777351922004 0 0.024754652025266166 0.0058250227254224799 0 0.025992288782286519 0.0084126733666082983 0 0.025923192822018479 0.0083136976152753464 0 0.025799247162341207 0.0083572606149339007 0 0.025923192822018479 0.0083136976152753464 0 0.025836895931108172 0.0082679280432350951 0 0.025799247162341207 0.0083572606149339007 0 0.025992288782286519 0.0084126733666082983 0 0.025923192822018479 0.0083136976152753464 0 0.026010173198850833 0.0082992807328801169 0 0.026010173198850833 0.0082992807328801169 0 0.025942674569313165 0.0082532201169666451 0 0.026016435547478695 0.0082433352899415526 0 0.025923192822018479 0.0083136976152753464 0 0.026010173198850833 0.0082992807328801169 0 0.025942674569313165 0.0082532201169666451 0 0.025942674569313165 0.0082532201169666451 0 0.025888864526994008 0.0082016558548859159 0 0.025951867133662845 0.008204870204846228 0 0.025942674569313165 0.0082532201169666451 0 0.026016435547478695 0.0082433352899415526 0 0.025951867133662845 0.008204870204846228 0 0.025836895931108172 0.0082679280432350951 0 0.025888864526994008 0.0082016558548859159 0 0.02566728968531139 0.0081685245525292098 0 0.025923192822018479 0.0083136976152753464 0 0.025942674569313165 0.0082532201169666451 0 0.025836895931108172 0.0082679280432350951 0 0.025942674569313165 0.0082532201169666451 0 0.025836895931108172 0.0082679280432350951 0 0.025888864526994008 0.0082016558548859159 0 0.025836895931108172 0.0082679280432350951 0 0.025799247162341207 0.0083572606149339007 0 0.02566728968531139 0.0081685245525292098 0 0.025455638941383089 0.0073170518640971165 0 0.023702364466391634 0.006529885172061765 0 0.025057382499222042 0.0054137079790196468 0 0.024754652025266166 0.0058250227254224799 0 0.025064318787205293 0.0058819967216479693 0 0.024754652025266166 0.0058250227254224799 0 0.025064318787205293 0.0058819967216479693 0 0.024996827620040015 0.0063420945405874779 0 0.023070273450129439 0.0045988264540310544 0 0.023098901023270148 0.0041231599855289574 0 0.022613326557262257 0.0045449262975565206 0 0.023070273450129439 0.0045988264540310544 0 0.022613326557262257 0.0045449262975565206 0 0.022880987608551728 0.0048679764067280805 0 0.02292907002925566 0.0051328450152678135 0 0.023044971521807046 0.0057368172218180925 0 0.025064318787205293 0.0058819967216479693 0 0.025076274924146089 0.0063156608513892445 0 0.024996827620040015 0.0063420945405874779 0 0.023900659600753681 0.0052195475086438776 0 0.023044971521807046 0.0057368172218180925 0 0.023157983452445411 0.0050774471514980577 0 0.022880987608551728 0.0048679764067280805 0 0.022649540900582528 0.0052221316801348621 0 0.022613326557262257 0.0045449262975565206 0 0.022880987608551728 0.0048679764067280805 0 0.022649540900582528 0.0052221316801348621 0 0.023044971521807046 0.0057368172218180925 0 0.023702364466391634 0.006529885172061765 0 0.023702364466391634 0.006529885172061765 0 0.022162944401539975 0.0060541020522825294 0 0.023157983452445411 0.0050774471514980577 0 0.022204873511803922 0.0054192550817042506 0 0.022830606734016538 0.0059937978180371809 0 0.022240947639016507 0.0057867882918855263 0 0.021962012407714244 0.0054824661165002366 0 0.022565989251454859 0.0065597245705984871 0 0.022204873511803922 0.0054192550817042506 0 0.022240947639016507 0.0057867882918855263 0 0.022830606734016538 0.0059937978180371809 0 0.022205262499601055 0.005405569451628487 0 0.022240947639016507 0.0057867882918855263 0 0.021962012407714244 0.0054824661165002366 0 0.023044971521807046 0.0057368172218180925 0 0.022766439070073731 0.0056475103198221901 0 0.022240947639016507 0.0057867882918855263 0 0.022830606734016538 0.0059937978180371809 0 0.022565989251454859 0.0065597245705984871 0 0.02225095084173509 0.0059428744254307947 0 0.021967719691315387 0.0065574628226225647 0 0.021369755922642206 0.0062123319745787022 0 0.02225095084173509 0.0059428744254307947 0 0.021967719691315387 0.0065574628226225647 0 0.022565989251454859 0.0065597245705984871 0 0.023702364466391634 0.006529885172061765 0 0.023944117429456728 0.0080407991221210263 0 0.021967719691315387 0.0065574628226225647 0 0.022196457396992025 0.0070623028225638282 0 0.022565989251454859 0.0065597245705984871 0 0.021967719691315387 0.0065574628226225647 0 0.022196457396992025 0.0070623028225638282 0 0.021520008934473946 0.0072906266160589024 0 0.023107749906036819 0.0066846769540908823 0 0.022830606734016538 0.0059937978180371809 0 0.022565989251454859 0.0065597245705984871 0 0.022196457396992025 0.0070623028225638282 0 0.022565989251454859 0.0065597245705984871 0 0.022710211891210728 0.0071033821143782648 0 0.023107749906036819 0.0066846769540908823 0 0.022565989251454859 0.0065597245705984871 0 0.022710211891210728 0.0071033821143782648 0 0.023362398907347565 0.0074530527690373155 0 0.022406618501287081 0.0077355513656206546 0 0.022710211891210728 0.0071033821143782648 0 0.022196457396992025 0.0070623028225638282 0 0.022406618501287081 0.0077355513656206546 0 0.022710211891210728 0.0071033821143782648 0 0.022196457396992025 0.0070623028225638282 0 0.022406618501287081 0.0077355513656206546 0 0.021520008934473946 0.0072906266160589024 0 0.022406618501287081 0.0077355513656206546 0 0.022404261680276458 0.0083586720704339618 0 0.021782389271508766 0.0084703794173351509 0 0.022406618501287081 0.0077355513656206546 0 0.021520008934473946 0.0072906266160589024 0 0.021782389271508766 0.0084703794173351509 0 0.022406618501287081 0.0077355513656206546 0 0.022404261680276458 0.0083586720704339618 0 0.022993994803911056 0.0084092904838048901 0 0.023362398907347565 0.0074530527690373155 0 0.022406618501287081 0.0077355513656206546 0 0.022993994803911056 0.0084092904838048901 0 0.022624952131936528 0.0096551298917921021 0 0.022553765970531239 0.0097550631436875181 0 0.022690116140427 0.0097849459138326517 0 0.022624952131936528 0.0096551298917921021 0 0.022464944793510841 0.0096754801982607379 0 0.022553765970531239 0.0097550631436875181 0 0.025118826205838853 0.010964750814421996 0 0.025752966292381482 0.01201136893360368 0 0.021701812803900825 0.0085231468836740928 0 0.022098989343368985 0.0090512282805510665 0 0.022464944793510841 0.0096754801982607379 0 0.022433436605774213 0.0098023597180008307 0 0.022332982054534802 0.0096257124157677291 0 0.022464944793510841 0.0096754801982607379 0 0.022433436605774213 0.0098023597180008307 0 0.022553765970531239 0.0097550631436875181 0 0.022553765970531239 0.0097550631436875181 0 0.022596036101525101 0.0098460557170264897 0 0.022690116140427 0.0097849459138326517 0 0.022433436605774213 0.0098023597180008307 0 0.022553765970531239 0.0097550631436875181 0 0.022596036101525101 0.0098460557170264897 0 0.022596036101525101 0.0098460557170264897 0 0.022501619624543636 0.009969228684652616 0 0.022623349778981259 0.0099450206175970626 0 0.022433436605774213 0.0098023597180008307 0 0.022596036101525101 0.0098460557170264897 0 0.022501619624543636 0.009969228684652616 0 0.021967719691315387 0.0065574628226225647 0 0.021520008934473946 0.0072906266160589024 0 0.021369755922642206 0.0062123319745787022 0 0.021701812803900825 0.0085231468836740928 0 0.023944117429456728 0.0080407991221210263 0 0.025888864526994008 0.0082016558548859159 0 0.02566728968531139 0.0081685245525292098 0 0.025868806102099122 0.0081279241134587683 0 0.025888864526994008 0.0082016558548859159 0 0.025885078063278957 0.0081741743820995059 0 0.025951867133662845 0.008204870204846228 0 0.024920554351891402 0.0083557005449624387 0 0.023944117429456728 0.0080407991221210263 0 0.026016435547478695 0.0082433352899415526 0 0.025986727736775204 0.0081865251536870718 0 0.025951867133662845 0.008204870204846228 0 0.023944117429456728 0.0080407991221210263 0 0.024195014041074773 0.0091051568741465812 0 0.025885078063278957 0.0081741743820995059 0 0.025986727736775204 0.0081865251536870718 0 0.025951867133662845 0.008204870204846228 0 0.025986727736775204 0.0081865251536870718 0 0.026054879105469587 0.0082506408817607617 0 0.026065766238053463 0.0081999888106048333 0 0.026016435547478695 0.0082433352899415526 0 0.025986727736775204 0.0081865251536870718 0 0.026054879105469587 0.0082506408817607617 0 0.026054879105469587 0.0082506408817607617 0 0.026065766238053463 0.0081999888106048333 0 0.026060279459389612 0.0083043868066568459 0 0.026552417028772379 0.0098659702064724016 0 0.025983585061499188 0.0095331186037066577 0 0.026264427542582222 0.0090654524914847538 0 0.025218825421271147 0.0097562411441514327 0 0.026255107934520763 0.0085611245103487665 0 0.025218825421271147 0.0097562411441514327 0 0.026002830537793863 0.010543203822569479 0 0.025393820585435382 0.010525130053340768 0 0.025394734588893693 0.010496525791334857 0 0.02542975913007408 0.010519285675350064 0 0.026552417028772379 0.0098659702064724016 0 0.025931199695267443 0.0100608177588167 0 0.025983585061499188 0.0095331186037066577 0 0.025218825421271147 0.0097562411441514327 0 0.023828792072255627 0.0099700758564917908 0 0.022596036101525101 0.0098460557170264897 0 0.022623349778981259 0.0099450206175970626 0 0.022762148167780813 0.0099141728414128411 0 0.022596036101525101 0.0098460557170264897 0 0.022762148167780813 0.0099141728414128411 0 0.022690116140427 0.0097849459138326517 0 0.024195014041074773 0.0091051568741465812 0 0.025218825421271147 0.0097562411441514327 0 0.025393820585435382 0.010525130053340768 0 0.02537879613828304 0.010499402187923303 0 0.025394734588893693 0.010496525791334857 0 0.026128341546765129 0.011275021140320984 0 0.026002830537793863 0.010543203822569479 0 0.026650450998035771 0.011803585500797081 0 0.025815897609013618 0.012060614197940071 0 0.026094580986058019 0.011004006034151461 0 0.026650450998035771 0.011803585500797081 0 0.026260594142057402 0.012355460739918327 0 0.025815897609013618 0.012060614197940071 0 0.026650450998035771 0.011803585500797081 0 0.026260594142057402 0.012355460739918327 0 0.026640366201241949 0.01233804118255793 0 0.025362311386761097 0.010488239426455827 0 0.02537879613828304 0.010499402187923303 0 0.025394734588893693 0.010496525791334857 0 0.026646543751807226 0.01235119870894168 0 0.026650450998035771 0.011803585500797081 0 0.026640366201241949 0.01233804118255793 0 0.025118826205838853 0.010964750814421996 0 0.026128341546765129 0.011275021140320984 0 0.025118826205838853 0.010964750814421996 0 0.023828792072255627 0.0099700758564917908 0 0.025815897609013618 0.012060614197940071 0 0.024999928456094223 0.011091923725148792 0 0.024999890797661566 0.012573911531455166 0 0.025815897609013618 0.012060614197940071 0 0.024999890797661566 0.012573911531455166 0 0.025517422782608861 0.012858625910427081 0 0.026260594142057402 0.012355460739918327 0 0.025815897609013618 0.012060614197940071 0 0.025963298405912067 0.01284629961349484 0 0.025815897609013618 0.012060614197940071 0 0.024999928456094223 0.011091923725148792 0 0.026094580986058019 0.011004006034151461 0 0.024999999253027171 0.011091147895369543 0 0.026408423764427251 0.010643117560961838 0 0.025705968397345656 0.0099347222011577415 0 0.025000488021699952 0.011091291293767486 0 0.026002830537793863 0.010543203822569479 0 0.024999999253027171 0.011091147895369543 0 0.024999994179881344 0.010155505534878286 0 0.025705968397345656 0.0099347222011577415 0 0.026002830537793863 0.010543203822569479 0 0.025585113072755752 0.0097524451884390753 0 0.025983585061499188 0.0095331186037066577 0 0.02545998914749396 0.0095882202223555694 0 0.025709553034961263 0.0089539749841786188 0 0.025931199695267443 0.0100608177588167 0 0.025983585061499188 0.0095331186037066577 0 0.02545998914749396 0.0095882202223555694 0 0.02545998914749396 0.0095882202223555694 0 0.024999942358292018 0.0092191519456998137 0 0.025332078152222527 0.0089748292162333126 0 0.024999994179881344 0.010155505534878286 0 0.025705968397345656 0.0099347222011577415 0 0.025000000092315618 0.0092198343834677069 0 0.025585113072755752 0.0097524451884390753 0 0.025000139429303167 0.0092199524017991183 0 0.025332078152222527 0.0089748292162333126 0 0.024999908709144439 0.0086780756962289377 0 0.025404498292247883 0.0083509988066629848 0 0.02545998914749396 0.0095882202223555694 0 0.025332078152222527 0.0089748292162333126 0 0.025709553034961263 0.0089539749841786188 0 0.025332078152222527 0.0089748292162333126 0 0.025404498292247883 0.0083509988066629848 0 0.025709553034961263 0.0089539749841786188 0 0.024999942358292018 0.0092191519456998137 0 0.025332078152222527 0.0089748292162333126 0 0.024999908709144439 0.0086780756962289377 0 0.025000041953994717 0.0086774388270723455 0 0.025327571790364791 0.007549620493736274 0 0.024999908709144439 0.0086780756962289377 0 0.025404498292247883 0.0083509988066629848 0 0.025256741336692628 0.0078418369258379701 0 0.025404498292247883 0.0083509988066629848 0 0.025874535304627001 0.0081767745410458031 0 0.025709553034961263 0.0089539749841786188 0 0.025404498292247883 0.0083509988066629848 0 0.025874535304627001 0.0081767745410458031 0 0.025256741336692628 0.0078418369258379701 0 0.025983585061499188 0.0095331186037066577 0 0.025709553034961263 0.0089539749841786188 0 0.026264427542582222 0.0090654524914847538 0 0.025874535304627001 0.0081767745410458031 0 0.025709553034961263 0.0089539749841786188 0 0.026264427542582222 0.0090654524914847538 0 0.026016435547478695 0.0082433352899415526 0 0.026054879105469587 0.0082506408817607617 0 0.026135287773528647 0.0082859486222656639 0 0.026054879105469587 0.0082506408817607617 0 0.026060279459389612 0.0083043868066568459 0 0.026135287773528647 0.0082859486222656639 0 0.026010173198850833 0.0082992807328801169 0 0.026016435547478695 0.0082433352899415526 0 0.026135287773528647 0.0082859486222656639 0 0.026265537168274913 0.0083760519050117763 0 0.026178888056541665 0.0082202132126091444 0 0.025992288782286519 0.0084126733666082983 0 0.026010173198850833 0.0082992807328801169 0 0.026135287773528647 0.0082859486222656639 0 0.026556160126988266 0.0079725997173609106 0 0.026135287773528647 0.0082859486222656639 0 0.026136848453308274 0.0078714651316780983 0 0.025885330412529897 0.0082374345953775442 0 0.026255107934520763 0.0085611245103487665 0 0.025874535304627001 0.0081767745410458031 0 0.026060279459389612 0.0083043868066568459 0 0.026135287773528647 0.0082859486222656639 0 0.025874535304627001 0.0081767745410458031 0 0.026135287773528647 0.0082859486222656639 0 0.026136848453308274 0.0078714651316780983 0 0.025874535304627001 0.0081767745410458031 0 0.026136848453308274 0.0078714651316780983 0 0.025738405215963996 0.0076766118497098076 0 0.026556160126988266 0.0079725997173609106 0 0.026136848453308274 0.0078714651316780983 0 0.026432358238881546 0.0074752565786946846 0 0.026136848453308274 0.0078714651316780983 0 0.026432358238881546 0.0074752565786946846 0 0.026002053139271484 0.0073800065033590477 0 0.026136848453308274 0.0078714651316780983 0 0.026002053139271484 0.0073800065033590477 0 0.025738405215963996 0.0076766118497098076 0 0.025450133063281734 0.0071886155727706345 0 0.025738405215963996 0.0076766118497098076 0 0.025256741336692628 0.0078418369258379701 0 0.025450133063281734 0.0071886155727706345 0 0.026002053139271484 0.0073800065033590477 0 0.025738405215963996 0.0076766118497098076 0 0.025770913564214161 0.0060060721151636211 0 0.025000001767331977 0.0072825101953433342 0 0.025389545884413646 0.0073420776209432168 0 0.025603750960311256 0.0068131011814510549 0 0.025327571790364791 0.007549620493736274 0 0.024999975625229567 0.0058874447847696975 0 0.025770913564214161 0.0060060721151636211 0 0.025000001767331977 0.0072825101953433342 0 0.02499999684322364 0.0086775582968130014 0 0.025000001767331977 0.0072825101953433342 0 0.025389545884413646 0.0073420776209432168 0 0.025874535304627001 0.0081767745410458031 0 0.025738405215963996 0.0076766118497098076 0 0.025256741336692628 0.0078418369258379701 0 0.0254224296596408 0.017910694896638914 0 0.02556117339487601 0.018757275247741772 0 0.025730915173863309 0.01784939142369759 0 0.0254224296596408 0.017910694896638914 0 0.025730915173863309 0.01784939142369759 0 0.025526387286529666 0.017375917893116717 0 0.0254224296596408 0.017910694896638914 0 0.025267712549960464 0.01747827322122748 0 0.025526387286529666 0.017375917893116717 0 0.025267712549960464 0.01747827322122748 0 0.024999500355546773 0.018506731866649116 0 0.024999734889482612 0.017023986886381199 0 0.0254224296596408 0.017910694896638914 0 0.025267712549960464 0.01747827322122748 0 0.024999500355546773 0.018506731866649116 0 0.0254224296596408 0.017910694896638914 0 0.024999500355546773 0.018506731866649116 0 0.02556117339487601 0.018757275247741772 0 0.024999500355546773 0.018506731866649116 0 0.02556117339487601 0.018757275247741772 0 0.025438379253754414 0.019632223933353527 0 0.02556117339487601 0.018757275247741772 0 0.025882024714444469 0.018621556937933048 0 0.025675994872308528 0.019475443713736003 0 0.025882024714444469 0.018621556937933048 0 0.026160473195209786 0.019336286376356995 0 0.025675994872308528 0.019475443713736003 0 0.025882024714444469 0.018621556937933048 0 0.026160473195209786 0.019336286376356995 0 0.026238700061717905 0.017779228038905647 0 0.022147812537319209 0.020144117293331452 0 0.021686504711295469 0.018878707109521751 0 0.018118045197638655 0.021013941430070938 0 0.017776761266620877 0.0198901006902584 0 0.01850123613701677 0.01998974623386645 0 0.025882024714444469 0.018621556937933048 0 0.026238700061717905 0.017779228038905647 0 0.025730915173863309 0.01784939142369759 0 0.02556117339487601 0.018757275247741772 0 0.025882024714444469 0.018621556937933048 0 0.025730915173863309 0.01784939142369759 0 0.026238700061717905 0.017779228038905647 0 0.025730915173863309 0.01784939142369759 0 0.025733940871870229 0.01713152290689848 0 0.021686504711295469 0.018878707109521751 0 0.023823532715868068 0.017174097896148634 0 0.026238700061717905 0.017779228038905647 0 0.025894034850959476 0.016607549803182412 0 0.025733940871870229 0.01713152290689848 0 0.017776761266620877 0.0198901006902584 0 0.018049217365400869 0.019001344511839657 0 0.017424174472132493 0.018875340949394741 0 0.017776761266620877 0.0198901006902584 0 0.018292561521522911 0.019477942490758984 0 0.01850123613701677 0.01998974623386645 0 0.017776761266620877 0.0198901006902584 0 0.018292561521522911 0.019477942490758984 0 0.018049217365400869 0.019001344511839657 0 0.018049217365400869 0.019001344511839657 0 0.017424174472132493 0.018875340949394741 0 0.01833363513051087 0.01837033471719425 0 0.018049217365400869 0.019001344511839657 0 0.018339979535205723 0.018768016071246479 0 0.01833363513051087 0.01837033471719425 0 0.023823532715868068 0.017174097896148634 0 0.021100782055040127 0.015830509210043135 0 0.018292561521522911 0.019477942490758984 0 0.018049217365400869 0.019001344511839657 0 0.018498496143668178 0.019084106420138677 0 0.018049217365400869 0.019001344511839657 0 0.018339979535205723 0.018768016071246479 0 0.018498496143668178 0.019084106420138677 0 0.023817081528581738 0.015305263086196289 0 0.023836348319933372 0.015345789897593791 0 0.023240524236216434 0.015596452019814534 0 0.023823532715868068 0.017174097896148634 0 0.025466570773546027 0.01675400400589943 0 0.026809427477946644 0.016060783840952976 0 0.026758129605104156 0.015956492584128106 0 0.026268592784643087 0.015926621257197238 0 0.023823532715868068 0.017174097896148634 0 0.024763646460842049 0.016425392250409156 0 0.023823532715868068 0.017174097896148634 0 0.02642756917177223 0.016460852881287822 0 0.025791477611967199 0.016983726412633911 0 0.025733940871870229 0.01713152290689848 0 0.025380946791318425 0.016818573791295515 0 0.026809427477946644 0.016060783840952976 0 0.026268592784643087 0.015926621257197238 0 0.025380946791318425 0.016818573791295515 0 0.026268592784643087 0.015926621257197238 0 0.025380946791318425 0.016818573791295515 0 0.025593297060926726 0.015863824370488305 0 0.026268592784643087 0.015926621257197238 0 0.025593297060926726 0.015863824370488305 0 0.025720121847690385 0.01535137071196876 0 0.025730915173863309 0.01784939142369759 0 0.025733940871870229 0.01713152290689848 0 0.025526387286529666 0.017375917893116717 0 0.025733940871870229 0.01713152290689848 0 0.025526387286529666 0.017375917893116717 0 0.025380946791318425 0.016818573791295515 0 0.025267712549960464 0.01747827322122748 0 0.024999734889482612 0.017023986886381199 0 0.025380946791318425 0.016818573791295515 0 0.025267712549960464 0.01747827322122748 0 0.025526387286529666 0.017375917893116717 0 0.025380946791318425 0.016818573791295515 0 0.024999734889482612 0.017023986886381199 0 0.025380946791318425 0.016818573791295515 0 0.024999904871519707 0.015540332302173851 0 0.025380946791318425 0.016818573791295515 0 0.025593297060926726 0.015863824370488305 0 0.024999904871519707 0.015540332302173851 0 0.025593297060926726 0.015863824370488305 0 0.024999904871519707 0.015540332302173851 0 0.025720121847690385 0.01535137071196876 0 0.024999904871519707 0.015540332302173851 0 0.025720121847690385 0.01535137071196876 0 0.025493313847868005 0.014781117905229754 0 0.024763646460842049 0.016425392250409156 0 0.026354224907602648 0.014887731007841406 0 0.026268592784643087 0.015926621257197238 0 0.025720121847690385 0.01535137071196876 0 0.026268992669274242 0.01492788216038775 0 0.026758129605104156 0.015956492584128106 0 0.026268592784643087 0.015926621257197238 0 0.026268992669274242 0.01492788216038775 0 0.025720121847690385 0.01535137071196876 0 0.026268992669274242 0.01492788216038775 0 0.025493313847868005 0.014781117905229754 0 0.026268992669274242 0.01492788216038775 0 0.025588451659916665 0.014335569057931749 0 0.025816474009589942 0.013968467959757317 0 0.026202921484100701 0.014869378128714488 0 0.02605459831438444 0.014080526571885486 0 0.025816474009589942 0.013968467959757317 0 0.026354224907602648 0.014887731007841406 0 0.025833786513078182 0.014037297196978693 0 0.026202921484100701 0.014869378128714488 0 0.02605459831438444 0.014080526571885486 0 0.026821260254201087 0.01461328903018564 0 0.026047152198732177 0.013956890459182672 0 0.025963758536806613 0.014068293911628999 0 0.026268992669274242 0.01492788216038775 0 0.025493313847868005 0.014781117905229754 0 0.025588451659916665 0.014335569057931749 0 0.024999904871519707 0.015540332302173851 0 0.025493313847868005 0.014781117905229754 0 0.024999982590852069 0.014057113225366007 0 0.025588451659916665 0.014335569057931749 0 0.025396245584077232 0.013953459506340698 0 0.025816474009589942 0.013968467959757317 0 0.025588451659916665 0.014335569057931749 0 0.024999982590852069 0.014057113225366007 0 0.025396245584077232 0.013953459506340698 0 0.025493313847868005 0.014781117905229754 0 0.025588451659916665 0.014335569057931749 0 0.024999982590852069 0.014057113225366007 0 0.0258365202684912 0.013691080187637955 0 0.025209606280457281 0.013483481303504588 0 0.025722894119470058 0.013262830467677076 0 0.026047152198732177 0.013956890459182672 0 0.025222190470698295 0.013470895440823491 0 0.02605459831438444 0.014080526571885486 0 0.025209606280457281 0.013483481303504588 0 0.025816474009589942 0.013968467959757317 0 0.024999982590852069 0.014057113225366007 0 0.025209606280457281 0.013483481303504588 0 0.025396245584077232 0.013953459506340698 0 0.024999982590852069 0.014057113225366007 0 0.025209606280457281 0.013483481303504588 0 0.024999890797661566 0.012573911531455166 0 0.025209606280457281 0.013483481303504588 0 0.025722894119470058 0.013262830467677076 0 0.025517422782608861 0.012858625910427081 0 0.025209606280457281 0.013483481303504588 0 0.025396245584077232 0.013953459506340698 0 0.025816474009589942 0.013968467959757317 0 0.0258365202684912 0.013691080187637955 0 0.026070752012933344 0.013361911506419636 0 0.025722894119470058 0.013262830467677076 0 0.0258365202684912 0.013691080187637955 0 0.026070752012933344 0.013361911506419636 0 0.026236799489825512 0.013596198484592047 0 0.026070752012933344 0.013361911506419636 0 0.025722894119470058 0.013262830467677076 0 0.025963298405912067 0.01284629961349484 0 0.025722894119470058 0.013262830467677076 0 0.025963298405912067 0.01284629961349484 0 0.025517422782608861 0.012858625910427081 0 0.025815897609013618 0.012060614197940071 0 0.025963298405912067 0.01284629961349484 0 0.025517422782608861 0.012858625910427081 0 0.025209606280457281 0.013483481303504588 0 0.024999890797661566 0.012573911531455166 0 0.025517422782608861 0.012858625910427081 0 0.026640366201241949 0.01233804118255793 0 0.026566641918696645 0.012294561094790416 0 0.026624469642646885 0.012204424139468588 0 0.026566641918696645 0.012294561094790416 0 0.026475551724460925 0.012193161217253841 0 0.026503231268692539 0.012274632734762817 0 0.026646543751807226 0.01235119870894168 0 0.026640366201241949 0.01233804118255793 0 0.026566641918696645 0.012294561094790416 0 0.026646543751807226 0.01235119870894168 0 0.026566641918696645 0.012294561094790416 0 0.02653039372163217 0.012332706456857122 0 0.026566641918696645 0.012294561094790416 0 0.02653039372163217 0.012332706456857122 0 0.026503231268692539 0.012274632734762817 0 0.026620742012417924 0.012475339303306155 0 0.026685949621945374 0.012492015432110291 0 0.026260594142057402 0.012355460739918327 0 0.025963298405912067 0.01284629961349484 0 0.026606397447711948 0.013248855236536431 0 0.026260594142057402 0.012355460739918327 0 0.026640366201241949 0.01233804118255793 0 0.026606397447711948 0.013248855236536431 0 0.026606397447711948 0.013248855236536431 0 0.026236799489825512 0.013596198484592047 0 0.026442743467077996 0.014084202159990719 0 0.026070752012933344 0.013361911506419636 0 0.025963298405912067 0.01284629961349484 0 0.026606397447711948 0.013248855236536431 0 0.026070752012933344 0.013361911506419636 0 0.026606397447711948 0.013248855236536431 0 0.026236799489825512 0.013596198484592047 0 0.026624469642646885 0.012204424139468588 0 0.026475551724460925 0.012193161217253841 0 0.026475920557413456 0.01207644918029457 0 0.026566641918696645 0.012294561094790416 0 0.026624469642646885 0.012204424139468588 0 0.026475551724460925 0.012193161217253841 0 0.026475920557413456 0.01207644918029457 0 0.0264567651034254 0.011958712507401683 0 0.026634964543563337 0.012003366940265681 0 0.026475920557413456 0.01207644918029457 0 0.0264567651034254 0.011958712507401683 0 0.026361062049208225 0.011970495536335194 0 0.0258365202684912 0.013691080187637955 0 0.026236799489825512 0.013596198484592047 0 0.026442743467077996 0.014084202159990719 0 0.026685949621945374 0.012492015432110291 0 0.025963758536806613 0.014068293911628999 0 0.026624469642646885 0.012204424139468588 0 0.026475920557413456 0.01207644918029457 0 0.026634964543563337 0.012003366940265681 0 0.026568521256436394 0.015735779440568129 0 0.026202921484100701 0.014869378128714488 0 0.026821260254201087 0.01461328903018564 0 0.023836348319933372 0.015345789897593791 0 0.023725365072110975 0.015890563100438241 0 0.023240524236216434 0.015596452019814534 0 0.024763646460842049 0.016425392250409156 0 0.025963758536806613 0.014068293911628999 0 0.025963758536806613 0.014068293911628999 0 0.021100782055040127 0.015830509210043135 0 0.0264567651034254 0.011958712507401683 0 0.026634964543563337 0.012003366940265681 0 0.026411616512425323 0.011868041458932574 0 0.0264567651034254 0.011958712507401683 0 0.026390825360725338 0.01187729532774681 0 0.026361062049208225 0.011970495536335194 0 0.0264567651034254 0.011958712507401683 0 0.026390825360725338 0.01187729532774681 0 0.026411616512425323 0.011868041458932574 0 0.018339979535205723 0.018768016071246479 0 0.01833363513051087 0.01837033471719425 0 0.018504852585008124 0.018485173912966411 0 0.020108548037983284 0.016293723129758013 0 0.020521716841536801 0.016074906897346506 0 0.019594316710624299 0.015472608893001498 0 0.021100782055040127 0.015830509210043135 0 0.018779702096149462 0.015605060560797983 0 0.021029522721344406 0.015098214724189303 0 0.021100782055040127 0.015830509210043135 0 0.016280835091040991 0.014788240568907329 0 0.016464264479062875 0.015090793786844456 0 0.017132992705037653 0.014938389713226242 0 0.021029522721344406 0.015098214724189303 0 0.022231341585370112 0.012789591694772418 0 0.026390825360725338 0.01187729532774681 0 0.026185573638903618 0.011937257863769616 0 0.026361062049208225 0.011970495536335194 0 0.016280835091040991 0.014788240568907329 0 0.017132992705037653 0.014938389713226242 0 0.017698726308237097 0.014003630792395284 0 0.021029522721344406 0.015098214724189303 0 0.018779702096149462 0.015605060560797983 0 0.016464264479062875 0.015090793786844456 0 0.017132992705037653 0.014938389713226242 0 0.017234942710219685 0.015642383792112233 0 0.017132992705037653 0.014938389713226242 0 0.01802411898547077 0.015179151054140402 0 0.017234942710219685 0.015642383792112233 0 0.017132992705037653 0.014938389713226242 0 0.01802411898547077 0.015179151054140402 0 0.017698726308237097 0.014003630792395284 0 0.01802411898547077 0.015179151054140402 0 0.017698726308237097 0.014003630792395284 0 0.018980595543623469 0.014578042402829479 0 0.022231341585370112 0.012789591694772418 0 0.021444592467737195 0.012023606295364945 0 0.017698726308237097 0.014003630792395284 0 0.019135201479762703 0.013237467673860919 0 0.018980595543623469 0.014578042402829479 0 0.026185573638903618 0.011937257863769616 0 0.02615902316929427 0.012081270708295936 0 0.025904669803006812 0.012044211164960857 0 0.026185573638903618 0.011937257863769616 0 0.02615902316929427 0.012081270708295936 0 0.026317428899078166 0.012092000986607494 0 0.026185573638903618 0.011937257863769616 0 0.026361062049208225 0.011970495536335194 0 0.026317428899078166 0.012092000986607494 0 0.026475920557413456 0.01207644918029457 0 0.026361062049208225 0.011970495536335194 0 0.026317428899078166 0.012092000986607494 0 0.026475551724460925 0.012193161217253841 0 0.026220064833967261 0.012250806607970691 0 0.026503231268692539 0.012274632734762817 0 0.026475551724460925 0.012193161217253841 0 0.026317428899078166 0.012092000986607494 0 0.026220064833967261 0.012250806607970691 0 0.026475551724460925 0.012193161217253841 0 0.026475920557413456 0.01207644918029457 0 0.026317428899078166 0.012092000986607494 0 0.022411212971318449 0.009521826773259523 0 0.022332982054534802 0.0096257124157677291 0 0.022163681128711601 0.0094855533509541484 0 0.022411212971318449 0.009521826773259523 0 0.022163681128711601 0.0094855533509541484 0 0.022139546975063831 0.0095344315403163172 0 0.02615902316929427 0.012081270708295936 0 0.026220064833967261 0.012250806607970691 0 0.025904669803006812 0.012044211164960857 0 0.02615902316929427 0.012081270708295936 0 0.026317428899078166 0.012092000986607494 0 0.026220064833967261 0.012250806607970691 0 0.024597093719562254 0.010791412775058407 0 0.021444592467737195 0.012023606295364945 0 0.022464944793510841 0.0096754801982607379 0 0.022411212971318449 0.009521826773259523 0 0.022332982054534802 0.0096257124157677291 0 0.026574410240497556 0.0123773061893039 0 0.026220064833967261 0.012250806607970691 0 0.02653039372163217 0.012332706456857122 0 0.022624952131936528 0.0096551298917921021 0 0.022464944793510841 0.0096754801982607379 0 0.022411212971318449 0.009521826773259523 0 0.026220064833967261 0.012250806607970691 0 0.02653039372163217 0.012332706456857122 0 0.026503231268692539 0.012274632734762817 0 0.025118826205838853 0.010964750814421996 0 0.024597093719562254 0.010791412775058407 0 0.022429224636333907 0.0088145797431796891 0 0.022885357561810961 0.0092655970440632639 0 0.022993994803911056 0.0084092904838048901 0 0.022404261680276458 0.0083586720704339618 0 0.022429224636333907 0.0088145797431796891 0 0.022993994803911056 0.0084092904838048901 0 0.022429224636333907 0.0088145797431796891 0 0.021782389271508766 0.0084703794173351509 0 0.022163681128711601 0.0094855533509541484 0 0.022098989343368985 0.0090512282805510665 0 0.022141270555221679 0.0094436690158780541 0 0.022404261680276458 0.0083586720704339618 0 0.022429224636333907 0.0088145797431796891 0 0.021782389271508766 0.0084703794173351509 0 0.022163681128711601 0.0094855533509541484 0 0.022885357561810961 0.0092655970440632639 0 0.022139546975063831 0.0095344315403163172 0 0.022429224636333907 0.0088145797431796891 0 0.022163681128711601 0.0094855533509541484 0 0.022885357561810961 0.0092655970440632639 0 0.021636987456506544 0.010475518653911624 0 0.021444592467737195 0.012023606295364945 0 0.020694516257448281 0.011861951606193443 0 0.01976272241547599 0.013865931309629716 0 0.018818298358829855 0.012890843170171366 0 0.020694516257448281 0.011861951606193443 0 0.01976272241547599 0.013865931309629716 0 0.021026792288987857 0.013631314181952415 0 0.01999717257701825 0.014132017379154782 0 0.019135201479762703 0.013237467673860919 0 0.018980595543623469 0.014578042402829479 0 0.019791744475442286 0.013881788325562989 0 0.021444592467737195 0.012023606295364945 0 0.01802411898547077 0.015179151054140402 0 0.018980595543623469 0.014578042402829479 0 0.019144589967244358 0.015849753447772581 0 0.018980595543623469 0.014578042402829479 0 0.019886874188969447 0.015086764761477226 0 0.019144589967244358 0.015849753447772581 0 0.01999717257701825 0.014132017379154782 0 0.018980595543623469 0.014578042402829479 0 0.019886874188969447 0.015086764761477226 0 0.019791744475442286 0.013881788325562989 0 0.020748295031542869 0.014864390360536921 0 0.01976272241547599 0.013865931309629716 0 0.02082209026871186 0.014936307984027043 0 0.021026792288987857 0.013631314181952415 0 0.01999717257701825 0.014132017379154782 0 0.019886874188969447 0.015086764761477226 0 0.02082209026871186 0.014936307984027043 0 0.019886874188969447 0.015086764761477226 0 0.020463809500533787 0.016014668964140708 0 0.019144589967244358 0.015849753447772581 0 0.020463809500533787 0.016014668964140708 0 0.020099632064315285 0.017340290282848388 0 0.019144589967244358 0.015849753447772581 0 0.019886874188969447 0.015086764761477226 0 0.02082209026871186 0.014936307984027043 0 0.020463809500533787 0.016014668964140708 0 0.020099632064315285 0.017340290282848388 0 0.020992394074752365 0.018193708946450251 0 0.021564453095012273 0.017036743081364644 0 0.020463809500533787 0.016014668964140708 0 0.020099632064315285 0.017340290282848388 0 0.021564453095012273 0.017036743081364644 0 0.020099632064315285 0.017340290282848388 0 0.018703374881071246 0.017200397502800752 0 0.019144589967244358 0.015849753447772581 0 0.020099632064315285 0.017340290282848388 0 0.018703374881071246 0.017200397502800752 0 0.018433429197994282 0.018793755999682086 0 0.018703374881071246 0.017200397502800752 0 0.019144589967244358 0.015849753447772581 0 0.018089186902402365 0.016129641763049107 0 0.01802411898547077 0.015179151054140402 0 0.019144589967244358 0.015849753447772581 0 0.018089186902402365 0.016129641763049107 0 0.01802411898547077 0.015179151054140402 0 0.018089186902402365 0.016129641763049107 0 0.017234942710219685 0.015642383792112233 0 0.018089186902402365 0.016129641763049107 0 0.017234942710219685 0.015642383792112233 0 0.017393389276675456 0.016838977396455772 0 0.018779702096149462 0.015605060560797983 0 0.018059930754687516 0.018286658863043884 0 0.018504852585008124 0.018485173912966411 0 0.018498496143668178 0.019084106420138677 0 0.019010335106811983 0.019387222069097883 0 0.016449512488162725 0.015082912917757783 0 0.017234942710219685 0.015642383792112233 0 0.017393389276675456 0.016838977396455772 0 0.018339979535205723 0.018768016071246479 0 0.018504852585008124 0.018485173912966411 0 0.018498496143668178 0.019084106420138677 0 0.018779702096149462 0.015605060560797983 0 0.01675565079213872 0.015113355477415715 0 0.018292561521522911 0.019477942490758984 0 0.018498496143668178 0.019084106420138677 0 0.01857553469180865 0.019483684122842255 0 0.018498496143668178 0.019084106420138677 0 0.01857553469180865 0.019483684122842255 0 0.019010335106811983 0.019387222069097883 0 0.018292561521522911 0.019477942490758984 0 0.01857553469180865 0.019483684122842255 0 0.01850123613701677 0.01998974623386645 0 0.01857553469180865 0.019483684122842255 0 0.019010335106811983 0.019387222069097883 0 0.01850123613701677 0.01998974623386645 0 0.018703374881071246 0.017200397502800752 0 0.018089186902402365 0.016129641763049107 0 0.017393389276675456 0.016838977396455772 0 0.018703374881071246 0.017200397502800752 0 0.017393389276675456 0.016838977396455772 0 0.018433429197994282 0.018793755999682086 0 0.018059930754687516 0.018286658863043884 0 0.019017965825350591 0.019550416867233595 0 0.019010335106811983 0.019387222069097883 0 0.019510729854466433 0.020337997117990669 0 0.018933231907238911 0.020252221632925688 0 0.019510729854466433 0.020337997117990669 0 0.018933231907238911 0.020252221632925688 0 0.019106881375722275 0.020799276096345201 0 0.019010335106811983 0.019387222069097883 0 0.01850123613701677 0.01998974623386645 0 0.018933231907238911 0.020252221632925688 0 0.01850123613701677 0.01998974623386645 0 0.018933231907238911 0.020252221632925688 0 0.018620025177320847 0.020744506673840982 0 0.018118045197638655 0.021013941430070938 0 0.01850123613701677 0.01998974623386645 0 0.018620025177320847 0.020744506673840982 0 0.018933231907238911 0.020252221632925688 0 0.018620025177320847 0.020744506673840982 0 0.019106881375722275 0.020799276096345201 0 0.018620025177320847 0.020744506673840982 0 0.019106881375722275 0.020799276096345201 0 0.019078455011270177 0.021400879453117572 0 0.018118045197638655 0.021013941430070938 0 0.018620025177320847 0.020744506673840982 0 0.018854182241266674 0.021768788930858346 0 0.019510729854466433 0.020337997117990669 0 0.019106881375722275 0.020799276096345201 0 0.019420848870392089 0.021095157875202126 0 0.019106881375722275 0.020799276096345201 0 0.019420848870392089 0.021095157875202126 0 0.019078455011270177 0.021400879453117572 0 0.019510729854466433 0.020337997117990669 0 0.019420848870392089 0.021095157875202126 0 0.020030868219457723 0.02108043459351816 0 0.018433429197994282 0.018793755999682086 0 0.020124624088023534 0.019291156900557577 0 0.020030868219457723 0.02108043459351816 0 0.019017965825350591 0.019550416867233595 0 0.019951184719485406 0.021006552657258534 0 0.020124624088023534 0.019291156900557577 0 0.020685106628593745 0.020796430571268874 0 0.020030868219457723 0.02108043459351816 0 0.020124624088023534 0.019291156900557577 0 0.022131578161741699 0.019108902387490887 0 0.020685106628593745 0.020796430571268874 0 0.020992394074752365 0.018193708946450251 0 0.020124624088023534 0.019291156900557577 0 0.022131578161741699 0.019108902387490887 0 0.020099632064315285 0.017340290282848388 0 0.020992394074752365 0.018193708946450251 0 0.020124624088023534 0.019291156900557577 0 0.020099632064315285 0.017340290282848388 0 0.018433429197994282 0.018793755999682086 0 0.020124624088023534 0.019291156900557577 0 0.021984174408934382 0.020189413331159905 0 0.023031800827527257 0.01914328194612169 0 0.022131578161741699 0.019108902387490887 0 0.023487960967680039 0.017648103919787269 0 0.022660601611998545 0.016814739037016087 0 0.022639937641004162 0.021178719961366874 0 0.0218347858456256 0.021258470012393678 0 0.022716901467176111 0.020567891656525627 0 0.020992394074752365 0.018193708946450251 0 0.022131578161741699 0.019108902387490887 0 0.021564453095012273 0.017036743081364644 0 0.0218347858456256 0.021258470012393678 0 0.022361028393017148 0.021878206770596278 0 0.02165072818004447 0.021971915190307702 0 0.021984174408934382 0.020189413331159905 0 0.020767665229985525 0.021382102109415244 0 0.0218347858456256 0.021258470012393678 0 0.02165072818004447 0.021971915190307702 0 0.020930256751573617 0.021903984474801234 0 0.022639937641004162 0.021178719961366874 0 0.022361028393017148 0.021878206770596278 0 0.022896337182054673 0.021518525732877911 0 0.022639937641004162 0.021178719961366874 0 0.0218347858456256 0.021258470012393678 0 0.022361028393017148 0.021878206770596278 0 0.022361028393017148 0.021878206770596278 0 0.022896337182054673 0.021518525732877911 0 0.022979937510577177 0.022027836536001179 0 0.022896337182054673 0.021518525732877911 0 0.0234658285427236 0.021615078639273796 0 0.022979937510577177 0.022027836536001179 0 0.022896337182054673 0.021518525732877911 0 0.0234658285427236 0.021615078639273796 0 0.023234928024405185 0.021242687573877969 0 0.022639937641004162 0.021178719961366874 0 0.022896337182054673 0.021518525732877911 0 0.023234928024405185 0.021242687573877969 0 0.0234658285427236 0.021615078639273796 0 0.024213124740537582 0.021138470420579449 0 0.024114581456293922 0.021901741516569505 0 0.0234658285427236 0.021615078639273796 0 0.023234928024405185 0.021242687573877969 0 0.024213124740537582 0.021138470420579449 0 0.0234658285427236 0.021615078639273796 0 0.024114581456293922 0.021901741516569505 0 0.023568392521537838 0.022110060192458772 0 0.0234658285427236 0.021615078639273796 0 0.023568392521537838 0.022110060192458772 0 0.022979937510577177 0.022027836536001179 0 0.024618084077593985 0.0208747400395096 0 0.020262263189946075 0.021287566284338786 0 0.022991867091609046 0.020759343957176143 0 0.023574877644571366 0.020483320589040371 0 0.023878366722470439 0.02098042228344843 0 0.023234928024405185 0.021242687573877969 0 0.022991867091609046 0.020759343957176143 0 0.024213124740537582 0.021138470420579449 0 0.022639937641004162 0.021178719961366874 0 0.023234928024405185 0.021242687573877969 0 0.022991867091609046 0.020759343957176143 0 0.022639937641004162 0.021178719961366874 0 0.022991867091609046 0.020759343957176143 0 0.022716901467176111 0.020567891656525627 0 0.022991867091609046 0.020759343957176143 0 0.022716901467176111 0.020567891656525627 0 0.02341596869202682 0.01997304578217695 0 0.023487960967680039 0.017648103919787269 0 0.024903232215387119 0.016279375449003389 0 0.023694026796891428 0.016171416846274846 0 0.023031800827527257 0.01914328194612169 0 0.024480991428166603 0.018082423786541658 0 0.023574877644571366 0.020483320589040371 0 0.02341596869202682 0.01997304578217695 0 0.024013270138146539 0.020201059011537046 0 0.022991867091609046 0.020759343957176143 0 0.023574877644571366 0.020483320589040371 0 0.02341596869202682 0.01997304578217695 0 0.024903232215387119 0.016279375449003389 0 0.024376003026058968 0.014762242375881614 0 0.026402996229432266 0.014952481690373283 0 0.023694026796891428 0.016171416846274846 0 0.02295608586737842 0.015370327726574953 0 0.024376003026058968 0.014762242375881614 0 0.024903232215387119 0.016279375449003389 0 0.023694026796891428 0.016171416846274846 0 0.024376003026058968 0.014762242375881614 0 0.023694026796891428 0.016171416846274846 0 0.02295608586737842 0.015370327726574953 0 0.022660601611998545 0.016814739037016087 0 0.02295608586737842 0.015370327726574953 0 0.022660601611998545 0.016814739037016087 0 0.021681655979641425 0.015780750205508579 0 0.02295608586737842 0.015370327726574953 0 0.021681655979641425 0.015780750205508579 0 0.021977773114854597 0.014607902271127189 0 0.023487960967680039 0.017648103919787269 0 0.023694026796891428 0.016171416846274846 0 0.022660601611998545 0.016814739037016087 0 0.022131578161741699 0.019108902387490887 0 0.022660601611998545 0.016814739037016087 0 0.021564453095012273 0.017036743081364644 0 0.022660601611998545 0.016814739037016087 0 0.021564453095012273 0.017036743081364644 0 0.021681655979641425 0.015780750205508579 0 0.020463809500533787 0.016014668964140708 0 0.021564453095012273 0.017036743081364644 0 0.021681655979641425 0.015780750205508579 0 0.02082209026871186 0.014936307984027043 0 0.020463809500533787 0.016014668964140708 0 0.021681655979641425 0.015780750205508579 0 0.02082209026871186 0.014936307984027043 0 0.021681655979641425 0.015780750205508579 0 0.021977773114854597 0.014607902271127189 0 0.02082209026871186 0.014936307984027043 0 0.021977773114854597 0.014607902271127189 0 0.021026792288987857 0.013631314181952415 0 0.02295608586737842 0.015370327726574953 0 0.021977773114854597 0.014607902271127189 0 0.023249061862318701 0.01405162560773956 0 0.021977773114854597 0.014607902271127189 0 0.022163672447378574 0.013373427239875743 0 0.023249061862318701 0.01405162560773956 0 0.022163672447378574 0.013373427239875743 0 0.022867779047330377 0.012150259605728584 0 0.023249061862318701 0.01405162560773956 0 0.020694516257448281 0.011861951606193443 0 0.022163672447378574 0.013373427239875743 0 0.021026792288987857 0.013631314181952415 0 0.021977773114854597 0.014607902271127189 0 0.022163672447378574 0.013373427239875743 0 0.021026792288987857 0.013631314181952415 0 0.020694516257448281 0.011861951606193443 0 0.022163672447378574 0.013373427239875743 0 0.022867779047330377 0.012150259605728584 0 0.021636987456506544 0.010475518653911624 0 0.023179551857453098 0.0098005676708660342 0 0.020694516257448281 0.011861951606193443 0 0.022867779047330377 0.012150259605728584 0 0.022426785195602445 0.010813268983823498 0 0.022885357561810961 0.0092655970440632639 0 0.023877619106444165 0.0087932196887475656 0 0.022993994803911056 0.0084092904838048901 0 0.024050003851854209 0.0096351869484702386 0 0.024037792946416794 0.011316203858042261 0 0.025463831882840494 0.010232086090362282 0 0.024050003851854209 0.0096351869484702386 0 0.022426785195602445 0.010813268983823498 0 0.024037792946416794 0.011316203858042261 0 0.024476342727942569 0.008942746424569931 0 0.023179551857453098 0.0098005676708660342 0 0.022867779047330377 0.012150259605728584 0 0.024037792946416794 0.011316203858042261 0 0.02418038809061163 0.012976206110682053 0 0.022867779047330377 0.012150259605728584 0 0.022426785195602445 0.010813268983823498 0 0.024037792946416794 0.011316203858042261 0 0.024037792946416794 0.011316203858042261 0 0.025341244905226903 0.012114640593724368 0 0.02418038809061163 0.012976206110682053 0 0.024037792946416794 0.011316203858042261 0 0.025341244905226903 0.012114640593724368 0 0.025463831882840494 0.010232086090362282 0 0.025341244905226903 0.012114640593724368 0 0.025371934399313577 0.013609269826502471 0 0.02418038809061163 0.012976206110682053 0 0.025371934399313577 0.013609269826502471 0 0.02418038809061163 0.012976206110682053 0 0.024376003026058968 0.014762242375881614 0 0.022867779047330377 0.012150259605728584 0 0.02418038809061163 0.012976206110682053 0 0.023249061862318701 0.01405162560773956 0 0.02295608586737842 0.015370327726574953 0 0.023249061862318701 0.01405162560773956 0 0.024376003026058968 0.014762242375881614 0 0.02418038809061163 0.012976206110682053 0 0.023249061862318701 0.01405162560773956 0 0.024376003026058968 0.014762242375881614 0 0.025371934399313577 0.013609269826502471 0 0.024376003026058968 0.014762242375881614 0 0.026402996229432266 0.014952481690373283 0 0.023384483111715072 0.016841804886879534 0 0.026631822588631605 0.012552573000052527 0 0.025371934399313577 0.013609269826502471 0 0.026402996229432266 0.014952481690373283 0 0.026580773327084948 0.01320521682100583 0 0.023384483111715072 0.016841804886879534 0 0.021915314762847974 0.014946777086307525 0 0.025964350346717891 0.014516595360962422 0 0.02734570917666973 0.01339033715137734 0 0.026242382368904079 0.012893154065273848 0 0.01601699118129456 0.017519598516380686 0 0.017144089610929596 0.016550438986828009 0 0.017381726572657807 0.018388524850815217 0 0.02734570917666973 0.01339033715137734 0 0.026242382368904079 0.012893154065273848 0 0.027319077681762793 0.012198942285676142 0 0.025341244905226903 0.012114640593724368 0 0.025371934399313577 0.013609269826502471 0 0.026580773327084948 0.01320521682100583 0 0.026631822588631605 0.012552573000052527 0 0.026554210946069152 0.011743073813657075 0 0.025341244905226903 0.012114640593724368 0 0.026580773327084948 0.01320521682100583 0 0.02661532653848777 0.011386820796768452 0 0.025341244905226903 0.012114640593724368 0 0.02661532653848777 0.011386820796768452 0 0.025463831882840494 0.010232086090362282 0 0.027319077681762793 0.012198942285676142 0 0.02661532653848777 0.011386820796768452 0 0.027766096380953433 0.011033675694992147 0 0.026242382368904079 0.012893154065273848 0 0.027319077681762793 0.012198942285676142 0 0.02661532653848777 0.011386820796768452 0 0.02661532653848777 0.011386820796768452 0 0.026678637950425989 0.0099882590192154272 0 0.027766096380953433 0.011033675694992147 0 0.027511703419604051 0.0088093695945434727 0 0.026678637950425989 0.0099882590192154272 0 0.027766096380953433 0.011033675694992147 0 0.02661532653848777 0.011386820796768452 0 0.026678637950425989 0.0099882590192154272 0 0.025463831882840494 0.010232086090362282 0 0.022967490332269885 0.0038278332584463625 0 0.02122229205786447 0.0026695372713012554 0 0.021447509983771769 0.0039455571410231703 0 0.02622525952432397 0.0069675178401692912 0 0.022413848402920395 0.0085343435539358484 0 0.028664184267878576 0.010186822773537654 0 0.028818119150714909 0.011268016667938233 0 0.029696577391948187 0.011314927717740685 0 0.027511703419604051 0.0088093695945434727 0 0.028664184267878576 0.010186822773537654 0 0.027766096380953433 0.011033675694992147 0 0.028664184267878576 0.010186822773537654 0 0.027766096380953433 0.011033675694992147 0 0.028818119150714909 0.011268016667938233 0 0.027766096380953433 0.011033675694992147 0 0.028818119150714909 0.011268016667938233 0 0.028572860058347232 0.012306355979901564 0 0.027319077681762793 0.012198942285676142 0 0.027766096380953433 0.011033675694992147 0 0.028572860058347232 0.012306355979901564 0 0.023593917253958496 0.014340685577694485 0 0.022413848402920395 0.0085343435539358484 0 0.028818119150714909 0.011268016667938233 0 0.028572860058347232 0.012306355979901564 0 0.029696577391948187 0.011314927717740685 0 0.018323194743154955 0.015512021163067172 0 0.019513983904562514 0.014499122989542809 0 0.019339722925745505 0.01619802029574962 0 0.018323194743154955 0.015512021163067172 0 0.01835874382912191 0.017138638489169331 0 0.019339722925745505 0.01619802029574962 0 0.021915314762847974 0.014946777086307525 0 0.023593917253958496 0.014340685577694485 0 0.02734570917666973 0.01339033715137734 0 0.027319077681762793 0.012198942285676142 0 0.028572860058347232 0.012306355979901564 0 0.017144089610929596 0.016550438986828009 0 0.018323194743154955 0.015512021163067172 0 0.01835874382912191 0.017138638489169331 0 0.017144089610929596 0.016550438986828009 0 0.01835874382912191 0.017138638489169331 0 0.017381726572657807 0.018388524850815217 0 0.01835874382912191 0.017138638489169331 0 0.019333676227805525 0.017612885951654982 0 0.019339722925745505 0.01619802029574962 0 0.01835874382912191 0.017138638489169331 0 0.018668870891780303 0.018463971537798399 0 0.019333676227805525 0.017612885951654982 0 0.017539310159377021 0.022951916124068484 0 0.017450653031854165 0.023161208893476504 0 0.018668870891780303 0.018463971537798399 0 0.018445074617427438 0.020033002153759943 0 0.019463034823123788 0.019251949317251417 0 0.017381726572657807 0.018388524850815217 0 0.016955258724957629 0.019676637813131188 0 0.018445074617427438 0.020033002153759943 0 0.018668870891780303 0.018463971537798399 0 0.017381726572657807 0.018388524850815217 0 0.018445074617427438 0.020033002153759943 0 0.01835874382912191 0.017138638489169331 0 0.018668870891780303 0.018463971537798399 0 0.017381726572657807 0.018388524850815217 0 0.01601699118129456 0.017519598516380686 0 0.017381726572657807 0.018388524850815217 0 0.015832127600567 0.018974362822263217 0 0.02341596869202682 0.01997304578217695 0 0.024125373529700928 0.019351623700106509 0 0.024013270138146539 0.020201059011537046 0 0.023384483111715072 0.016841804886879534 0 0.01959451044446717 0.019837827272784235 0 0.024480991428166603 0.018082423786541658 0 0.023384483111715072 0.016841804886879534 0 0.023574877644571366 0.020483320589040371 0 0.024013270138146539 0.020201059011537046 0 0.023878366722470439 0.02098042228344843 0 0.017381726572657807 0.018388524850815217 0 0.015832127600567 0.018974362822263217 0 0.016955258724957629 0.019676637813131188 0 0.016955258724957629 0.019676637813131188 0 0.01566745615765253 0.020374448687080646 0 0.017375363662902085 0.020874631491144421 0 0.01959451044446717 0.019837827272784235 0 0.020262263189946075 0.021287566284338786 0 0.015832127600567 0.018974362822263217 0 0.016955258724957629 0.019676637813131188 0 0.01566745615765253 0.020374448687080646 0 0.018305393063877483 0.024396169423242992 0 0.018311676941611472 0.024310766593231961 0 0.018219911949539352 0.024294761852054494 0 0.020262263189946075 0.021287566284338786 0 0.021214882500238307 0.022928514423055699 0 0.020262263189946075 0.021287566284338786 0 0.01656712242007299 0.024904266516389665 0 0.01656712242007299 0.024904266516389665 0 0.016643809779845878 0.02712148325409763 0 0.018305393063877483 0.024396169423242992 0 0.018103153464184042 0.024372214766298035 0 0.018219911949539352 0.024294761852054494 0 0.015202342769434883 0.029571989195889849 0 0.014947825366807103 0.029006431829402497 0 0.015819623646928849 0.029142222910226567 0 0.015202342769434883 0.029571989195889849 0 0.014250355484459468 0.029320630606312032 0 0.014947825366807103 0.029006431829402497 0 0.01656712242007299 0.024904266516389665 0 0.014900728226935528 0.02737122564363325 0 0.01760689079751911 0.02529299798184273 0 0.015569956984398345 0.024718941066100494 0 0.016247308494259715 0.026351049809666401 0 0.015569956984398345 0.024718941066100494 0 0.016247308494259715 0.026351049809666401 0 0.014824374574398167 0.026032660688371331 0 0.016955258724957629 0.019676637813131188 0 0.017375363662902085 0.020874631491144421 0 0.018445074617427438 0.020033002153759943 0 0.01656712242007299 0.024904266516389665 0 0.017539310159377021 0.022951916124068484 0 0.014722110532241118 0.028566027367390272 0 0.014511111383225188 0.028276892528964953 0 0.014919985572818567 0.028070680211147309 0 0.014722110532241118 0.028566027367390272 0 0.015310194561069124 0.028593230070754459 0 0.014919985572818567 0.028070680211147309 0 0.014722110532241118 0.028566027367390272 0 0.014511111383225188 0.028276892528964953 0 0.014083706584630533 0.028589974416708592 0 0.014511111383225188 0.028276892528964953 0 0.014198378123279291 0.028189280169445888 0 0.014083706584630533 0.028589974416708592 0 0.014722110532241118 0.028566027367390272 0 0.014478925072928884 0.028877197251464759 0 0.014083706584630533 0.028589974416708592 0 0.014250355484459468 0.029320630606312032 0 0.014478925072928884 0.028877197251464759 0 0.014947825366807103 0.029006431829402497 0 0.014250355484459468 0.029320630606312032 0 0.014478925072928884 0.028877197251464759 0 0.014083706584630533 0.028589974416708592 0 0.014722110532241118 0.028566027367390272 0 0.014947825366807103 0.029006431829402497 0 0.015310194561069124 0.028593230070754459 0 0.014722110532241118 0.028566027367390272 0 0.014478925072928884 0.028877197251464759 0 0.014947825366807103 0.029006431829402497 0 0.015819623646928849 0.029142222910226567 0 0.015948507114840426 0.028363129109401801 0 0.015310194561069124 0.028593230070754459 0 0.014947825366807103 0.029006431829402497 0 0.015819623646928849 0.029142222910226567 0 0.015310194561069124 0.028593230070754459 0 0.021214882500238307 0.022928514423055699 0 0.018862430846256047 0.025567945301386587 0 0.016643809779845878 0.02712148325409763 0 0.018862430846256047 0.025567945301386587 0 0.015819623646928849 0.029142222910226567 0 0.015948507114840426 0.028363129109401801 0 0.016525794163332014 0.028649264597167805 0 0.018311676941611472 0.024310766593231961 0 0.018219911949539352 0.024294761852054494 0 0.018326264873175343 0.024239995413998319 0 0.015948507114840426 0.028363129109401801 0 0.016596946316123216 0.028222371300957019 0 0.016525794163332014 0.028649264597167805 0 0.015948507114840426 0.028363129109401801 0 0.016123109824651902 0.027948703380361178 0 0.016596946316123216 0.028222371300957019 0 0.015306804348281331 0.028553763156442244 0 0.01545756778763805 0.027806204936162322 0 0.015948507114840426 0.028363129109401801 0 0.015310194561069124 0.028593230070754459 0 0.015628852497530737 0.027589548635566237 0 0.015310194561069124 0.028593230070754459 0 0.015274732866353504 0.027961851285149567 0 0.014919985572818567 0.028070680211147309 0 0.015948507114840426 0.028363129109401801 0 0.015628852497530737 0.027589548635566237 0 0.016123109824651902 0.027948703380361178 0 0.015274732866353504 0.027961851285149567 0 0.015114444248585943 0.027764739981613096 0 0.014919985572818567 0.028070680211147309 0 0.016123109824651902 0.027948703380361178 0 0.016330678758989543 0.027627439751858177 0 0.016596946316123216 0.028222371300957019 0 0.015628852497530737 0.027589548635566237 0 0.016330678758989543 0.027627439751858177 0 0.016017535960659031 0.027183848063259072 0 0.015628852497530737 0.027589548635566237 0 0.016123109824651902 0.027948703380361178 0 0.016330678758989543 0.027627439751858177 0 0.016330678758989543 0.027627439751858177 0 0.016355209717140266 0.027160976009195242 0 0.016017535960659031 0.027183848063259072 0 0.016330678758989543 0.027627439751858177 0 0.016355209717140266 0.027160976009195242 0 0.016690324021813821 0.027262343342772371 0 0.016017535960659031 0.027183848063259072 0 0.016169052025654579 0.026872851437036261 0 0.015894342115854859 0.026675940206377789 0 0.016355209717140266 0.027160976009195242 0 0.016017535960659031 0.027183848063259072 0 0.016169052025654579 0.026872851437036261 0 0.016355209717140266 0.027160976009195242 0 0.016464829423492578 0.026836676116519347 0 0.016690324021813821 0.027262343342772371 0 0.016355209717140266 0.027160976009195242 0 0.016169052025654579 0.026872851437036261 0 0.016464829423492578 0.026836676116519347 0 0.01545756778763805 0.027806204936162322 0 0.015682625595346819 0.027047150735243469 0 0.015274732866353504 0.027961851285149567 0 0.015266003608403857 0.027590570441113814 0 0.01546428532353521 0.027513071002989886 0 0.015274732866353504 0.027961851285149567 0 0.015114444248585943 0.027764739981613096 0 0.015266003608403857 0.027590570441113814 0 0.015628852497530737 0.027589548635566237 0 0.016017535960659031 0.027183848063259072 0 0.015894342115854859 0.026675940206377789 0 0.014529084080422418 0.028050646875516172 0 0.015137406386930832 0.027635841471516615 0 0.015114444248585943 0.027764739981613096 0 0.014838082879159512 0.027673899242972432 0 0.014919985572818567 0.028070680211147309 0 0.015114444248585943 0.027764739981613096 0 0.014838082879159512 0.027673899242972432 0 0.015266003608403857 0.027590570441113814 0 0.014838082879159512 0.027673899242972432 0 0.014919985572818567 0.028070680211147309 0 0.014538168994383375 0.027987738550833377 0 0.014838082879159512 0.027673899242972432 0 0.014538168994383375 0.027987738550833377 0 0.01432541289810043 0.027833786319213346 0 0.014511111383225188 0.028276892528964953 0 0.014198378123279291 0.028189280169445888 0 0.014538168994383375 0.027987738550833377 0 0.014198378123279291 0.028189280169445888 0 0.014538168994383375 0.027987738550833377 0 0.014162945050596162 0.027939335843876471 0 0.014511111383225188 0.028276892528964953 0 0.014919985572818567 0.028070680211147309 0 0.014538168994383375 0.027987738550833377 0 0.014538168994383375 0.027987738550833377 0 0.014194102219579879 0.027543982237424949 0 0.014162945050596162 0.027939335843876471 0 0.014562015515098219 0.028278504858401637 0 0.012462419877367799 0.027566649297673797 0 0.013906809458012931 0.028372112051776258 0 0.013012982409152959 0.028155819904730053 0 0.012649115158085138 0.028960478784781564 0 0.013906809458012931 0.028372112051776258 0 0.013012982409152959 0.028155819904730053 0 0.013871959624854584 0.027316198135350592 0 0.014529084080422418 0.028050646875516172 0 0.012462419877367799 0.027566649297673797 0 0.013012982409152959 0.028155819904730053 0 0.013001951774212057 0.027282143452929723 0 0.012330747063330892 0.027756963631199325 0 0.013012982409152959 0.028155819904730053 0 0.013001951774212057 0.027282143452929723 0 0.013871959624854584 0.027316198135350592 0 0.013001951774212057 0.027282143452929723 0 0.013871959624854584 0.027316198135350592 0 0.013282065227815575 0.026501071404962242 0 0.013871959624854584 0.027316198135350592 0 0.014203362963774632 0.026470988376678925 0 0.014962333840560697 0.027283552561092713 0 0.013906809458012931 0.028372112051776258 0 0.013871959624854584 0.027316198135350592 0 0.014962333840560697 0.027283552561092713 0 0.014203362963774632 0.026470988376678925 0 0.013282065227815575 0.026501071404962242 0 0.013527590117994261 0.025573239855557029 0 0.014226772986838087 0.026325086532605832 0 0.014897245512417279 0.027231244578543277 0 0.013871959624854584 0.027316198135350592 0 0.014203362963774632 0.026470988376678925 0 0.013282065227815575 0.026501071404962242 0 0.013001951774212057 0.027282143452929723 0 0.013282065227815575 0.026501071404962242 0 0.012329276354417834 0.02686685277876796 0 0.013282065227815575 0.026501071404962242 0 0.012329276354417834 0.02686685277876796 0 0.012549777476281956 0.025998553484199861 0 0.013282065227815575 0.026501071404962242 0 0.013527590117994261 0.025573239855557029 0 0.012549777476281956 0.025998553484199861 0 0.013467763679788962 0.025759677331796495 0 0.012398387971881098 0.026171000859087391 0 0.012897075752027927 0.025992452456658745 0 0.013066075253832061 0.026007907200551895 0 0.01231851416040418 0.026300159250621208 0 0.012897075752027927 0.025992452456658745 0 0.012292272478325142 0.025730579720701419 0 0.01231851416040418 0.026300159250621208 0 0.013267446872254916 0.025777861474296077 0 0.013467763679788962 0.025759677331796495 0 0.013467763679788962 0.025759677331796495 0 0.014849448443034036 0.02548205813737562 0 0.014253072714302041 0.026248902722508561 0 0.013510590043264317 0.02518538071793619 0 0.015295549718455101 0.025353937006348141 0 0.014226772986838087 0.026325086532605832 0 0.013467763679788962 0.025759677331796495 0 0.013467763679788962 0.025759677331796495 0 0.015214783911726593 0.025583717106901868 0 0.013190034986044699 0.026118109706400768 0 0.013596756992105047 0.024999997535249747 0 0.014575691741454799 0.025558763073503115 0 0.013190034986044699 0.026118109706400768 0 0.013596756992105047 0.024999997535249747 0 0.012414695673789186 0.024999997100568692 0 0.013467763679788962 0.025759677331796495 0 0.012414654755216583 0.025000399568942257 0 0.012897075752027927 0.025992452456658745 0 0.01241447109023156 0.024999933816129409 0 0.012292272478325142 0.025730579720701419 0 0.012897075752027927 0.025992452456658745 0 0.01305669639024242 0.026007716285441383 0 0.01241447109023156 0.024999933816129409 0 0.014849448443034036 0.02548205813737562 0 0.015960682353599619 0.02500006193750641 0 0.015083945940523338 0.025354479516776128 0 0.015961789548552787 0.024999627586242176 0 0.015975311409805439 0.025426960916406484 0 0.01477882390439365 0.024999996958108027 0 0.014575691741454799 0.025558763073503115 0 0.015960889623494956 0.024999999922615652 0 0.015083945940523338 0.025354479516776128 0 0.015536326345606706 0.025653591565071927 0 0.015975311409805439 0.025426960916406484 0 0.013596756992105047 0.024999997535249747 0 0.01477882390439365 0.024999996958108027 0 0.014575691741454799 0.025558763073503115 0 0.014003650193318595 0.025773466323031336 0 0.015083945940523338 0.025354479516776128 0 0.015023532965365721 0.025865510094373583 0 0.015083945940523338 0.025354479516776128 0 0.015023532965365721 0.025865510094373583 0 0.015536326345606706 0.025653591565071927 0 0.015295549718455101 0.025353937006348141 0 0.015987939230646252 0.025787455699166673 0 0.015303769276464657 0.026012539653670331 0 0.015295549718455101 0.025353937006348141 0 0.015987939230646252 0.025787455699166673 0 0.016734277191385122 0.025548206951682171 0 0.015214783911726593 0.025583717106901868 0 0.016368442012677096 0.025751703946021384 0 0.015023532965365721 0.025865510094373583 0 0.015536326345606706 0.025653591565071927 0 0.016024629501405572 0.025985310173773809 0 0.015536326345606706 0.025653591565071927 0 0.016024629501405572 0.025985310173773809 0 0.015975311409805439 0.025426960916406484 0 0.015987939230646252 0.025787455699166673 0 0.016540354294058729 0.026004935440252896 0 0.016734277191385122 0.025548206951682171 0 0.015973155480738604 0.02586062240075078 0 0.015682625595346819 0.027047150735243469 0 0.015987939230646252 0.025787455699166673 0 0.016211046089374445 0.026291523773668963 0 0.015894342115854859 0.026675940206377789 0 0.015987939230646252 0.025787455699166673 0 0.015463560122057659 0.026584885490251904 0 0.01546428532353521 0.027513071002989886 0 0.016211046089374445 0.026291523773668963 0 0.016630722629450125 0.026407252553256162 0 0.016540354294058729 0.026004935440252896 0 0.015987939230646252 0.025787455699166673 0 0.016211046089374445 0.026291523773668963 0 0.016540354294058729 0.026004935440252896 0 0.014253072714302041 0.026248902722508561 0 0.015303769276464657 0.026012539653670331 0 0.014968009559198378 0.02655536937357687 0 0.014253072714302041 0.026248902722508561 0 0.014968009559198378 0.02655536937357687 0 0.014962333840560697 0.027283552561092713 0 0.014253072714302041 0.026248902722508561 0 0.015295549718455101 0.025353937006348141 0 0.015303769276464657 0.026012539653670331 0 0.015987939230646252 0.025787455699166673 0 0.015303769276464657 0.026012539653670331 0 0.015463560122057659 0.026584885490251904 0 0.015303769276464657 0.026012539653670331 0 0.015463560122057659 0.026584885490251904 0 0.014968009559198378 0.02655536937357687 0 0.015463560122057659 0.026584885490251904 0 0.014968009559198378 0.02655536937357687 0 0.015262112999534181 0.027094915003618266 0 0.013906809458012931 0.028372112051776258 0 0.014962333840560697 0.027283552561092713 0 0.015266003608403857 0.027590570441113814 0 0.014968009559198378 0.02655536937357687 0 0.014962333840560697 0.027283552561092713 0 0.015262112999534181 0.027094915003618266 0 0.015463560122057659 0.026584885490251904 0 0.015262112999534181 0.027094915003618266 0 0.01546428532353521 0.027513071002989886 0 0.015262112999534181 0.027094915003618266 0 0.015266003608403857 0.027590570441113814 0 0.01546428532353521 0.027513071002989886 0 0.014962333840560697 0.027283552561092713 0 0.015262112999534181 0.027094915003618266 0 0.015266003608403857 0.027590570441113814 0 0.016211046089374445 0.026291523773668963 0 0.016252896183741216 0.026609272374368009 0 0.016630722629450125 0.026407252553256162 0 0.016211046089374445 0.026291523773668963 0 0.015894342115854859 0.026675940206377789 0 0.016252896183741216 0.026609272374368009 0 0.016169052025654579 0.026872851437036261 0 0.015894342115854859 0.026675940206377789 0 0.016252896183741216 0.026609272374368009 0 0.016464829423492578 0.026836676116519347 0 0.016252896183741216 0.026609272374368009 0 0.016630722629450125 0.026407252553256162 0 0.016169052025654579 0.026872851437036261 0 0.016464829423492578 0.026836676116519347 0 0.016252896183741216 0.026609272374368009 0 0.016464829423492578 0.026836676116519347 0 0.016630722629450125 0.026407252553256162 0 0.016955002588869762 0.026846181768931564 0 0.016630722629450125 0.026407252553256162 0 0.017170544362870868 0.026433432517671041 0 0.016955002588869762 0.026846181768931564 0 0.016630722629450125 0.026407252553256162 0 0.017170544362870868 0.026433432517671041 0 0.017071355640336849 0.026022393155004875 0 0.017563203625830245 0.026770364387598819 0 0.017170544362870868 0.026433432517671041 0 0.017552468982773833 0.026161465187787548 0 0.017563203625830245 0.026770364387598819 0 0.017170544362870868 0.026433432517671041 0 0.016955002588869762 0.026846181768931564 0 0.017552468982773833 0.026161465187787548 0 0.017071355640336849 0.026022393155004875 0 0.01754757072064388 0.025750584668108957 0 0.017071355640336849 0.026022393155004875 0 0.016734277191385122 0.025548206951682171 0 0.01754757072064388 0.025750584668108957 0 0.017170544362870868 0.026433432517671041 0 0.017552468982773833 0.026161465187787548 0 0.017071355640336849 0.026022393155004875 0 0.016630722629450125 0.026407252553256162 0 0.017071355640336849 0.026022393155004875 0 0.016540354294058729 0.026004935440252896 0 0.017071355640336849 0.026022393155004875 0 0.016540354294058729 0.026004935440252896 0 0.016734277191385122 0.025548206951682171 0 0.016024629501405572 0.025985310173773809 0 0.016746332387536464 0.025407806918617791 0 0.015975311409805439 0.025426960916406484 0 0.01754757072064388 0.025750584668108957 0 0.016746332387536464 0.025407806918617791 0 0.018077912692613531 0.025301107636470768 0 0.016024629501405572 0.025985310173773809 0 0.01754757072064388 0.025750584668108957 0 0.016746332387536464 0.025407806918617791 0 0.016368442012677096 0.025751703946021384 0 0.017458692156321062 0.025767309725298341 0 0.016746332387536464 0.025407806918617791 0 0.015961789548552787 0.024999627586242176 0 0.017245217815354329 0.024999714939177676 0 0.016746332387536464 0.025407806918617791 0 0.015961789548552787 0.024999627586242176 0 0.015975311409805439 0.025426960916406484 0 0.018529599601517396 0.024999367609990497 0 0.018077912692613531 0.025301107636470768 0 0.019513001020167862 0.025115409473625463 0 0.018529599601517396 0.024999367609990497 0 0.017245217815354329 0.024999714939177676 0 0.018077912692613531 0.025301107636470768 0 0.016746332387536464 0.025407806918617791 0 0.017245217815354329 0.024999714939177676 0 0.018077912692613531 0.025301107636470768 0 0.01754757072064388 0.025750584668108957 0 0.018077912692613531 0.025301107636470768 0 0.018826108099224012 0.025541066426424768 0 0.018077912692613531 0.025301107636470768 0 0.018826108099224012 0.025541066426424768 0 0.019513001020167862 0.025115409473625463 0 0.018826108099224012 0.025541066426424768 0 0.019224350488876767 0.025893977169732869 0 0.019879291972958152 0.025409199748439887 0 0.018826108099224012 0.025541066426424768 0 0.018260905804583585 0.026112958819312464 0 0.019224350488876767 0.025893977169732869 0 0.01754757072064388 0.025750584668108957 0 0.018826108099224012 0.025541066426424768 0 0.018260905804583585 0.026112958819312464 0 0.017552468982773833 0.026161465187787548 0 0.01754757072064388 0.025750584668108957 0 0.018260905804583585 0.026112958819312464 0 0.017563203625830245 0.026770364387598819 0 0.017552468982773833 0.026161465187787548 0 0.018260905804583585 0.026112958819312464 0 0.017563203625830245 0.026770364387598819 0 0.018260905804583585 0.026112958819312464 0 0.018925411430964198 0.027038525308568016 0 0.018260905804583585 0.026112958819312464 0 0.019224350488876767 0.025893977169732869 0 0.018925411430964198 0.027038525308568016 0 0.021671573493225273 0.024877474297969077 0 0.021318397443518145 0.02401793734836245 0 0.022500066108744377 0.024031670938084559 0 0.021671573493225273 0.024877474297969077 0 0.021318397443518145 0.02401793734836245 0 0.020865750385167352 0.024829098464802902 0 0.021318397443518145 0.02401793734836245 0 0.022500066108744377 0.024031670938084559 0 0.021834491657867602 0.023200339838100936 0 0.020292436080086563 0.025923693018144255 0 0.020222094587748957 0.025859306538281963 0 0.017563203625830245 0.026770364387598819 0 0.018925411430964198 0.027038525308568016 0 0.018031284384860301 0.02762550045137489 0 0.017563203625830245 0.026770364387598819 0 0.017238486582013785 0.027397697189721782 0 0.016955002588869762 0.026846181768931564 0 0.017563203625830245 0.026770364387598819 0 0.018031284384860301 0.02762550045137489 0 0.017238486582013785 0.027397697189721782 0 0.016464829423492578 0.026836676116519347 0 0.016955002588869762 0.026846181768931564 0 0.016690324021813821 0.027262343342772371 0 0.017238486582013785 0.027397697189721782 0 0.016955002588869762 0.026846181768931564 0 0.016690324021813821 0.027262343342772371 0 0.016330678758989543 0.027627439751858177 0 0.016842212627295711 0.027749043203498577 0 0.016596946316123216 0.028222371300957019 0 0.017238486582013785 0.027397697189721782 0 0.016842212627295711 0.027749043203498577 0 0.017254540936204498 0.028118707126462552 0 0.016330678758989543 0.027627439751858177 0 0.016690324021813821 0.027262343342772371 0 0.016842212627295711 0.027749043203498577 0 0.017238486582013785 0.027397697189721782 0 0.016690324021813821 0.027262343342772371 0 0.016842212627295711 0.027749043203498577 0 0.020222094587748957 0.025859306538281963 0 0.020482907007413752 0.025644542876375753 0 0.018031284384860301 0.02762550045137489 0 0.017238486582013785 0.027397697189721782 0 0.017254540936204498 0.028118707126462552 0 0.022500066108744377 0.024031670938084559 0 0.023245669891837146 0.02331211115313311 0 0.022604407019450854 0.022784629513023971 0 0.023245669891837146 0.02331211115313311 0 0.023282061851531016 0.022570788965391664 0 0.022604407019450854 0.022784629513023971 0 0.023245669891837146 0.02331211115313311 0 0.024006282141877382 0.022666642301926738 0 0.023282061851531016 0.022570788965391664 0 0.016842212627295711 0.027749043203498577 0 0.017254540936204498 0.028118707126462552 0 0.016596946316123216 0.028222371300957019 0 0.020482907007413752 0.025644542876375753 0 0.018862430846256047 0.025567945301386587 0 0.017254540936204498 0.028118707126462552 0 0.016596946316123216 0.028222371300957019 0 0.01655002292135916 0.028603187094356261 0 0.017123040284679557 0.028889525574336859 0 0.018862430846256047 0.025567945301386587 0 0.024006282141877382 0.022666642301926738 0 0.023568392521537838 0.022110060192458772 0 0.023282061851531016 0.022570788965391664 0 0.024114581456293922 0.021901741516569505 0 0.024006282141877382 0.022666642301926738 0 0.023568392521537838 0.022110060192458772 0 0.023282061851531016 0.022570788965391664 0 0.022979937510577177 0.022027836536001179 0 0.022604407019450854 0.022784629513023971 0 0.023568392521537838 0.022110060192458772 0 0.023282061851531016 0.022570788965391664 0 0.022979937510577177 0.022027836536001179 0 0.022361028393017148 0.021878206770596278 0 0.021933728545602649 0.022451672634681938 0 0.022604407019450854 0.022784629513023971 0 0.022361028393017148 0.021878206770596278 0 0.022979937510577177 0.022027836536001179 0 0.022604407019450854 0.022784629513023971 0 0.022361028393017148 0.021878206770596278 0 0.02165072818004447 0.021971915190307702 0 0.021933728545602649 0.022451672634681938 0 0.02165072818004447 0.021971915190307702 0 0.021294055888859277 0.022455324449728212 0 0.021933728545602649 0.022451672634681938 0 0.021318397443518145 0.02401793734836245 0 0.021834491657867602 0.023200339838100936 0 0.02108561511381099 0.023170317304276176 0 0.021294055888859277 0.022455324449728212 0 0.021933728545602649 0.022451672634681938 0 0.021834491657867602 0.023200339838100936 0 0.021294055888859277 0.022455324449728212 0 0.021834491657867602 0.023200339838100936 0 0.02108561511381099 0.023170317304276176 0 0.021933728545602649 0.022451672634681938 0 0.021834491657867602 0.023200339838100936 0 0.022604407019450854 0.022784629513023971 0 0.022500066108744377 0.024031670938084559 0 0.021834491657867602 0.023200339838100936 0 0.022604407019450854 0.022784629513023971 0 0.01977863892529854 0.02236647714240236 0 0.020437219887378493 0.023109288792200599 0 0.020745667925264163 0.022575717204302116 0 0.01977863892529854 0.02236647714240236 0 0.019809615731586936 0.023048318591361756 0 0.020437219887378493 0.023109288792200599 0 0.019809615731586936 0.023048318591361756 0 0.020437219887378493 0.023109288792200599 0 0.020255086253265893 0.023696815435547119 0 0.020437219887378493 0.023109288792200599 0 0.02108561511381099 0.023170317304276176 0 0.020773666882453846 0.023726117584663833 0 0.021294055888859277 0.022455324449728212 0 0.02108561511381099 0.023170317304276176 0 0.020745667925264163 0.022575717204302116 0 0.020437219887378493 0.023109288792200599 0 0.02108561511381099 0.023170317304276176 0 0.020745667925264163 0.022575717204302116 0 0.02165072818004447 0.021971915190307702 0 0.021294055888859277 0.022455324449728212 0 0.020930256751573617 0.021903984474801234 0 0.021294055888859277 0.022455324449728212 0 0.020745667925264163 0.022575717204302116 0 0.020930256751573617 0.021903984474801234 0 0.019782021104793147 0.022326455406571435 0 0.020767665229985525 0.021382102109415244 0 0.01977863892529854 0.02236647714240236 0 0.020685106628593745 0.020796430571268874 0 0.020030868219457723 0.02108043459351816 0 0.01977863892529854 0.02236647714240236 0 0.020745667925264163 0.022575717204302116 0 0.020930256751573617 0.021903984474801234 0 0.01977863892529854 0.02236647714240236 0 0.020030868219457723 0.02108043459351816 0 0.019514668158246557 0.021640279342979456 0 0.019420848870392089 0.021095157875202126 0 0.020030868219457723 0.02108043459351816 0 0.019514668158246557 0.021640279342979456 0 0.019420848870392089 0.021095157875202126 0 0.019514668158246557 0.021640279342979456 0 0.019078455011270177 0.021400879453117572 0 0.019078455011270177 0.021400879453117572 0 0.01862334816808682 0.022181684200497171 0 0.019253993747488176 0.02234671263441013 0 0.019514668158246557 0.021640279342979456 0 0.019078455011270177 0.021400879453117572 0 0.019253993747488176 0.02234671263441013 0 0.01977863892529854 0.02236647714240236 0 0.019514668158246557 0.021640279342979456 0 0.019253993747488176 0.02234671263441013 0 0.018118045197638655 0.021013941430070938 0 0.018854182241266674 0.021768788930858346 0 0.019003193594952637 0.022893062453487559 0 0.018620025177320847 0.020744506673840982 0 0.018854182241266674 0.021768788930858346 0 0.019672521295080177 0.022493087558559485 0 0.018620025177320847 0.020744506673840982 0 0.019078455011270177 0.021400879453117572 0 0.01862334816808682 0.022181684200497171 0 0.018655259628617953 0.020864158512400227 0 0.01915817089372537 0.022364276564384871 0 0.022147812537319209 0.020144117293331452 0 0.022079504733468494 0.021769368643161795 0 0.018854182241266674 0.021768788930858346 0 0.019003193594952637 0.022893062453487559 0 0.019672521295080177 0.022493087558559485 0 0.019003193594952637 0.022893062453487559 0 0.019672521295080177 0.022493087558559485 0 0.020579890945641045 0.024575217147972613 0 0.025239432173679695 0.020762680429315762 0 0.024354675689834741 0.021942075577702971 0 0.025127803493603905 0.020938365116230231 0 0.01915817089372537 0.022364276564384871 0 0.019968168754715965 0.024327605692743302 0 0.01862334816808682 0.022181684200497171 0 0.019309829985554486 0.023069138427901113 0 0.019271900603045202 0.024186657272842693 0 0.019809615731586936 0.023048318591361756 0 0.019253993747488176 0.02234671263441013 0 0.019309829985554486 0.023069138427901113 0 0.01977863892529854 0.02236647714240236 0 0.019809615731586936 0.023048318591361756 0 0.019253993747488176 0.02234671263441013 0 0.01862334816808682 0.022181684200497171 0 0.019253993747488176 0.02234671263441013 0 0.019309829985554486 0.023069138427901113 0 0.019809615731586936 0.023048318591361756 0 0.019309829985554486 0.023069138427901113 0 0.019759226219081303 0.02364361348470892 0 0.019309829985554486 0.023069138427901113 0 0.019271900603045202 0.024186657272842693 0 0.019759226219081303 0.02364361348470892 0 0.019003193594952637 0.022893062453487559 0 0.020254518584373458 0.024827602717597781 0 0.020579890945641045 0.024575217147972613 0 0.019271900603045202 0.024186657272842693 0 0.020086418623232825 0.02424837027874328 0 0.019759226219081303 0.02364361348470892 0 0.024354675689834741 0.021942075577702971 0 0.023732523369022165 0.02321459121437873 0 0.023252249895659792 0.023621201645469877 0 0.022079504733468494 0.021769368643161795 0 0.021996654838987505 0.02392714607754258 0 0.025239432173679695 0.020762680429315762 0 0.023987476093997484 0.023319990099209112 0 0.024354675689834741 0.021942075577702971 0 0.023987476093997484 0.023319990099209112 0 0.024354675689834741 0.021942075577702971 0 0.023732523369022165 0.02321459121437873 0 0.023732523369022165 0.02321459121437873 0 0.02328584558838848 0.023824630752117215 0 0.023252249895659792 0.023621201645469877 0 0.023987476093997484 0.023319990099209112 0 0.023732523369022165 0.02321459121437873 0 0.02328584558838848 0.023824630752117215 0 0.02328584558838848 0.023824630752117215 0 0.023010491262114137 0.023970782810932539 0 0.022774557906174473 0.024220775114363702 0 0.02328584558838848 0.023824630752117215 0 0.022695250617225427 0.024281774913264696 0 0.022774557906174473 0.024220775114363702 0 0.02328584558838848 0.023824630752117215 0 0.023010491262114137 0.023970782810932539 0 0.023252249895659792 0.023621201645469877 0 0.019968168754715965 0.024327605692743302 0 0.020711492329323424 0.025198347636377599 0 0.023987476093997484 0.023319990099209112 0 0.022695250617225427 0.024281774913264696 0 0.021212260922955754 0.025118673913904689 0 0.021996654838987505 0.02392714607754258 0 0.02132602375052723 0.02484272748907726 0 0.020254518584373458 0.024827602717597781 0 0.020851745065649959 0.025265117809321235 0 0.021212260922955754 0.025118673913904689 0 0.019271900603045202 0.024186657272842693 0 0.020190139007667893 0.024732017177963046 0 0.020851745065649959 0.025265117809321235 0 0.020254518584373458 0.024827602717597781 0 0.020579890945641045 0.024575217147972613 0 0.020851745065649959 0.025265117809321235 0 0.023987476093997484 0.023319990099209112 0 0.02328584558838848 0.023824630752117215 0 0.022695250617225427 0.024281774913264696 0 0.020489161672615403 0.025104451592183337 0 0.020190139007667893 0.024732017177963046 0 0.020851745065649959 0.025265117809321235 0 0.020489161672615403 0.025104451592183337 0 0.02037711956826042 0.024745861833117465 0 0.020190139007667893 0.024732017177963046 0 0.020505164761114015 0.025102288005099106 0 0.020489161672615403 0.025104451592183337 0 0.02037711956826042 0.024745861833117465 0 0.02037711956826042 0.024745861833117465 0 0.020086418623232825 0.02424837027874328 0 0.020585092877128428 0.024441120466023057 0 0.020505164761114015 0.025102288005099106 0 0.02037711956826042 0.024745861833117465 0 0.020585092877128428 0.024441120466023057 0 0.02037711956826042 0.024745861833117465 0 0.020190139007667893 0.024732017177963046 0 0.020086418623232825 0.02424837027874328 0 0.019271900603045202 0.024186657272842693 0 0.020190139007667893 0.024732017177963046 0 0.020086418623232825 0.02424837027874328 0 0.020086418623232825 0.02424837027874328 0 0.020255086253265893 0.023696815435547119 0 0.020585092877128428 0.024441120466023057 0 0.020255086253265893 0.023696815435547119 0 0.020773666882453846 0.023726117584663833 0 0.020585092877128428 0.024441120466023057 0 0.020437219887378493 0.023109288792200599 0 0.020255086253265893 0.023696815435547119 0 0.020773666882453846 0.023726117584663833 0 0.020086418623232825 0.02424837027874328 0 0.020255086253265893 0.023696815435547119 0 0.019759226219081303 0.02364361348470892 0 0.019809615731586936 0.023048318591361756 0 0.020255086253265893 0.023696815435547119 0 0.019759226219081303 0.02364361348470892 0 0.021318397443518145 0.02401793734836245 0 0.020773666882453846 0.023726117584663833 0 0.020585092877128428 0.024441120466023057 0 0.021318397443518145 0.02401793734836245 0 0.02108561511381099 0.023170317304276176 0 0.020773666882453846 0.023726117584663833 0 0.020505164761114015 0.025102288005099106 0 0.020865750385167352 0.024829098464802902 0 0.020325250242004524 0.025765791963587255 0 0.021318397443518145 0.02401793734836245 0 0.020585092877128428 0.024441120466023057 0 0.020865750385167352 0.024829098464802902 0 0.021671573493225273 0.024877474297969077 0 0.020865750385167352 0.024829098464802902 0 0.020325250242004524 0.025765791963587255 0 0.020505164761114015 0.025102288005099106 0 0.020585092877128428 0.024441120466023057 0 0.020865750385167352 0.024829098464802902 0 0.020292436080086563 0.025923693018144255 0 0.02033221244155831 0.02580444397946674 0 0.019224350488876767 0.025893977169732869 0 0.018925411430964198 0.027038525308568016 0 0.020325250242004524 0.025765791963587255 0 0.019224350488876767 0.025893977169732869 0 0.020325250242004524 0.025765791963587255 0 0.019879291972958152 0.025409199748439887 0 0.020489161672615403 0.025104451592183337 0 0.020851745065649959 0.025265117809321235 0 0.020518701661694113 0.025390686724111777 0 0.020505164761114015 0.025102288005099106 0 0.020489161672615403 0.025104451592183337 0 0.020518701661694113 0.025390686724111777 0 0.020505164761114015 0.025102288005099106 0 0.020325250242004524 0.025765791963587255 0 0.020518701661694113 0.025390686724111777 0 0.020325250242004524 0.025765791963587255 0 0.020518701661694113 0.025390686724111777 0 0.020665280737882898 0.025245271193730965 0 0.020851745065649959 0.025265117809321235 0 0.020518701661694113 0.025390686724111777 0 0.020665280737882898 0.025245271193730965 0 0.020851745065649959 0.025265117809321235 0 0.020665280737882898 0.025245271193730965 0 0.021212260922955754 0.025118673913904689 0 0.020665280737882898 0.025245271193730965 0 0.021212260922955754 0.025118673913904689 0 0.0211461911317701 0.024981533640847698 0 0.020665280737882898 0.025245271193730965 0 0.021185633102241169 0.024825826306371594 0 0.0211461911317701 0.024981533640847698 0 0.020665280737882898 0.025245271193730965 0 0.020425085653509142 0.025053239783402102 0 0.021185633102241169 0.024825826306371594 0 0.020665280737882898 0.025245271193730965 0 0.020425085653509142 0.025053239783402102 0 0.019879291972958152 0.025409199748439887 0 0.020325250242004524 0.025765791963587255 0 0.020665280737882898 0.025245271193730965 0 0.019879291972958152 0.025409199748439887 0 0.020425085653509142 0.025053239783402102 0 0.019879291972958152 0.025409199748439887 0 0.019513001020167862 0.025115409473625463 0 0.018826108099224012 0.025541066426424768 0 0.019879291972958152 0.025409199748439887 0 0.019513001020167862 0.025115409473625463 0 0.020425085653509142 0.025053239783402102 0 0.020768544909617274 0.024801502093356517 0 0.021185633102241169 0.024825826306371594 0 0.020425085653509142 0.025053239783402102 0 0.019513001020167862 0.025115409473625463 0 0.020768544909617274 0.024801502093356517 0 0.019513001020167862 0.025115409473625463 0 0.019813788441121916 0.024999851737560717 0 0.020768544909617274 0.024801502093356517 0 0.018529599601517396 0.024999367609990497 0 0.019513001020167862 0.025115409473625463 0 0.019813788441121916 0.024999851737560717 0 0.021097800475309746 0.024999791895230085 0 0.022202219863733864 0.024643015304646458 0 0.021097744126025535 0.024997120443101019 0 0.021849566314633053 0.024203401096111472 0 0.021435027991775314 0.024516610211191038 0 0.021097744126025535 0.024997120443101019 0 0.021849566314633053 0.024203401096111472 0 0.022129819511335597 0.023867868937703221 0 0.021097744126025535 0.024997120443101019 0 0.020768544909617274 0.024801502093356517 0 0.021435027991775314 0.024516610211191038 0 0.019813788441121916 0.024999851737560717 0 0.021097744126025535 0.024997120443101019 0 0.020768544909617274 0.024801502093356517 0 0.020768544909617274 0.024801502093356517 0 0.021562253085194837 0.024514060661335053 0 0.021435027991775314 0.024516610211191038 0 0.020768544909617274 0.024801502093356517 0 0.021562253085194837 0.024514060661335053 0 0.021185633102241169 0.024825826306371594 0 0.021562253085194837 0.024514060661335053 0 0.021918212756881911 0.024255230726281798 0 0.022017974803488452 0.024307003965632706 0 0.021562253085194837 0.024514060661335053 0 0.021435027991775314 0.024516610211191038 0 0.021918212756881911 0.024255230726281798 0 0.021849566314633053 0.024203401096111472 0 0.021435027991775314 0.024516610211191038 0 0.021918212756881911 0.024255230726281798 0 0.021849566314633053 0.024203401096111472 0 0.021918212756881911 0.024255230726281798 0 0.022294275514347206 0.023962240362774011 0 0.021918212756881911 0.024255230726281798 0 0.022017974803488452 0.024307003965632706 0 0.02232742749995301 0.024041080644206483 0 0.022017974803488452 0.024307003965632706 0 0.022356785514599218 0.024150801608457596 0 0.02219493009474003 0.024331689134165779 0 0.022017974803488452 0.024307003965632706 0 0.022356785514599218 0.024150801608457596 0 0.02232742749995301 0.024041080644206483 0 0.021562253085194837 0.024514060661335053 0 0.022017974803488452 0.024307003965632706 0 0.021842531160035244 0.024493982959650017 0 0.022017974803488452 0.024307003965632706 0 0.021842531160035244 0.024493982959650017 0 0.02219493009474003 0.024331689134165779 0 0.02219493009474003 0.024331689134165779 0 0.022011966405443711 0.024536588121868198 0 0.022473145546376205 0.024285978833298753 0 0.021842531160035244 0.024493982959650017 0 0.02219493009474003 0.024331689134165779 0 0.022011966405443711 0.024536588121868198 0 0.022482286797395192 0.024164560876571723 0 0.022473145546376205 0.024285978833298753 0 0.022726038710955236 0.024054027888733346 0 0.022482286797395192 0.024164560876571723 0 0.02219493009474003 0.024331689134165779 0 0.022473145546376205 0.024285978833298753 0 0.022356785514599218 0.024150801608457596 0 0.022482286797395192 0.024164560876571723 0 0.02219493009474003 0.024331689134165779 0 0.021562253085194837 0.024514060661335053 0 0.021842531160035244 0.024493982959650017 0 0.021185633102241169 0.024825826306371594 0 0.021842531160035244 0.024493982959650017 0 0.022011966405443711 0.024536588121868198 0 0.021185633102241169 0.024825826306371594 0 0.022011966405443711 0.024536588121868198 0 0.021185633102241169 0.024825826306371594 0 0.021570105263868874 0.02478893468811701 0 0.021185633102241169 0.024825826306371594 0 0.0211461911317701 0.024981533640847698 0 0.021570105263868874 0.02478893468811701 0 0.021212260922955754 0.025118673913904689 0 0.021570105263868874 0.02478893468811701 0 0.022159845356709808 0.024605651818030316 0 0.021212260922955754 0.025118673913904689 0 0.0211461911317701 0.024981533640847698 0 0.021570105263868874 0.02478893468811701 0 0.022011966405443711 0.024536588121868198 0 0.021570105263868874 0.02478893468811701 0 0.022159845356709808 0.024605651818030316 0 0.022011966405443711 0.024536588121868198 0 0.022159845356709808 0.024605651818030316 0 0.022463387756254914 0.02439228862625072 0 0.022695250617225427 0.024281774913264696 0 0.021212260922955754 0.025118673913904689 0 0.022159845356709808 0.024605651818030316 0 0.022695250617225427 0.024281774913264696 0 0.022159845356709808 0.024605651818030316 0 0.022517748853675603 0.024390487838300185 0 0.022473145546376205 0.024285978833298753 0 0.022463387756254914 0.02439228862625072 0 0.022766652708363165 0.024139455015398482 0 0.022473145546376205 0.024285978833298753 0 0.022766652708363165 0.024139455015398482 0 0.022726038710955236 0.024054027888733346 0 0.022011966405443711 0.024536588121868198 0 0.022473145546376205 0.024285978833298753 0 0.022463387756254914 0.02439228862625072 0 0.022463387756254914 0.02439228862625072 0 0.022774557906174473 0.024220775114363702 0 0.022766652708363165 0.024139455015398482 0 0.022159845356709808 0.024605651818030316 0 0.022463387756254914 0.02439228862625072 0 0.022517748853675603 0.024390487838300185 0 0.022463387756254914 0.02439228862625072 0 0.022517748853675603 0.024390487838300185 0 0.022774557906174473 0.024220775114363702 0 0.022695250617225427 0.024281774913264696 0 0.022517748853675603 0.024390487838300185 0 0.022774557906174473 0.024220775114363702 0 0.023010491262114137 0.023970782810932539 0 0.022774557906174473 0.024220775114363702 0 0.022766652708363165 0.024139455015398482 0 0.023010491262114137 0.023970782810932539 0 0.022766652708363165 0.024139455015398482 0 0.023022689065275007 0.02387996620188727 0 0.02109824561898109 0.025000327747526144 0 0.022217381485440044 0.025237369608575817 0 0.025000181335557023 0.024997763686893593 0 0.022766652708363165 0.024139455015398482 0 0.022958340904777774 0.023900134992179117 0 0.023022689065275007 0.02387996620188727 0 0.022958340904777774 0.023900134992179117 0 0.023232987287544218 0.023632254410693387 0 0.023078320483850414 0.023597969116150613 0 0.022958340904777774 0.023900134992179117 0 0.023232987287544218 0.023632254410693387 0 0.022985354328591848 0.023833649211620796 0 0.022958340904777774 0.023900134992179117 0 0.022726038710955236 0.024054027888733346 0 0.022985354328591848 0.023833649211620796 0 0.022766652708363165 0.024139455015398482 0 0.022958340904777774 0.023900134992179117 0 0.022726038710955236 0.024054027888733346 0 0.023560984278674663 0.023380184338836821 0 0.023232987287544218 0.023632254410693387 0 0.02361023637015025 0.023403262105770373 0 0.023560984278674663 0.023380184338836821 0 0.02361023637015025 0.023403262105770373 0 0.02407245697520901 0.02304371649948813 0 0.023560984278674663 0.023380184338836821 0 0.023232987287544218 0.023632254410693387 0 0.023078320483850414 0.023597969116150613 0 0.023232987287544218 0.023632254410693387 0 0.023286538991027773 0.0236121766974603 0 0.022985354328591848 0.023833649211620796 0 0.023232987287544218 0.023632254410693387 0 0.02361023637015025 0.023403262105770373 0 0.023286538991027773 0.0236121766974603 0 0.02361023637015025 0.023403262105770373 0 0.023567859938734264 0.023450811791333084 0 0.023286538991027773 0.0236121766974603 0 0.02361023637015025 0.023403262105770373 0 0.023567859938734264 0.023450811791333084 0 0.023996344494135988 0.023238094924003923 0 0.023567859938734264 0.023450811791333084 0 0.023286538991027773 0.0236121766974603 0 0.023315719586652028 0.023566386219221403 0 0.023286538991027773 0.0236121766974603 0 0.023044957084488643 0.023728996865004338 0 0.022985354328591848 0.023833649211620796 0 0.023286538991027773 0.0236121766974603 0 0.023044957084488643 0.023728996865004338 0 0.023315719586652028 0.023566386219221403 0 0.023044957084488643 0.023728996865004338 0 0.023203820146552923 0.023575271995183746 0 0.022931068878246908 0.023712269855711687 0 0.023044957084488643 0.023728996865004338 0 0.023203820146552923 0.023575271995183746 0 0.023315719586652028 0.023566386219221403 0 0.023203820146552923 0.023575271995183746 0 0.023315719586652028 0.023566386219221403 0 0.023495714108036352 0.023443288129089152 0 0.023567859938734264 0.023450811791333084 0 0.023315719586652028 0.023566386219221403 0 0.023495714108036352 0.023443288129089152 0 0.023203820146552923 0.023575271995183746 0 0.023495714108036352 0.023443288129089152 0 0.023390322797192307 0.023415427748597131 0 0.023495714108036352 0.023443288129089152 0 0.023666949498966246 0.023279032624322168 0 0.02387430172009233 0.023304557563783565 0 0.023567859938734264 0.023450811791333084 0 0.023495714108036352 0.023443288129089152 0 0.02387430172009233 0.023304557563783565 0 0.022482286797395192 0.024164560876571723 0 0.022726038710955236 0.024054027888733346 0 0.022686677752124591 0.023954728861023695 0 0.023044957084488643 0.023728996865004338 0 0.022985354328591848 0.023833649211620796 0 0.022686677752124591 0.023954728861023695 0 0.022726038710955236 0.024054027888733346 0 0.022985354328591848 0.023833649211620796 0 0.022686677752124591 0.023954728861023695 0 0.022931068878246908 0.023712269855711687 0 0.022686677752124591 0.023954728861023695 0 0.022646374691511956 0.023849756466666584 0 0.023044957084488643 0.023728996865004338 0 0.022931068878246908 0.023712269855711687 0 0.022686677752124591 0.023954728861023695 0 0.022356785514599218 0.024150801608457596 0 0.022482286797395192 0.024164560876571723 0 0.022686677752124591 0.023954728861023695 0 0.022356785514599218 0.024150801608457596 0 0.022686677752124591 0.023954728861023695 0 0.02232742749995301 0.024041080644206483 0 0.022686677752124591 0.023954728861023695 0 0.02232742749995301 0.024041080644206483 0 0.022646374691511956 0.023849756466666584 0 0.021918212756881911 0.024255230726281798 0 0.02232742749995301 0.024041080644206483 0 0.022294275514347206 0.023962240362774011 0 0.022559605736979123 0.02370199732406985 0 0.023231307634056033 0.023123069864101672 0 0.022119639722562791 0.024010945045760845 0 0.023390652435117329 0.025294141661811084 0 0.022217381485440044 0.025237369608575817 0 0.025000181335557023 0.024997763686893593 0 0.02232742749995301 0.024041080644206483 0 0.022294275514347206 0.023962240362774011 0 0.022561377214835462 0.023812313244720194 0 0.02232742749995301 0.024041080644206483 0 0.022561377214835462 0.023812313244720194 0 0.022646374691511956 0.023849756466666584 0 0.021849566314633053 0.024203401096111472 0 0.022294275514347206 0.023962240362774011 0 0.022267979966144862 0.02393153778031255 0 0.022294275514347206 0.023962240362774011 0 0.022476531123344835 0.023810054413415348 0 0.022561377214835462 0.023812313244720194 0 0.022294275514347206 0.023962240362774011 0 0.022267979966144862 0.02393153778031255 0 0.022476531123344835 0.023810054413415348 0 0.022559605736979123 0.02370199732406985 0 0.022714487613947645 0.023644607192234785 0 0.022906257842667262 0.023462541504565872 0 0.022267979966144862 0.02393153778031255 0 0.022559605736979123 0.02370199732406985 0 0.022476531123344835 0.023810054413415348 0 0.022559605736979123 0.02370199732406985 0 0.022476531123344835 0.023810054413415348 0 0.022714487613947645 0.023644607192234785 0 0.022476531123344835 0.023810054413415348 0 0.022714487613947645 0.023644607192234785 0 0.022561377214835462 0.023812313244720194 0 0.022714487613947645 0.023644607192234785 0 0.022832075659364796 0.023660445533857447 0 0.02298270993340517 0.023473656964984387 0 0.022714487613947645 0.023644607192234785 0 0.022832075659364796 0.023660445533857447 0 0.022561377214835462 0.023812313244720194 0 0.022832075659364796 0.023660445533857447 0 0.022561377214835462 0.023812313244720194 0 0.022646374691511956 0.023849756466666584 0 0.022931068878246908 0.023712269855711687 0 0.022832075659364796 0.023660445533857447 0 0.022646374691511956 0.023849756466666584 0 0.023229536160206635 0.024457948678816906 0 0.023370824319032531 0.024300671576734302 0 0.02437097771223359 0.02479104617739547 0 0.023203820146552923 0.023575271995183746 0 0.022931068878246908 0.023712269855711687 0 0.023141178242745471 0.023493009359938914 0 0.022931068878246908 0.023712269855711687 0 0.022832075659364796 0.023660445533857447 0 0.023141178242745471 0.023493009359938914 0 0.023203820146552923 0.023575271995183746 0 0.023141178242745471 0.023493009359938914 0 0.023390322797192307 0.023415427748597131 0 0.023141178242745471 0.023493009359938914 0 0.023387066094425406 0.023296572349238258 0 0.023161237745049208 0.023349789850209017 0 0.023141178242745471 0.023493009359938914 0 0.02298270993340517 0.023473656964984387 0 0.023161237745049208 0.023349789850209017 0 0.022832075659364796 0.023660445533857447 0 0.023141178242745471 0.023493009359938914 0 0.02298270993340517 0.023473656964984387 0 0.023495714108036352 0.023443288129089152 0 0.023666949498966246 0.023279032624322168 0 0.023390322797192307 0.023415427748597131 0 0.023141178242745471 0.023493009359938914 0 0.023390322797192307 0.023415427748597131 0 0.023387066094425406 0.023296572349238258 0 0.023666949498966246 0.023279032624322168 0 0.023390322797192307 0.023415427748597131 0 0.023387066094425406 0.023296572349238258 0 0.023666949498966246 0.023279032624322168 0 0.023387066094425406 0.023296572349238258 0 0.023699462303748021 0.023136891506649861 0 0.023387066094425406 0.023296572349238258 0 0.023231307634056033 0.023123069864101672 0 0.023699462303748021 0.023136891506649861 0 0.023387066094425406 0.023296572349238258 0 0.023231307634056033 0.023123069864101672 0 0.023161237745049208 0.023349789850209017 0 0.022559605736979123 0.02370199732406985 0 0.023231307634056033 0.023123069864101672 0 0.022906257842667262 0.023462541504565872 0 0.022714487613947645 0.023644607192234785 0 0.022906257842667262 0.023462541504565872 0 0.02298270993340517 0.023473656964984387 0 0.022906257842667262 0.023462541504565872 0 0.02298270993340517 0.023473656964984387 0 0.023065784230879662 0.023353115643380599 0 0.02298270993340517 0.023473656964984387 0 0.023161237745049208 0.023349789850209017 0 0.023065784230879662 0.023353115643380599 0 0.023231307634056033 0.023123069864101672 0 0.023161237745049208 0.023349789850209017 0 0.023065784230879662 0.023353115643380599 0 0.023231307634056033 0.023123069864101672 0 0.022906257842667262 0.023462541504565872 0 0.023065784230879662 0.023353115643380599 0 0.023229536160206635 0.024457948678816906 0 0.023370824319032531 0.024300671576734302 0 0.022129819511335597 0.023867868937703221 0 0.023229536160206635 0.024457948678816906 0 0.022129819511335597 0.023867868937703221 0 0.022119639722562791 0.024010945045760845 0 0.023280795475952108 0.023850271828385027 0 0.022320913521894706 0.023920023611451829 0 0.023358806866522586 0.024733758701856675 0 0.022202219863733864 0.024643015304646458 0 0.021849566314633053 0.024203401096111472 0 0.022267979966144862 0.02393153778031255 0 0.022119639722562791 0.024010945045760845 0 0.021849566314633053 0.024203401096111472 0 0.022129819511335597 0.023867868937703221 0 0.022119639722562791 0.024010945045760845 0 0.022267979966144862 0.02393153778031255 0 0.022559605736979123 0.02370199732406985 0 0.022119639722562791 0.024010945045760845 0 0.023390652435117329 0.025294141661811084 0 0.025000181335557023 0.024997763686893593 0 0.02451699519522044 0.024676941346462963 0 0.023231307634056033 0.023123069864101672 0 0.023699462303748021 0.023136891506649861 0 0.02432164757424693 0.022893415521280911 0 0.023370824319032531 0.024300671576734302 0 0.02451699519522044 0.024676941346462963 0 0.02437097771223359 0.02479104617739547 0 0.023280795475952108 0.023850271828385027 0 0.024269275575957757 0.023789068305013868 0 0.023358806866522586 0.024733758701856675 0 0.024351317604793886 0.024750881444506035 0 0.023699462303748021 0.023136891506649861 0 0.023969270072348437 0.023089458396076751 0 0.02432164757424693 0.022893415521280911 0 0.023699462303748021 0.023136891506649861 0 0.02381820781300506 0.023175513397448638 0 0.023969270072348437 0.023089458396076751 0 0.023666949498966246 0.023279032624322168 0 0.023699462303748021 0.023136891506649861 0 0.02381820781300506 0.023175513397448638 0 0.02381820781300506 0.023175513397448638 0 0.023969270072348437 0.023089458396076751 0 0.023936720176311498 0.023193495504789979 0 0.023969270072348437 0.023089458396076751 0 0.023936720176311498 0.023193495504789979 0 0.024168857242575142 0.023092571500064361 0 0.023936720176311498 0.023193495504789979 0 0.024168857242575142 0.023092571500064361 0 0.024169037730784045 0.023190706714788338 0 0.023666949498966246 0.023279032624322168 0 0.02381820781300506 0.023175513397448638 0 0.023936720176311498 0.023193495504789979 0 0.023666949498966246 0.023279032624322168 0 0.023936720176311498 0.023193495504789979 0 0.02387430172009233 0.023304557563783565 0 0.02432164757424693 0.022893415521280911 0 0.024168857242575142 0.023092571500064361 0 0.024503817868042805 0.023169989600107434 0 0.023969270072348437 0.023089458396076751 0 0.02432164757424693 0.022893415521280911 0 0.024168857242575142 0.023092571500064361 0 0.024168857242575142 0.023092571500064361 0 0.024169037730784045 0.023190706714788338 0 0.024503817868042805 0.023169989600107434 0 0.02432164757424693 0.022893415521280911 0 0.024999478713732943 0.023542228133688406 0 0.024503817868042805 0.023169989600107434 0 0.025000181335557023 0.024997763686893593 0 0.02451699519522044 0.024676941346462963 0 0.024998583509971917 0.023547768649416153 0 0.02451699519522044 0.024676941346462963 0 0.02437097771223359 0.02479104617739547 0 0.024998583509971917 0.023547768649416153 0 0.024269275575957757 0.023789068305013868 0 0.024999463822310157 0.023543787664911407 0 0.024999478713732943 0.023542228133688406 0 0.024741388225032156 0.023020217162798472 0 0.024999253878702152 0.022508234621710164 0 0.024999478713732943 0.023542228133688406 0 0.024741388225032156 0.023020217162798472 0 0.024503817868042805 0.023169989600107434 0 0.024741388225032156 0.023020217162798472 0 0.024311811503365657 0.023167032765531569 0 0.024503817868042805 0.023169989600107434 0 0.024741388225032156 0.023020217162798472 0 0.024999253878702152 0.022508234621710164 0 0.024528229537342926 0.022923266263203707 0 0.024741388225032156 0.023020217162798472 0 0.024311811503365657 0.023167032765531569 0 0.024528229537342926 0.022923266263203707 0 0.02387430172009233 0.023304557563783565 0 0.024311811503365657 0.023167032765531569 0 0.024169037730784045 0.023190706714788338 0 0.023936720176311498 0.023193495504789979 0 0.02387430172009233 0.023304557563783565 0 0.024169037730784045 0.023190706714788338 0 0.024311811503365657 0.023167032765531569 0 0.024169037730784045 0.023190706714788338 0 0.024503817868042805 0.023169989600107434 0 0.024311811503365657 0.023167032765531569 0 0.023996344494135988 0.023238094924003923 0 0.024528229537342926 0.022923266263203707 0 0.023567859938734264 0.023450811791333084 0 0.02387430172009233 0.023304557563783565 0 0.023996344494135988 0.023238094924003923 0 0.02387430172009233 0.023304557563783565 0 0.024311811503365657 0.023167032765531569 0 0.023996344494135988 0.023238094924003923 0 0.02361023637015025 0.023403262105770373 0 0.023996344494135988 0.023238094924003923 0 0.02407245697520901 0.02304371649948813 0 0.023996344494135988 0.023238094924003923 0 0.02407245697520901 0.02304371649948813 0 0.024528229537342926 0.022923266263203707 0 0.02407245697520901 0.02304371649948813 0 0.024528229537342926 0.022923266263203707 0 0.024667515128794962 0.022511536521984461 0 0.024999253878702152 0.022508234621710164 0 0.024667515128794962 0.022511536521984461 0 0.024999489637130588 0.021476086878547771 0 0.024999253878702152 0.022508234621710164 0 0.024528229537342926 0.022923266263203707 0 0.024667515128794962 0.022511536521984461 0 0.024667515128794962 0.022511536521984461 0 0.024999489637130588 0.021476086878547771 0 0.024037050011984432 0.023420061201523443 0 0.024999635123579441 0.021472750339410731 0 0.024664087964963215 0.022060331762962907 0 0.0255441002537714 0.020819670683149837 0 0.025550766674945782 0.020365545407520232 0 0.024999803454863027 0.019989742597013391 0 0.024999638279051852 0.021471222469117993 0 0.0255441002537714 0.020819670683149837 0 0.024999803454863027 0.019989742597013391 0 0.023560984278674663 0.023380184338836821 0 0.02407245697520901 0.02304371649948813 0 0.024037050011984432 0.023420061201523443 0 0.02407245697520901 0.02304371649948813 0 0.024667515128794962 0.022511536521984461 0 0.024037050011984432 0.023420061201523443 0 0.023560984278674663 0.023380184338836821 0 0.024037050011984432 0.023420061201523443 0 0.023078320483850414 0.023597969116150613 0 0.024037050011984432 0.023420061201523443 0 0.023078320483850414 0.023597969116150613 0 0.022934131509574424 0.023476414401850196 0 0.023078320483850414 0.023597969116150613 0 0.023022689065275007 0.02387996620188727 0 0.023252249895659792 0.023621201645469877 0 0.023078320483850414 0.023597969116150613 0 0.023252249895659792 0.023621201645469877 0 0.022934131509574424 0.023476414401850196 0 0.023010491262114137 0.023970782810932539 0 0.023022689065275007 0.02387996620188727 0 0.023252249895659792 0.023621201645469877 0 0.022958340904777774 0.023900134992179117 0 0.023078320483850414 0.023597969116150613 0 0.023022689065275007 0.02387996620188727 0 0.024455918571135514 0.021906250179746619 0 0.02428059561217747 0.022006721825651301 0 0.024354675689834741 0.021942075577702971 0 0.025414777524641153 0.020516829500465805 0 0.025127803493603905 0.020938365116230231 0 0.024354675689834741 0.021942075577702971 0 0.023252249895659792 0.023621201645469877 0 0.022934131509574424 0.023476414401850196 0 0.025414777524641153 0.020516829500465805 0 0.025550766674945782 0.020365545407520232 0 0.025127803493603905 0.020938365116230231 0 0.024664087964963215 0.022060331762962907 0 0.02428059561217747 0.022006721825651301 0 0.0255441002537714 0.020819670683149837 0 0.025414777524641153 0.020516829500465805 0 0.025550766674945782 0.020365545407520232 0 0.025550766674945782 0.020365545407520232 0 0.02548264215350687 0.020236030174567703 0 0.025438379253754414 0.019632223933353527 0 0.025550766674945782 0.020365545407520232 0 0.02548264215350687 0.020236030174567703 0 0.025127803493603905 0.020938365116230231 0 0.02548264215350687 0.020236030174567703 0 0.025127803493603905 0.020938365116230231 0 0.025471369521080783 0.020349813352213766 0 0.025239432173679695 0.020762680429315762 0 0.025127803493603905 0.020938365116230231 0 0.025471369521080783 0.020349813352213766 0 0.026160473195209786 0.019336286376356995 0 0.025239432173679695 0.020762680429315762 0 0.025471369521080783 0.020349813352213766 0 0.026160473195209786 0.019336286376356995 0 0.025471369521080783 0.020349813352213766 0 0.02568362848168006 0.019878853505672849 0 0.02548264215350687 0.020236030174567703 0 0.025471369521080783 0.020349813352213766 0 0.02568362848168006 0.019878853505672849 0 0.026160473195209786 0.019336286376356995 0 0.02568362848168006 0.019878853505672849 0 0.025675994872308528 0.019475443713736003 0 0.02556117339487601 0.018757275247741772 0 0.025675994872308528 0.019475443713736003 0 0.025438379253754414 0.019632223933353527 0 0.02548264215350687 0.020236030174567703 0 0.025675994872308528 0.019475443713736003 0 0.025438379253754414 0.019632223933353527 0 0.02548264215350687 0.020236030174567703 0 0.02568362848168006 0.019878853505672849 0 0.025675994872308528 0.019475443713736003 0 0.025550766674945782 0.020365545407520232 0 0.025438379253754414 0.019632223933353527 0 0.024999803454863027 0.019989742597013391 0 0.024999500355546773 0.018506731866649116 0 0.025438379253754414 0.019632223933353527 0 0.024999803454863027 0.019989742597013391 0 0.0079959045518455656 0.024162301181258651 0 0.0067385359840533409 0.023420929279395937 0 0.007557434204585314 0.024627150668573145 0 0.0084052889170257977 0.024306959076622808 0 0.0066475652582360812 0.023313728014844413 0 0.0083652652942149842 0.023588581789159735 0 0.0076332268841704338 0.0227114541081169 0 0.0067385359840533409 0.023420929279395937 0 0.0083652652942149842 0.023588581789159735 0 0.0076332268841704338 0.0227114541081169 0 0.0087375722036803632 0.022852153391500419 0 0.0089396626116700108 0.016818497696248352 0 0.0082224363343192611 0.017160946330328598 0 0.008974815308042762 0.012012256153005753 0 0.0090355663729069953 0.011677813614785088 0 0.008990144547797254 0.011645188375171278 0 0.0076332268841704338 0.0227114541081169 0 0.0087375722036803632 0.022852153391500419 0 0.0076545137936631031 0.021614560025660815 0 0.0076332268841704338 0.0227114541081169 0 0.0067385359840533409 0.023420929279395937 0 0.0063147149124874683 0.021707874242186103 0 0.0076332268841704338 0.0227114541081169 0 0.0076545137936631031 0.021614560025660815 0 0.0063147149124874683 0.021707874242186103 0 0.0057574345730535591 0.023040511735299928 0 0.0067385359840533409 0.023420929279395937 0 0.0063147149124874683 0.021707874242186103 0 0.0053238347128006756 0.022241234264886653 0 0.0057574345730535591 0.023040511735299928 0 0.0063147149124874683 0.021707874242186103 0 0.0053238347128006756 0.022241234264886653 0 0.0057574345730535591 0.023040511735299928 0 0.0049527619065671243 0.023036448872935031 0 0.0057574345730535591 0.023040511735299928 0 0.0052760861284104127 0.023688773558519945 0 0.0059603267759140094 0.02406681712183318 0 0.0057574345730535591 0.023040511735299928 0 0.0052760861284104127 0.023688773558519945 0 0.0049527619065671243 0.023036448872935031 0 0.0057574345730535591 0.023040511735299928 0 0.0067385359840533409 0.023420929279395937 0 0.0059603267759140094 0.02406681712183318 0 0.0067385359840533409 0.023420929279395937 0 0.0059603267759140094 0.02406681712183318 0 0.0070043612324075582 0.025016409981654074 0 0.0059603267759140094 0.02406681712183318 0 0.0057402394808486181 0.024907020198459667 0 0.0070043612324075582 0.025016409981654074 0 0.0059603267759140094 0.02406681712183318 0 0.0057402394808486181 0.024907020198459667 0 0.0050198843086090017 0.024344920827246562 0 0.0057402394808486181 0.024907020198459667 0 0.0050198843086090017 0.024344920827246562 0 0.0044334387240300612 0.024834743930177504 0 0.0052760861284104127 0.023688773558519945 0 0.0059603267759140094 0.02406681712183318 0 0.0050198843086090017 0.024344920827246562 0 0.0064149101069978206 0.02577245922788823 0 0.0066657914440873814 0.026200737496707243 0 0.0061996139235545407 0.026269641702764079 0 0.0058873336006668763 0.025274651484952428 0 0.0060216909204629685 0.025858504814454793 0 0.0064149101069978206 0.02577245922788823 0 0.0057557588999979032 0.025763811651000969 0 0.0061996139235545407 0.026269641702764079 0 0.0064149101069978206 0.02577245922788823 0 0.0066657914440873814 0.026200737496707243 0 0.0071935363315939636 0.025542507124585032 0 0.0058873336006668763 0.025274651484952428 0 0.0071753447985920425 0.025282081910786732 0 0.0066657914440873814 0.026200737496707243 0 0.0071935363315939636 0.025542507124585032 0 0.0075514933469004123 0.02593252627419932 0 0.0067385359840533409 0.023420929279395937 0 0.0070043612324075582 0.025016409981654074 0 0.007557434204585314 0.024627150668573145 0 0.0070043612324075582 0.025016409981654074 0 0.007557434204585314 0.024627150668573145 0 0.0080004055734487784 0.025187036688934253 0 0.0079959045518455656 0.024162301181258651 0 0.007557434204585314 0.024627150668573145 0 0.0083174015952837913 0.024726699154626459 0 0.007557434204585314 0.024627150668573145 0 0.0080004055734487784 0.025187036688934253 0 0.0083174015952837913 0.024726699154626459 0 0.0071753447985920425 0.025282081910786732 0 0.007950326642240043 0.025211858501400057 0 0.0071935363315939636 0.025542507124585032 0 0.0080004055734487784 0.025187036688934253 0 0.0075514933469004123 0.02593252627419932 0 0.0080004055734487784 0.025187036688934253 0 0.0086084450499097891 0.025420304781556245 0 0.0085010621543961801 0.02595355862669825 0 0.0080004055734487784 0.025187036688934253 0 0.0084244826477369392 0.025042490070811382 0 0.0086084450499097891 0.025420304781556245 0 0.0084244826477369392 0.025042490070811382 0 0.0086084450499097891 0.025420304781556245 0 0.0087370834254945681 0.024849992450171828 0 0.0086084450499097891 0.025420304781556245 0 0.0091178518650320388 0.025531507281707048 0 0.0087370834254945681 0.024849992450171828 0 0.0085880669096455326 0.024607897200181583 0 0.0087370834254945681 0.024849992450171828 0 0.0083635771859918266 0.024762857409270266 0 0.0089209130159526827 0.025064903538782685 0 0.008737173229901949 0.024863606985362101 0 0.0083307791716087272 0.0213940360828133 0 0.0079173759283551939 0.018055497678372362 0 0.0087863101623576415 0.024768012491838187 0 0.0087370834254945681 0.024849992450171828 0 0.0083635771859918266 0.024762857409270266 0 0.0079959045518455656 0.024162301181258651 0 0.0087863101623576415 0.024768012491838187 0 0.0083174015952837913 0.024726699154626459 0 0.0087863101623576415 0.024768012491838187 0 0.0087370834254945681 0.024849992450171828 0 0.0083174015952837913 0.024726699154626459 0 0.0084052889170257977 0.024306959076622808 0 0.0083307791716087272 0.0213940360828133 0 0.0080004055734487784 0.025187036688934253 0 0.0084244826477369392 0.025042490070811382 0 0.0083174015952837913 0.024726699154626459 0 0.0084244826477369392 0.025042490070811382 0 0.0087370834254945681 0.024849992450171828 0 0.0083174015952837913 0.024726699154626459 0 -0.00019722254467842887 0.024693818543134464 0 0.0028533491450829893 0.024735118342047595 0 0.0076241125902349362 0.024126768023659168 0 0.0028533491450829893 0.024735118342047595 0 0.0052062026481011769 0.022882943706356681 0 0.0055184596794499345 0.022877179341218738 0 0.0052810756038918286 0.022341078803608663 0 0.0055184596794499345 0.022877179341218738 0 0.0058476416381644187 0.022825892864058353 0 0.0052810756038918286 0.022341078803608663 0 0.0019887282666945379 0.022658795067016554 0 0.0013929237739098487 0.021665964140602144 0 0.0021191152415815681 0.021851166104070605 0 0.0052062026481011769 0.022882943706356681 0 0.0055184596794499345 0.022877179341218738 0 0.0053700769627193917 0.023123592966138338 0 -0.00019722254467842887 0.024693818543134464 0 0.0048097576371904874 0.01950752709845675 0 -0.00019722254467842887 0.024693818543134464 0 -0.00030830267523813737 0.023209028535139769 0 0.0055184596794499345 0.022877179341218738 0 0.0058476416381644187 0.022825892864058353 0 0.0058988016090374944 0.023234995695663022 0 0.0085880669096455326 0.024607897200181583 0 0.0083635771859918266 0.024762857409270266 0 0.0083389632061077745 0.024484219763020579 0 0.0064459660440716448 0.023334511257457585 0 0.0058476416381644187 0.022825892864058353 0 0.0058988016090374944 0.023234995695663022 0 0.0083307791716087272 0.0213940360828133 0 0.0076241125902349362 0.024126768023659168 0 0.0092670443677951263 0.012572999314996121 0 0.0095984501082588321 0.012695136280983581 0 0.0094804667895587533 0.012404313706884001 0 0.0096656378946616932 0.012501269994966611 0 0.0095984501082588321 0.012695136280983581 0 0.0094804667895587533 0.012404313706884001 0 0.0096656378946616932 0.012501269994966611 0 0.0095984501082588321 0.012695136280983581 0 0.0097949544931191686 0.012633020411532003 0 0.0018902907404712947 0.017814894501566196 0 0.0017004270508336173 0.017780331845318732 0 0.0016161839522315757 0.018205821306974384 0 0.0095984501082588321 0.012695136280983581 0 0.0097949544931191686 0.012633020411532003 0 0.0099166718386621035 0.012831898115882279 0 0.0055184596794499345 0.022877179341218738 0 0.0058988016090374944 0.023234995695663022 0 0.0053700769627193917 0.023123592966138338 0 0.0079173759283551939 0.018055497678372362 0 0.0048097576371904874 0.01950752709845675 0 0.0074130736152211597 0.014213189245131631 0 0.0048097576371904874 0.01950752709845675 0 0.0098286356177049172 0.012621498539403099 0 0.0097949544931191686 0.012633020411532003 0 0.0099166718386621035 0.012831898115882279 0 0.0096656378946616932 0.012501269994966611 0 0.0098369993872773082 0.012613334457879273 0 0.0097949544931191686 0.012633020411532003 0 0.0074130736152211597 0.014213189245131631 0 0.0077486274455655342 0.014049012310353839 0 0.0020460334003883037 0.018033117661007968 0 0.0018902907404712947 0.017814894501566196 0 0.0016161839522315757 0.018205821306974384 0 0.0074130736152211597 0.014213189245131631 0 -0.0022246386821736463 0.01646916759236703 0 0.0048097576371904874 0.01950752709845675 0 -0.00030830267523813737 0.023209028535139769 0 0.0084627505727330847 0.01099298215416317 0 0.0084472165042282325 0.011115914896801256 0 0.0083186110086549379 0.01105056707348529 0 0.0084627505727330847 0.01099298215416317 0 0.0084472165042282325 0.011115914896801256 0 0.008618110678211912 0.011096867834355741 0 0.0096233272811675589 0.012158951781636586 0 0.0094804667895587533 0.012404313706884001 0 0.0092650266225368927 0.012102235962693256 0 0.0096656378946616932 0.012501269994966611 0 0.0098369993872773082 0.012613334457879273 0 0.0096233272811675589 0.012158951781636586 0 0.0074130736152211597 0.014213189245131631 0 0.0091293200520931803 0.01136716827410842 0 0.0096656378946616932 0.012501269994966611 0 0.0096233272811675589 0.012158951781636586 0 0.0094804667895587533 0.012404313706884001 0 0.008618110678211912 0.011096867834355741 0 0.008526571384120692 0.011211205617352445 0 0.0088116082716575127 0.011223724541502023 0 0.0091293200520931803 0.01136716827410842 0 0.0091114135368369799 0.011557156514085176 0 0.0084472165042282325 0.011115914896801256 0 0.008526571384120692 0.011211205617352445 0 0.0083204173769405431 0.011229430380017766 0 0.0084472165042282325 0.011115914896801256 0 0.008618110678211912 0.011096867834355741 0 0.008526571384120692 0.011211205617352445 0 0.0083652652942149842 0.023588581789159735 0 0.0096776244612892352 0.02382607226151336 0 0.0087375722036803632 0.022852153391500419 0 0.0092670443677951263 0.012572999314996121 0 0.0092650266225368927 0.012102235962693256 0 0.008974815308042762 0.012012256153005753 0 0.0083307791716087272 0.0213940360828133 0 0.0089396626116700108 0.016818497696248352 0 0.0092670443677951263 0.012572999314996121 0 0.0094804667895587533 0.012404313706884001 0 0.0092650266225368927 0.012102235962693256 0 0.0092650266225368927 0.012102235962693256 0 0.0093720775764591872 0.011779938803822989 0 0.0090355663729069953 0.011677813614785088 0 0.0096233272811675589 0.012158951781636586 0 0.0092650266225368927 0.012102235962693256 0 0.0093720775764591872 0.011779938803822989 0 0.0092650266225368927 0.012102235962693256 0 0.008974815308042762 0.012012256153005753 0 0.0090355663729069953 0.011677813614785088 0 0.0090355663729069953 0.011677813614785088 0 0.0090768931692422651 0.011468012637959081 0 0.009079322131375217 0.011509746068192482 0 0.0093720775764591872 0.011779938803822989 0 0.0090355663729069953 0.011677813614785088 0 0.0090768931692422651 0.011468012637959081 0 0.0088116082716575127 0.011223724541502023 0 0.0090768931692422651 0.011468012637959081 0 0.0088069516509075713 0.011464991341722209 0 0.0091114135368369799 0.011557156514085176 0 0.0090750526949774091 0.011465055774421846 0 0.0090768931692422651 0.011468012637959081 0 0.0088069516509075713 0.011464991341722209 0 0.0089042106086759162 0.011560432563309268 0 0.0090768931692422651 0.011468012637959081 0 0.009075001949390352 0.011507807825295459 0 0.009079322131375217 0.011509746068192482 0 0.008526571384120692 0.011211205617352445 0 0.0085501581386464819 0.011390450573530646 0 0.0083204173769405431 0.011229430380017766 0 0.0088116082716575127 0.011223724541502023 0 0.0088069516509075713 0.011464991341722209 0 0.0085501581386464819 0.011390450573530646 0 0.008526571384120692 0.011211205617352445 0 0.0088116082716575127 0.011223724541502023 0 0.0085501581386464819 0.011390450573530646 0 0.0088069516509075713 0.011464991341722209 0 0.0085501581386464819 0.011390450573530646 0 0.0086915183520951123 0.011563557089925739 0 0.0085501581386464819 0.011390450573530646 0 0.0084525242108085888 0.011549072235407916 0 0.0083140484595601392 0.011441058016059581 0 0.0085501581386464819 0.011390450573530646 0 0.0084525242108085888 0.011549072235407916 0 0.0086915183520951123 0.011563557089925739 0 0.0088069516509075713 0.011464991341722209 0 0.0086915183520951123 0.011563557089925739 0 0.0089042106086759162 0.011560432563309268 0 0.0086915183520951123 0.011563557089925739 0 0.008799649156646501 0.011690595050328897 0 0.0089042106086759162 0.011560432563309268 0 0.0085805627353502806 0.011761314226800931 0 0.0086915183520951123 0.011563557089925739 0 0.008799649156646501 0.011690595050328897 0 0.0085805627353502806 0.011761314226800931 0 0.0084525242108085888 0.011549072235407916 0 0.0086915183520951123 0.011563557089925739 0 0.0090768931692422651 0.011468012637959081 0 0.009075001949390352 0.011507807825295459 0 0.0089042106086759162 0.011560432563309268 0 0.0089784365770787019 0.011719468595894648 0 0.008799649156646501 0.011690595050328897 0 0.0089042106086759162 0.011560432563309268 0 0.0089784365770787019 0.011719468595894648 0 0.009075001949390352 0.011507807825295459 0 0.0091788240467342973 0.011577753764380506 0 0.0089784365770787019 0.011719468595894648 0 0.009075001949390352 0.011507807825295459 0 0.0089042106086759162 0.011560432563309268 0 0.0091788240467342973 0.011577753764380506 0 0.0091807338068875463 0.011402174333355952 0 0.0095421267828424867 0.011595030964713034 0 0.0092341860350819722 0.011759851644926966 0 0.0091788240467342973 0.011577753764380506 0 0.0095421267828424867 0.011595030964713034 0 0.0091807338068875463 0.011402174333355952 0 0.0095982870354699885 0.011383181091865929 0 0.0095421267828424867 0.011595030964713034 0 0.0095152504243084454 0.010956803703117343 0 0.0089160495617615822 0.013310962069882609 0 0.009075001949390352 0.011507807825295459 0 0.0091788240467342973 0.011577753764380506 0 0.0091807338068875463 0.011402174333355952 0 0.009075001949390352 0.011507807825295459 0 0.0091807338068875463 0.011402174333355952 0 0.009079322131375217 0.011509746068192482 0 0.0091807338068875463 0.011402174333355952 0 0.009079322131375217 0.011509746068192482 0 0.008990144547797254 0.011645188375171278 0 0.0091807338068875463 0.011402174333355952 0 0.008990144547797254 0.011645188375171278 0 0.0089724132969574797 0.011498420808205552 0 0.0082224363343192611 0.017160946330328598 0 0.0089160495617615822 0.013310962069882609 0 0.0090355663729069953 0.011677813614785088 0 0.009079322131375217 0.011509746068192482 0 0.008990144547797254 0.011645188375171278 0 0.0053238347128006756 0.022241234264886653 0 0.0063147149124874683 0.021707874242186103 0 0.0049968634669883888 0.021521909918393409 0 0.0063147149124874683 0.021707874242186103 0 0.005360467269107585 0.0208472128938746 0 0.0049968634669883888 0.021521909918393409 0 0.0076545137936631031 0.021614560025660815 0 0.0063147149124874683 0.021707874242186103 0 0.0064703489715776689 0.02029749655577847 0 0.0063147149124874683 0.021707874242186103 0 0.0064703489715776689 0.02029749655577847 0 0.005360467269107585 0.0208472128938746 0 0.0089160495617615822 0.013310962069882609 0 0.0074071427706827167 0.016760769737132974 0 0.01064139355733674 0.011735390708680096 0 0.010395622734317551 0.011866025272435236 0 0.010430068452515177 0.011486053183855479 0 0.010395622734317551 0.011866025272435236 0 0.010430068452515177 0.011486053183855479 0 0.010328844846664999 0.011595691898893189 0 0.0096219491603258111 0.011083072807332625 0 0.0099338804638290767 0.011303246054915814 0 0.0095982870354699885 0.011383181091865929 0 0.0091807338068875463 0.011402174333355952 0 0.0096219491603258111 0.011083072807332625 0 0.0095982870354699885 0.011383181091865929 0 0.0089160495617615822 0.013310962069882609 0 0.010212020774674242 0.01124536459269582 0 0.0095982870354699885 0.011383181091865929 0 0.0095421267828424867 0.011595030964713034 0 0.0098977095363142215 0.011533647279853143 0 0.0099946965302523203 0.011769061142577295 0 0.0098977095363142215 0.011533647279853143 0 0.010326950091383316 0.011517614129360953 0 0.0099338804638290767 0.011303246054915814 0 0.0098977095363142215 0.011533647279853143 0 0.010326950091383316 0.011517614129360953 0 0.0099338804638290767 0.011303246054915814 0 0.0095982870354699885 0.011383181091865929 0 0.0098977095363142215 0.011533647279853143 0 0.010212020774674242 0.01124536459269582 0 0.010338731552454791 0.01155687578452586 0 0.010430068452515177 0.011486053183855479 0 0.010326950091383316 0.011517614129360953 0 0.01035671953467647 0.011407915011027621 0 0.010591859690438826 0.011561929931600774 0 0.01035671953467647 0.011407915011027621 0 0.010776865096159518 0.011047425789967025 0 0.0099946965302523203 0.011769061142577295 0 0.010326950091383316 0.011517614129360953 0 0.010591859690438826 0.011561929931600774 0 0.010326950091383316 0.011517614129360953 0 0.010591859690438826 0.011561929931600774 0 0.01035671953467647 0.011407915011027621 0 0.01035671953467647 0.011407915011027621 0 0.010328844846664999 0.011595691898893189 0 0.010162976424271096 0.011683528200010795 0 0.01029430376849865 0.011702419332323464 0 0.010486639558444975 0.010376007825198843 0 0.01035671953467647 0.011407915011027621 0 0.010776865096159518 0.011047425789967025 0 0.010476429778623071 0.010710898399003821 0 0.010430068452515177 0.011486053183855479 0 0.01035671953467647 0.011407915011027621 0 0.010328844846664999 0.011595691898893189 0 0.010591859690438826 0.011561929931600774 0 0.010776865096159518 0.011047425789967025 0 0.011498487185388021 0.011047442740706896 0 0.010776865096159518 0.011047425789967025 0 0.011498487185388021 0.011047442740706896 0 0.010942436313311885 0.010431197263141543 0 0.01383266530438634 0.0076856380300944537 0 0.014445017588689851 0.0073447459061121434 0 0.017091611677180336 0.0037409535415187331 0 0.017377153963776606 0.0038762201701447022 0 0.017480747466275121 0.0039833755986966373 0 0.017471653046143742 0.0039503419770123881 0 0.017377153963776606 0.0038762201701447022 0 0.0174440655558535 0.0039363550437840475 0 0.017377153963776606 0.0038762201701447022 0 0.0174440655558535 0.0039363550437840475 0 0.017480747466275121 0.0039833755986966373 0 0.017556752872509487 0.0038985114360992109 0 0.017471653046143742 0.0039503419770123881 0 0.0174440655558535 0.0039363550437840475 0 0.0174440655558535 0.0039363550437840475 0 0.017480747466275121 0.0039833755986966373 0 0.017280792971116406 0.0042318824305404481 0 0.011498487185388021 0.011047442740706896 0 0.011628199872248602 0.010135478581967911 0 0.010942436313311885 0.010431197263141543 0 0.014445017588689851 0.0073447459061121434 0 0.015223118081356804 0.0085974260922803587 0 0.011498487185388021 0.011047442740706896 0 0.012426914370844358 0.01038620617590481 0 0.011628199872248602 0.010135478581967911 0 0.017480747466275121 0.0039833755986966373 0 0.017293934631542145 0.0045661245703716054 0 0.017280792971116406 0.0042318824305404481 0 0.015223118081356804 0.0085974260922803587 0 0.011920200926859822 0.013562153026991304 0 0.013411905939462459 0.015900006270034118 0 0.011056858260590456 0.019567768418030439 0 0.013378331285464947 0.017056982973667745 0 0.013389187496736298 0.016715623717843402 0 0.012431018638883216 0.016811525901897856 0 0.013389187496736298 0.016715623717843402 0 0.012431018638883216 0.016811525901897856 0 0.012689352316919429 0.015923800538565673 0 0.011920200926859822 0.013562153026991304 0 0.0098826314615837949 0.016562408010662725 0 0.012431018638883216 0.016811525901897856 0 0.011456330612178005 0.016472309042874601 0 0.012689352316919429 0.015923800538565673 0 0.011628199872248602 0.010135478581967911 0 0.010869493820758826 0.0099188238980290454 0 0.010942436313311885 0.010431197263141543 0 0.010869493820758826 0.0099188238980290454 0 0.010570167595567248 0.010063295386957606 0 0.010942436313311885 0.010431197263141543 0 0.0092637868415979246 0.020327012496295479 0 0.0096081452401762784 0.020456837998632352 0 0.0089744973261392472 0.020946914547566847 0 0.0098826314615837949 0.016562408010662725 0 0.0083520016233077522 0.015218551055130336 0 0.0083764838502424655 0.017159656489342628 0 0.0077697519461479994 0.016942766001349353 0 0.0076984945896015951 0.01746994931955214 0 0.0098826314615837949 0.016562408010662725 0 0.0068732899617546025 0.020163091088909624 0 0.004230904778351737 0.021750400548414005 0 0.0049968634669883888 0.021521909918393409 0 0.0042869974108085754 0.02136135809094197 0 0.0053238347128006756 0.022241234264886653 0 0.004230904778351737 0.021750400548414005 0 0.0049968634669883888 0.021521909918393409 0 0.005360467269107585 0.0208472128938746 0 0.0049968634669883888 0.021521909918393409 0 0.0042869974108085754 0.02136135809094197 0 0.0074071427706827167 0.016760769737132974 0 0.0083520016233077522 0.015218551055130336 0 0.0068732899617546025 0.020163091088909624 0 0.0083520016233077522 0.015218551055130336 0 0.0083520016233077522 0.015218551055130336 0 0.010486639558444975 0.010376007825198843 0 0.010395622734317551 0.011866025272435236 0 0.010328844846664999 0.011595691898893189 0 0.010162976424271096 0.011683528200010795 0 0.010395622734317551 0.011866025272435236 0 0.010076650218038382 0.012053615087637054 0 0.010162976424271096 0.011683528200010795 0 0.010776865096159518 0.011047425789967025 0 0.010476429778623071 0.010710898399003821 0 0.010942436313311885 0.010431197263141543 0 0.010570167595567248 0.010063295386957606 0 0.010476429778623071 0.010710898399003821 0 0.010942436313311885 0.010431197263141543 0 0.019513983904562514 0.014499122989542809 0 0.020551028076650924 0.015470738331489736 0 0.019339722925745505 0.01619802029574962 0 0.022413848402920395 0.0085343435539358484 0 0.020167641692429145 0.0086104760125628923 0 0.02114445300091676 0.0027295744928049941 0 0.020023950499199413 0.0027128823978314212 0 0.019841230720159458 0.0019999048725098004 0 0.020942830966077099 0.0028820259539874089 0 0.02114445300091676 0.0027295744928049941 0 0.020023950499199413 0.0027128823978314212 0 0.022786362664505195 0.007306600864678177 0 0.022413848402920395 0.0085343435539358484 0 0.020942830966077099 0.0028820259539874089 0 0.02122229205786447 0.0026695372713012554 0 0.021447509983771769 0.0039455571410231703 0 0.020942830966077099 0.0028820259539874089 0 0.021447509983771769 0.0039455571410231703 0 0.020203552783009296 0.0037128270695522951 0 0.020942830966077099 0.0028820259539874089 0 0.020203552783009296 0.0037128270695522951 0 0.020023950499199413 0.0027128823978314212 0 0.020203552783009296 0.0037128270695522951 0 0.01915178885507348 0.003231570186788111 0 0.020023950499199413 0.0027128823978314212 0 0.018638925855104956 0.0044539983179662356 0 0.020203552783009296 0.0037128270695522951 0 0.01915178885507348 0.003231570186788111 0 0.01915178885507348 0.003231570186788111 0 0.020023950499199413 0.0027128823978314212 0 0.018994356888527686 0.0022828981415728409 0 0.020023950499199413 0.0027128823978314212 0 0.018994356888527686 0.0022828981415728409 0 0.019841230720159458 0.0019999048725098004 0 0.01915178885507348 0.003231570186788111 0 0.018994356888527686 0.0022828981415728409 0 0.01802724666803476 0.0026839921914464404 0 0.01915178885507348 0.003231570186788111 0 0.018265109782840201 0.0036741508495324749 0 0.01802724666803476 0.0026839921914464404 0 0.018638925855104956 0.0044539983179662356 0 0.01915178885507348 0.003231570186788111 0 0.018265109782840201 0.0036741508495324749 0 0.017556752872509487 0.0038985114360992109 0 0.0174440655558535 0.0039363550437840475 0 0.017056476526248626 0.0040496272882655894 0 0.017348089293464736 0.0044374033997441366 0 0.017787255572112418 0.0019614534360237034 0 0.017556752872509487 0.0038985114360992109 0 0.018265109782840201 0.0036741508495324749 0 0.01802724666803476 0.0026839921914464404 0 0.0174440655558535 0.0039363550437840475 0 0.017056476526248626 0.0040496272882655894 0 0.017280792971116406 0.0042318824305404481 0 0.017056476526248626 0.0040496272882655894 0 0.017280792971116406 0.0042318824305404481 0 0.017035234836970715 0.0046095339690774596 0 0.017502513850259707 0.0048404496717878885 0 0.017035234836970715 0.0046095339690774596 0 0.016839833764531246 0.0053810888108877875 0 0.017293934631542145 0.0045661245703716054 0 0.017280792971116406 0.0042318824305404481 0 0.017035234836970715 0.0046095339690774596 0 0.015223118081356804 0.0085974260922803587 0 0.016774638400621329 0.0058435002806977729 0 0.013389187496736298 0.016715623717843402 0 0.013816711209778005 0.01664932021139379 0 0.013319899232595276 0.016418601420635871 0 0.014623255325515694 0.017467020065285999 0 0.011518627207236934 0.023698086556024869 0 0.015223118081356804 0.0085974260922803587 0 0.014623255325515694 0.017467020065285999 0 0.013378331285464947 0.017056982973667745 0 0.013389187496736298 0.016715623717843402 0 0.013816711209778005 0.01664932021139379 0 0.017308430250646933 0.018080218369747807 0 0.015133878849215351 0.016340557859862936 0 0.01480967694587397 0.020048915567931584 0 0.015133878849215351 0.016340557859862936 0 0.012311981738275798 0.022023952754216411 0 0.01480967694587397 0.020048915567931584 0 0.014623255325515694 0.017467020065285999 0 0.018027714310012669 0.0099828249478525807 0 0.014623255325515694 0.017467020065285999 0 0.012611275195628492 0.025275816867216794 0 0.017056476526248626 0.0040496272882655894 0 0.017035234836970715 0.0046095339690774596 0 0.016416579837458912 0.0049553376160523261 0 0.017035234836970715 0.0046095339690774596 0 0.016839833764531246 0.0053810888108877875 0 0.016416579837458912 0.0049553376160523261 0 0.017787255572112418 0.0019614534360237034 0 0.018027714310012669 0.0099828249478525807 0 0.018994356888527686 0.0022828981415728409 0 0.01802724666803476 0.0026839921914464404 0 0.018749928270650265 0.0012894648608589594 0 0.021698514174538799 0.016408272785076217 0 0.020551028076650924 0.015470738331489736 0 0.020316500565765408 0.01676777040344837 0 0.018994356888527686 0.0022828981415728409 0 0.018749928270650265 0.0012894648608589594 0 0.019841230720159458 0.0019999048725098004 0 0.018027714310012669 0.0099828249478525807 0 0.020167641692429145 0.0086104760125628923 0 0.021698514174538799 0.016408272785076217 0 0.020316500565765408 0.01676777040344837 0 0.020640200291931737 0.018383539951423195 0 0.018027714310012669 0.0099828249478525807 0 0.015476161094144011 0.024065556991160839 0 0.020316500565765408 0.01676777040344837 0 0.019333676227805525 0.017612885951654982 0 0.020640200291931737 0.018383539951423195 0 0.020316500565765408 0.01676777040344837 0 0.019333676227805525 0.017612885951654982 0 0.019339722925745505 0.01619802029574962 0 0.020551028076650924 0.015470738331489736 0 0.020316500565765408 0.01676777040344837 0 0.019339722925745505 0.01619802029574962 0 0.017450653031854165 0.023161208893476504 0 0.015476161094144011 0.024065556991160839 0 0.014877036629434097 0.027403696142835009 0 0.014024700670510034 0.027678058175681437 0 0.014133399235578589 0.026768747138446451 0 0.018668870891780303 0.018463971537798399 0 0.019333676227805525 0.017612885951654982 0 0.019463034823123788 0.019251949317251417 0 0.019333676227805525 0.017612885951654982 0 0.019463034823123788 0.019251949317251417 0 0.020640200291931737 0.018383539951423195 0 0.015476161094144011 0.024065556991160839 0 0.013499293564982764 0.028476202749034361 0 0.015476161094144011 0.024065556991160839 0 0.012611275195628492 0.025275816867216794 0 0.013461322455248526 0.02874418644123675 0 0.013081395773850285 0.027925075760525095 0 0.012469595402241535 0.028521213819852131 0 0.014877036629434097 0.027403696142835009 0 0.013801332045941533 0.028168601961069767 0 0.014024700670510034 0.027678058175681437 0 0.013081395773850285 0.027925075760525095 0 0.014024700670510034 0.027678058175681437 0 0.013223680738825367 0.027112012031786051 0 0.013081395773850285 0.027925075760525095 0 0.013223680738825367 0.027112012031786051 0 0.012224739690107293 0.027664295729517153 0 0.013461322455248526 0.02874418644123675 0 0.013081395773850285 0.027925075760525095 0 0.014024700670510034 0.027678058175681437 0 0.014024700670510034 0.027678058175681437 0 0.013223680738825367 0.027112012031786051 0 0.014133399235578589 0.026768747138446451 0 0.011733997172632037 0.027122463423786033 0 0.012224739690107293 0.027664295729517153 0 0.012417320078092164 0.02667297575021204 0 0.013223680738825367 0.027112012031786051 0 0.012224739690107293 0.027664295729517153 0 0.012417320078092164 0.02667297575021204 0 0.011733997172632037 0.027122463423786033 0 0.012224739690107293 0.027664295729517153 0 0.010974422624676638 0.027607490644733588 0 0.012224739690107293 0.027664295729517153 0 0.011296687181336446 0.028733112986230339 0 0.010974422624676638 0.027607490644733588 0 0.013081395773850285 0.027925075760525095 0 0.012224739690107293 0.027664295729517153 0 0.012469595402241535 0.028521213819852131 0 0.011268292417672918 0.03027757883543377 0 0.012312657384659517 0.029533694461207748 0 0.011296687181336446 0.028733112986230339 0 0.013461322455248526 0.02874418644123675 0 0.012469595402241535 0.028521213819852131 0 0.012312657384659517 0.029533694461207748 0 0.012469595402241535 0.028521213819852131 0 0.012312657384659517 0.029533694461207748 0 0.011296687181336446 0.028733112986230339 0 0.012224739690107293 0.027664295729517153 0 0.012469595402241535 0.028521213819852131 0 0.011296687181336446 0.028733112986230339 0 0.011268292417672918 0.03027757883543377 0 0.011296687181336446 0.028733112986230339 0 0.0097562001997705521 0.02920487787222063 0 0.011296687181336446 0.028733112986230339 0 0.0097562001997705521 0.02920487787222063 0 0.0099556460269302049 0.028201092381916006 0 0.010974422624676638 0.027607490644733588 0 0.010304724459862745 0.026632874932203246 0 0.0095373266087294285 0.027327268917605625 0 0.010974422624676638 0.027607490644733588 0 0.0099556460269302049 0.028201092381916006 0 0.0095373266087294285 0.027327268917605625 0 0.011296687181336446 0.028733112986230339 0 0.010974422624676638 0.027607490644733588 0 0.0099556460269302049 0.028201092381916006 0 0.011733997172632037 0.027122463423786033 0 0.010974422624676638 0.027607490644733588 0 0.011329299463894911 0.026541520243035917 0 0.010974422624676638 0.027607490644733588 0 0.010304724459862745 0.026632874932203246 0 0.011329299463894911 0.026541520243035917 0 0.010304724459862745 0.026632874932203246 0 0.011329299463894911 0.026541520243035917 0 0.01097009628425598 0.02583662306194039 0 0.010304724459862745 0.026632874932203246 0 0.01097009628425598 0.02583662306194039 0 0.010040580997459565 0.025850082282605252 0 0.010456517725570789 0.025157111226522651 0 0.011454949770330791 0.024530685399846153 0 0.0096271968795371924 0.024330568279222052 0 0.010040580997459565 0.025850082282605252 0 0.010456517725570789 0.025157111226522651 0 0.0092724331259595449 0.025573343316358497 0 0.01097009628425598 0.02583662306194039 0 0.010040580997459565 0.025850082282605252 0 0.010456517725570789 0.025157111226522651 0 0.010456517725570789 0.025157111226522651 0 0.011517986727577449 0.025149619939185467 0 0.011454949770330791 0.024530685399846153 0 0.01097009628425598 0.02583662306194039 0 0.010456517725570789 0.025157111226522651 0 0.011517986727577449 0.025149619939185467 0 0.011454949770330791 0.024530685399846153 0 0.012608473683573408 0.025089756656455693 0 0.013390021825388907 0.024077334630198621 0 0.01097009628425598 0.02583662306194039 0 0.011517986727577449 0.025149619939185467 0 0.0120583105719559 0.025846448071684052 0 0.011517986727577449 0.025149619939185467 0 0.011454949770330791 0.024530685399846153 0 0.012608473683573408 0.025089756656455693 0 0.011517986727577449 0.025149619939185467 0 0.012608473683573408 0.025089756656455693 0 0.0120583105719559 0.025846448071684052 0 0.012608473683573408 0.025089756656455693 0 0.0120583105719559 0.025846448071684052 0 0.013334401362104228 0.026058817499127949 0 0.0120583105719559 0.025846448071684052 0 0.012417320078092164 0.02667297575021204 0 0.013334401362104228 0.026058817499127949 0 0.011329299463894911 0.026541520243035917 0 0.01097009628425598 0.02583662306194039 0 0.0120583105719559 0.025846448071684052 0 0.011329299463894911 0.026541520243035917 0 0.0120583105719559 0.025846448071684052 0 0.012417320078092164 0.02667297575021204 0 0.011733997172632037 0.027122463423786033 0 0.011329299463894911 0.026541520243035917 0 0.012417320078092164 0.02667297575021204 0 0.014133399235578589 0.026768747138446451 0 0.013334401362104228 0.026058817499127949 0 0.014824374574398167 0.026032660688371331 0 0.013334401362104228 0.026058817499127949 0 0.013962249545978286 0.025195141640924332 0 0.014824374574398167 0.026032660688371331 0 0.013223680738825367 0.027112012031786051 0 0.012417320078092164 0.02667297575021204 0 0.013334401362104228 0.026058817499127949 0 0.013223680738825367 0.027112012031786051 0 0.014133399235578589 0.026768747138446451 0 0.013334401362104228 0.026058817499127949 0 0.012608473683573408 0.025089756656455693 0 0.013334401362104228 0.026058817499127949 0 0.013962249545978286 0.025195141640924332 0 0.012608473683573408 0.025089756656455693 0 0.013962249545978286 0.025195141640924332 0 0.013390021825388907 0.024077334630198621 0 0.015569956984398345 0.024718941066100494 0 0.013962249545978286 0.025195141640924332 0 0.013390021825388907 0.024077334630198621 0 0.015569956984398345 0.024718941066100494 0 0.013962249545978286 0.025195141640924332 0 0.014824374574398167 0.026032660688371331 0 0.016247308494259715 0.026351049809666401 0 0.014877036629434097 0.027403696142835009 0 0.014824374574398167 0.026032660688371331 0 0.014877036629434097 0.027403696142835009 0 0.014133399235578589 0.026768747138446451 0 0.014824374574398167 0.026032660688371331 0 0.0094859990028080318 0.021396295006971794 0 0.0093476398704441018 0.022354447105593932 0 0.0090638487436425462 0.022118949234688674 0 0.006774288776393648 0.022272241196000381 0 0.0065486609952068878 0.023848478280829449 0 0.0094859990028080318 0.021396295006971794 0 0.0090232363813638125 0.021488826842023023 0 0.0090638487436425462 0.022118949234688674 0 0.0090232363813638125 0.021488826842023023 0 0.0085710564467872206 0.021498570561010302 0 0.0090638487436425462 0.022118949234688674 0 0.0089756467869404645 0.022475766086777014 0 0.0080502274005230228 0.02438248863218314 0 0.0040651694181501417 0.023008167655647515 0 0.0046241268285787604 0.023829199620527663 0 0.0039288819736742848 0.024175068179631935 0 0.0052760861284104127 0.023688773558519945 0 0.0046241268285787604 0.023829199620527663 0 0.0049527619065671243 0.023036448872935031 0 0.0040651694181501417 0.023008167655647515 0 0.0046241268285787604 0.023829199620527663 0 0.0049527619065671243 0.023036448872935031 0 0.0044802820931913057 0.022183141205952873 0 0.0068732899617546025 0.020163091088909624 0 0.0042236120993142572 0.021843279591399679 0 0.0040651694181501417 0.023008167655647515 0 0.0045951190847780326 0.022514117227541101 0 0.0053238347128006756 0.022241234264886653 0 0.0042236120993142572 0.021843279591399679 0 0.0045951190847780326 0.022514117227541101 0 0.0040651694181501417 0.023008167655647515 0 0.0049527619065671243 0.023036448872935031 0 0.0045951190847780326 0.022514117227541101 0 0.0053238347128006756 0.022241234264886653 0 0.0049527619065671243 0.023036448872935031 0 0.0045951190847780326 0.022514117227541101 0 0.0068732899617546025 0.020163091088909624 0 0.006774288776393648 0.022272241196000381 0 0.0096081452401762784 0.020456837998632352 0 0.0094859990028080318 0.021396295006971794 0 0.0089744973261392472 0.020946914547566847 0 0.0090232363813638125 0.021488826842023023 0 0.0089744973261392472 0.020946914547566847 0 0.0085710564467872206 0.021498570561010302 0 0.0094859990028080318 0.021396295006971794 0 0.0090232363813638125 0.021488826842023023 0 0.0089744973261392472 0.020946914547566847 0 0.0098826314615837949 0.016562408010662725 0 0.011056858260590456 0.019567768418030439 0 0.0089744973261392472 0.020946914547566847 0 0.0080844827532888137 0.020897055092336435 0 0.0085710564467872206 0.021498570561010302 0 0.0092637868415979246 0.020327012496295479 0 0.0089744973261392472 0.020946914547566847 0 0.0080844827532888137 0.020897055092336435 0 0.011056858260590456 0.019567768418030439 0 0.0089756467869404645 0.022475766086777014 0 0.0095239746575829821 0.023632825107005664 0 0.0093462357200471743 0.023480871150625037 0 0.0094418136648690594 0.023485522673506159 0 0.013389187496736298 0.016715623717843402 0 0.013319899232595276 0.016418601420635871 0 0.013054416494712659 0.016407773425644017 0 0.0092353936057788331 0.028828826023588331 0 0.0099556460269302049 0.028201092381916006 0 0.0082753938536733636 0.028117900824399085 0 0.011518627207236934 0.023698086556024869 0 0.010714357192518016 0.023528475969476825 0 0.013319899232595276 0.016418601420635871 0 0.013054416494712659 0.016407773425644017 0 0.013186917348777992 0.016346124671376569 0 0.011056858260590456 0.019567768418030439 0 0.010714357192518016 0.023528475969476825 0 0.0095239746575829821 0.023632825107005664 0 0.0096157143900621987 0.023592498932570784 0 0.0094418136648690594 0.023485522673506159 0 0.010714357192518016 0.023528475969476825 0 0.0091082620542861942 0.025796753584425732 0 0.0097562001997705521 0.02920487787222063 0 0.0092353936057788331 0.028828826023588331 0 0.0099556460269302049 0.028201092381916006 0 0.0099556460269302049 0.028201092381916006 0 0.0095373266087294285 0.027327268917605625 0 0.0082753938536733636 0.028117900824399085 0 0.0095373266087294285 0.027327268917605625 0 0.0082753938536733636 0.028117900824399085 0 0.0085618702195852398 0.027012726328809057 0 0.0082753938536733636 0.028117900824399085 0 0.00776621703599196 0.026900407583895284 0 0.0069760290274930477 0.027059627469061372 0 0.0093462357200471743 0.023480871150625037 0 0.0094418136648690594 0.023485522673506159 0 0.0091600279358447587 0.023338152761982704 0 0.0091082620542861942 0.025796753584425732 0 0.0080502274005230228 0.02438248863218314 0 0.0082753938536733636 0.028117900824399085 0 0.00776621703599196 0.026900407583895284 0 0.0085618702195852398 0.027012726328809057 0 0.00776621703599196 0.026900407583895284 0 0.0082848581593836373 0.026512539520540879 0 0.0075908756432806019 0.026303858061637018 0 0.0084449150537090449 0.025973589606122626 0 0.0075908756432806019 0.026303858061637018 0 0.0066905093446766751 0.025914305815822096 0 0.00776621703599196 0.026900407583895284 0 0.0075908756432806019 0.026303858061637018 0 0.0070941624874127172 0.026552762515559825 0 0.00776621703599196 0.026900407583895284 0 0.0082848581593836373 0.026512539520540879 0 0.0085618702195852398 0.027012726328809057 0 0.0082848581593836373 0.026512539520540879 0 0.0084449150537090449 0.025973589606122626 0 0.0075908756432806019 0.026303858061637018 0 0.010304724459862745 0.026632874932203246 0 0.0095373266087294285 0.027327268917605625 0 0.0091642722780738584 0.026397676268068007 0 0.0082848581593836373 0.026512539520540879 0 0.0085618702195852398 0.027012726328809057 0 0.0091642722780738584 0.026397676268068007 0 0.0095373266087294285 0.027327268917605625 0 0.0085618702195852398 0.027012726328809057 0 0.0091642722780738584 0.026397676268068007 0 0.0084449150537090449 0.025973589606122626 0 0.0091642722780738584 0.026397676268068007 0 0.0092724331259595449 0.025573343316358497 0 0.0082848581593836373 0.026512539520540879 0 0.0084449150537090449 0.025973589606122626 0 0.0091642722780738584 0.026397676268068007 0 0.010040580997459565 0.025850082282605252 0 0.0091642722780738584 0.026397676268068007 0 0.0092724331259595449 0.025573343316358497 0 0.010304724459862745 0.026632874932203246 0 0.010040580997459565 0.025850082282605252 0 0.0091642722780738584 0.026397676268068007 0 0.0084449150537090449 0.025973589606122626 0 0.0092724331259595449 0.025573343316358497 0 0.0082753631782691902 0.025697651181346471 0 0.0082753631782691902 0.025697651181346471 0 0.0077368747711931132 0.026168600890917663 0 0.0080346680535379484 0.02610544469598395 0 0.0092724331259595449 0.025573343316358497 0 0.0082753631782691902 0.025697651181346471 0 0.0096271968795371924 0.024330568279222052 0 0.0083394863259250804 0.025593946009021842 0 0.0087187118122217348 0.025272285202187349 0 0.010456517725570789 0.025157111226522651 0 0.0092724331259595449 0.025573343316358497 0 0.0096271968795371924 0.024330568279222052 0 0.0084449150537090449 0.025973589606122626 0 0.0082135525907302692 0.025904259164155327 0 0.008142210218813211 0.025956538939504229 0 0.0084786178556446653 0.025896657609523702 0 0.007197818212978606 0.026282350909725104 0 0.0084449150537090449 0.025973589606122626 0 0.0082753631782691902 0.025697651181346471 0 0.0082135525907302692 0.025904259164155327 0 0.0082753631782691902 0.025697651181346471 0 0.0081272433220884056 0.026078266948762887 0 0.0080346680535379484 0.02610544469598395 0 0.0082753631782691902 0.025697651181346471 0 0.0082135525907302692 0.025904259164155327 0 0.0081272433220884056 0.026078266948762887 0 0.0082135525907302692 0.025904259164155327 0 0.0082367870169732568 0.026102865830292227 0 0.0081272433220884056 0.026078266948762887 0 0.0082135525907302692 0.025904259164155327 0 0.008142210218813211 0.025956538939504229 0 0.0082367870169732568 0.026102865830292227 0 0.0074998648174013994 0.027362950579485172 0 0.0076013801503890168 0.027553117592713585 0 0.0076889651321945807 0.027135109248400641 0 0.007197818212978606 0.026282350909725104 0 0.0079303690160965577 0.026686446652786449 0 0.0074998648174013994 0.027362950579485172 0 0.0073440122907868092 0.027211942842136506 0 0.0076889651321945807 0.027135109248400641 0 0.0074998648174013994 0.027362950579485172 0 0.0076013801503890168 0.027553117592713585 0 0.0073662797595270843 0.027546268576771359 0 0.007197818212978606 0.026282350909725104 0 0.0060216909204629685 0.025858504814454793 0 0.0075908756432806019 0.026303858061637018 0 0.0066905093446766751 0.025914305815822096 0 0.0070941624874127172 0.026552762515559825 0 0.0066905093446766751 0.025914305815822096 0 0.0065843446536052747 0.026573620064586308 0 0.0070941624874127172 0.026552762515559825 0 0.0065555003455984584 0.025711851769296152 0 0.0065739253626862591 0.025571006587926971 0 0.0066949880079775845 0.025717401328383599 0 0.004069794348025256 0.024342913812055302 0 0.0040838743425878465 0.024254786671932423 0 0.0044846017123899608 0.0245974612187503 0 0.007197818212978606 0.026282350909725104 0 0.0065886528018446093 0.024746264435232545 0 0.0065886528018446093 0.024746264435232545 0 0.0065486609952068878 0.023848478280829449 0 0.0065486609952068878 0.023848478280829449 0 0.0080502274005230228 0.02438248863218314 0 0.0065886528018446093 0.024746264435232545 0 0.0080502274005230228 0.02438248863218314 0 0.0068112374708470987 0.023762058108939124 0 0.0067754732194516727 0.024033965219186028 0 0.0076389071761690545 0.024699852946319437 0 0.00776621703599196 0.026900407583895284 0 0.0069760290274930477 0.027059627469061372 0 0.0070941624874127172 0.026552762515559825 0 0.0065843446536052747 0.026573620064586308 0 0.0069760290274930477 0.027059627469061372 0 0.0070941624874127172 0.026552762515559825 0 0.0052760861284104127 0.023688773558519945 0 0.0046241268285787604 0.023829199620527663 0 0.0050198843086090017 0.024344920827246562 0 0.0046241268285787604 0.023829199620527663 0 0.0050198843086090017 0.024344920827246562 0 0.0046750919405586988 0.024266705295841295 0 0.0046241268285787604 0.023829199620527663 0 0.0039288819736742848 0.024175068179631935 0 0.0044486228406448369 0.024227880771574988 0 0.0039288819736742848 0.024175068179631935 0 0.0044486228406448369 0.024227880771574988 0 0.0044846017123899608 0.0245974612187503 0 0.0046241268285787604 0.023829199620527663 0 0.0046750919405586988 0.024266705295841295 0 0.0044486228406448369 0.024227880771574988 0 0.0065486609952068878 0.023848478280829449 0 0.0044535856677675716 0.023902842030100263 0 0.0065886528018446093 0.024746264435232545 0 0.0060216909204629685 0.025858504814454793 0 0.004069794348025256 0.024342913812055302 0 0.0044846017123899608 0.0245974612187503 0 0.0044334387240300612 0.024834743930177504 0 0.0046750919405586988 0.024266705295841295 0 0.0044486228406448369 0.024227880771574988 0 0.0044846017123899608 0.0245974612187503 0 0.0050198843086090017 0.024344920827246562 0 0.0044846017123899608 0.0245974612187503 0 0.0044334387240300612 0.024834743930177504 0 0.0050198843086090017 0.024344920827246562 0 0.0046750919405586988 0.024266705295841295 0 0.0044846017123899608 0.0245974612187503 0 0.0060216909204629685 0.025858504814454793 0 0.0067399352177848169 0.026854530486134207 0 0.0073662797595270843 0.027546268576771359 0 0.0073440122907868092 0.027211942842136506 0 0.007009307173507306 0.027138260608260079 0 0.0074998648174013994 0.027362950579485172 0 0.0073662797595270843 0.027546268576771359 0 0.0073440122907868092 0.027211942842136506 0 0.0073440122907868092 0.027211942842136506 0 0.0072525602767425897 0.026763623638494223 0 0.007009307173507306 0.027138260608260079 0 0.0073440122907868092 0.027211942842136506 0 0.0072525602767425897 0.026763623638494223 0 0.0076889651321945807 0.027135109248400641 0 0.0072525602767425897 0.026763623638494223 0 0.0071019769405400003 0.026561238017668479 0 0.0074762587400286065 0.026574784689863733 0 0.0072525602767425897 0.026763623638494223 0 0.0071019769405400003 0.026561238017668479 0 0.0068790271638998462 0.02659594510554221 0 0.0072525602767425897 0.026763623638494223 0 0.0078136991834582038 0.026631605282322598 0 0.0074762587400286065 0.026574784689863733 0 0.007868405403757054 0.026572871655708468 0 0.0079303690160965577 0.026686446652786449 0 0.0072525602767425897 0.026763623638494223 0 0.0078136991834582038 0.026631605282322598 0 0.0076889651321945807 0.027135109248400641 0 0.0078136991834582038 0.026631605282322598 0 0.0082367870169732568 0.026102865830292227 0 0.0079719216013272101 0.026397674827098379 0 0.0082367870169732568 0.026102865830292227 0 0.0081272433220884056 0.026078266948762887 0 0.0079719216013272101 0.026397674827098379 0 0.0081272433220884056 0.026078266948762887 0 0.0079851499383750066 0.026286189018015171 0 0.0080346680535379484 0.02610544469598395 0 0.0081272433220884056 0.026078266948762887 0 0.0079851499383750066 0.026286189018015171 0 0.0079719216013272101 0.026397674827098379 0 0.0079851499383750066 0.026286189018015171 0 0.0079719216013272101 0.026397674827098379 0 0.0079095734229048392 0.026454391619636957 0 0.0077368747711931132 0.026168600890917663 0 0.0078847539480931608 0.026273551933398434 0 0.0077864349143383967 0.026395169198647411 0 0.0077368747711931132 0.026168600890917663 0 0.0078847539480931608 0.026273551933398434 0 0.0080346680535379484 0.02610544469598395 0 0.0079851499383750066 0.026286189018015171 0 0.0078847539480931608 0.026273551933398434 0 0.0080346680535379484 0.02610544469598395 0 0.0079851499383750066 0.026286189018015171 0 0.0078844982248059657 0.026388843571963874 0 0.0079095734229048392 0.026454391619636957 0 0.0078844982248059657 0.026388843571963874 0 0.0078691768948683308 0.026473657732247077 0 0.0079095734229048392 0.026454391619636957 0 0.0079851499383750066 0.026286189018015171 0 0.0078847539480931608 0.026273551933398434 0 0.0078844982248059657 0.026388843571963874 0 0.0078847539480931608 0.026273551933398434 0 0.0078844982248059657 0.026388843571963874 0 0.0077864349143383967 0.026395169198647411 0 0.0078844982248059657 0.026388843571963874 0 0.0078409931296285606 0.02645280538318933 0 0.0077864349143383967 0.026395169198647411 0 0.0078844982248059657 0.026388843571963874 0 0.0078409931296285606 0.02645280538318933 0 0.0078691768948683308 0.026473657732247077 0 0.0078409931296285606 0.02645280538318933 0 0.0078031028352268201 0.026452621485879711 0 0.0077815771246987553 0.026502208884099734 0 0.0078409931296285606 0.02645280538318933 0 0.0078031028352268201 0.026452621485879711 0 0.0077864349143383967 0.026395169198647411 0 0.0078409931296285606 0.02645280538318933 0 0.0078240045967779767 0.026506494729968851 0 0.0077815771246987553 0.026502208884099734 0 0.0078031028352268201 0.026452621485879711 0 0.0077864349143383967 0.026395169198647411 0 0.0077815771246987553 0.026502208884099734 0 0.007853461669990236 0.026545436163123728 0 0.0078412663767428187 0.026538651679169918 0 0.0078687952206426826 0.026556413808374302 0 0.007853461669990236 0.026545436163123728 0 0.0078317091775226347 0.026524272537423399 0 0.0078448991922247472 0.026515841613428737 0 0.007853461669990236 0.026545436163123728 0 0.0078317091775226347 0.026524272537423399 0 0.0078412663767428187 0.026538651679169918 0 0.0078317091775226347 0.026524272537423399 0 0.0078144789096904217 0.026520668026499088 0 0.0078412663767428187 0.026538651679169918 0 0.0078317091775226347 0.026524272537423399 0 0.0078240045967779767 0.026506494729968851 0 0.0078144789096904217 0.026520668026499088 0 0.0078240045967779767 0.026506494729968851 0 0.0077815771246987553 0.026502208884099734 0 0.0078144789096904217 0.026520668026499088 0 0.0078317091775226347 0.026524272537423399 0 0.0078240045967779767 0.026506494729968851 0 0.0078448991922247472 0.026515841613428737 0 0.0078448991922247472 0.026515841613428737 0 0.0078665207096373039 0.026530736233531065 0 0.0078691768948683308 0.026473657732247077 0 0.0078409931296285606 0.02645280538318933 0 0.0078240045967779767 0.026506494729968851 0 0.0078448991922247472 0.026515841613428737 0 0.0078409931296285606 0.02645280538318933 0 0.0078448991922247472 0.026515841613428737 0 0.0078691768948683308 0.026473657732247077 0 0.007853461669990236 0.026545436163123728 0 0.0078448991922247472 0.026515841613428737 0 0.0078665207096373039 0.026530736233531065 0 0.0078665207096373039 0.026530736233531065 0 0.0079095734229048392 0.026454391619636957 0 0.0078650423016170361 0.026561867413386953 0 0.0078665207096373039 0.026530736233531065 0 0.0078691768948683308 0.026473657732247077 0 0.0079095734229048392 0.026454391619636957 0 0.0078670957967507359 0.026562652698267644 0 0.0078650423016170361 0.026561867413386953 0 0.0078380679491983647 0.026561419158387927 0 0.0078665207096373039 0.026530736233531065 0 0.0078670957967507359 0.026562652698267644 0 0.0078650423016170361 0.026561867413386953 0 0.007853461669990236 0.026545436163123728 0 0.0078665207096373039 0.026530736233531065 0 0.0078670957967507359 0.026562652698267644 0 0.0078670957967507359 0.026562652698267644 0 0.0078791217493247735 0.026561135261709157 0 0.0079212943324962256 0.026561881155580506 0 0.007853461669990236 0.026545436163123728 0 0.0078670957967507359 0.026562652698267644 0 0.0078791217493247735 0.026561135261709157 0 0.007853461669990236 0.026545436163123728 0 0.0078791217493247735 0.026561135261709157 0 0.0078687952206426826 0.026556413808374302 0 0.0078136991834582038 0.026631605282322598 0 0.0079719216013272101 0.026397674827098379 0 0.0078650423016170361 0.026561867413386953 0 0.0078136991834582038 0.026631605282322598 0 0.0078650423016170361 0.026561867413386953 0 0.0077008257972942711 0.026567960114557143 0 0.0079719216013272101 0.026397674827098379 0 0.0079095734229048392 0.026454391619636957 0 0.0078650423016170361 0.026561867413386953 0 0.0078650423016170361 0.026561867413386953 0 0.0077008257972942711 0.026567960114557143 0 0.0078380679491983647 0.026561419158387927 0 0.0077008257972942711 0.026567960114557143 0 0.0078380679491983647 0.026561419158387927 0 0.0078237696938374679 0.026509552798228923 0 0.0078670957967507359 0.026562652698267644 0 0.0078905957033110537 0.026538155283910878 0 0.0079212943324962256 0.026561881155580506 0 0.0078670957967507359 0.026562652698267644 0 0.0078380679491983647 0.026561419158387927 0 0.0078905957033110537 0.026538155283910878 0 0.0078380679491983647 0.026561419158387927 0 0.0078905957033110537 0.026538155283910878 0 0.0078237696938374679 0.026509552798228923 0 0.0078905957033110537 0.026538155283910878 0 0.0079246344968895745 0.026478649531012505 0 0.0078237696938374679 0.026509552798228923 0 0.0078237696938374679 0.026509552798228923 0 0.0079005542665114368 0.026399928398358335 0 0.0076760150131453507 0.02646537080479696 0 0.0079246344968895745 0.026478649531012505 0 0.0079005542665114368 0.026399928398358335 0 0.0080327400366962537 0.026421512707541252 0 0.0079246344968895745 0.026478649531012505 0 0.0078237696938374679 0.026509552798228923 0 0.0079005542665114368 0.026399928398358335 0 0.0077008257972942711 0.026567960114557143 0 0.0078237696938374679 0.026509552798228923 0 0.0076760150131453507 0.02646537080479696 0 0.0076760150131453507 0.02646537080479696 0 0.007296960840212011 0.026528605975841533 0 0.0074066245151570582 0.02642450488484039 0 0.0077008257972942711 0.026567960114557143 0 0.0076760150131453507 0.02646537080479696 0 0.007296960840212011 0.026528605975841533 0 0.007296960840212011 0.026528605975841533 0 0.0070043215747292555 0.026549922942843193 0 0.0067840948968753267 0.026592082263651375 0 0.007296960840212011 0.026528605975841533 0 0.0070043215747292555 0.026549922942843193 0 0.0071019769405400003 0.026561238017668479 0 0.007296960840212011 0.026528605975841533 0 0.0071019769405400003 0.026561238017668479 0 0.0074762587400286065 0.026574784689863733 0 0.0077008257972942711 0.026567960114557143 0 0.007296960840212011 0.026528605975841533 0 0.0074762587400286065 0.026574784689863733 0 0.0078136991834582038 0.026631605282322598 0 0.0077008257972942711 0.026567960114557143 0 0.0074762587400286065 0.026574784689863733 0 0.01390828999226751 0.028144740746978623 0 0.013624900345952231 0.028280104306766023 0 0.014083706584630533 0.028589974416708592 0 0.014198378123279291 0.028189280169445888 0 0.01390828999226751 0.028144740746978623 0 0.014083706584630533 0.028589974416708592 0 0.013624900345952231 0.028280104306766023 0 0.014083706584630533 0.028589974416708592 0 0.01364674630784837 0.028730074707593138 0 0.014250355484459468 0.029320630606312032 0 0.014083706584630533 0.028589974416708592 0 0.01364674630784837 0.028730074707593138 0 0.014900728226935528 0.02737122564363325 0 0.013499005657817162 0.02640399835460952 0 0.014250355484459468 0.029320630606312032 0 0.01364674630784837 0.028730074707593138 0 0.013285475285127918 0.029071595985741144 0 0.01364674630784837 0.028730074707593138 0 0.013285475285127918 0.029071595985741144 0 0.013118603909911387 0.028314347526461735 0 0.012346681499695346 0.028590199568697631 0 0.011435672241663744 0.028605769572775903 0 0.012844881831319892 0.028051129041390302 0 0.013624900345952231 0.028280104306766023 0 0.013118603909911387 0.028314347526461735 0 0.01382900539376746 0.027815841131254737 0 0.013624900345952231 0.028280104306766023 0 0.01364674630784837 0.028730074707593138 0 0.013118603909911387 0.028314347526461735 0 0.0098241895397939011 0.02760488002426784 0 0.010445977346203856 0.027342656295991828 0 0.012819983737801972 0.028691967724040039 0 0.010714625344216085 0.027197044516175412 0 0.0080858308518666124 0.026674215330318777 0 0.0081554669828979853 0.026596258519686604 0 0.0083909048462846979 0.026641533572277901 0 0.012346681499695346 0.028590199568697631 0 0.011435672241663744 0.028605769572775903 0 0.010839875590010607 0.029470431197582306 0 0.013285475285127918 0.029071595985741144 0 0.013118603909911387 0.028314347526461735 0 0.012310627402364011 0.028793118902758579 0 0.013499005657817162 0.02640399835460952 0 0.010714625344216085 0.027197044516175412 0 0.011454949770330791 0.024530685399846153 0 0.013390021825388907 0.024077334630198621 0 0.01099513701407747 0.02342770745173799 0 0.011454949770330791 0.024530685399846153 0 0.0096271968795371924 0.024330568279222052 0 0.01099513701407747 0.02342770745173799 0 0.0087187118122217348 0.025272285202187349 0 0.010714625344216085 0.027197044516175412 0 0.0077864349143383967 0.026395169198647411 0 0.007528281968952783 0.026422510241748166 0 0.0077815771246987553 0.026502208884099734 0 0.010714625344216085 0.027197044516175412 0 0.008778235014692562 0.027977717814905743 0 0.0077368747711931132 0.026168600890917663 0 0.0077864349143383967 0.026395169198647411 0 0.007528281968952783 0.026422510241748166 0 0.0077815771246987553 0.026502208884099734 0 0.0078144789096904217 0.026520668026499088 0 0.0078424508068283515 0.026539720511452806 0 0.0098241895397939011 0.02760488002426784 0 0.008778235014692562 0.027977717814905743 0 0.011435672241663744 0.028605769572775903 0 0.010839875590010607 0.029470431197582306 0 0.010026401268554129 0.029231517170991938 0 0.0077815771246987553 0.026502208884099734 0 0.0078424508068283515 0.026539720511452806 0 0.0079024826367538967 0.026571563737233878 0 0.0080858308518666124 0.026674215330318777 0 0.0077815771246987553 0.026502208884099734 0 0.0079024826367538967 0.026571563737233878 0 0.0078144789096904217 0.026520668026499088 0 0.0078424508068283515 0.026539720511452806 0 0.0078412663767428187 0.026538651679169918 0 0.0078424508068283515 0.026539720511452806 0 0.0079024826367538967 0.026571563737233878 0 0.0078687952206426826 0.026556413808374302 0 0.0078424508068283515 0.026539720511452806 0 0.0078412663767428187 0.026538651679169918 0 0.0078687952206426826 0.026556413808374302 0 0.0080858308518666124 0.026674215330318777 0 0.0079024826367538967 0.026571563737233878 0 0.0079641254446314643 0.02658732495638616 0 0.0080858308518666124 0.026674215330318777 0 0.0079641254446314643 0.02658732495638616 0 0.0080366519138993543 0.026558085588015 0 0.0079641254446314643 0.02658732495638616 0 0.0079085215939771001 0.026569917369500231 0 0.0079212943324962256 0.026561881155580506 0 0.0078791217493247735 0.026561135261709157 0 0.0079085215939771001 0.026569917369500231 0 0.0079212943324962256 0.026561881155580506 0 0.0078791217493247735 0.026561135261709157 0 0.0078687952206426826 0.026556413808374302 0 0.0079085215939771001 0.026569917369500231 0 0.0079024826367538967 0.026571563737233878 0 0.0079641254446314643 0.02658732495638616 0 0.0079085215939771001 0.026569917369500231 0 0.0079024826367538967 0.026571563737233878 0 0.0078687952206426826 0.026556413808374302 0 0.0079085215939771001 0.026569917369500231 0 0.0078905957033110537 0.026538155283910878 0 0.0079212943324962256 0.026561881155580506 0 0.0079756322498896332 0.026508466484993731 0 0.0079212943324962256 0.026561881155580506 0 0.0080366519138993543 0.026558085588015 0 0.0079756322498896332 0.026508466484993731 0 0.0079641254446314643 0.02658732495638616 0 0.0079212943324962256 0.026561881155580506 0 0.0080366519138993543 0.026558085588015 0 0.0080366519138993543 0.026558085588015 0 0.0079756322498896332 0.026508466484993731 0 0.0080741316415357811 0.026477627333785093 0 0.0078905957033110537 0.026538155283910878 0 0.0079246344968895745 0.026478649531012505 0 0.0079756322498896332 0.026508466484993731 0 0.0080327400366962537 0.026421512707541252 0 0.0081682165177175397 0.026382455261066046 0 0.0080421379825819025 0.026304759875042313 0 0.0079005542665114368 0.026399928398358335 0 0.0080327400366962537 0.026421512707541252 0 0.0080421379825819025 0.026304759875042313 0 0.0079246344968895745 0.026478649531012505 0 0.0079756322498896332 0.026508466484993731 0 0.0080327400366962537 0.026421512707541252 0 0.0079756322498896332 0.026508466484993731 0 0.0080327400366962537 0.026421512707541252 0 0.0080741316415357811 0.026477627333785093 0 0.0080741316415357811 0.026477627333785093 0 0.0081682165177175397 0.026382455261066046 0 0.0081702165080260371 0.026510161197318857 0 0.0080327400366962537 0.026421512707541252 0 0.0080741316415357811 0.026477627333785093 0 0.0081682165177175397 0.026382455261066046 0 0.0081682165177175397 0.026382455261066046 0 0.0081702165080260371 0.026510161197318857 0 0.0083229619585766263 0.026478285135787257 0 0.0081702165080260371 0.026510161197318857 0 0.0081554669828979853 0.026596258519686604 0 0.0082569025898516762 0.026555604064431561 0 0.0081702165080260371 0.026510161197318857 0 0.0082569025898516762 0.026555604064431561 0 0.0083229619585766263 0.026478285135787257 0 0.0080366519138993543 0.026558085588015 0 0.0080741316415357811 0.026477627333785093 0 0.0081702165080260371 0.026510161197318857 0 0.0080366519138993543 0.026558085588015 0 0.0081702165080260371 0.026510161197318857 0 0.0081554669828979853 0.026596258519686604 0 0.0080858308518666124 0.026674215330318777 0 0.0080366519138993543 0.026558085588015 0 0.0081554669828979853 0.026596258519686604 0 0.012819983737801972 0.028691967724040039 0 0.01376756659608123 0.027774823007780003 0 0.012346681499695346 0.028590199568697631 0 0.012844881831319892 0.028051129041390302 0 0.01382900539376746 0.027815841131254737 0 0.0081554669828979853 0.026596258519686604 0 0.0083909048462846979 0.026641533572277901 0 0.0082569025898516762 0.026555604064431561 0 0.0083909048462846979 0.026641533572277901 0 0.0084711476433336121 0.026501150980721554 0 0.0083229619585766263 0.026478285135787257 0 0.0083909048462846979 0.026641533572277901 0 0.0082569025898516762 0.026555604064431561 0 0.0083229619585766263 0.026478285135787257 0 0.0081682165177175397 0.026382455261066046 0 0.0083229619585766263 0.026478285135787257 0 0.0083790035737467353 0.026332363398329204 0 0.0084711476433336121 0.026501150980721554 0 0.0083229619585766263 0.026478285135787257 0 0.0083790035737467353 0.026332363398329204 0 0.0096105241885505021 0.027134477741262188 0 0.012462419877367799 0.027566649297673797 0 0.011459333424439644 0.028053559731562025 0 0.012649115158085138 0.028960478784781564 0 0.012330747063330892 0.027756963631199325 0 0.0084711476433336121 0.026501150980721554 0 0.0083790035737467353 0.026332363398329204 0 0.0087202454315132381 0.026524400591964495 0 0.013012982409152959 0.028155819904730053 0 0.012649115158085138 0.028960478784781564 0 0.012330747063330892 0.027756963631199325 0 0.010445977346203856 0.027342656295991828 0 0.012462419877367799 0.027566649297673797 0 0.0083909048462846979 0.026641533572277901 0 0.0084711476433336121 0.026501150980721554 0 0.0087202454315132381 0.026524400591964495 0 0.012844881831319892 0.028051129041390302 0 0.014194102219579879 0.027543982237424949 0 0.01382900539376746 0.027815841131254737 0 0.014194102219579879 0.027543982237424949 0 0.01382900539376746 0.027815841131254737 0 0.014162945050596162 0.027939335843876471 0 0.01390828999226751 0.028144740746978623 0 0.013624900345952231 0.028280104306766023 0 0.01382900539376746 0.027815841131254737 0 0.01390828999226751 0.028144740746978623 0 0.01382900539376746 0.027815841131254737 0 0.014162945050596162 0.027939335843876471 0 0.014198378123279291 0.028189280169445888 0 0.01390828999226751 0.028144740746978623 0 0.014162945050596162 0.027939335843876471 0 0.012329276354417834 0.02686685277876796 0 0.011577948045027285 0.026550548241875811 0 0.012549777476281956 0.025998553484199861 0 0.011697017867280498 0.026484387589147389 0 0.012398387971881098 0.026171000859087391 0 0.012329276354417834 0.02686685277876796 0 0.011596208534667869 0.027297931902604218 0 0.011577948045027285 0.026550548241875811 0 0.013001951774212057 0.027282143452929723 0 0.012329276354417834 0.02686685277876796 0 0.012330747063330892 0.027756963631199325 0 0.012329276354417834 0.02686685277876796 0 0.012330747063330892 0.027756963631199325 0 0.011596208534667869 0.027297931902604218 0 0.011459333424439644 0.028053559731562025 0 0.012330747063330892 0.027756963631199325 0 0.011596208534667869 0.027297931902604218 0 0.011459333424439644 0.028053559731562025 0 0.011596208534667869 0.027297931902604218 0 0.010401863552785988 0.027278641320543195 0 0.011596208534667869 0.027297931902604218 0 0.011577948045027285 0.026550548241875811 0 0.010401863552785988 0.027278641320543195 0 0.011577948045027285 0.026550548241875811 0 0.010401863552785988 0.027278641320543195 0 0.010530572037144557 0.026029753804908323 0 0.0081682165177175397 0.026382455261066046 0 0.0083790035737467353 0.026332363398329204 0 0.0081614494407089722 0.026244784721866758 0 0.0096105241885505021 0.027134477741262188 0 0.0093442077221192327 0.026788879514844242 0 0.0081682165177175397 0.026382455261066046 0 0.0081614494407089722 0.026244784721866758 0 0.0080421379825819025 0.026304759875042313 0 0.010401863552785988 0.027278641320543195 0 0.010530572037144557 0.026029753804908323 0 0.0093514542350868896 0.026602780992710823 0 0.0093442077221192327 0.026788879514844242 0 0.0086820285166393299 0.026322953624451507 0 0.0081614494407089722 0.026244784721866758 0 0.0080421379825819025 0.026304759875042313 0 0.0080660124749529893 0.026111295066936782 0 0.0094321586047841875 0.024999798359622637 0 0.010530572037144557 0.026029753804908323 0 0.0093514542350868896 0.026602780992710823 0 0.0094321586047841875 0.024999798359622637 0 0.010923535016298808 0.024999969139881787 0 0.010530572037144557 0.026029753804908323 0 0.011577948045027285 0.026550548241875811 0 0.010530572037144557 0.026029753804908323 0 0.011555628450696801 0.025764406166310767 0 0.010923535016298808 0.024999969139881787 0 0.011555628450696801 0.025764406166310767 0 0.01241447109023156 0.024999933816129409 0 0.010923535016298808 0.024999969139881787 0 0.010530572037144557 0.026029753804908323 0 0.011555628450696801 0.025764406166310767 0 0.011555628450696801 0.025764406166310767 0 0.01241447109023156 0.024999933816129409 0 0.012292272478325142 0.025730579720701419 0 0.011577948045027285 0.026550548241875811 0 0.011555628450696801 0.025764406166310767 0 0.01231851416040418 0.026300159250621208 0 0.011555628450696801 0.025764406166310767 0 0.012292272478325142 0.025730579720701419 0 0.01231851416040418 0.026300159250621208 0 0.0073583236438530819 0.026244841516883322 0 0.0078401243689926025 0.026084610953401477 0 0.0072519743355880552 0.025816391883531135 0 0.0073583236438530819 0.026244841516883322 0 0.0067141454917135886 0.02622907124621664 0 0.0072519743355880552 0.025816391883531135 0 0.0073583236438530819 0.026244841516883322 0 0.0067141454917135886 0.02622907124621664 0 0.007086728232714716 0.026435451876438799 0 0.0067141454917135886 0.02622907124621664 0 0.007086728232714716 0.026435451876438799 0 0.0067840948968753267 0.026592082263651375 0 0.007296960840212011 0.026528605975841533 0 0.007086728232714716 0.026435451876438799 0 0.0067840948968753267 0.026592082263651375 0 0.0073583236438530819 0.026244841516883322 0 0.007086728232714716 0.026435451876438799 0 0.0074066245151570582 0.02642450488484039 0 0.0073583236438530819 0.026244841516883322 0 0.0074066245151570582 0.02642450488484039 0 0.0078197696672816178 0.026293469328319868 0 0.007296960840212011 0.026528605975841533 0 0.007086728232714716 0.026435451876438799 0 0.0074066245151570582 0.02642450488484039 0 0.0079005542665114368 0.026399928398358335 0 0.0076760150131453507 0.02646537080479696 0 0.0078197696672816178 0.026293469328319868 0 0.0076760150131453507 0.02646537080479696 0 0.0074066245151570582 0.02642450488484039 0 0.0078197696672816178 0.026293469328319868 0 0.0079005542665114368 0.026399928398358335 0 0.0080421379825819025 0.026304759875042313 0 0.0078197696672816178 0.026293469328319868 0 0.0080421379825819025 0.026304759875042313 0 0.0078197696672816178 0.026293469328319868 0 0.0080660124749529893 0.026111295066936782 0 0.0078197696672816178 0.026293469328319868 0 0.0080660124749529893 0.026111295066936782 0 0.0078401243689926025 0.026084610953401477 0 0.0073583236438530819 0.026244841516883322 0 0.0078197696672816178 0.026293469328319868 0 0.0078401243689926025 0.026084610953401477 0 0.0094321586047841875 0.024999798359622637 0 0.0093514542350868896 0.026602780992710823 0 0.0081243643837013851 0.025797951152208166 0 0.0078401243689926025 0.026084610953401477 0 0.0081243643837013851 0.025797951152208166 0 0.0072519743355880552 0.025816391883531135 0 0.0080660124749529893 0.026111295066936782 0 0.0078401243689926025 0.026084610953401477 0 0.0081243643837013851 0.025797951152208166 0 0.0086820285166393299 0.026322953624451507 0 0.008139650317864745 0.025834281523155447 0 0.0081243643837013851 0.025797951152208166 0 0.0079405584595765612 0.025000006374880788 0 0.0072519743355880552 0.025816391883531135 0 0.0094321586047841875 0.024999798359622637 0 0.0081243643837013851 0.025797951152208166 0 0.0079405584595765612 0.025000006374880788 0 0.0079405584595765612 0.025000006374880788 0 0.0072519743355880552 0.025816391883531135 0 0.0064500696234822356 0.024999850352101279 0 0.0067141454917135886 0.02622907124621664 0 0.0072519743355880552 0.025816391883531135 0 0.0063453664060981758 0.025710484071996796 0 0.0072519743355880552 0.025816391883531135 0 0.0064500696234822356 0.024999850352101279 0 0.0063453664060981758 0.025710484071996796 0 0.0064500696234822356 0.024999850352101279 0 0.0049587867911917048 0.024999830700285285 0 0.0063453664060981758 0.025710484071996796 0 0.0049587867911917048 0.024999830700285285 0 0.0057759287272777767 0.026195086559195477 0 0.0042742919735187382 0.025758051649729781 0 0.0049587867911917048 0.024999830700285285 0 0.0057759287272777767 0.026195086559195477 0 0.0063453664060981758 0.025710484071996796 0 0.0067141454917135886 0.02622907124621664 0 0.0057759287272777767 0.026195086559195477 0 0.0063453664060981758 0.025710484071996796 0 0.00346739477832924 0.024999804290114124 0 0.00295747490772624 0.026316473201744489 0 0.0034669062037499701 0.02499997088748112 0 0.002924676724662483 0.026106102044425383 0 0.0028093740028581845 0.025545481875385762 0 0.0049587867911917048 0.024999830700285285 0 0.0034676435142844421 0.024999842393621175 0 0.0042742919735187382 0.025758051649729781 0 0.0057759287272777767 0.026195086559195477 0 0.0042742919735187382 0.025758051649729781 0 0.0044558948779037568 0.026696232880901952 0 0.0034676435142844421 0.024999842393621175 0 0.0042742919735187382 0.025758051649729781 0 0.003419258536871932 0.026273738903159427 0 0.0042742919735187382 0.025758051649729781 0 0.003419258536871932 0.026273738903159427 0 0.0044558948779037568 0.026696232880901952 0 0.003419258536871932 0.026273738903159427 0 0.0038295914687617189 0.027115721672860037 0 0.0031961786647742392 0.027739737671263039 0 0.003419258536871932 0.026273738903159427 0 0.0038295914687617189 0.027115721672860037 0 0.0044558948779037568 0.026696232880901952 0 0.006297215899549828 0.025286784692877668 0 0.0068337610514310901 0.025299392308000452 0 0.006518907085070612 0.025580236714810915 0 0.0038295914687617189 0.027115721672860037 0 0.0044558948779037568 0.026696232880901952 0 0.0042686821900036129 0.027765733262046607 0 0.0053022175219508017 0.026543422461344751 0 0.006148388402277538 0.026542502653894375 0 0.0044558948779037568 0.026696232880901952 0 0.0042686821900036129 0.027765733262046607 0 0.0054379532979188456 0.027787370558907523 0 0.0053022175219508017 0.026543422461344751 0 0.0043542234398293266 0.026228074816533411 0 0.0038295914687617189 0.027115721672860037 0 0.0042686821900036129 0.027765733262046607 0 0.0031961786647742392 0.027739737671263039 0 0.0067141454917135886 0.02622907124621664 0 0.0057759287272777767 0.026195086559195477 0 0.0067840948968753267 0.026592082263651375 0 0.0056623721249521568 0.026536022979059722 0 0.006148388402277538 0.026542502653894375 0 0.0057759287272777767 0.026195086559195477 0 0.0044558948779037568 0.026696232880901952 0 0.0054379532979188456 0.027787370558907523 0 0.006148388402277538 0.026542502653894375 0 0.006856675732981864 0.026607047288793866 0 0.0057759287272777767 0.026195086559195477 0 0.0060260182514764978 0.026708017179101925 0 0.0067840948968753267 0.026592082263651375 0 0.0070043215747292555 0.026549922942843193 0 0.0067840948968753267 0.026592082263651375 0 0.006880119127554111 0.026526295118728133 0 0.0068587979023516212 0.02652951633087279 0 0.0067840948968753267 0.026592082263651375 0 0.006880119127554111 0.026526295118728133 0 0.0070043215747292555 0.026549922942843193 0 0.0071019769405400003 0.026561238017668479 0 0.006880119127554111 0.026526295118728133 0 0.0071019769405400003 0.026561238017668479 0 0.006880119127554111 0.026526295118728133 0 0.0068790271638998462 0.02659594510554221 0 0.006880119127554111 0.026526295118728133 0 0.0068790271638998462 0.02659594510554221 0 0.0067643549648368556 0.026562187939574718 0 0.0068337610514310901 0.025299392308000452 0 0.0067217995335260069 0.025949109837624423 0 0.006518907085070612 0.025580236714810915 0 0.006148388402277538 0.026542502653894375 0 0.006839905668935246 0.026106200007194654 0 0.0068587979023516212 0.02652951633087279 0 0.006880119127554111 0.026526295118728133 0 0.0067643549648368556 0.026562187939574718 0 0.006297215899549828 0.025286784692877668 0 0.006518907085070612 0.025580236714810915 0 0.0062179045312611989 0.025783402290443454 0 0.0067217995335260069 0.025949109837624423 0 0.006518907085070612 0.025580236714810915 0 0.0062179045312611989 0.025783402290443454 0 0.006297215899549828 0.025286784692877668 0 0.0062179045312611989 0.025783402290443454 0 0.0057162038685850741 0.025275820448751343 0 0.0062179045312611989 0.025783402290443454 0 0.0056060742254882305 0.025885960746297742 0 0.0057162038685850741 0.025275820448751343 0 0.0062179045312611989 0.025783402290443454 0 0.0063992083456552848 0.026200834640276019 0 0.0060587547147890677 0.026225487904433326 0 0.0062179045312611989 0.025783402290443454 0 0.0060587547147890677 0.026225487904433326 0 0.0056060742254882305 0.025885960746297742 0 0.0067217995335260069 0.025949109837624423 0 0.0062179045312611989 0.025783402290443454 0 0.0063992083456552848 0.026200834640276019 0 0.0067217995335260069 0.025949109837624423 0 0.0063992083456552848 0.026200834640276019 0 0.0066402306326279166 0.026547186793087239 0 0.0063992083456552848 0.026200834640276019 0 0.0063273666545823996 0.026468528378468151 0 0.0066402306326279166 0.026547186793087239 0 0.0060587547147890677 0.026225487904433326 0 0.0060039535065293265 0.026514270966500088 0 0.0056644468111253709 0.026355709212594253 0 0.0063992083456552848 0.026200834640276019 0 0.0063273666545823996 0.026468528378468151 0 0.0060587547147890677 0.026225487904433326 0 0.0063273666545823996 0.026468528378468151 0 0.0060587547147890677 0.026225487904433326 0 0.0060039535065293265 0.026514270966500088 0 0.0080004055734487784 0.025187036688934253 0 0.0075514933469004123 0.02593252627419932 0 0.0085010621543961801 0.02595355862669825 0 0.0060039535065293265 0.026514270966500088 0 0.0063954280801587085 0.026748780920073309 0 0.0055132882478277252 0.026783692900487769 0 0.0069250148316644059 0.026318065452304418 0 0.0070228165505497606 0.026421053860150936 0 0.0063273666545823996 0.026468528378468151 0 0.0060039535065293265 0.026514270966500088 0 0.0063954280801587085 0.026748780920073309 0 0.0066657914440873814 0.026200737496707243 0 0.0063954280801587085 0.026748780920073309 0 0.0066402306326279166 0.026547186793087239 0 0.0066340478255463766 0.026211020046250998 0 0.0069250148316644059 0.026318065452304418 0 0.0063273666545823996 0.026468528378468151 0 0.0063954280801587085 0.026748780920073309 0 0.0066402306326279166 0.026547186793087239 0 0.0066657914440873814 0.026200737496707243 0 0.0066402306326279166 0.026547186793087239 0 0.0066832989384383104 0.026648973444081195 0 0.0072525602767425897 0.026763623638494223 0 0.007009307173507306 0.027138260608260079 0 0.0069541568746565923 0.026757490196416722 0 0.0066657914440873814 0.026200737496707243 0 0.0061996139235545407 0.026269641702764079 0 0.0066832989384383104 0.026648973444081195 0 0.007009307173507306 0.027138260608260079 0 0.0069541568746565923 0.026757490196416722 0 0.0066832989384383104 0.026648973444081195 0 0.0067399352177848169 0.026854530486134207 0 0.0066111544418120489 0.026600030380082764 0 0.0072525602767425897 0.026763623638494223 0 0.0068790271638998462 0.02659594510554221 0 0.0069541568746565923 0.026757490196416722 0 0.0068790271638998462 0.02659594510554221 0 0.0069541568746565923 0.026757490196416722 0 0.0066832989384383104 0.026648973444081195 0 0.006839905668935246 0.026106200007194654 0 0.0066205850307768065 0.02660953447601969 0 0.0067643549648368556 0.026562187939574718 0 0.0066402306326279166 0.026547186793087239 0 0.0066832989384383104 0.026648973444081195 0 0.0068790271638998462 0.02659594510554221 0 0.0067643549648368556 0.026562187939574718 0 0.0066832989384383104 0.026648973444081195 0 0.0070396629277110958 0.025952450113748728 0 0.0012971985188370023 0.025228753416907664 0 0.0026699236486161172 0.025538584018915036 0 0.0070396629277110958 0.025952450113748728 0 -0.0016341732468888898 0.026712375946966058 0 -0.002060165618000378 0.025528073233663552 0 -0.0013788751399171374 0.025021253082905318 0 0.0030991107491619607 0.026203109021508787 0 0.0047152123701920436 0.02651751242157243 0 0.003382210999729423 0.024301568297525347 0 0.0026699236486161172 0.025538584018915036 0 0.0012971985188370023 0.025228753416907664 0 -0.0016341732468888898 0.026712375946966058 0 -0.002060165618000378 0.025528073233663552 0 -0.0024540900418965916 0.025929683559608698 0 0.0016240990151806978 0.024948959556026003 0 0.0013865341219038783 0.02648560867101905 0 -0.00057273209798009025 0.024523167158422138 0 0.0077912221733718026 0.024063399517459692 0 0.0077628202693665865 0.024335322220135371 0 0.0083622431046146608 0.024174232411008013 0 0.0026699236486161172 0.025538584018915036 0 0.0028533491450829893 0.024735118342047595 0 0.0083635771859918266 0.024762857409270266 0 0.0077628202693665865 0.024335322220135371 0 0.0083389632061077745 0.024484219763020579 0 0.0089209130159526827 0.025064903538782685 0 0.0070396629277110958 0.025952450113748728 0 0.0077628202693665865 0.024335322220135371 0 0.0083622431046146608 0.024174232411008013 0 0.0083389632061077745 0.024484219763020579 0 0.0085880669096455326 0.024607897200181583 0 0.0083622431046146608 0.024174232411008013 0 0.0083389632061077745 0.024484219763020579 0 0.0091178518650320388 0.025531507281707048 0 0.0094296719265469474 0.026108879133670798 0 0.0085010621543961801 0.02595355862669825 0 0.0086084450499097891 0.025420304781556245 0 0.0091178518650320388 0.025531507281707048 0 0.0085010621543961801 0.02595355862669825 0 0.0070396629277110958 0.025952450113748728 0 0.0070228165505497606 0.026421053860150936 0 0.0055132882478277252 0.026783692900487769 0 0.0056644468111253709 0.026355709212594253 0 0.0051789253629441262 0.026308302459659771 0 0.0060039535065293265 0.026514270966500088 0 0.0055132882478277252 0.026783692900487769 0 0.0056644468111253709 0.026355709212594253 0 0.0047376531710822158 0.026632199027469331 0 0.0051789253629441262 0.026308302459659771 0 0.0048487942059488335 0.025983552012780648 0 0.0047376531710822158 0.026632199027469331 0 0.0055132882478277252 0.026783692900487769 0 0.0051789253629441262 0.026308302459659771 0 0.0051789253629441262 0.026308302459659771 0 0.0051662772350934815 0.025765584300800646 0 0.0048487942059488335 0.025983552012780648 0 0.0051789253629441262 0.026308302459659771 0 0.0056060742254882305 0.025885960746297742 0 0.0051662772350934815 0.025765584300800646 0 0.0056644468111253709 0.026355709212594253 0 0.0051789253629441262 0.026308302459659771 0 0.0056060742254882305 0.025885960746297742 0 0.0060587547147890677 0.026225487904433326 0 0.0056644468111253709 0.026355709212594253 0 0.0056060742254882305 0.025885960746297742 0 0.0056060742254882305 0.025885960746297742 0 0.0053757013600316834 0.025580324542000338 0 0.005623944364186141 0.02533122767605539 0 0.0058635434730492098 0.025441029767965112 0 0.0043542234398293266 0.026228074816533411 0 0.0056060742254882305 0.025885960746297742 0 0.0053757013600316834 0.025580324542000338 0 0.0051662772350934815 0.025765584300800646 0 0.0051662772350934815 0.025765584300800646 0 0.0047605910310664721 0.025726909570267926 0 0.0051026321393717999 0.025348121440770557 0 0.0053757013600316834 0.025580324542000338 0 0.0051662772350934815 0.025765584300800646 0 0.0051026321393717999 0.025348121440770557 0 0.0051662772350934815 0.025765584300800646 0 0.0047605910310664721 0.025726909570267926 0 0.0048487942059488335 0.025983552012780648 0 0.0047605910310664721 0.025726909570267926 0 0.0043534314592589126 0.025950209898464485 0 0.0044714964128157973 0.025510748962475804 0 0.0047605910310664721 0.025726909570267926 0 0.0044714964128157973 0.025510748962475804 0 0.0051026321393717999 0.025348121440770557 0 0.0047376531710822158 0.026632199027469331 0 0.0048487942059488335 0.025983552012780648 0 0.0043534314592589126 0.025950209898464485 0 0.0047605910310664721 0.025726909570267926 0 0.0048487942059488335 0.025983552012780648 0 0.0043534314592589126 0.025950209898464485 0 0.0012971985188370023 0.025228753416907664 0 -0.0014578713910409814 0.023843855253464181 0 -0.002060165618000378 0.025528073233663552 0 -0.0013788751399171374 0.025021253082905318 0 -0.0022645080748787644 0.024746707508183276 0 -0.0013788751399171374 0.025021253082905318 0 -0.0018410395214528753 0.02421040840357782 0 -0.0022645080748787644 0.024746707508183276 0 0.0043534314592589126 0.025950209898464485 0 0.0044984111894496087 0.025523143534048404 0 0.0044714964128157973 0.025510748962475804 0 -0.0018410395214528753 0.02421040840357782 0 -0.00096650342267765477 0.022946462855032063 0 -0.0024500427811244871 0.023973502156370528 0 0.0012971985188370023 0.025228753416907664 0 0.0017660520373998288 0.025459807484917388 0 -0.0013116838229477188 0.025093699070412024 0 -0.0018410395214528753 0.02421040840357782 0 -0.00096650342267765477 0.022946462855032063 0 0.0017660520373998288 0.025459807484917388 0 -0.0018265184053676748 0.025873101747836413 0 6.1869846245374976e-05 0.027175344296371081 0 -0.00023565950470499556 0.026696804351753534 0 -0.00043415955931734655 0.027116313973786981 0 6.1869846245374976e-05 0.027175344296371081 0 -0.00043415955931734655 0.027116313973786981 0 -0.00051269997085373858 0.027576825832011827 0 0.0044984111894496087 0.025523143534048404 0 0.0044714964128157973 0.025510748962475804 0 0.0042320380805142954 0.026090853945283349 0 0.0044714964128157973 0.025510748962475804 0 0.0042320380805142954 0.026090853945283349 0 0.003193013058188959 0.025829820951193749 0 0.0049113634502309361 0.025587601465702381 0 0.0042320380805142954 0.026090853945283349 0 0.0046834460430122257 0.027127500899342474 0 0.0017660520373998288 0.025459807484917388 0 0.0045620428105556067 0.025403875862071129 0 0.0042320380805142954 0.026090853945283349 0 0.0046834460430122257 0.027127500899342474 0 0.0035089400666882074 0.026805908611596648 0 0.0017660520373998288 0.025459807484917388 0 0.0017428215709142068 0.026577377414752811 0 0.0017428215709142068 0.026577377414752811 0 0.0027651475269814428 0.026580269551467889 0 0.0001771574133698804 0.026458185437709811 0 -0.00023565950470499556 0.026696804351753534 0 -0.00043896185090415185 0.026274898801611407 0 6.1869846245374976e-05 0.027175344296371081 0 0.0001771574133698804 0.026458185437709811 0 -0.00023565950470499556 0.026696804351753534 0 0.0043542234398293266 0.026228074816533411 0 0.0041005040122147462 0.025513330786380302 0 0.0026124127260762939 0.026042796687568356 0 0.0028516852621513263 0.025985209447701767 0 0.0030782723496421854 0.025656209497803704 0 0.0053757013600316834 0.025580324542000338 0 0.005623944364186141 0.02533122767605539 0 0.0051026321393717999 0.025348121440770557 0 0.0026124127260762939 0.026042796687568356 0 0.0028516852621513263 0.025985209447701767 0 0.0027081062199833766 0.026222991049114752 0 0.002994928784830968 0.026116673321458811 0 0.003193013058188959 0.025829820951193749 0 0.0032819299651768927 0.026454957482772764 0 0.0042320380805142954 0.026090853945283349 0 0.003193013058188959 0.025829820951193749 0 0.0035089400666882074 0.026805908611596648 0 0.0032136883340719413 0.025976312804604842 0 0.0027651475269814428 0.026580269551467889 0 0.0044714964128157973 0.025510748962475804 0 0.0030782723496421854 0.025656209497803704 0 0.003193013058188959 0.025829820951193749 0 0.0044581239028374268 0.025506574329897957 0 0.0041005040122147462 0.025513330786380302 0 0.0028516852621513263 0.025985209447701767 0 0.002994928784830968 0.026116673321458811 0 0.003193013058188959 0.025829820951193749 0 0.0028516852621513263 0.025985209447701767 0 0.002994928784830968 0.026116673321458811 0 0.0027081062199833766 0.026222991049114752 0 0.0028516852621513263 0.025985209447701767 0 0.0030782723496421854 0.025656209497803704 0 0.003193013058188959 0.025829820951193749 0 0.0022010294864206227 0.02626408326492409 0 0.0027081062199833766 0.026222991049114752 0 0.0024932007553776724 0.025947782470325094 0 0.002994928784830968 0.026116673321458811 0 0.0032819299651768927 0.026454957482772764 0 0.0027081062199833766 0.026222991049114752 0 0.0027651475269814428 0.026580269551467889 0 0.0026590971547248263 0.026286785829615876 0 0.002924676724662483 0.026106102044425383 0 0.0027081062199833766 0.026222991049114752 0 0.0024932007553776724 0.025947782470325094 0 0.002924676724662483 0.026106102044425383 0 0.0026124127260762939 0.026042796687568356 0 0.0027081062199833766 0.026222991049114752 0 0.00295747490772624 0.026316473201744489 0 0.0043542234398293266 0.026228074816533411 0 0.002924676724662483 0.026106102044425383 0 0.0024932007553776724 0.025947782470325094 0 0.0028093740028581845 0.025545481875385762 0 0.0027651475269814428 0.026580269551467889 0 0.0016157636628233846 0.025794376069755015 0 0.0022010294864206227 0.02626408326492409 0 0.0024932007553776724 0.025947782470325094 0 0.0017950459855139106 0.025768363548880992 0 0.0024932007553776724 0.025947782470325094 0 0.0023849301649179195 0.02499999492135023 0 0.0017950459855139106 0.025768363548880992 0 0.0023849301649179195 0.02499999492135023 0 0.0017950459855139106 0.025768363548880992 0 0.0013029692086889873 0.02499986053791612 0 0.0034669062037499701 0.02499997088748112 0 0.0023849301649179195 0.02499999492135023 0 0.0028093740028581845 0.025545481875385762 0 0.0024932007553776724 0.025947782470325094 0 0.0023849301649179195 0.02499999492135023 0 0.0028093740028581845 0.025545481875385762 0 0.00087793040173604966 0.026695732322975473 0 0.00048860582426351088 0.02614716801720237 0 -0.00018450748097439498 0.026372873696495516 0 0.0017428215709142068 0.026577377414752811 0 -0.00057294630053611212 0.026266782024905327 0 0.00048860582426351088 0.02614716801720237 0 0.0010059211551921138 0.02584013176225846 0 0.00025109477514597789 0.025682852337894014 0 0.00048860582426351088 0.02614716801720237 0 0.00025109477514597789 0.025682852337894014 0 -0.00018450748097439498 0.026372873696495516 0 0.00093382674157125743 0.0265988827023746 0 0.0015449065880062825 0.025931814785016744 0 0.0010466691552175234 0.025802922024307097 0 0.00093382674157125743 0.0265988827023746 0 0.0017755848981769245 0.026855883084388618 0 0.0015449065880062825 0.025931814785016744 0 0.0017428215709142068 0.026577377414752811 0 0.0010221814927505188 0.025852544332966843 0 0.00087793040173604966 0.026695732322975473 0 0.00048860582426351088 0.02614716801720237 0 0.0010059211551921138 0.02584013176225846 0 0.0010466691552175234 0.025802922024307097 0 0.0013024209564372567 0.025000017159141633 0 0.001142785631465835 0.024999979781820274 0 0.0016157636628233846 0.025794376069755015 0 0.0013026317078200492 0.025000200922637612 0 0.0010221814927505188 0.025852544332966843 0 0.0011426679498598691 0.025000203172405432 0 0.0010059211551921138 0.02584013176225846 0 0.0011426808181998814 0.024999990509272096 0 0.00025109477514597789 0.025682852337894014 0 0.0015449065880062825 0.025931814785016744 0 0.0010466691552175234 0.025802922024307097 0 0.0013024209564372567 0.025000017159141633 0 0.0011426808181998814 0.024999990509272096 0 0.00025109477514597789 0.025682852337894014 0 -0.00035254078080071026 0.024999978437653312 0 0.00025109477514597789 0.025682852337894014 0 -0.00056864663346490522 0.025702702277969797 0 -0.00035254078080071026 0.024999978437653312 0 0.00025109477514597789 0.025682852337894014 0 -0.00056864663346490522 0.025702702277969797 0 -0.00018450748097439498 0.026372873696495516 0 -0.00071720614803050644 0.026270865381042733 0 -0.00043896185090415185 0.026274898801611407 0 -0.0012785232108298847 0.026006412355456084 0 -0.00057294630053611212 0.026266782024905327 0 -0.001107247878586292 0.026060502213892681 0 -0.00056864663346490522 0.025702702277969797 0 -0.00018450748097439498 0.026372873696495516 0 -0.0012785232108298847 0.026006412355456084 0 -0.00056864663346490522 0.025702702277969797 0 -0.0012785232108298847 0.026006412355456084 0 -0.0018478666058996522 0.024999923902892331 0 -0.00056864663346490522 0.025702702277969797 0 -0.00035254078080071026 0.024999978437653312 0 -0.0018478666058996522 0.024999923902892331 0 -0.0012785232108298847 0.026006412355456084 0 -0.0018478666058996522 0.024999923902892331 0 -0.0026188350159269428 0.026011983734728263 0 -0.0018478666058996522 0.024999923902892331 0 -0.0026188350159269428 0.026011983734728263 0 -0.0033431532993579709 0.024999934925262878 0 -0.0026188350159269428 0.026011983734728263 0 -0.0037589025254049246 0.026033250088237786 0 -0.0035947780856859946 0.026997517105784307 0 -0.0012785232108298847 0.026006412355456084 0 -0.0026188350159269428 0.026011983734728263 0 -0.0019206995209622459 0.026525123890610326 0 -0.0019206995209622459 0.026525123890610326 0 -0.0023566061290117364 0.027194649846763515 0 -0.0012402468787871064 0.027188020899562775 0 -0.0026188350159269428 0.026011983734728263 0 -0.0019206995209622459 0.026525123890610326 0 -0.0023566061290117364 0.027194649846763515 0 -0.0026188350159269428 0.026011983734728263 0 -0.0023566061290117364 0.027194649846763515 0 -0.0035947780856859946 0.026997517105784307 0 -0.0036577167125691067 0.027022555680193842 0 -0.0035820879413010812 0.027689014326084754 0 -0.0023566061290117364 0.027194649846763515 0 -0.0035947780856859946 0.026997517105784307 0 -0.003024288571684128 0.028142110165634365 0 -0.0023566061290117364 0.027194649846763515 0 -0.0018742237792619095 0.028202835145618523 0 -0.003024288571684128 0.028142110165634365 0 -0.0023566061290117364 0.027194649846763515 0 -0.0012402468787871064 0.027188020899562775 0 -0.0018742237792619095 0.028202835145618523 0 -0.0011640480485654544 0.026994773779073788 0 -0.0015855062655552579 0.027835259656495224 0 -0.00085991336632849523 0.027193184504784459 0 -0.0010725315774803264 0.026820513440503253 0 -0.0014693367924134666 0.027384630548924593 0 -0.00085991336632849523 0.027193184504784459 0 -0.00043415955931734655 0.027116313973786981 0 -0.0006713379722598238 0.027351342971315189 0 -0.00085991336632849523 0.027193184504784459 0 -0.00043415955931734655 0.027116313973786981 0 -0.00060952075448975985 0.026724420170394839 0 -0.00085991336632849523 0.027193184504784459 0 -0.00060952075448975985 0.026724420170394839 0 -0.0010725315774803264 0.026820513440503253 0 -0.00023565950470499556 0.026696804351753534 0 -0.00043415955931734655 0.027116313973786981 0 -0.00060952075448975985 0.026724420170394839 0 -0.00071720614803050644 0.026270865381042733 0 -0.00060952075448975985 0.026724420170394839 0 -0.0010725315774803264 0.026820513440503253 0 -0.00071720614803050644 0.026270865381042733 0 -0.00043896185090415185 0.026274898801611407 0 -0.00060952075448975985 0.026724420170394839 0 -0.00023565950470499556 0.026696804351753534 0 -0.00043896185090415185 0.026274898801611407 0 -0.00060952075448975985 0.026724420170394839 0 -0.00071720614803050644 0.026270865381042733 0 -0.0012785232108298847 0.026006412355456084 0 -0.0012402468787871064 0.027188020899562775 0 -0.0012785232108298847 0.026006412355456084 0 -0.0019206995209622459 0.026525123890610326 0 -0.0012402468787871064 0.027188020899562775 0 -0.00074698754411263088 0.026331211845406696 0 -0.0011640480485654544 0.026994773779073788 0 -0.0056124497980215311 0.02572099708590702 0 -0.0055019161577478338 0.026696532679125164 0 -0.0066748193369926189 0.026097792974514464 0 -0.0056124497980215311 0.02572099708590702 0 -0.0048382100626848962 0.024999927728840257 0 -0.0063334369180402996 0.024999833427828553 0 -0.0056124497980215311 0.02572099708590702 0 -0.0063334369180402996 0.024999833427828553 0 -0.0066748193369926189 0.026097792974514464 0 -0.0056124497980215311 0.02572099708590702 0 -0.0048382100626848962 0.024999927728840257 0 -0.0048094571740720984 0.026119291830765459 0 -0.0056124497980215311 0.02572099708590702 0 -0.0048094571740720984 0.026119291830765459 0 -0.0055019161577478338 0.026696532679125164 0 -0.0048382100626848962 0.024999927728840257 0 -0.0048094571740720984 0.026119291830765459 0 -0.0037589025254049246 0.026033250088237786 0 -0.0048382100626848962 0.024999927728840257 0 -0.0033431532993579709 0.024999934925262878 0 -0.0037589025254049246 0.026033250088237786 0 -0.0026188350159269428 0.026011983734728263 0 -0.0033431532993579709 0.024999934925262878 0 -0.0037589025254049246 0.026033250088237786 0 -0.0037589025254049246 0.026033250088237786 0 -0.0035947780856859946 0.026997517105784307 0 -0.0043321377782978088 0.027058859786215892 0 -0.0039703894931023285 0.027250033285341747 0 -0.004099872177348864 0.027469341052478509 0 -0.004147986475010159 0.027254928933602564 0 -0.0035947780856859946 0.026997517105784307 0 -0.0039703894931023285 0.027250033285341747 0 -0.004147986475010159 0.027254928933602564 0 -0.0035947780856859946 0.026997517105784307 0 -0.0039703894931023285 0.027250033285341747 0 -0.0043321377782978088 0.027058859786215892 0 -0.0039703894931023285 0.027250033285341747 0 -0.0043321377782978088 0.027058859786215892 0 -0.004099872177348864 0.027469341052478509 0 -0.0043321377782978088 0.027058859786215892 0 -0.0051079448389185515 0.027509753205540621 0 -0.004099872177348864 0.027469341052478509 0 -0.0048094571740720984 0.026119291830765459 0 -0.0037589025254049246 0.026033250088237786 0 -0.0043321377782978088 0.027058859786215892 0 -0.0048094571740720984 0.026119291830765459 0 -0.0043321377782978088 0.027058859786215892 0 -0.0055019161577478338 0.026696532679125164 0 -0.0043321377782978088 0.027058859786215892 0 -0.0051079448389185515 0.027509753205540621 0 -0.0055019161577478338 0.026696532679125164 0 -0.0051079448389185515 0.027509753205540621 0 -0.0055019161577478338 0.026696532679125164 0 -0.0063502214901593893 0.027200545582512333 0 -0.0054752209074079104 0.027060811847853125 0 -0.0065252049331509382 0.026858094823380623 0 -0.0055019161577478338 0.026696532679125164 0 -0.0063502214901593893 0.027200545582512333 0 -0.0066748193369926189 0.026097792974514464 0 -0.0064496199397362473 0.02709008678897128 0 -0.0057319030645796272 0.027263676150948969 0 -0.0062526371662542596 0.027705045299051236 0 -0.0058336680754390311 0.026631722215320078 0 -0.0064496199397362473 0.02709008678897128 0 -0.006710021394314097 0.026523168783597145 0 -0.0058336680754390311 0.026631722215320078 0 -0.0064496199397362473 0.02709008678897128 0 -0.0057319030645796272 0.027263676150948969 0 -0.0057319030645796272 0.027263676150948969 0 -0.0050816927324922522 0.026822438479096117 0 -0.0051463632088287765 0.027436586130197331 0 -0.0054752209074079104 0.027060811847853125 0 -0.0046243496340489373 0.027149298542713099 0 -0.0058336680754390311 0.026631722215320078 0 -0.0057319030645796272 0.027263676150948969 0 -0.0050816927324922522 0.026822438479096117 0 -0.0046243496340489373 0.027149298542713099 0 -0.0043308021439575949 0.027182828038020697 0 -0.0050816927324922522 0.026822438479096117 0 -0.0047738075367246384 0.027323379359709379 0 -0.0043030000321559961 0.027185553777359293 0 -0.0050816927324922522 0.026822438479096117 0 -0.0047738075367246384 0.027323379359709379 0 -0.0051463632088287765 0.027436586130197331 0 -0.0057319030645796272 0.027263676150948969 0 -0.0053959335748551933 0.027822372162593811 0 -0.0051463632088287765 0.027436586130197331 0 -0.004881848420083934 0.027504976013836304 0 -0.0049982892287741831 0.027623736433546351 0 -0.0051463632088287765 0.027436586130197331 0 -0.0047738075367246384 0.027323379359709379 0 -0.004881848420083934 0.027504976013836304 0 -0.0047291138924789172 0.027444907753768934 0 -0.0047738075367246384 0.027323379359709379 0 -0.004881848420083934 0.027504976013836304 0 -0.0051463632088287765 0.027436586130197331 0 -0.004881848420083934 0.027504976013836304 0 -0.0048252260559123582 0.027547181709875045 0 -0.0047245986751933804 0.02749149882675667 0 -0.004881848420083934 0.027504976013836304 0 -0.0048252260559123582 0.027547181709875045 0 -0.0049982892287741831 0.027623736433546351 0 -0.0048252260559123582 0.027547181709875045 0 -0.0048432883725679976 0.027560338901765055 0 -0.0049982892287741831 0.027623736433546351 0 -0.0048432883725679976 0.027560338901765055 0 -0.0049982892287741831 0.027623736433546351 0 -0.004819202880742589 0.027569180539059514 0 -0.010138910884447849 0.025025016476306148 0 -0.0097950478600519648 0.024228921945386343 0 -0.0049982892287741831 0.027623736433546351 0 -0.0053959335748551933 0.027822372162593811 0 -0.004819202880742589 0.027569180539059514 0 -0.0049982892287741831 0.027623736433546351 0 -0.0053959335748551933 0.027822372162593811 0 -0.0051463632088287765 0.027436586130197331 0 -0.0057319030645796272 0.027263676150948969 0 -0.0053959335748551933 0.027822372162593811 0 -0.0062526371662542596 0.027705045299051236 0 -0.010138910884447849 0.025025016476306148 0 -0.0099143041830006742 0.025395383221145231 0 -0.014673109936671704 0.022210963622765797 0 -0.013527159335104139 0.021924799532665407 0 -0.013601454051729399 0.023091913971106572 0 -0.013527159335104139 0.021924799532665407 0 -0.013601454051729399 0.023091913971106572 0 -0.012548156979975248 0.022652578874968611 0 -0.0038868932147890496 0.024998838287748345 0 -0.0049135151464939873 0.025923359814104846 0 -0.0043506444149305126 0.026065952907689465 0 -0.0038868932147890496 0.024998838287748345 0 -0.003687388878176487 0.025719088762603624 0 -0.0043506444149305126 0.026065952907689465 0 -0.0010964545735508817 0.027977869023502126 0 -0.0013972575732652125 0.027795905741436706 0 -0.0015111819678035017 0.028028433512711889 0 -0.0038868932147890496 0.024998838287748345 0 -0.0030040271090079704 0.025177255403378906 0 -0.003687388878176487 0.025719088762603624 0 -0.0030040271090079704 0.025177255403378906 0 -0.003687388878176487 0.025719088762603624 0 -0.0031791980081714807 0.0257181893755665 0 -0.0038868932147890496 0.024998838287748345 0 -0.0030040271090079704 0.025177255403378906 0 -0.0024500427811244871 0.023973502156370528 0 -0.0028780298109698575 0.02562700023875317 0 -0.0030040271090079704 0.025177255403378906 0 -0.0031791980081714807 0.0257181893755665 0 -0.0028780298109698575 0.02562700023875317 0 -0.0030040271090079704 0.025177255403378906 0 -0.0025571261606602532 0.025247518197010179 0 -0.002060165618000378 0.025528073233663552 0 -0.0025571261606602532 0.025247518197010179 0 -0.0022645080748787644 0.024746707508183276 0 -0.0028780298109698575 0.02562700023875317 0 -0.0025571261606602532 0.025247518197010179 0 -0.0024540900418965916 0.025929683559608698 0 -0.002060165618000378 0.025528073233663552 0 -0.0025571261606602532 0.025247518197010179 0 -0.0024540900418965916 0.025929683559608698 0 -0.0030040271090079704 0.025177255403378906 0 -0.0025571261606602532 0.025247518197010179 0 -0.0022645080748787644 0.024746707508183276 0 -0.0030040271090079704 0.025177255403378906 0 -0.0022645080748787644 0.024746707508183276 0 -0.0024500427811244871 0.023973502156370528 0 -0.0010964545735508817 0.027977869023502126 0 -0.00051269997085373858 0.027576825832011827 0 -0.00097422969229520951 0.027569683031711839 0 -0.0023539791590331 0.026430364297269821 0 -0.0018265184053676748 0.025873101747836413 0 -0.0018410395214528753 0.02421040840357782 0 -0.0022645080748787644 0.024746707508183276 0 -0.0024500427811244871 0.023973502156370528 0 -0.00043415955931734655 0.027116313973786981 0 -0.00051269997085373858 0.027576825832011827 0 -0.0006713379722598238 0.027351342971315189 0 -0.00051269997085373858 0.027576825832011827 0 -0.0006713379722598238 0.027351342971315189 0 -0.00097422969229520951 0.027569683031711839 0 -0.00085991336632849523 0.027193184504784459 0 -0.0006713379722598238 0.027351342971315189 0 -0.00097422969229520951 0.027569683031711839 0 -0.00097422969229520951 0.027569683031711839 0 -0.0014693367924134666 0.027384630548924593 0 -0.0013972575732652125 0.027795905741436706 0 -0.00085991336632849523 0.027193184504784459 0 -0.00097422969229520951 0.027569683031711839 0 -0.0014693367924134666 0.027384630548924593 0 -0.0010964545735508817 0.027977869023502126 0 -0.00097422969229520951 0.027569683031711839 0 -0.0013972575732652125 0.027795905741436706 0 -0.0015855062655552579 0.027835259656495224 0 -0.0033301744932365445 0.027949255557816233 0 -0.0014693367924134666 0.027384630548924593 0 -0.0013972575732652125 0.027795905741436706 0 -0.001867360616462908 0.02796237270091587 0 -0.0018742237792619095 0.028202835145618523 0 -0.003024288571684128 0.028142110165634365 0 -0.0025318155799528095 0.029204126710990569 0 -0.004099872177348864 0.027469341052478509 0 -0.004147986475010159 0.027254928933602564 0 -0.0043030000321559961 0.027185553777359293 0 -0.004147986475010159 0.027254928933602564 0 -0.0043030000321559961 0.027185553777359293 0 -0.0044282613848851552 0.027201269489618353 0 -0.0035820879413010812 0.027689014326084754 0 -0.0033301744932365445 0.027949255557816233 0 -0.0047738075367246384 0.027323379359709379 0 -0.0043030000321559961 0.027185553777359293 0 -0.0045731096943835113 0.027310617730809006 0 -0.0043030000321559961 0.027185553777359293 0 -0.0045731096943835113 0.027310617730809006 0 -0.0044282613848851552 0.027201269489618353 0 -0.0046689949785730517 0.027495538442728343 0 -0.0046415310829717562 0.027444898704314116 0 -0.0046709425359004022 0.027460296825006718 0 -0.0045731096943835113 0.027310617730809006 0 -0.0044282613848851552 0.027201269489618353 0 -0.0046415310829717562 0.027444898704314116 0 -0.0033301744932365445 0.027949255557816233 0 -0.0045395560359073562 0.027533532655766007 0 -0.0047738075367246384 0.027323379359709379 0 -0.0045731096943835113 0.027310617730809006 0 -0.0047291138924789172 0.027444907753768934 0 -0.0045731096943835113 0.027310617730809006 0 -0.0047291138924789172 0.027444907753768934 0 -0.0046415310829717562 0.027444898704314116 0 -0.0023539791590331 0.026430364297269821 0 -0.0036852416177621072 0.027179225521994553 0 -0.0010964545735508817 0.027977869023502126 0 -0.0015111819678035017 0.028028433512711889 0 -0.0016842745974476119 0.028377451272215557 0 -0.0013972575732652125 0.027795905741436706 0 -0.0015111819678035017 0.028028433512711889 0 -0.001867360616462908 0.02796237270091587 0 -0.0033301744932365445 0.027949255557816233 0 -0.0036852416177621072 0.027179225521994553 0 -0.0046689949785730517 0.027495538442728343 0 -0.0046771389360240993 0.027457339653621855 0 -0.0046709425359004022 0.027460296825006718 0 -0.0015111819678035017 0.028028433512711889 0 -0.001867360616462908 0.02796237270091587 0 -0.0016842745974476119 0.028377451272215557 0 -0.0047342422763619304 0.027505616748000603 0 -0.0048045303219476148 0.027416350746622891 0 -0.0047348634080728548 0.027453517339863742 0 -0.0049135151464939873 0.025923359814104846 0 -0.0044808052248939004 0.026459619335694788 0 -0.0043506444149305126 0.026065952907689465 0 -0.0036852416177621072 0.027179225521994553 0 -0.004765005384979544 0.026781796417979811 0 -0.0036852416177621072 0.027179225521994553 0 -0.0046186759942829945 0.02762270551762883 0 -0.0046771389360240993 0.027457339653621855 0 -0.0046709425359004022 0.027460296825006718 0 -0.0046917148793369423 0.02747111734240941 0 -0.0047342422763619304 0.027505616748000603 0 -0.0046917148793369423 0.02747111734240941 0 -0.0047348634080728548 0.027453517339863742 0 -0.0047291138924789172 0.027444907753768934 0 -0.0046415310829717562 0.027444898704314116 0 -0.0047245986751933804 0.02749149882675667 0 -0.0046415310829717562 0.027444898704314116 0 -0.0046917148793369423 0.02747111734240941 0 -0.0047245986751933804 0.02749149882675667 0 -0.0046415310829717562 0.027444898704314116 0 -0.0046709425359004022 0.027460296825006718 0 -0.0046917148793369423 0.02747111734240941 0 -0.0046917148793369423 0.02747111734240941 0 -0.0047247906446080479 0.027475528300916666 0 -0.0047245986751933804 0.02749149882675667 0 -0.0046917148793369423 0.02747111734240941 0 -0.0047247906446080479 0.027475528300916666 0 -0.0047348634080728548 0.027453517339863742 0 -0.0047247906446080479 0.027475528300916666 0 -0.0047245986751933804 0.02749149882675667 0 -0.0047518509072359888 0.027497885344869764 0 -0.004881848420083934 0.027504976013836304 0 -0.0047291138924789172 0.027444907753768934 0 -0.0047245986751933804 0.02749149882675667 0 -0.0048252260559123582 0.027547181709875045 0 -0.0047518509072359888 0.027497885344869764 0 -0.0047742405685000221 0.027495630361612566 0 -0.0048252260559123582 0.027547181709875045 0 -0.0047245986751933804 0.02749149882675667 0 -0.0047518509072359888 0.027497885344869764 0 -0.0047518509072359888 0.027497885344869764 0 -0.0047428429805837372 0.027458500540743055 0 -0.0047742405685000221 0.027495630361612566 0 -0.0047247906446080479 0.027475528300916666 0 -0.0047518509072359888 0.027497885344869764 0 -0.0047428429805837372 0.027458500540743055 0 -0.0047247906446080479 0.027475528300916666 0 -0.0047428429805837372 0.027458500540743055 0 -0.0047348634080728548 0.027453517339863742 0 -0.0047428429805837372 0.027458500540743055 0 -0.0047742405685000221 0.027495630361612566 0 -0.0047616864716731825 0.027392977031035704 0 -0.0048252260559123582 0.027547181709875045 0 -0.0048432883725679976 0.027560338901765055 0 -0.0047742405685000221 0.027495630361612566 0 -0.0048432883725679976 0.027560338901765055 0 -0.0047742405685000221 0.027495630361612566 0 -0.0047997105662348511 0.027517396280196546 0 -0.0048045303219476148 0.027416350746622891 0 -0.0047571431717540269 0.027404233845763407 0 -0.0047762391624772919 0.027267397475132078 0 -0.0047428429805837372 0.027458500540743055 0 -0.0047348634080728548 0.027453517339863742 0 -0.0047571431717540269 0.027404233845763407 0 -0.0048045303219476148 0.027416350746622891 0 -0.0047348634080728548 0.027453517339863742 0 -0.0047571431717540269 0.027404233845763407 0 -0.0047428429805837372 0.027458500540743055 0 -0.0047571431717540269 0.027404233845763407 0 -0.0047616864716731825 0.027392977031035704 0 -0.004765005384979544 0.026781796417979811 0 -0.004570495352057456 0.027002474125512724 0 -0.0044808052248939004 0.026459619335694788 0 -0.0043098336180769194 0.026507457522489879 0 -0.0044190095004642627 0.026692070764799576 0 -0.0043098336180769194 0.026507457522489879 0 -0.0042644989682084867 0.026314984199472993 0 -0.0041304659436763175 0.026366423027447031 0 -0.0044808052248939004 0.026459619335694788 0 -0.0043098336180769194 0.026507457522489879 0 -0.0042644989682084867 0.026314984199472993 0 -0.0044808052248939004 0.026459619335694788 0 -0.0042644989682084867 0.026314984199472993 0 -0.0043506444149305126 0.026065952907689465 0 -0.004480396652737046 0.02618694867541815 0 -0.0027076609064602716 0.025546153892122676 0 -0.003687388878176487 0.025719088762603624 0 -0.0043506444149305126 0.026065952907689465 0 -0.0030167565396456886 0.026188808113895033 0 -0.0042644989682084867 0.026314984199472993 0 -0.0043506444149305126 0.026065952907689465 0 -0.0039977496392265494 0.02617067375792843 0 -0.0043506444149305126 0.026065952907689465 0 -0.0030167565396456886 0.026188808113895033 0 -0.0027147880083947451 0.02651817548808896 0 -0.0024540900418965916 0.025929683559608698 0 -0.0030167565396456886 0.026188808113895033 0 -0.0026922090217898834 0.026512794549039514 0 -0.0028780298109698575 0.02562700023875317 0 -0.0031791980081714807 0.0257181893755665 0 -0.0030167565396456886 0.026188808113895033 0 -0.003687388878176487 0.025719088762603624 0 -0.0031791980081714807 0.0257181893755665 0 -0.0030167565396456886 0.026188808113895033 0 -0.0028780298109698575 0.02562700023875317 0 -0.0024540900418965916 0.025929683559608698 0 -0.0030167565396456886 0.026188808113895033 0 -0.0042644989682084867 0.026314984199472993 0 -0.0039977496392265494 0.02617067375792843 0 -0.0041304659436763175 0.026366423027447031 0 -0.0026463000689678569 0.025857338168565946 0 -0.0027076609064602716 0.025546153892122676 0 -0.0016341732468888898 0.026712375946966058 0 -0.0024540900418965916 0.025929683559608698 0 -0.0026922090217898834 0.026512794549039514 0 0.0026699236486161172 0.025538584018915036 0 -0.0027076609064602716 0.025546153892122676 0 0.0028533491450829893 0.024735118342047595 0 -0.0027076609064602716 0.025546153892122676 0 -0.0043098336180769194 0.026507457522489879 0 -0.0041304659436763175 0.026366423027447031 0 -0.0042223265127793001 0.026632313342218415 0 -0.0036924833888896435 0.026905915860050582 0 -0.003648615381105556 0.026432678451202469 0 -0.0041304659436763175 0.026366423027447031 0 -0.003648615381105556 0.026432678451202469 0 -0.0039977496392265494 0.02617067375792843 0 -0.0041304659436763175 0.026366423027447031 0 -0.00019722254467842887 0.024693818543134464 0 -0.0050177353606206225 0.026851535776383276 0 -0.0040818306615021628 0.026703231703503465 0 -0.0041304659436763175 0.026366423027447031 0 -0.0042223265127793001 0.026632313342218415 0 -0.0042223265127793001 0.026632313342218415 0 -0.0041819944652575986 0.026715514764828467 0 -0.0044978471785368096 0.027022976875344697 0 -0.0040818306615021628 0.026703231703503465 0 -0.0042223265127793001 0.026632313342218415 0 -0.0041819944652575986 0.026715514764828467 0 -0.0040818306615021628 0.026703231703503465 0 -0.0040968951511622612 0.026809150338455927 0 -0.0041660814379917014 0.026798606617803374 0 -0.0040818306615021628 0.026703231703503465 0 -0.0041819944652575986 0.026715514764828467 0 -0.0041660814379917014 0.026798606617803374 0 -0.0047913854094684283 0.027197027774539487 0 -0.0047382572869043111 0.027095352212021803 0 -0.0047762391624772919 0.027267397475132078 0 -0.0042223265127793001 0.026632313342218415 0 -0.0044190095004642627 0.026692070764799576 0 -0.0044978471785368096 0.027022976875344697 0 -0.0048045303219476148 0.027416350746622891 0 -0.0047913854094684283 0.027197027774539487 0 -0.0047762391624772919 0.027267397475132078 0 -0.0043098336180769194 0.026507457522489879 0 -0.0042223265127793001 0.026632313342218415 0 -0.0044190095004642627 0.026692070764799576 0 -0.004570495352057456 0.027002474125512724 0 -0.0045097455771954068 0.027041183398365764 0 -0.0047913854094684283 0.027197027774539487 0 -0.0047382572869043111 0.027095352212021803 0 -0.0044978471785368096 0.027022976875344697 0 -0.00030830267523813737 0.023209028535139769 0 -0.0022246386821736463 0.01646916759236703 0 -0.0040985648310234313 0.026805283660498842 0 -0.004261469725202899 0.026945012841228157 0 -0.0042181842242069714 0.027092443282905661 0 -0.0041819944652575986 0.026715514764828467 0 -0.0041660814379917014 0.026798606617803374 0 -0.0044978471785368096 0.027022976875344697 0 -0.0040985648310234313 0.026805283660498842 0 -0.0041660814379917014 0.026798606617803374 0 -0.004261469725202899 0.026945012841228157 0 -0.00030830267523813737 0.023209028535139769 0 -0.001657872969827097 0.023503659453686217 0 -0.0041660814379917014 0.026798606617803374 0 -0.0044978471785368096 0.027022976875344697 0 -0.004261469725202899 0.026945012841228157 0 -0.0044978471785368096 0.027022976875344697 0 -0.004261469725202899 0.026945012841228157 0 -0.0042181842242069714 0.027092443282905661 0 -0.0022246386821736463 0.01646916759236703 0 -0.0077501118770503296 0.0207978401389045 0 0.0084472165042282325 0.011115914896801256 0 0.0083186110086549379 0.01105056707348529 0 0.0083204173769405431 0.011229430380017766 0 -0.0022246386821736463 0.01646916759236703 0 -0.00033026892157060031 0.01088442279261481 0 -0.0094757109091371441 0.012793778056686772 0 -0.0094599244803780409 0.012735802978965465 0 -0.009538399749796209 0.012616355231472049 0 -0.0044978471785368096 0.027022976875344697 0 -0.0042181842242069714 0.027092443282905661 0 -0.0047057089783101328 0.027209122149378949 0 -0.0047382572869043111 0.027095352212021803 0 -0.0044978471785368096 0.027022976875344697 0 -0.0047057089783101328 0.027209122149378949 0 -0.0094599244803780409 0.012735802978965465 0 -0.009538399749796209 0.012616355231472049 0 -0.0094964993253416775 0.012581735354714723 0 -0.0092885491800526899 0.017774747810124992 0 -0.013675560465876906 0.015056903237678106 0 -0.0077501118770503296 0.0207978401389045 0 -0.0092885491800526899 0.017774747810124992 0 -0.0094599244803780409 0.012735802978965465 0 -0.009343098721930251 0.012692569439912224 0 -0.0094964993253416775 0.012581735354714723 0 -0.0047057089783101328 0.027209122149378949 0 -0.0049032280308818543 0.027179232739486005 0 -0.0048148863926460806 0.027154428257868544 0 -0.0047382572869043111 0.027095352212021803 0 -0.0047057089783101328 0.027209122149378949 0 -0.0048148863926460806 0.027154428257868544 0 -0.016474745763023182 0.019164261037680614 0 -0.016201390875037441 0.02021166507864058 0 -0.015627801498279019 0.019573868577268727 0 -0.0092885491800526899 0.017774747810124992 0 -0.010785596244432955 0.024503170768614885 0 -0.0049032280308818543 0.027179232739486005 0 -0.0048148863926460806 0.027154428257868544 0 -0.0049458553344670529 0.027142039022165595 0 -0.010785596244432955 0.024503170768614885 0 -0.0081249213304856269 0.024513801226792521 0 -0.0034493272947359664 0.028137642204363433 0 -0.0081249213304856269 0.024513801226792521 0 -0.0049458553344670529 0.027142039022165595 0 -0.0047806525917246951 0.027117795045997983 0 -0.0050889556358558541 0.026853708094489004 0 -0.0048148863926460806 0.027154428257868544 0 -0.0049458553344670529 0.027142039022165595 0 -0.0047806525917246951 0.027117795045997983 0 -0.0047382572869043111 0.027095352212021803 0 -0.0047806525917246951 0.027117795045997983 0 -0.0047762391624772919 0.027267397475132078 0 -0.0047382572869043111 0.027095352212021803 0 -0.0048148863926460806 0.027154428257868544 0 -0.0047806525917246951 0.027117795045997983 0 -0.0047806525917246951 0.027117795045997983 0 -0.0047713396736790131 0.0273046423141616 0 -0.0047762391624772919 0.027267397475132078 0 -0.0047571431717540269 0.027404233845763407 0 -0.0047762391624772919 0.027267397475132078 0 -0.0047616864716731825 0.027392977031035704 0 -0.0047713396736790131 0.0273046423141616 0 -0.0047762391624772919 0.027267397475132078 0 -0.0047616864716731825 0.027392977031035704 0 -0.0047806525917246951 0.027117795045997983 0 -0.0047753959795052781 0.02742646960004257 0 -0.004785355392042309 0.02748396659380662 0 -0.0047806525917246951 0.027117795045997983 0 -0.0047713396736790131 0.0273046423141616 0 -0.0047753959795052781 0.02742646960004257 0 -0.0047742405685000221 0.027495630361612566 0 -0.0047753959795052781 0.02742646960004257 0 -0.0047616864716731825 0.027392977031035704 0 -0.0047713396736790131 0.0273046423141616 0 -0.0047753959795052781 0.02742646960004257 0 -0.0047616864716731825 0.027392977031035704 0 -0.0047753959795052781 0.02742646960004257 0 -0.0047997105662348511 0.027517396280196546 0 -0.004819202880742589 0.027569180539059514 0 -0.0047742405685000221 0.027495630361612566 0 -0.0047753959795052781 0.02742646960004257 0 -0.0047997105662348511 0.027517396280196546 0 -0.0048432883725679976 0.027560338901765055 0 -0.0047997105662348511 0.027517396280196546 0 -0.004819202880742589 0.027569180539059514 0 -0.0047753959795052781 0.02742646960004257 0 -0.004819202880742589 0.027569180539059514 0 -0.004785355392042309 0.02748396659380662 0 -0.015901987859347894 0.021298991342066746 0 -0.0156156584464823 0.021131381102928348 0 -0.015734129526999954 0.020761457513174052 0 -0.0097950478600519648 0.024228921945386343 0 -0.0081249213304856269 0.024513801226792521 0 -0.015729995480039539 0.021408838848774588 0 -0.015901987859347894 0.021298991342066746 0 -0.0156156584464823 0.021131381102928348 0 -0.015729995480039539 0.021408838848774588 0 -0.0156156584464823 0.021131381102928348 0 -0.015235726264627034 0.021364785978862585 0 -0.0156156584464823 0.021131381102928348 0 -0.015235726264627034 0.021364785978862585 0 -0.015384241638446712 0.020888400843749245 0 -0.014673109936671704 0.022210963622765797 0 -0.015729995480039539 0.021408838848774588 0 -0.015235726264627034 0.021364785978862585 0 -0.014673109936671704 0.022210963622765797 0 -0.014749759589528665 0.021193331163105823 0 -0.015235726264627034 0.021364785978862585 0 -0.014749759589528665 0.021193331163105823 0 -0.015235726264627034 0.021364785978862585 0 -0.015384241638446712 0.020888400843749245 0 -0.014749759589528665 0.021193331163105823 0 -0.01503077201963505 0.020556832435411589 0 -0.015384241638446712 0.020888400843749245 0 -0.01503077201963505 0.020556832435411589 0 -0.015584863144740333 0.020303132666751333 0 -0.014861102350037899 0.019851218414920411 0 -0.014749759589528665 0.021193331163105823 0 -0.01503077201963505 0.020556832435411589 0 -0.014435275386766368 0.020469173203909445 0 -0.01503077201963505 0.020556832435411589 0 -0.014435275386766368 0.020469173203909445 0 -0.014861102350037899 0.019851218414920411 0 -0.016201390875037441 0.02021166507864058 0 -0.015901987859347894 0.021298991342066746 0 -0.015734129526999954 0.020761457513174052 0 -0.01503077201963505 0.020556832435411589 0 -0.015584863144740333 0.020303132666751333 0 -0.015384241638446712 0.020888400843749245 0 -0.016201390875037441 0.02021166507864058 0 -0.015584863144740333 0.020303132666751333 0 -0.015734129526999954 0.020761457513174052 0 -0.0156156584464823 0.021131381102928348 0 -0.015734129526999954 0.020761457513174052 0 -0.015384241638446712 0.020888400843749245 0 -0.015584863144740333 0.020303132666751333 0 -0.015734129526999954 0.020761457513174052 0 -0.015384241638446712 0.020888400843749245 0 -0.013527159335104139 0.021924799532665407 0 -0.013993431915249007 0.02106020905638294 0 -0.013272002117317647 0.020895838641320601 0 -0.014673109936671704 0.022210963622765797 0 -0.014749759589528665 0.021193331163105823 0 -0.013993431915249007 0.02106020905638294 0 -0.014673109936671704 0.022210963622765797 0 -0.013527159335104139 0.021924799532665407 0 -0.013993431915249007 0.02106020905638294 0 -0.014749759589528665 0.021193331163105823 0 -0.013993431915249007 0.02106020905638294 0 -0.014435275386766368 0.020469173203909445 0 -0.013993431915249007 0.02106020905638294 0 -0.014435275386766368 0.020469173203909445 0 -0.013757701590022433 0.020296345125415706 0 -0.013272002117317647 0.020895838641320601 0 -0.013757701590022433 0.020296345125415706 0 -0.013090555475017265 0.019957293930806454 0 -0.013993431915249007 0.02106020905638294 0 -0.013272002117317647 0.020895838641320601 0 -0.013757701590022433 0.020296345125415706 0 -0.013757701590022433 0.020296345125415706 0 -0.01366777371997673 0.019484347766063094 0 -0.013090555475017265 0.019957293930806454 0 -0.01366777371997673 0.019484347766063094 0 -0.012894858421457695 0.01905228833070655 0 -0.013090555475017265 0.019957293930806454 0 -0.013757701590022433 0.020296345125415706 0 -0.01366777371997673 0.019484347766063094 0 -0.014222421921145711 0.019863919321130987 0 -0.01366777371997673 0.019484347766063094 0 -0.014222421921145711 0.019863919321130987 0 -0.014341361572661356 0.019105870204193621 0 -0.014435275386766368 0.020469173203909445 0 -0.013757701590022433 0.020296345125415706 0 -0.014222421921145711 0.019863919321130987 0 -0.014435275386766368 0.020469173203909445 0 -0.014222421921145711 0.019863919321130987 0 -0.014861102350037899 0.019851218414920411 0 -0.014222421921145711 0.019863919321130987 0 -0.014341361572661356 0.019105870204193621 0 -0.014861102350037899 0.019851218414920411 0 -0.01366777371997673 0.019484347766063094 0 -0.014341361572661356 0.019105870204193621 0 -0.013706473599616435 0.018623208338398901 0 -0.013706473599616435 0.018623208338398901 0 -0.013079620538305877 0.018242699803834063 0 -0.012894858421457695 0.01905228833070655 0 -0.01366777371997673 0.019484347766063094 0 -0.013706473599616435 0.018623208338398901 0 -0.012894858421457695 0.01905228833070655 0 -0.015584863144740333 0.020303132666751333 0 -0.015627801498279019 0.019573868577268727 0 -0.014861102350037899 0.019851218414920411 0 -0.016201390875037441 0.02021166507864058 0 -0.015584863144740333 0.020303132666751333 0 -0.015627801498279019 0.019573868577268727 0 -0.015627801498279019 0.019573868577268727 0 -0.014861102350037899 0.019851218414920411 0 -0.015027770157479135 0.019223207257188787 0 -0.014341361572661356 0.019105870204193621 0 -0.015027770157479135 0.019223207257188787 0 -0.014725106999615697 0.018160324483153471 0 -0.015027770157479135 0.019223207257188787 0 -0.015579198105312815 0.01873441564201464 0 -0.01465155536090686 0.018300599926715979 0 -0.015321738066347559 0.019841679058972144 0 -0.013672116461280201 0.016487120753781191 0 -0.014341361572661356 0.019105870204193621 0 -0.014861102350037899 0.019851218414920411 0 -0.015027770157479135 0.019223207257188787 0 -0.015627801498279019 0.019573868577268727 0 -0.015027770157479135 0.019223207257188787 0 -0.015579198105312815 0.01873441564201464 0 -0.016474745763023182 0.019164261037680614 0 -0.015627801498279019 0.019573868577268727 0 -0.015579198105312815 0.01873441564201464 0 -0.010715493668823016 0.01174229885627821 0 -0.010190797326023742 0.012316359759251884 0 -0.011253154755619282 0.012746650804173271 0 -0.010715493668823016 0.01174229885627821 0 -0.012269994042013465 0.012293762766210945 0 -0.011253154755619282 0.012746650804173271 0 -0.013675560465876906 0.015056903237678106 0 -0.013672116461280201 0.016487120753781191 0 -0.012269994042013465 0.012293762766210945 0 -0.011907695351596038 0.013576018858376704 0 -0.011253154755619282 0.012746650804173271 0 -0.012269994042013465 0.012293762766210945 0 -0.011907695351596038 0.013576018858376704 0 -0.012886464118355879 0.014168205024582535 0 -0.011907695351596038 0.013576018858376704 0 -0.011253154755619282 0.012746650804173271 0 -0.010999863260457238 0.01413875216679116 0 -0.010191942672422648 0.012365357952315302 0 -0.010509759606777103 0.013189110128590297 0 -0.010190797326023742 0.012316359759251884 0 -0.0099891444078743265 0.012305972809661583 0 -0.0099360921800153625 0.012322703162580889 0 -0.010190797326023742 0.012316359759251884 0 -0.011253154755619282 0.012746650804173271 0 -0.010999863260457238 0.01413875216679116 0 -0.013634788990749717 0.0176136251625417 0 -0.012823376916228073 0.017490197505665731 0 -0.013079620538305877 0.018242699803834063 0 -0.013706473599616435 0.018623208338398901 0 -0.013634788990749717 0.0176136251625417 0 -0.013079620538305877 0.018242699803834063 0 -0.013706473599616435 0.018623208338398901 0 -0.014725106999615697 0.018160324483153471 0 -0.013634788990749717 0.0176136251625417 0 -0.014341361572661356 0.019105870204193621 0 -0.013706473599616435 0.018623208338398901 0 -0.014725106999615697 0.018160324483153471 0 -0.013672116461280201 0.016487120753781191 0 -0.014160674090963469 0.018049341392357764 0 -0.013672116461280201 0.016487120753781191 0 -0.013331258055860988 0.01518038494475251 0 -0.014476394031021928 0.017952526697090389 0 -0.013634788990749717 0.0176136251625417 0 -0.014010606883591932 0.016820467324531029 0 -0.013634788990749717 0.0176136251625417 0 -0.01330967355067866 0.016788929780732594 0 -0.012823376916228073 0.017490197505665731 0 -0.013634788990749717 0.0176136251625417 0 -0.01330967355067866 0.016788929780732594 0 -0.014010606883591932 0.016820467324531029 0 -0.01330967355067866 0.016788929780732594 0 -0.014010606883591932 0.016820467324531029 0 -0.013223056599840594 0.015774562432274437 0 -0.013331258055860988 0.01518038494475251 0 -0.013318322267912066 0.0158923081502036 0 -0.012886464118355879 0.014168205024582535 0 -0.012035835267238648 0.014477498323630053 0 -0.013223056599840594 0.015774562432274437 0 -0.012035835267238648 0.014477498323630053 0 -0.011907160999214225 0.015432539656742421 0 -0.013223056599840594 0.015774562432274437 0 -0.01330967355067866 0.016788929780732594 0 -0.012777550467330626 0.016494659720564402 0 -0.013223056599840594 0.015774562432274437 0 -0.010999863260457238 0.01413875216679116 0 -0.012035835267238648 0.014477498323630053 0 -0.011907160999214225 0.015432539656742421 0 -0.011907695351596038 0.013576018858376704 0 -0.010999863260457238 0.01413875216679116 0 -0.012035835267238648 0.014477498323630053 0 -0.011907695351596038 0.013576018858376704 0 -0.012886464118355879 0.014168205024582535 0 -0.012035835267238648 0.014477498323630053 0 -0.0099891444078743265 0.012305972809661583 0 -0.010066273350423881 0.012283703566857632 0 -0.0099145172612951013 0.012311406684170464 0 -0.010509759606777103 0.013189110128590297 0 -0.010983706858903312 0.013821958160367411 0 -0.0099145172612951013 0.012311406684170464 0 -0.0096730719872432664 0.012327524063342418 0 -0.0099360921800153625 0.012322703162580889 0 -0.0099891444078743265 0.012305972809661583 0 -0.0099145172612951013 0.012311406684170464 0 -0.0099360921800153625 0.012322703162580889 0 -0.0099145172612951013 0.012311406684170464 0 -0.0096730719872432664 0.012327524063342418 0 -0.0097276678276388313 0.012341411045627176 0 -0.0096730719872432664 0.012327524063342418 0 -0.0095960679534046727 0.012325515021611031 0 -0.0097276678276388313 0.012341411045627176 0 0.0085805627353502806 0.011761314226800931 0 0.0084525242108085888 0.011549072235407916 0 0.0082675537669627316 0.011623603989685464 0 -0.00062497818363281847 0.011915582416870418 0 -0.000684261831886215 0.012153571832230496 0 0.0084525242108085888 0.011549072235407916 0 0.0082675537669627316 0.011623603989685464 0 0.0083140484595601392 0.011441058016059581 0 -0.0096730719872432664 0.012327524063342418 0 -0.0095960679534046727 0.012325515021611031 0 -0.0095731447635380371 0.01239907162899285 0 -0.0096730719872432664 0.012327524063342418 0 -0.0095502131748781537 0.012438587858620408 0 -0.0095731447635380371 0.01239907162899285 0 -0.00033026892157060031 0.01088442279261481 0 -0.000684261831886215 0.012153571832230496 0 -0.009538399749796209 0.012616355231472049 0 -0.0095731447635380371 0.01239907162899285 0 -0.0094964993253416775 0.012581735354714723 0 0.0085501581386464819 0.011390450573530646 0 0.0083204173769405431 0.011229430380017766 0 0.0083140484595601392 0.011441058016059581 0 -0.0095502131748781537 0.012438587858620408 0 -0.0095731447635380371 0.01239907162899285 0 -0.0094964993253416775 0.012581735354714723 0 -0.009343098721930251 0.012692569439912224 0 -0.0094964993253416775 0.012581735354714723 0 -0.0094280267009132744 0.012482349518226474 0 -0.0092885491800526899 0.017774747810124992 0 -0.0098471443502601824 0.011145336622878728 0 -0.0095502131748781537 0.012438587858620408 0 -0.0094964993253416775 0.012581735354714723 0 -0.0094280267009132744 0.012482349518226474 0 -0.0098673217775090225 0.011621446637879137 0 -0.010715493668823016 0.01174229885627821 0 -0.010190797326023742 0.012316359759251884 0 -0.0098673217775090225 0.011621446637879137 0 -0.010190797326023742 0.012316359759251884 0 -0.0097920201470161651 0.012248860741796088 0 -0.010190797326023742 0.012316359759251884 0 -0.0097920201470161651 0.012248860741796088 0 -0.0099360921800153625 0.012322703162580889 0 -0.0096730719872432664 0.012327524063342418 0 -0.0095502131748781537 0.012438587858620408 0 -0.0094280267009132744 0.012482349518226474 0 -0.0096730719872432664 0.012327524063342418 0 -0.0097920201470161651 0.012248860741796088 0 -0.0099360921800153625 0.012322703162580889 0 -0.0095296017443814909 0.012840447739160729 0 -0.0098471443502601824 0.011145336622878728 0 -0.010017679545302896 0.017191298966699124 0 -0.0093803917592296757 0.017949730025984146 0 -0.0090571530383962862 0.017307916530247141 0 -0.010017679545302896 0.017191298966699124 0 -0.0090571530383962862 0.017307916530247141 0 -0.0094933541238830365 0.016600455664726094 0 -0.010017679545302896 0.017191298966699124 0 -0.010821369744693924 0.016904699210856331 0 -0.010668517364583591 0.018066505176717464 0 -0.010017679545302896 0.017191298966699124 0 -0.0098492238690183354 0.01845183173577887 0 -0.010668517364583591 0.018066505176717464 0 -0.0098492238690183354 0.01845183173577887 0 -0.010668517364583591 0.018066505176717464 0 -0.010353808965836021 0.019000322884185676 0 -0.010017679545302896 0.017191298966699124 0 -0.0098492238690183354 0.01845183173577887 0 -0.0093803917592296757 0.017949730025984146 0 -0.0098492238690183354 0.01845183173577887 0 -0.0093803917592296757 0.017949730025984146 0 -0.0091014958056309294 0.018680365855090583 0 -0.0093803917592296757 0.017949730025984146 0 -0.0088198920823258104 0.018047725442917894 0 -0.0091014958056309294 0.018680365855090583 0 -0.0088198920823258104 0.018047725442917894 0 -0.0082976458642956188 0.017510590180596877 0 -0.0082613011088258567 0.018805481514817316 0 -0.0088198920823258104 0.018047725442917894 0 -0.0091014958056309294 0.018680365855090583 0 -0.0082613011088258567 0.018805481514817316 0 -0.0093803917592296757 0.017949730025984146 0 -0.0088198920823258104 0.018047725442917894 0 -0.0090571530383962862 0.017307916530247141 0 -0.0083703544873395871 0.018865747825697037 0 -0.0083246065782876227 0.019397978760705713 0 -0.0083724428642280111 0.01998182626956959 0 -0.0083577142054773231 0.019953327045364011 0 -0.0083027523522399612 0.020052241151428209 0 -0.0083724428642280111 0.01998182626956959 0 -0.0085161039025696845 0.019813388539841003 0 -0.0083664168181999711 0.020051428251380909 0 -0.0083724428642280111 0.01998182626956959 0 -0.0083577142054773231 0.019953327045364011 0 -0.0085161039025696845 0.019813388539841003 0 -0.0083577142054773231 0.019953327045364011 0 -0.0083027523522399612 0.020052241151428209 0 -0.0083165825238661253 0.019959567359548749 0 -0.0083577142054773231 0.019953327045364011 0 -0.0083592552967082807 0.019833716739348951 0 -0.0083165825238661253 0.019959567359548749 0 -0.0085161039025696845 0.019813388539841003 0 -0.0084003319622329067 0.019653154182315176 0 -0.0085215365541027651 0.019299478458844464 0 -0.0083577142054773231 0.019953327045364011 0 -0.0083592552967082807 0.019833716739348951 0 -0.0085161039025696845 0.019813388539841003 0 -0.0083592552967082807 0.019833716739348951 0 -0.0085161039025696845 0.019813388539841003 0 -0.0084003319622329067 0.019653154182315176 0 -0.0083592552967082807 0.019833716739348951 0 -0.0084003319622329067 0.019653154182315176 0 -0.0082947631789607682 0.019714859527237519 0 -0.0082976458642956188 0.017510590180596877 0 -0.0090571530383962862 0.017307916530247141 0 -0.0089676123785886654 0.016512312233240584 0 -0.0088198920823258104 0.018047725442917894 0 -0.0082976458642956188 0.017510590180596877 0 -0.0090571530383962862 0.017307916530247141 0 -0.0089676123785886654 0.016512312233240584 0 -0.0083184162087853834 0.01618837190482391 0 -0.009078053887408186 0.015587529745133052 0 -0.0090571530383962862 0.017307916530247141 0 -0.0089676123785886654 0.016512312233240584 0 -0.0094933541238830365 0.016600455664726094 0 -0.0089676123785886654 0.016512312233240584 0 -0.0094904001235692464 0.015896604086133286 0 -0.0094933541238830365 0.016600455664726094 0 -0.0083703544873395871 0.018865747825697037 0 -0.0088490526679372919 0.016767740439474939 0 -0.0084003319622329067 0.019653154182315176 0 -0.0085215365541027651 0.019299478458844464 0 -0.0083213168865770067 0.019531111070097789 0 -0.0082976458642956188 0.017510590180596877 0 -0.0089676123785886654 0.016512312233240584 0 -0.0083184162087853834 0.01618837190482391 0 -0.0088490526679372919 0.016767740439474939 0 -0.0085286547861631555 0.017915537380251392 0 -0.0091602318545247249 0.015791967389531751 0 -0.0090464076916382998 0.015442635405401146 0 -0.0088163151452244903 0.015633840894203013 0 -0.0088490526679372919 0.016767740439474939 0 -0.0089472417460759578 0.015253860726805209 0 -0.0088490526679372919 0.016767740439474939 0 -0.0091586736033990902 0.015601932007564299 0 -0.0090402705197945403 0.01559240503661615 0 -0.0090464076916382998 0.015442635405401146 0 -0.009078053887408186 0.015587529745133052 0 -0.0090464076916382998 0.015442635405401146 0 -0.009078053887408186 0.015587529745133052 0 -0.0092593163334572896 0.015188482606907441 0 -0.0089676123785886654 0.016512312233240584 0 -0.0094904001235692464 0.015896604086133286 0 -0.009078053887408186 0.015587529745133052 0 -0.0094904001235692464 0.015896604086133286 0 -0.009078053887408186 0.015587529745133052 0 -0.0095037780028376494 0.015297429060775138 0 -0.0094904001235692464 0.015896604086133286 0 -0.0098828269459883995 0.015512715455330226 0 -0.0095037780028376494 0.015297429060775138 0 -0.0098828269459883995 0.015512715455330226 0 -0.0099316773421994336 0.016178892873315059 0 -0.010284879999345001 0.01574441659995866 0 -0.0094904001235692464 0.015896604086133286 0 -0.0098828269459883995 0.015512715455330226 0 -0.0099316773421994336 0.016178892873315059 0 -0.0094904001235692464 0.015896604086133286 0 -0.0099316773421994336 0.016178892873315059 0 -0.0094933541238830365 0.016600455664726094 0 -0.010017679545302896 0.017191298966699124 0 -0.0099316773421994336 0.016178892873315059 0 -0.0094933541238830365 0.016600455664726094 0 -0.010017679545302896 0.017191298966699124 0 -0.0099316773421994336 0.016178892873315059 0 -0.010464364922177592 0.016281713612145397 0 -0.010017679545302896 0.017191298966699124 0 -0.010464364922177592 0.016281713612145397 0 -0.010821369744693924 0.016904699210856331 0 -0.010284879999345001 0.01574441659995866 0 -0.011098705469433567 0.015908376115446279 0 -0.010413287167648985 0.01518105281172363 0 -0.010464364922177592 0.016281713612145397 0 -0.010284879999345001 0.01574441659995866 0 -0.011098705469433567 0.015908376115446279 0 -0.0099316773421994336 0.016178892873315059 0 -0.010464364922177592 0.016281713612145397 0 -0.010284879999345001 0.01574441659995866 0 -0.011098705469433567 0.015908376115446279 0 -0.011512337958404969 0.016816814423660793 0 -0.011942474079803877 0.016173856821607348 0 -0.011098705469433567 0.015908376115446279 0 -0.011942474079803877 0.016173856821607348 0 -0.012204217296172683 0.015383020331208972 0 -0.011512337958404969 0.016816814423660793 0 -0.011942474079803877 0.016173856821607348 0 -0.012102050703201136 0.017253201438358873 0 -0.010464364922177592 0.016281713612145397 0 -0.011098705469433567 0.015908376115446279 0 -0.010821369744693924 0.016904699210856331 0 -0.011098705469433567 0.015908376115446279 0 -0.011512337958404969 0.016816814423660793 0 -0.010821369744693924 0.016904699210856331 0 -0.012777550467330626 0.016494659720564402 0 -0.013223056599840594 0.015774562432274437 0 -0.012753420755370665 0.015943899139138767 0 -0.011942474079803877 0.016173856821607348 0 -0.012777550467330626 0.016494659720564402 0 -0.012204217296172683 0.015383020331208972 0 -0.012802160982172668 0.016379030233014357 0 -0.01236327539432314 0.015899865614668298 0 -0.011942474079803877 0.016173856821607348 0 -0.012777550467330626 0.016494659720564402 0 -0.012102050703201136 0.017253201438358873 0 -0.01330967355067866 0.016788929780732594 0 -0.012777550467330626 0.016494659720564402 0 -0.012823376916228073 0.017490197505665731 0 -0.012777550467330626 0.016494659720564402 0 -0.012823376916228073 0.017490197505665731 0 -0.012102050703201136 0.017253201438358873 0 -0.012823376916228073 0.017490197505665731 0 -0.012102050703201136 0.017253201438358873 0 -0.012238987958744287 0.018391974113810782 0 -0.012102050703201136 0.017253201438358873 0 -0.012238987958744287 0.018391974113810782 0 -0.011449273829243512 0.017812957465937383 0 -0.012823376916228073 0.017490197505665731 0 -0.012238987958744287 0.018391974113810782 0 -0.013079620538305877 0.018242699803834063 0 -0.012238987958744287 0.018391974113810782 0 -0.013079620538305877 0.018242699803834063 0 -0.012894858421457695 0.01905228833070655 0 -0.010821369744693924 0.016904699210856331 0 -0.011449273829243512 0.017812957465937383 0 -0.010668517364583591 0.018066505176717464 0 -0.011512337958404969 0.016816814423660793 0 -0.012102050703201136 0.017253201438358873 0 -0.011449273829243512 0.017812957465937383 0 -0.011512337958404969 0.016816814423660793 0 -0.010821369744693924 0.016904699210856331 0 -0.011449273829243512 0.017812957465937383 0 -0.012238987958744287 0.018391974113810782 0 -0.011449273829243512 0.017812957465937383 0 -0.011304091026239469 0.018945916538043735 0 -0.011449273829243512 0.017812957465937383 0 -0.010668517364583591 0.018066505176717464 0 -0.011304091026239469 0.018945916538043735 0 -0.010668517364583591 0.018066505176717464 0 -0.011304091026239469 0.018945916538043735 0 -0.010353808965836021 0.019000322884185676 0 -0.011304091026239469 0.018945916538043735 0 -0.0105971742789865 0.019773260765912189 0 -0.010353808965836021 0.019000322884185676 0 -0.011351983811360015 0.019845098434238151 0 -0.012096556959862427 0.019670195661819111 0 -0.01135874742710931 0.02069600998568635 0 -0.011304091026239469 0.018945916538043735 0 -0.011351983811360015 0.019845098434238151 0 -0.0105971742789865 0.019773260765912189 0 -0.011304091026239469 0.018945916538043735 0 -0.011351983811360015 0.019845098434238151 0 -0.012096556959862427 0.019670195661819111 0 -0.0105971742789865 0.019773260765912189 0 -0.010490397108680109 0.020589341603631215 0 -0.0098339431144187223 0.019967029342079012 0 -0.011351983811360015 0.019845098434238151 0 -0.0105971742789865 0.019773260765912189 0 -0.010490397108680109 0.020589341603631215 0 -0.012238987958744287 0.018391974113810782 0 -0.012894858421457695 0.01905228833070655 0 -0.012096556959862427 0.019670195661819111 0 -0.012238987958744287 0.018391974113810782 0 -0.011304091026239469 0.018945916538043735 0 -0.012096556959862427 0.019670195661819111 0 -0.012894858421457695 0.01905228833070655 0 -0.012096556959862427 0.019670195661819111 0 -0.013090555475017265 0.019957293930806454 0 -0.012096556959862427 0.019670195661819111 0 -0.013090555475017265 0.019957293930806454 0 -0.012538379335606463 0.020576501579417289 0 -0.013272002117317647 0.020895838641320601 0 -0.013090555475017265 0.019957293930806454 0 -0.012538379335606463 0.020576501579417289 0 -0.012096556959862427 0.019670195661819111 0 -0.012538379335606463 0.020576501579417289 0 -0.01135874742710931 0.02069600998568635 0 -0.012538379335606463 0.020576501579417289 0 -0.01199092332474464 0.021184549066819401 0 -0.01135874742710931 0.02069600998568635 0 -0.01199092332474464 0.021184549066819401 0 -0.012705630238646475 0.021565069953685824 0 -0.011593063343630321 0.021943802915672085 0 -0.012538379335606463 0.020576501579417289 0 -0.01199092332474464 0.021184549066819401 0 -0.012705630238646475 0.021565069953685824 0 -0.013527159335104139 0.021924799532665407 0 -0.013272002117317647 0.020895838641320601 0 -0.012705630238646475 0.021565069953685824 0 -0.013272002117317647 0.020895838641320601 0 -0.012538379335606463 0.020576501579417289 0 -0.012705630238646475 0.021565069953685824 0 -0.010490397108680109 0.020589341603631215 0 -0.01135874742710931 0.02069600998568635 0 -0.010744445969714293 0.021440393766050052 0 -0.011351983811360015 0.019845098434238151 0 -0.010490397108680109 0.020589341603631215 0 -0.01135874742710931 0.02069600998568635 0 -0.01135874742710931 0.02069600998568635 0 -0.010744445969714293 0.021440393766050052 0 -0.011593063343630321 0.021943802915672085 0 -0.01199092332474464 0.021184549066819401 0 -0.01135874742710931 0.02069600998568635 0 -0.011593063343630321 0.021943802915672085 0 -0.010490397108680109 0.020589341603631215 0 -0.010744445969714293 0.021440393766050052 0 -0.0098685801698025696 0.021503297254116462 0 -0.0098685801698025696 0.021503297254116462 0 -0.0092985364281239092 0.021081786511720085 0 -0.0091363088418084226 0.021840826248847478 0 -0.0098685801698025696 0.021503297254116462 0 -0.0092985364281239092 0.021081786511720085 0 -0.0097449433592392831 0.02073234739819187 0 -0.0086769118859568155 0.021626556339635509 0 -0.008874513560814078 0.021232881165392958 0 -0.0091363088418084226 0.021840826248847478 0 -0.0092985364281239092 0.021081786511720085 0 -0.008874513560814078 0.021232881165392958 0 -0.0091363088418084226 0.021840826248847478 0 -0.0092985364281239092 0.021081786511720085 0 -0.008874513560814078 0.021232881165392958 0 -0.0089073098515405243 0.020824562723508858 0 -0.008874513560814078 0.021232881165392958 0 -0.0089073098515405243 0.020824562723508858 0 -0.0085387769951647628 0.021111003493378161 0 -0.0086769118859568155 0.021626556339635509 0 -0.008874513560814078 0.021232881165392958 0 -0.0085387769951647628 0.021111003493378161 0 -0.0092985364281239092 0.021081786511720085 0 -0.0093203983237712621 0.020471941205022017 0 -0.0097449433592392831 0.02073234739819187 0 -0.0092985364281239092 0.021081786511720085 0 -0.0089073098515405243 0.020824562723508858 0 -0.0093203983237712621 0.020471941205022017 0 -0.0089073098515405243 0.020824562723508858 0 -0.0093203983237712621 0.020471941205022017 0 -0.0089463282638895438 0.020383638946785014 0 -0.0089073098515405243 0.020824562723508858 0 -0.0089463282638895438 0.020383638946785014 0 -0.0085836899776154055 0.020531667925554487 0 -0.0093203983237712621 0.020471941205022017 0 -0.0089463282638895438 0.020383638946785014 0 -0.0091765564949708028 0.019951275449834858 0 -0.010490397108680109 0.020589341603631215 0 -0.0098685801698025696 0.021503297254116462 0 -0.0097449433592392831 0.02073234739819187 0 -0.0093203983237712621 0.020471941205022017 0 -0.0097449433592392831 0.02073234739819187 0 -0.0098339431144187223 0.019967029342079012 0 -0.010490397108680109 0.020589341603631215 0 -0.0097449433592392831 0.02073234739819187 0 -0.0098339431144187223 0.019967029342079012 0 -0.0105971742789865 0.019773260765912189 0 -0.0098339431144187223 0.019967029342079012 0 -0.010353808965836021 0.019000322884185676 0 -0.0098339431144187223 0.019967029342079012 0 -0.0095084292964107368 0.019259813373475581 0 -0.010353808965836021 0.019000322884185676 0 -0.0093203983237712621 0.020471941205022017 0 -0.0098339431144187223 0.019967029342079012 0 -0.0091765564949708028 0.019951275449834858 0 -0.0091765564949708028 0.019951275449834858 0 -0.0095084292964107368 0.019259813373475581 0 -0.0087458912164599528 0.019451466941961242 0 -0.0089463282638895438 0.020383638946785014 0 -0.0091765564949708028 0.019951275449834858 0 -0.0087589547686458477 0.020125847893457872 0 -0.0091765564949708028 0.019951275449834858 0 -0.0087458912164599528 0.019451466941961242 0 -0.0087589547686458477 0.020125847893457872 0 -0.0098339431144187223 0.019967029342079012 0 -0.0091765564949708028 0.019951275449834858 0 -0.0095084292964107368 0.019259813373475581 0 -0.0095084292964107368 0.019259813373475581 0 -0.0091014958056309294 0.018680365855090583 0 -0.0087458912164599528 0.019451466941961242 0 -0.0098492238690183354 0.01845183173577887 0 -0.0095084292964107368 0.019259813373475581 0 -0.0091014958056309294 0.018680365855090583 0 -0.0098492238690183354 0.01845183173577887 0 -0.0095084292964107368 0.019259813373475581 0 -0.010353808965836021 0.019000322884185676 0 -0.0083664168181999711 0.020051428251380909 0 -0.0082737768833521328 0.020139319405589374 0 -0.008291716265960215 0.020164572261636812 0 -0.0083724428642280111 0.01998182626956959 0 -0.0083027523522399612 0.020052241151428209 0 -0.0083664168181999711 0.020051428251380909 0 -0.0083027523522399612 0.020052241151428209 0 -0.0083664168181999711 0.020051428251380909 0 -0.0082737768833521328 0.020139319405589374 0 -0.0091014958056309294 0.018680365855090583 0 -0.0082613011088258567 0.018805481514817316 0 -0.0087458912164599528 0.019451466941961242 0 -0.0082613011088258567 0.018805481514817316 0 -0.0087458912164599528 0.019451466941961242 0 -0.0083340746987113599 0.020225300072192302 0 -0.0083664168181999711 0.020051428251380909 0 -0.0083340746987113599 0.020225300072192302 0 -0.008291716265960215 0.020164572261636812 0 -0.0083246065782876227 0.019397978760705713 0 -0.0083478481271207425 0.02019826307777162 0 -0.0087458912164599528 0.019451466941961242 0 -0.0087589547686458477 0.020125847893457872 0 -0.0083340746987113599 0.020225300072192302 0 -0.0083340746987113599 0.020225300072192302 0 -0.008291716265960215 0.020164572261636812 0 -0.0081312281331174553 0.020293330247366528 0 -0.0098619262495215475 0.023317652195805706 0 -0.011214553320991491 0.026517547486333577 0 -0.0090272762091750339 0.024475704281617765 0 -0.0083027523522399612 0.020052241151428209 0 -0.0082737768833521328 0.020139319405589374 0 -0.0081312281331174553 0.020293330247366528 0 -0.011619383894946085 0.02850370262498593 0 -0.011311153692920689 0.027206401436200206 0 -0.0090584169893795467 0.021676025841401225 0 -0.0096774164004250693 0.023430866981198915 0 -0.011214553320991491 0.026517547486333577 0 -0.010820108183885522 0.027314974675632646 0 -0.0090272762091750339 0.024475704281617765 0 -0.0082737768833521328 0.020139319405589374 0 -0.008291716265960215 0.020164572261636812 0 -0.0081312281331174553 0.020293330247366528 0 -0.011214553320991491 0.026517547486333577 0 -0.010820108183885522 0.027314974675632646 0 -0.012044732070516794 0.028623694590983864 0 -0.012515609082130249 0.029692891674336495 0 -0.012564764539078357 0.029296611150070109 0 -0.012842682878035682 0.029691591837760017 0 -0.0096774164004250693 0.023430866981198915 0 -0.010107037551141451 0.02504579222768577 0 -0.0081312281331174553 0.020293330247366528 0 -0.0082892812461855588 0.020840522220260255 0 -0.0081988788446010624 0.021494307686978444 0 -0.0089463282638895438 0.020383638946785014 0 -0.0087589547686458477 0.020125847893457872 0 -0.0085836899776154055 0.020531667925554487 0 -0.0087589547686458477 0.020125847893457872 0 -0.0083340746987113599 0.020225300072192302 0 -0.0085836899776154055 0.020531667925554487 0 -0.0083340746987113599 0.020225300072192302 0 -0.0081312281331174553 0.020293330247366528 0 -0.0083165446169453736 0.020467974029374239 0 -0.0085836899776154055 0.020531667925554487 0 -0.0083165446169453736 0.020467974029374239 0 -0.0082892812461855588 0.020840522220260255 0 -0.0081312281331174553 0.020293330247366528 0 -0.0083165446169453736 0.020467974029374239 0 -0.0082892812461855588 0.020840522220260255 0 -0.0083340746987113599 0.020225300072192302 0 -0.0085836899776154055 0.020531667925554487 0 -0.0083165446169453736 0.020467974029374239 0 -0.0089073098515405243 0.020824562723508858 0 -0.0085836899776154055 0.020531667925554487 0 -0.0085387769951647628 0.021111003493378161 0 -0.0085836899776154055 0.020531667925554487 0 -0.0082892812461855588 0.020840522220260255 0 -0.0085387769951647628 0.021111003493378161 0 -0.010820108183885522 0.027314974675632646 0 -0.012044732070516794 0.028623694590983864 0 -0.012003617009332449 0.028850858339249604 0 -0.0082892812461855588 0.020840522220260255 0 -0.0085387769951647628 0.021111003493378161 0 -0.0081988788446010624 0.021494307686978444 0 -0.0086769118859568155 0.021626556339635509 0 -0.0085387769951647628 0.021111003493378161 0 -0.0081988788446010624 0.021494307686978444 0 -0.011619383894946085 0.02850370262498593 0 -0.011976007726538195 0.028824075820688889 0 -0.012515609082130249 0.029692891674336495 0 -0.012564764539078357 0.029296611150070109 0 -0.012003617009332449 0.028850858339249604 0 -0.012564764539078357 0.029296611150070109 0 -0.012700807563527787 0.029081581803508519 0 -0.01291662171197832 0.02947399489873468 0 -0.012564764539078357 0.029296611150070109 0 -0.012397611748169914 0.028981642338455717 0 -0.012003617009332449 0.028850858339249604 0 -0.012564764539078357 0.029296611150070109 0 -0.012397611748169914 0.028981642338455717 0 -0.012700807563527787 0.029081581803508519 0 -0.012397611748169914 0.028981642338455717 0 -0.012700807563527787 0.029081581803508519 0 -0.012404276216108004 0.02878733174488645 0 -0.012700807563527787 0.029081581803508519 0 -0.012404276216108004 0.02878733174488645 0 -0.012861320325782501 0.028693631354060667 0 -0.012404276216108004 0.02878733174488645 0 -0.012102276003056776 0.028664207264795537 0 -0.012003617009332449 0.028850858339249604 0 -0.012397611748169914 0.028981642338455717 0 -0.012404276216108004 0.02878733174488645 0 -0.012003617009332449 0.028850858339249604 0 -0.012404276216108004 0.02878733174488645 0 -0.012502840682257311 0.028442556058387542 0 -0.012861320325782501 0.028693631354060667 0 -0.012404276216108004 0.02878733174488645 0 -0.012502840682257311 0.028442556058387542 0 -0.012102276003056776 0.028664207264795537 0 -0.012502840682257311 0.028442556058387542 0 -0.011978255402453085 0.028377997121965665 0 -0.012102276003056776 0.028664207264795537 0 -0.011978255402453085 0.028377997121965665 0 -0.012102276003056776 0.028664207264795537 0 -0.011708418321792511 0.0287327297860853 0 -0.010107037551141451 0.02504579222768577 0 -0.01008014050180904 0.025809246149708653 0 -0.012044732070516794 0.028623694590983864 0 -0.012003617009332449 0.028850858339249604 0 -0.011708418321792511 0.0287327297860853 0 -0.012102276003056776 0.028664207264795537 0 -0.012003617009332449 0.028850858339249604 0 -0.011708418321792511 0.0287327297860853 0 -0.0086769118859568155 0.021626556339635509 0 -0.0081988788446010624 0.021494307686978444 0 -0.0084566476828801772 0.02290480880587982 0 -0.0091363088418084226 0.021840826248847478 0 -0.0094437311271839998 0.022793704105153578 0 -0.0084566476828801772 0.02290480880587982 0 -0.0086769118859568155 0.021626556339635509 0 -0.0091363088418084226 0.021840826248847478 0 -0.0084566476828801772 0.02290480880587982 0 -0.0098685801698025696 0.021503297254116462 0 -0.0094437311271839998 0.022793704105153578 0 -0.010445446990090966 0.022576448528337175 0 -0.0098685801698025696 0.021503297254116462 0 -0.0091363088418084226 0.021840826248847478 0 -0.0094437311271839998 0.022793704105153578 0 -0.0094437311271839998 0.022793704105153578 0 -0.0098846576420478609 0.023771592636282743 0 -0.010445446990090966 0.022576448528337175 0 -0.0094437311271839998 0.022793704105153578 0 -0.0084566476828801772 0.02290480880587982 0 -0.0087310060235526715 0.024422285757895668 0 -0.011978255402453085 0.028377997121965665 0 -0.011708418321792511 0.0287327297860853 0 -0.011056629799976854 0.027998537031834476 0 -0.01008014050180904 0.025809246149708653 0 -0.0098980504589368384 0.026222340923236775 0 -0.0094437311271839998 0.022793704105153578 0 -0.0087310060235526715 0.024422285757895668 0 -0.0098846576420478609 0.023771592636282743 0 -0.0087310060235526715 0.024422285757895668 0 -0.0098846576420478609 0.023771592636282743 0 -0.0099478248167389951 0.025265757201431118 0 -0.0098980504589368384 0.026222340923236775 0 -0.0097648826856184812 0.026709067022955679 0 -0.0087310060235526715 0.024422285757895668 0 -0.0099478248167389951 0.025265757201431118 0 -0.009163250480287384 0.026269666229221503 0 -0.011056629799976854 0.027998537031834476 0 -0.011410025172490932 0.027388537015589163 0 -0.010939523395304625 0.02740777233209599 0 -0.011056629799976854 0.027998537031834476 0 -0.010939523395304625 0.02740777233209599 0 -0.010376013051936013 0.027213754958907009 0 -0.011056629799976854 0.027998537031834476 0 -0.012131829905798986 0.027871305667517079 0 -0.011410025172490932 0.027388537015589163 0 -0.012131829905798986 0.027871305667517079 0 -0.012171052712029467 0.027141457582247768 0 -0.011410025172490932 0.027388537015589163 0 -0.012131829905798986 0.027871305667517079 0 -0.012171052712029467 0.027141457582247768 0 -0.012935931104141773 0.027533378027928084 0 -0.012502840682257311 0.028442556058387542 0 -0.011978255402453085 0.028377997121965665 0 -0.012131829905798986 0.027871305667517079 0 -0.012502840682257311 0.028442556058387542 0 -0.012131829905798986 0.027871305667517079 0 -0.012946856025826497 0.028076402506372809 0 -0.011978255402453085 0.028377997121965665 0 -0.011056629799976854 0.027998537031834476 0 -0.012131829905798986 0.027871305667517079 0 -0.013601454051729399 0.023091913971106572 0 -0.012548156979975248 0.022652578874968611 0 -0.012479061447766924 0.024084888899619281 0 -0.013527159335104139 0.021924799532665407 0 -0.012705630238646475 0.021565069953685824 0 -0.012548156979975248 0.022652578874968611 0 -0.012705630238646475 0.021565069953685824 0 -0.012548156979975248 0.022652578874968611 0 -0.011593063343630321 0.021943802915672085 0 -0.012548156979975248 0.022652578874968611 0 -0.011591926433089421 0.02303291717344599 0 -0.011593063343630321 0.021943802915672085 0 -0.012548156979975248 0.022652578874968611 0 -0.011591926433089421 0.02303291717344599 0 -0.012479061447766924 0.024084888899619281 0 -0.011591926433089421 0.02303291717344599 0 -0.010445446990090966 0.022576448528337175 0 -0.01086847104193208 0.023954689830119051 0 -0.011591926433089421 0.02303291717344599 0 -0.011593063343630321 0.021943802915672085 0 -0.010445446990090966 0.022576448528337175 0 -0.010744445969714293 0.021440393766050052 0 -0.011593063343630321 0.021943802915672085 0 -0.010445446990090966 0.022576448528337175 0 -0.010744445969714293 0.021440393766050052 0 -0.0098685801698025696 0.021503297254116462 0 -0.010445446990090966 0.022576448528337175 0 -0.0098846576420478609 0.023771592636282743 0 -0.010445446990090966 0.022576448528337175 0 -0.01086847104193208 0.023954689830119051 0 -0.0098846576420478609 0.023771592636282743 0 -0.0099478248167389951 0.025265757201431118 0 -0.01086847104193208 0.023954689830119051 0 -0.0099478248167389951 0.025265757201431118 0 -0.011161589470512417 0.025246676110375323 0 -0.01086847104193208 0.023954689830119051 0 -0.0099478248167389951 0.025265757201431118 0 -0.011161589470512417 0.025246676110375323 0 -0.0092140878983473281 0.026352539569439577 0 -0.011591926433089421 0.02303291717344599 0 -0.01086847104193208 0.023954689830119051 0 -0.012479061447766924 0.024084888899619281 0 -0.011161589470512417 0.025246676110375323 0 -0.01086847104193208 0.023954689830119051 0 -0.012479061447766924 0.024084888899619281 0 -0.0081200874216038558 0.02713792477873872 0 -0.0071795323108665631 0.027461305803949374 0 -0.007279161292039176 0.026940057795343562 0 -0.0096203499776338561 0.026170315588173711 0 -0.0098348888504769302 0.025774809617192244 0 -0.0064496199397362473 0.02709008678897128 0 -0.0071795323108665631 0.027461305803949374 0 -0.007279161292039176 0.026940057795343562 0 -0.0064496199397362473 0.02709008678897128 0 -0.007279161292039176 0.026940057795343562 0 -0.006710021394314097 0.026523168783597145 0 -0.0099143041830006742 0.025395383221145231 0 -0.0098348888504769302 0.025774809617192244 0 -0.0064496199397362473 0.02709008678897128 0 -0.0062526371662542596 0.027705045299051236 0 -0.0071795323108665631 0.027461305803949374 0 -0.0063502214901593893 0.027200545582512333 0 -0.0075764827170787382 0.026588291632996953 0 -0.0066748193369926189 0.026097792974514464 0 -0.0065252049331509382 0.026858094823380623 0 -0.007482550364733739 0.026611576262986627 0 -0.007279161292039176 0.026940057795343562 0 -0.006710021394314097 0.026523168783597145 0 -0.0075764827170787382 0.026588291632996953 0 -0.0081200874216038558 0.02713792477873872 0 -0.007279161292039176 0.026940057795343562 0 -0.0075764827170787382 0.026588291632996953 0 -0.0075764827170787382 0.026588291632996953 0 -0.0078229492248559126 0.025969247719744955 0 -0.0066748193369926189 0.026097792974514464 0 -0.0075764827170787382 0.026588291632996953 0 -0.0084282592214325117 0.026295865488675154 0 -0.0078229492248559126 0.025969247719744955 0 -0.0081200874216038558 0.02713792477873872 0 -0.0075764827170787382 0.026588291632996953 0 -0.0084282592214325117 0.026295865488675154 0 -0.0081200874216038558 0.02713792477873872 0 -0.0084282592214325117 0.026295865488675154 0 -0.0092140878983473281 0.026352539569439577 0 -0.0096203499776338561 0.026170315588173711 0 -0.009248748501091494 0.026357439621169255 0 -0.0084282592214325117 0.026295865488675154 0 -0.0089986093547935169 0.026082180930474035 0 -0.0084437324640360602 0.025833138186337295 0 -0.0084282592214325117 0.026295865488675154 0 -0.0089986093547935169 0.026082180930474035 0 -0.0092140878983473281 0.026352539569439577 0 -0.0089986093547935169 0.026082180930474035 0 -0.0087798875287374584 0.025246919534357763 0 -0.0084437324640360602 0.025833138186337295 0 -0.0096170222700030592 0.026315945957691642 0 -0.0087798875287374584 0.025246919534357763 0 -0.0097376227832963822 0.02569220788146136 0 -0.0092985577744936522 0.026164213679756361 0 -0.0088117330921399402 0.025273049606088293 0 -0.0087798875287374584 0.025246919534357763 0 -0.0093238648136232689 0.024999859892084721 0 -0.0078284500314028619 0.024999838272494173 0 -0.0087798875287374584 0.025246919534357763 0 -0.0093238648136232689 0.024999859892084721 0 -0.0097376227832963822 0.02569220788146136 0 -0.0087798875287374584 0.025246919534357763 0 -0.0080328010578016324 0.025525787957833768 0 -0.0084437324640360602 0.025833138186337295 0 -0.0087798875287374584 0.025246919534357763 0 -0.0078284500314028619 0.024999838272494173 0 -0.0080328010578016324 0.025525787957833768 0 -0.0080328010578016324 0.025525787957833768 0 -0.0084437324640360602 0.025833138186337295 0 -0.0078229492248559126 0.025969247719744955 0 -0.0084282592214325117 0.026295865488675154 0 -0.0084437324640360602 0.025833138186337295 0 -0.0078229492248559126 0.025969247719744955 0 -0.0080328010578016324 0.025525787957833768 0 -0.0078229492248559126 0.025969247719744955 0 -0.0072850400737069308 0.025520940393557578 0 -0.0078229492248559126 0.025969247719744955 0 -0.0072850400737069308 0.025520940393557578 0 -0.0066748193369926189 0.026097792974514464 0 -0.0078284500314028619 0.024999838272494173 0 -0.0080328010578016324 0.025525787957833768 0 -0.0072850400737069308 0.025520940393557578 0 -0.0078284500314028619 0.024999838272494173 0 -0.0072850400737069308 0.025520940393557578 0 -0.0063334369180402996 0.024999833427828553 0 -0.0072850400737069308 0.025520940393557578 0 -0.0063334369180402996 0.024999833427828553 0 -0.0066748193369926189 0.026097792974514464 0 -0.011437598759458288 0.026795477043183347 0 -0.012008943947464679 0.026458290244971035 0 -0.01108845284496212 0.026223067754689664 0 -0.011437598759458288 0.026795477043183347 0 -0.012008943947464679 0.026458290244971035 0 -0.012171052712029467 0.027141457582247768 0 -0.012008943947464679 0.026458290244971035 0 -0.012171052712029467 0.027141457582247768 0 -0.012994425879250385 0.026656512990956744 0 -0.012008943947464679 0.026458290244971035 0 -0.012322269398154864 0.025818123497994869 0 -0.012994425879250385 0.026656512990956744 0 -0.011437598759458288 0.026795477043183347 0 -0.012171052712029467 0.027141457582247768 0 -0.011410025172490932 0.027388537015589163 0 -0.011437598759458288 0.026795477043183347 0 -0.011410025172490932 0.027388537015589163 0 -0.010916449534829738 0.027010689593013792 0 -0.011410025172490932 0.027388537015589163 0 -0.010939523395304625 0.02740777233209599 0 -0.010916449534829738 0.027010689593013792 0 -0.010939523395304625 0.02740777233209599 0 -0.010916449534829738 0.027010689593013792 0 -0.010376013051936013 0.027213754958907009 0 -0.0099478248167389951 0.025265757201431118 0 -0.0092140878983473281 0.026352539569439577 0 -0.009163250480287384 0.026269666229221503 0 -0.010916449534829738 0.027010689593013792 0 -0.010376013051936013 0.027213754958907009 0 -0.010411073925092012 0.026659989620391421 0 -0.0092985577744936522 0.026164213679756361 0 -0.0097648826856184812 0.026709067022955679 0 -0.0096170222700030592 0.026315945957691642 0 -0.010376013051936013 0.027213754958907009 0 -0.010411073925092012 0.026659989620391421 0 -0.0089986093547935169 0.026082180930474035 0 -0.0092140878983473281 0.026352539569439577 0 -0.009163250480287384 0.026269666229221503 0 -0.0096170222700030592 0.026315945957691642 0 -0.010411073925092012 0.026659989620391421 0 -0.010341818065926463 0.026152495430037434 0 -0.010840139084112735 0.026546929533640684 0 -0.01108845284496212 0.026223067754689664 0 -0.010341818065926463 0.026152495430037434 0 -0.011437598759458288 0.026795477043183347 0 -0.010916449534829738 0.027010689593013792 0 -0.010840139084112735 0.026546929533640684 0 -0.010916449534829738 0.027010689593013792 0 -0.010411073925092012 0.026659989620391421 0 -0.010840139084112735 0.026546929533640684 0 -0.010411073925092012 0.026659989620391421 0 -0.010840139084112735 0.026546929533640684 0 -0.010341818065926463 0.026152495430037434 0 -0.011437598759458288 0.026795477043183347 0 -0.010840139084112735 0.026546929533640684 0 -0.01108845284496212 0.026223067754689664 0 -0.01108845284496212 0.026223067754689664 0 -0.01043827159707904 0.025619868287178962 0 -0.011432372634744972 0.025725721577724441 0 -0.01108845284496212 0.026223067754689664 0 -0.010341818065926463 0.026152495430037434 0 -0.01043827159707904 0.025619868287178962 0 -0.0096170222700030592 0.026315945957691642 0 -0.010341818065926463 0.026152495430037434 0 -0.0097376227832963822 0.02569220788146136 0 -0.010341818065926463 0.026152495430037434 0 -0.0097376227832963822 0.02569220788146136 0 -0.01043827159707904 0.025619868287178962 0 -0.0093238648136232689 0.024999859892084721 0 -0.0097376227832963822 0.02569220788146136 0 -0.01043827159707904 0.025619868287178962 0 -0.0093238648136232689 0.024999859892084721 0 -0.01081923855525359 0.024999848018091905 0 -0.01043827159707904 0.025619868287178962 0 -0.01081923855525359 0.024999848018091905 0 -0.01043827159707904 0.025619868287178962 0 -0.011432372634744972 0.025725721577724441 0 -0.010819139224132669 0.025000153304027113 0 -0.011444397137188535 0.025766617976972547 0 -0.01081915552259681 0.024999963586289219 0 -0.011444215674832807 0.025787496244416321 0 -0.012287306460822078 0.024999878994911733 0 -0.011938195463041942 0.026410688341468445 0 -0.011444397137188535 0.025766617976972547 0 -0.012008943947464679 0.026458290244971035 0 -0.01108845284496212 0.026223067754689664 0 -0.011432372634744972 0.025725721577724441 0 -0.012008943947464679 0.026458290244971035 0 -0.011444215674832807 0.025787496244416321 0 -0.012322269398154864 0.025818123497994869 0 -0.011444215674832807 0.025787496244416321 0 -0.012322269398154864 0.025818123497994869 0 -0.012287306460822078 0.024999878994911733 0 -0.012322269398154864 0.025818123497994869 0 -0.012287306460822078 0.024999878994911733 0 -0.013240007641161325 0.025814564134828692 0 -0.012287306460822078 0.024999878994911733 0 -0.013240007641161325 0.025814564134828692 0 -0.014245811594895427 0.024999816928199508 0 -0.013240007641161325 0.025814564134828692 0 -0.014374025296391667 0.026396874330369482 0 -0.014245811594895427 0.024999816928199508 0 -0.012322269398154864 0.025818123497994869 0 -0.013240007641161325 0.025814564134828692 0 -0.012994425879250385 0.026656512990956744 0 -0.013240007641161325 0.025814564134828692 0 -0.012994425879250385 0.026656512990956744 0 -0.014374025296391667 0.026396874330369482 0 -0.012994425879250385 0.026656512990956744 0 -0.013944153142300608 0.027255665715304633 0 -0.014374025296391667 0.026396874330369482 0 -0.012994425879250385 0.026656512990956744 0 -0.013944153142300608 0.027255665715304633 0 -0.012935931104141773 0.027533378027928084 0 -0.012171052712029467 0.027141457582247768 0 -0.012994425879250385 0.026656512990956744 0 -0.012935931104141773 0.027533378027928084 0 -0.015294060075478486 0.026970828645376164 0 -0.013944153142300608 0.027255665715304633 0 -0.014374025296391667 0.026396874330369482 0 -0.015294060075478486 0.026970828645376164 0 -0.014374025296391667 0.026396874330369482 0 -0.015741943491547263 0.025932804031616696 0 -0.014469061012283409 0.026381036966944379 0 -0.015808867381514005 0.026182368865224372 0 -0.014374025296391667 0.026396874330369482 0 -0.015328985712643196 0.025711975489770427 0 -0.015884668223387324 0.026428542446415414 0 -0.014245811594895427 0.024999816928199508 0 -0.015328985712643196 0.025711975489770427 0 -0.016859667725047649 0.024999867613383082 0 -0.014374025296391667 0.026396874330369482 0 -0.014245811594895427 0.024999816928199508 0 -0.015328985712643196 0.025711975489770427 0 -0.015328985712643196 0.025711975489770427 0 -0.016859667725047649 0.024999867613383082 0 -0.015884668223387324 0.026428542446415414 0 -0.016859667725047649 0.024999867613383082 0 -0.017334229029394365 0.026234044632655908 0 -0.015884668223387324 0.026428542446415414 0 -0.016859667725047649 0.024999867613383082 0 -0.020348759482712437 0.024999180944351388 0 -0.018754912043942428 0.025890636999352921 0 -0.01733049638795562 0.025990579442777103 0 -0.015808867381514005 0.026182368865224372 0 -0.016859667725047649 0.024999867613383082 0 -0.017334229029394365 0.026234044632655908 0 -0.018754912043942428 0.025890636999352921 0 -0.017316994893766393 0.025728767537514949 0 -0.018016198704506103 0.026404969707385866 0 -0.018754912043942428 0.025890636999352921 0 -0.01733049638795562 0.025990579442777103 0 -0.018658984427206791 0.025884736394978007 0 -0.018016198704506103 0.026404969707385866 0 -0.018754912043942428 0.025890636999352921 0 -0.01886870133023992 0.026650059121409803 0 -0.017316994893766393 0.025728767537514949 0 -0.018016198704506103 0.026404969707385866 0 -0.016835698470095615 0.026657924565191768 0 -0.01812058490676334 0.027082759121614047 0 -0.016835698470095615 0.026657924565191768 0 -0.016701990046493777 0.027698158119197583 0 -0.018016198704506103 0.026404969707385866 0 -0.01812058490676334 0.027082759121614047 0 -0.016835698470095615 0.026657924565191768 0 -0.018016198704506103 0.026404969707385866 0 -0.01812058490676334 0.027082759121614047 0 -0.01886870133023992 0.026650059121409803 0 -0.015294060075478486 0.026970828645376164 0 -0.015741943491547263 0.025932804031616696 0 -0.016835698470095615 0.026657924565191768 0 -0.017316994893766393 0.025728767537514949 0 -0.015741943491547263 0.025932804031616696 0 -0.016835698470095615 0.026657924565191768 0 -0.015294060075478486 0.026970828645376164 0 -0.016835698470095615 0.026657924565191768 0 -0.016701990046493777 0.027698158119197583 0 -0.01657140502703781 0.027358032142376511 0 -0.015016954767891224 0.027713707979955197 0 -0.015294060075478486 0.026970828645376164 0 -0.016701990046493777 0.027698158119197583 0 -0.015173560455037448 0.028003710312043639 0 -0.016432686229988416 0.026998435126512212 0 -0.015801614513313581 0.028098136743071524 0 -0.016940185525715388 0.027836064139159775 0 -0.016432686229988416 0.026998435126512212 0 -0.015801614513313581 0.028098136743071524 0 -0.014835019053714822 0.027427104397892067 0 -0.015801614513313581 0.028098136743071524 0 -0.014653908655084535 0.028353877511420558 0 -0.014835019053714822 0.027427104397892067 0 -0.01812058490676334 0.027082759121614047 0 -0.018011122460576789 0.027955517313147181 0 -0.018827733020035566 0.027330021721316902 0 -0.01812058490676334 0.027082759121614047 0 -0.016432686229988416 0.026998435126512212 0 -0.016940185525715388 0.027836064139159775 0 -0.018002943550208959 0.027088486822875086 0 -0.01657140502703781 0.027358032142376511 0 -0.016940185525715388 0.027836064139159775 0 -0.018011122460576789 0.027955517313147181 0 -0.016932362564342444 0.028539108407218725 0 -0.01812058490676334 0.027082759121614047 0 -0.016940185525715388 0.027836064139159775 0 -0.018011122460576789 0.027955517313147181 0 -0.018011122460576789 0.027955517313147181 0 -0.018392558385274458 0.028708823328267224 0 -0.017723377593833026 0.028791392888969303 0 -0.018011122460576789 0.027955517313147181 0 -0.018392558385274458 0.028708823328267224 0 -0.018811202291247799 0.028289995838283451 0 -0.018011122460576789 0.027955517313147181 0 -0.017723377593833026 0.028791392888969303 0 -0.016932362564342444 0.028539108407218725 0 -0.017723377593833026 0.028791392888969303 0 -0.016932362564342444 0.028539108407218725 0 -0.017407220976648891 0.029138585219824313 0 -0.016932362564342444 0.028539108407218725 0 -0.017407220976648891 0.029138585219824313 0 -0.016651036966784494 0.029117840619357051 0 -0.017206254004928184 0.02949115653791709 0 -0.017407220976648891 0.029138585219824313 0 -0.016651036966784494 0.029117840619357051 0 -0.017206254004928184 0.02949115653791709 0 -0.016651036966784494 0.029117840619357051 0 -0.01662007708510857 0.029831912737847195 0 -0.017206254004928184 0.02949115653791709 0 -0.017407220976648891 0.029138585219824313 0 -0.017754512759155287 0.029464646449613947 0 -0.018392558385274458 0.028708823328267224 0 -0.017984633163584864 0.029102560935409454 0 -0.018363576908637103 0.029403914178474128 0 -0.017723377593833026 0.028791392888969303 0 -0.017407220976648891 0.029138585219824313 0 -0.017984633163584864 0.029102560935409454 0 -0.018392558385274458 0.028708823328267224 0 -0.017723377593833026 0.028791392888969303 0 -0.017984633163584864 0.029102560935409454 0 -0.017984633163584864 0.029102560935409454 0 -0.017754512759155287 0.029464646449613947 0 -0.018363576908637103 0.029403914178474128 0 -0.017407220976648891 0.029138585219824313 0 -0.017984633163584864 0.029102560935409454 0 -0.017754512759155287 0.029464646449613947 0 -0.015801614513313581 0.028098136743071524 0 -0.015177827164355949 0.028869534504311758 0 -0.014653908655084535 0.028353877511420558 0 -0.015801614513313581 0.028098136743071524 0 -0.016932362564342444 0.028539108407218725 0 -0.016149768751416011 0.028636817162112242 0 -0.015801614513313581 0.028098136743071524 0 -0.016149768751416011 0.028636817162112242 0 -0.015177827164355949 0.028869534504311758 0 -0.015801614513313581 0.028098136743071524 0 -0.016940185525715388 0.027836064139159775 0 -0.016932362564342444 0.028539108407218725 0 -0.016932362564342444 0.028539108407218725 0 -0.016149768751416011 0.028636817162112242 0 -0.016651036966784494 0.029117840619357051 0 -0.016651036966784494 0.029117840619357051 0 -0.015177827164355949 0.028869534504311758 0 -0.01662007708510857 0.029831912737847195 0 -0.015177827164355949 0.028869534504311758 0 -0.014873336093172264 0.028974144846395284 0 -0.014897192783690472 0.028946672398810911 0 -0.015189738741126778 0.028880587603865825 0 -0.015759836833811613 0.029353363225139085 0 -0.016149768751416011 0.028636817162112242 0 -0.016651036966784494 0.029117840619357051 0 -0.015177827164355949 0.028869534504311758 0 -0.015177827164355949 0.028869534504311758 0 -0.014820865338338721 0.028980065739912186 0 -0.014873336093172264 0.028974144846395284 0 -0.015177827164355949 0.028869534504311758 0 -0.014820865338338721 0.028980065739912186 0 -0.0146450852840835 0.028809351505015918 0 -0.0146450852840835 0.028809351505015918 0 -0.014140695325218838 0.028742429005575377 0 -0.014561099828664168 0.02906410508160389 0 -0.014820865338338721 0.028980065739912186 0 -0.0146450852840835 0.028809351505015918 0 -0.014561099828664168 0.02906410508160389 0 -0.0146450852840835 0.028809351505015918 0 -0.014653908655084535 0.028353877511420558 0 -0.014140695325218838 0.028742429005575377 0 -0.015177827164355949 0.028869534504311758 0 -0.0146450852840835 0.028809351505015918 0 -0.014653908655084535 0.028353877511420558 0 -0.014653908655084535 0.028353877511420558 0 -0.014140695325218838 0.028742429005575377 0 -0.013837313493222536 0.028018975073416354 0 -0.014140695325218838 0.028742429005575377 0 -0.013717921080429744 0.028951792107633427 0 -0.013304069580477062 0.02848769116459577 0 -0.013717921080429744 0.028951792107633427 0 -0.013188017385779396 0.028927312426660967 0 -0.013304069580477062 0.02848769116459577 0 -0.012861320325782501 0.028693631354060667 0 -0.013188017385779396 0.028927312426660967 0 -0.013304069580477062 0.02848769116459577 0 -0.012700807563527787 0.029081581803508519 0 -0.012861320325782501 0.028693631354060667 0 -0.013188017385779396 0.028927312426660967 0 -0.012502840682257311 0.028442556058387542 0 -0.012861320325782501 0.028693631354060667 0 -0.013304069580477062 0.02848769116459577 0 -0.012502840682257311 0.028442556058387542 0 -0.013304069580477062 0.02848769116459577 0 -0.012946856025826497 0.028076402506372809 0 -0.014140695325218838 0.028742429005575377 0 -0.013304069580477062 0.02848769116459577 0 -0.013837313493222536 0.028018975073416354 0 -0.013304069580477062 0.02848769116459577 0 -0.012946856025826497 0.028076402506372809 0 -0.013837313493222536 0.028018975073416354 0 -0.012946856025826497 0.028076402506372809 0 -0.012935931104141773 0.027533378027928084 0 -0.013837313493222536 0.028018975073416354 0 -0.012131829905798986 0.027871305667517079 0 -0.012946856025826497 0.028076402506372809 0 -0.012935931104141773 0.027533378027928084 0 -0.013944153142300608 0.027255665715304633 0 -0.012935931104141773 0.027533378027928084 0 -0.013837313493222536 0.028018975073416354 0 -0.013944153142300608 0.027255665715304633 0 -0.015173560455037448 0.028003710312043639 0 -0.013837313493222536 0.028018975073416354 0 -0.015294060075478486 0.026970828645376164 0 -0.013944153142300608 0.027255665715304633 0 -0.015173560455037448 0.028003710312043639 0 -0.014653908655084535 0.028353877511420558 0 -0.014835019053714822 0.027427104397892067 0 -0.013837313493222536 0.028018975073416354 0 -0.015016954767891224 0.027713707979955197 0 -0.013921491045153306 0.027997175083137382 0 -0.024999842409112738 0.024997173101594012 0 -0.024338979944013683 0.024295325656888696 0 -0.021970893324485763 0.02509902668017823 0 -0.024999842409112738 0.024997173101594012 0 -0.021970893324485763 0.02509902668017823 0 -0.020348759482712437 0.024999180944351388 0 -0.024999842409112738 0.024997173101594012 0 -0.024338979944013683 0.024295325656888696 0 -0.024997454931341225 0.021867364324870169 0 -0.024571603606429331 0.023231803850707427 0 -0.024338979944013683 0.024295325656888696 0 -0.024997454931341225 0.021867364324870169 0 -0.025329332922450931 0.022522726471824479 0 -0.02499956305426107 0.021861239354807712 0 -0.024571603606429331 0.023231803850707427 0 -0.024338979944013683 0.024295325656888696 0 -0.024188031908907906 0.024140317750412754 0 -0.024338979944013683 0.024295325656888696 0 -0.023276227448213352 0.02464513539516297 0 -0.021970893324485763 0.02509902668017823 0 -0.022518271182485235 0.025463001627255941 0 -0.022028757945792159 0.02493479529799791 0 -0.021962998475264024 0.026066278695755705 0 -0.021489972571437393 0.025948980326619412 0 -0.021970893324485763 0.02509902668017823 0 -0.021962998475264024 0.026066278695755705 0 -0.021607830307757057 0.026362657429259244 0 -0.021489972571437393 0.025948980326619412 0 -0.022518271182485235 0.025463001627255941 0 -0.024286823802200552 0.024374434899075478 0 -0.021607830307757057 0.026362657429259244 0 -0.02242624923688652 0.027008540795537023 0 -0.021578831962122253 0.026836398696607939 0 -0.021962998475264024 0.026066278695755705 0 -0.021607830307757057 0.026362657429259244 0 -0.02242624923688652 0.027008540795537023 0 -0.024338979944013683 0.024295325656888696 0 -0.023276227448213352 0.02464513539516297 0 -0.024188031908907906 0.024140317750412754 0 -0.024153231132317817 0.023985262881092109 0 -0.023966485935351754 0.024113684686795828 0 -0.024256829940828502 0.024168993699416771 0 -0.025893569702258725 0.022042340432383522 0 -0.026661709410993963 0.022241849352668281 0 -0.026429290996747554 0.021715216280398773 0 -0.025329332922450931 0.022522726471824479 0 -0.024286823802200552 0.024374434899075478 0 -0.024286823802200552 0.024374434899075478 0 -0.025706154077179123 0.022029963373659898 0 -0.024153231132317817 0.023985262881092109 0 -0.023966485935351754 0.024113684686795828 0 -0.023899452685562931 0.023937241677458431 0 -0.024286823802200552 0.024374434899075478 0 -0.022591852383055697 0.02547422638271581 0 -0.023373686770996153 0.024626482595851026 0 -0.022591852383055697 0.02547422638271581 0 -0.02162397043932392 0.027406844377335652 0 -0.021382107360715261 0.026768377906835856 0 -0.021190183604210721 0.027012073343062458 0 -0.020847956963725812 0.0268926448492849 0 -0.02125797319346218 0.026767338969071554 0 -0.021190183604210721 0.027012073343062458 0 -0.020847956963725812 0.0268926448492849 0 -0.021190183604210721 0.027012073343062458 0 -0.020859273820034583 0.027230227048375036 0 -0.022591852383055697 0.02547422638271581 0 -0.022007957172970331 0.025656174867679946 0 -0.021382107360715261 0.026768377906835856 0 -0.02125797319346218 0.026767338969071554 0 -0.021190183604210721 0.027012073343062458 0 -0.02162397043932392 0.027406844377335652 0 -0.021190183604210721 0.027012073343062458 0 -0.020859273820034583 0.027230227048375036 0 -0.023373686770996153 0.024626482595851026 0 -0.020755332642832282 0.026604567911523744 0 -0.020847956963725812 0.0268926448492849 0 -0.020859273820034583 0.027230227048375036 0 -0.020516505832176121 0.027174686774829825 0 -0.020859273820034583 0.027230227048375036 0 -0.020516505832176121 0.027174686774829825 0 -0.020686008815455306 0.027549889440008513 0 -0.020516505832176121 0.027174686774829825 0 -0.020106636055839185 0.026943160636298993 0 -0.02017147916791737 0.027364514354847991 0 -0.020847956963725812 0.0268926448492849 0 -0.020516505832176121 0.027174686774829825 0 -0.020504288580103874 0.026639864597684908 0 -0.020516505832176121 0.027174686774829825 0 -0.020106636055839185 0.026943160636298993 0 -0.020504288580103874 0.026639864597684908 0 -0.020504288580103874 0.026639864597684908 0 -0.021075350284504163 0.026430477340503081 0 -0.020826585899468619 0.025958792111712876 0 -0.020106636055839185 0.026943160636298993 0 -0.020504288580103874 0.026639864597684908 0 -0.019841378671182706 0.026394386746386611 0 -0.020504288580103874 0.026639864597684908 0 -0.020826585899468619 0.025958792111712876 0 -0.019841378671182706 0.026394386746386611 0 -0.020847956963725812 0.0268926448492849 0 -0.020504288580103874 0.026639864597684908 0 -0.021075350284504163 0.026430477340503081 0 -0.020847956963725812 0.0268926448492849 0 -0.02125797319346218 0.026767338969071554 0 -0.021075350284504163 0.026430477340503081 0 -0.021607830307757057 0.026362657429259244 0 -0.02125797319346218 0.026767338969071554 0 -0.021075350284504163 0.026430477340503081 0 -0.021607830307757057 0.026362657429259244 0 -0.021578831962122253 0.026836398696607939 0 -0.02125797319346218 0.026767338969071554 0 -0.021607830307757057 0.026362657429259244 0 -0.021075350284504163 0.026430477340503081 0 -0.021489972571437393 0.025948980326619412 0 -0.020348759482712437 0.024999180944351388 0 -0.020826585899468619 0.025958792111712876 0 -0.019841378671182706 0.026394386746386611 0 -0.021489972571437393 0.025948980326619412 0 -0.021970893324485763 0.02509902668017823 0 -0.020826585899468619 0.025958792111712876 0 -0.021075350284504163 0.026430477340503081 0 -0.021489972571437393 0.025948980326619412 0 -0.020826585899468619 0.025958792111712876 0 -0.021970893324485763 0.02509902668017823 0 -0.020348759482712437 0.024999180944351388 0 -0.020826585899468619 0.025958792111712876 0 -0.020348759482712437 0.024999180944351388 0 -0.018754912043942428 0.025890636999352921 0 -0.019841378671182706 0.026394386746386611 0 -0.018754912043942428 0.025890636999352921 0 -0.019841378671182706 0.026394386746386611 0 -0.01886870133023992 0.026650059121409803 0 -0.019841378671182706 0.026394386746386611 0 -0.019484121922894889 0.027098343204518097 0 -0.01886870133023992 0.026650059121409803 0 -0.020106636055839185 0.026943160636298993 0 -0.019841378671182706 0.026394386746386611 0 -0.019484121922894889 0.027098343204518097 0 -0.020106636055839185 0.026943160636298993 0 -0.019484121922894889 0.027098343204518097 0 -0.02017147916791737 0.027364514354847991 0 -0.019484121922894889 0.027098343204518097 0 -0.01886870133023992 0.026650059121409803 0 -0.018827733020035566 0.027330021721316902 0 -0.01812058490676334 0.027082759121614047 0 -0.01886870133023992 0.026650059121409803 0 -0.018827733020035566 0.027330021721316902 0 -0.018827733020035566 0.027330021721316902 0 -0.019653204239027111 0.027665002212041687 0 -0.018851791897108856 0.027841994040641325 0 -0.019484121922894889 0.027098343204518097 0 -0.018827733020035566 0.027330021721316902 0 -0.019653204239027111 0.027665002212041687 0 -0.019484121922894889 0.027098343204518097 0 -0.019653204239027111 0.027665002212041687 0 -0.02017147916791737 0.027364514354847991 0 -0.019653204239027111 0.027665002212041687 0 -0.019397282725510175 0.028179933917303366 0 -0.020126055764530866 0.028069711253802004 0 -0.019653204239027111 0.027665002212041687 0 -0.018851791897108856 0.027841994040641325 0 -0.019397282725510175 0.028179933917303366 0 -0.018851791897108856 0.027841994040641325 0 -0.018811202291247799 0.028289995838283451 0 -0.019397282725510175 0.028179933917303366 0 -0.018011122460576789 0.027955517313147181 0 -0.018851791897108856 0.027841994040641325 0 -0.018811202291247799 0.028289995838283451 0 -0.018011122460576789 0.027955517313147181 0 -0.018827733020035566 0.027330021721316902 0 -0.018851791897108856 0.027841994040641325 0 -0.018811202291247799 0.028289995838283451 0 -0.019010605343563376 0.028789869301477571 0 -0.019397282725510175 0.028179933917303366 0 -0.018392558385274458 0.028708823328267224 0 -0.018811202291247799 0.028289995838283451 0 -0.019010605343563376 0.028789869301477571 0 -0.018392558385274458 0.028708823328267224 0 -0.018363576908637103 0.029403914178474128 0 -0.019010605343563376 0.028789869301477571 0 -0.018363576908637103 0.029403914178474128 0 -0.019010605343563376 0.028789869301477571 0 -0.018929411967975873 0.029478550127340891 0 -0.019010605343563376 0.028789869301477571 0 -0.019357213594419775 0.029135578929738507 0 -0.018929411967975873 0.029478550127340891 0 -0.019010605343563376 0.028789869301477571 0 -0.019357213594419775 0.029135578929738507 0 -0.019727882652963213 0.028556192301014832 0 -0.019762296914661137 0.029195257603164573 0 -0.019357213594419775 0.029135578929738507 0 -0.019727882652963213 0.028556192301014832 0 -0.019727882652963213 0.028556192301014832 0 -0.019397282725510175 0.028179933917303366 0 -0.020126055764530866 0.028069711253802004 0 -0.019010605343563376 0.028789869301477571 0 -0.019727882652963213 0.028556192301014832 0 -0.019397282725510175 0.028179933917303366 0 -0.020126055764530866 0.028069711253802004 0 -0.020508112722569499 0.028429696894000971 0 -0.02047929528079839 0.028151169709073314 0 -0.019727882652963213 0.028556192301014832 0 -0.020126055764530866 0.028069711253802004 0 -0.020508112722569499 0.028429696894000971 0 -0.019762296914661137 0.029195257603164573 0 -0.019727882652963213 0.028556192301014832 0 -0.020508112722569499 0.028429696894000971 0 -0.020508112722569499 0.028429696894000971 0 -0.020601000655819126 0.027983810778921446 0 -0.021242965692547629 0.027310325110161862 0 -0.019762296914661137 0.029195257603164573 0 -0.020508112722569499 0.028429696894000971 0 -0.020035079400530717 0.029985733097349806 0 -0.020549151937036776 0.028446824523369309 0 -0.020579688255493538 0.028486162779099659 0 -0.020601000655819126 0.027983810778921446 0 -0.020585271757759871 0.028119730150388871 0 -0.020519827696277394 0.027948021386211115 0 -0.020508112722569499 0.028429696894000971 0 -0.020601000655819126 0.027983810778921446 0 -0.020585271757759871 0.028119730150388871 0 -0.020585271757759871 0.028119730150388871 0 -0.02047929528079839 0.028151169709073314 0 -0.020556407261933588 0.027907194752165729 0 -0.020508112722569499 0.028429696894000971 0 -0.020585271757759871 0.028119730150388871 0 -0.02047929528079839 0.028151169709073314 0 -0.020556407261933588 0.027907194752165729 0 -0.020686008815455306 0.027549889440008513 0 -0.02078869982749337 0.027890591508407888 0 -0.020556407261933588 0.027907194752165729 0 -0.020263780748928727 0.027717637695905 0 -0.020686008815455306 0.027549889440008513 0 -0.019653204239027111 0.027665002212041687 0 -0.020126055764530866 0.028069711253802004 0 -0.020263780748928727 0.027717637695905 0 -0.020126055764530866 0.028069711253802004 0 -0.02047929528079839 0.028151169709073314 0 -0.020556407261933588 0.027907194752165729 0 -0.020126055764530866 0.028069711253802004 0 -0.020556407261933588 0.027907194752165729 0 -0.020263780748928727 0.027717637695905 0 -0.019653204239027111 0.027665002212041687 0 -0.020263780748928727 0.027717637695905 0 -0.02017147916791737 0.027364514354847991 0 -0.020263780748928727 0.027717637695905 0 -0.02017147916791737 0.027364514354847991 0 -0.020686008815455306 0.027549889440008513 0 -0.020516505832176121 0.027174686774829825 0 -0.02017147916791737 0.027364514354847991 0 -0.020686008815455306 0.027549889440008513 0 -0.020926213348820954 0.027367863588733089 0 -0.020859273820034583 0.027230227048375036 0 -0.020686008815455306 0.027549889440008513 0 -0.023373686770996153 0.024626482595851026 0 -0.023373357182711316 0.024098835207913727 0 -0.020926213348820954 0.027367863588733089 0 -0.020686008815455306 0.027549889440008513 0 -0.02078869982749337 0.027890591508407888 0 -0.026117939848197672 0.020964111839470494 0 -0.02577147192698338 0.02083094179765661 0 -0.025989853758079714 0.020502463199951675 0 -0.025706154077179123 0.022029963373659898 0 -0.025902196166527527 0.02041367832755752 0 -0.023373686770996153 0.024626482595851026 0 -0.025706154077179123 0.022029963373659898 0 -0.025989853758079714 0.020502463199951675 0 -0.025729266388862377 0.020215701990933373 0 -0.025654057334710722 0.020439143490900796 0 -0.02577147192698338 0.02083094179765661 0 -0.025989853758079714 0.020502463199951675 0 -0.025654057334710722 0.020439143490900796 0 -0.020585271757759871 0.028119730150388871 0 -0.020556407261933588 0.027907194752165729 0 -0.02078869982749337 0.027890591508407888 0 -0.020585271757759871 0.028119730150388871 0 -0.02078869982749337 0.027890591508407888 0 -0.020364638242343656 0.028082177739410855 0 -0.020585271757759871 0.028119730150388871 0 -0.020519827696277394 0.027948021386211115 0 -0.020364638242343656 0.028082177739410855 0 -0.020519827696277394 0.027948021386211115 0 -0.020364638242343656 0.028082177739410855 0 -0.02043953979191826 0.027595595167205184 0 -0.020601000655819126 0.027983810778921446 0 -0.020519827696277394 0.027948021386211115 0 -0.02043953979191826 0.027595595167205184 0 -0.023083075306532329 0.024050859125869409 0 -0.022753517246583255 0.024111869494153285 0 -0.0258300509380258 0.020151997151665543 0 -0.025726954498097285 0.020102581365472938 0 -0.025679475925246987 0.02011260857875314 0 -0.020364638242343656 0.028082177739410855 0 -0.01980585593062243 0.027531026454852787 0 -0.02043953979191826 0.027595595167205184 0 -0.023373357182711316 0.024098835207913727 0 -0.023083075306532329 0.024050859125869409 0 -0.025989853758079714 0.020502463199951675 0 -0.0258300509380258 0.020151997151665543 0 -0.025729266388862377 0.020215701990933373 0 -0.0258300509380258 0.020151997151665543 0 -0.025729266388862377 0.020215701990933373 0 -0.025726954498097285 0.020102581365472938 0 -0.025698150202849455 0.020078692883721393 0 -0.025753447084688762 0.020438013491113318 0 -0.026145321931072402 0.020632940340126586 0 -0.025733906130543795 0.020180592230178821 0 -0.025902196166527527 0.02041367832755752 0 -0.025729266388862377 0.020215701990933373 0 -0.025698150202849455 0.020078692883721393 0 -0.025654057334710722 0.020439143490900796 0 -0.025698150202849455 0.020078692883721393 0 -0.025690627099485153 0.020096732496567987 0 -0.025753447084688762 0.020438013491113318 0 -0.025729266388862377 0.020215701990933373 0 -0.025698150202849455 0.020078692883721393 0 -0.025726954498097285 0.020102581365472938 0 -0.025562242862749995 0.020385197143574917 0 -0.026344907030295364 0.018622213261192191 0 -0.025698150202849455 0.020078692883721393 0 -0.025726954498097285 0.020102581365472938 0 -0.025734712032725718 0.02008752411734218 0 -0.025698150202849455 0.020078692883721393 0 -0.025690627099485153 0.020096732496567987 0 -0.025734712032725718 0.02008752411734218 0 -0.025726954498097285 0.020102581365472938 0 -0.025734712032725718 0.02008752411734218 0 -0.025679475925246987 0.02011260857875314 0 -0.025376625446920691 0.019189223428801756 0 -0.024999955555340788 0.018543963228360247 0 -0.0260396474026207 0.018623566318186305 0 -0.025477754091350707 0.019579549744615475 0 -0.025376625446920691 0.019189223428801756 0 -0.0260396474026207 0.018623566318186305 0 -0.025376625446920691 0.019189223428801756 0 -0.024999953808329083 0.01987177649615331 0 -0.024999955555340788 0.018543963228360247 0 -0.025477754091350707 0.019579549744615475 0 -0.025690627099485153 0.020096732496567987 0 -0.0260396474026207 0.018623566318186305 0 -0.025477754091350707 0.019579549744615475 0 -0.025376625446920691 0.019189223428801756 0 -0.024999953808329083 0.01987177649615331 0 -0.025477754091350707 0.019579549744615475 0 -0.024999953808329083 0.01987177649615331 0 -0.025370636882331685 0.020007913559582001 0 -0.025477754091350707 0.019579549744615475 0 -0.025690627099485153 0.020096732496567987 0 -0.025370636882331685 0.020007913559582001 0 -0.025370636882331685 0.020007913559582001 0 -0.025550577706406667 0.020251419330869404 0 -0.025364355320219679 0.02048198250257446 0 -0.025690627099485153 0.020096732496567987 0 -0.025550577706406667 0.020251419330869404 0 -0.025753447084688762 0.020438013491113318 0 -0.025690627099485153 0.020096732496567987 0 -0.025370636882331685 0.020007913559582001 0 -0.025550577706406667 0.020251419330869404 0 -0.024999953808329083 0.01987177649615331 0 -0.025370636882331685 0.020007913559582001 0 -0.025364355320219679 0.02048198250257446 0 -0.024999953808329083 0.01987177649615331 0 -0.025364355320219679 0.02048198250257446 0 -0.025000010539391427 0.021198706823487564 0 -0.025364355320219679 0.02048198250257446 0 -0.025602942905204502 0.020862235762214732 0 -0.025000010539391427 0.021198706823487564 0 -0.025364355320219679 0.02048198250257446 0 -0.025602942905204502 0.020862235762214732 0 -0.025753447084688762 0.020438013491113318 0 -0.025550577706406667 0.020251419330869404 0 -0.025364355320219679 0.02048198250257446 0 -0.025753447084688762 0.020438013491113318 0 -0.025602942905204502 0.020862235762214732 0 -0.025753447084688762 0.020438013491113318 0 -0.026145321931072402 0.020632940340126586 0 -0.025602942905204502 0.020862235762214732 0 -0.026145321931072402 0.020632940340126586 0 -0.025794509689223141 0.021302186330682947 0 -0.025893569702258725 0.022042340432383522 0 -0.026429290996747554 0.021715216280398773 0 -0.025770542892423563 0.021493520799444783 0 -0.025706154077179123 0.022029963373659898 0 -0.025888144285516529 0.021411003191387407 0 -0.026572741651011568 0.021503595272286725 0 -0.026145321931072402 0.020632940340126586 0 -0.025794509689223141 0.021302186330682947 0 -0.025602942905204502 0.020862235762214732 0 -0.025794509689223141 0.021302186330682947 0 -0.025000010539391427 0.021198706823487564 0 -0.025770542892423563 0.021493520799444783 0 -0.025000016250208878 0.021860724760496081 0 -0.02499994102193823 0.021199287264725648 0 -0.025893569702258725 0.022042340432383522 0 -0.025770542892423563 0.021493520799444783 0 -0.025000016250208878 0.021860724760496081 0 -0.025888144285516529 0.021411003191387407 0 -0.025000057001930191 0.021199024027903895 0 -0.024999961733656272 0.015889066363445021 0 -0.025976208337889835 0.016400780612929169 0 -0.025658870188127812 0.015483204041381793 0 -0.025002176547219861 0.015887538020128447 0 -0.024017683277472748 0.018149039845591582 0 -0.01962876057838624 0.024071448790880079 0 -0.019664020085929313 0.024057661589359312 0 -0.0195037518545522 0.023998175562777276 0 -0.022750601692744191 0.020235266811851973 0 -0.024017683277472748 0.018149039845591582 0 -0.01962876057838624 0.024071448790880079 0 -0.019609319481861585 0.024055606958386346 0 -0.019694556767691888 0.024104612124555266 0 -0.01962876057838624 0.024071448790880079 0 -0.019609319481861585 0.024055606958386346 0 -0.019664020085929313 0.024057661589359312 0 -0.019257277618304654 0.02543672985661527 0 -0.022882760973406163 0.021772297599743678 0 -0.022750601692744191 0.020235266811851973 0 -0.022882760973406163 0.021772297599743678 0 -0.019609319481861585 0.024055606958386346 0 -0.019664020085929313 0.024057661589359312 0 -0.019677742415321622 0.023865866939142923 0 -0.024999961733656272 0.015889066363445021 0 -0.025976208337889835 0.016400780612929169 0 -0.02500000875026134 0.017216444278752369 0 -0.025976208337889835 0.016400780612929169 0 -0.02500000875026134 0.017216444278752369 0 -0.026289091163951891 0.017351965493620985 0 -0.025610760392700826 0.017856910479371397 0 -0.02500000875026134 0.017216444278752369 0 -0.024999955555340788 0.018543963228360247 0 -0.025610760392700826 0.017856910479371397 0 -0.02500000875026134 0.017216444278752369 0 -0.026289091163951891 0.017351965493620985 0 -0.025610760392700826 0.017856910479371397 0 -0.024999955555340788 0.018543963228360247 0 -0.0260396474026207 0.018623566318186305 0 -0.025734712032725718 0.02008752411734218 0 -0.025670722370043298 0.020284708752304006 0 -0.025679475925246987 0.02011260857875314 0 -0.026344907030295364 0.018622213261192191 0 -0.022882760973406163 0.021772297599743678 0 -0.025610760392700826 0.017856910479371397 0 -0.0260396474026207 0.018623566318186305 0 -0.026289091163951891 0.017351965493620985 0 -0.022882760973406163 0.021772297599743678 0 -0.022753517246583255 0.024111869494153285 0 -0.019215323390520119 0.026454127459436001 0 -0.02008280197926007 0.026999723971106896 0 -0.020188266759260526 0.026074411550479657 0 -0.019215323390520119 0.026454127459436001 0 -0.02008280197926007 0.026999723971106896 0 -0.01980585593062243 0.027531026454852787 0 -0.02008280197926007 0.026999723971106896 0 -0.01980585593062243 0.027531026454852787 0 -0.02043953979191826 0.027595595167205184 0 -0.02008280197926007 0.026999723971106896 0 -0.02043953979191826 0.027595595167205184 0 -0.021030219010638149 0.026953709796346689 0 -0.02008280197926007 0.026999723971106896 0 -0.020188266759260526 0.026074411550479657 0 -0.021030219010638149 0.026953709796346689 0 -0.021039078004962734 0.025563736045668368 0 -0.020188266759260526 0.026074411550479657 0 -0.020238763855254444 0.024860245153724741 0 -0.021039078004962734 0.025563736045668368 0 -0.020188266759260526 0.026074411550479657 0 -0.021030219010638149 0.026953709796346689 0 -0.01935378442292857 0.025369429792886884 0 -0.020188266759260526 0.026074411550479657 0 -0.020238763855254444 0.024860245153724741 0 -0.01935378442292857 0.025369429792886884 0 -0.019215323390520119 0.026454127459436001 0 -0.020188266759260526 0.026074411550479657 0 -0.019257277618304654 0.02543672985661527 0 -0.019722242493885829 0.023889338604499655 0 -0.01935378442292857 0.025369429792886884 0 -0.020238763855254444 0.024860245153724741 0 -0.019694556767691888 0.024104612124555266 0 -0.020232582085755006 0.025117984776166748 0 -0.019492096166132372 0.024153954552803263 0 -0.021039078004962734 0.025563736045668368 0 -0.020238763855254444 0.024860245153724741 0 -0.020817937473787837 0.024148397890840886 0 -0.019428065394164674 0.024963782718980056 0 -0.020278873800654768 0.023738450492911504 0 -0.018794316669965488 0.022863729705885814 0 -0.019428065394164674 0.024963782718980056 0 -0.020278873800654768 0.023738450492911504 0 -0.021623466083170971 0.025226826609965627 0 -0.020961021154140242 0.028427171069392167 0 -0.018081643033822835 0.02488914691253501 0 -0.021623466083170971 0.025226826609965627 0 -0.021963446384673332 0.022672778691008227 0 -0.02120593453039606 0.023148254865799474 0 -0.020278873800654768 0.023738450492911504 0 -0.021623466083170971 0.025226826609965627 0 -0.02120593453039606 0.023148254865799474 0 -0.020232582085755006 0.025117984776166748 0 -0.020503122991300485 0.026870623927030306 0 -0.019428065394164674 0.024963782718980056 0 -0.021623466083170971 0.025226826609965627 0 -0.020012628315177094 0.026807179661538703 0 -0.020609543457430372 0.027845213758119092 0 -0.020503122991300485 0.026870623927030306 0 -0.020601000655819126 0.027983810778921446 0 -0.020012628315177094 0.026807179661538703 0 -0.021242965692547629 0.027310325110161862 0 -0.020601000655819126 0.027983810778921446 0 -0.02043953979191826 0.027595595167205184 0 -0.021030219010638149 0.026953709796346689 0 -0.021623466083170971 0.025226826609965627 0 -0.020012628315177094 0.026807179661538703 0 -0.021242965692547629 0.027310325110161862 0 -0.020961021154140242 0.028427171069392167 0 -0.020579688255493538 0.028486162779099659 0 -0.019613359846765387 0.030786814720268754 0 -0.020035079400530717 0.029985733097349806 0 -0.019355053179403298 0.030471334607070823 0 -0.020035079400530717 0.029985733097349806 0 -0.019355053179403298 0.030471334607070823 0 -0.019319934141750691 0.029833596979336564 0 -0.019355053179403298 0.030471334607070823 0 -0.019319934141750691 0.029833596979336564 0 -0.018869845450406444 0.03045148528132232 0 -0.019762296914661137 0.029195257603164573 0 -0.019357213594419775 0.029135578929738507 0 -0.019319934141750691 0.029833596979336564 0 -0.019357213594419775 0.029135578929738507 0 -0.019319934141750691 0.029833596979336564 0 -0.018929411967975873 0.029478550127340891 0 -0.019762296914661137 0.029195257603164573 0 -0.020035079400530717 0.029985733097349806 0 -0.019319934141750691 0.029833596979336564 0 -0.019319934141750691 0.029833596979336564 0 -0.018929411967975873 0.029478550127340891 0 -0.018650217621734598 0.029924434208385958 0 -0.018363576908637103 0.029403914178474128 0 -0.018929411967975873 0.029478550127340891 0 -0.018650217621734598 0.029924434208385958 0 -0.019319934141750691 0.029833596979336564 0 -0.018650217621734598 0.029924434208385958 0 -0.018869845450406444 0.03045148528132232 0 -0.018650217621734598 0.029924434208385958 0 -0.018869845450406444 0.03045148528132232 0 -0.018249481551029609 0.03037180719008226 0 -0.018869845450406444 0.03045148528132232 0 -0.018249481551029609 0.03037180719008226 0 -0.018498430091906024 0.030723414701792035 0 -0.015267268413316985 0.02862681795812581 0 -0.01611497081703684 0.029022182869654571 0 -0.018869845450406444 0.03045148528132232 0 -0.019109632430494215 0.031025193035563888 0 -0.018498430091906024 0.030723414701792035 0 -0.019613359846765387 0.030786814720268754 0 -0.019355053179403298 0.030471334607070823 0 -0.019109632430494215 0.031025193035563888 0 -0.019355053179403298 0.030471334607070823 0 -0.018869845450406444 0.03045148528132232 0 -0.019109632430494215 0.031025193035563888 0 -0.019613359846765387 0.030786814720268754 0 -0.019109632430494215 0.031025193035563888 0 -0.019414204072481071 0.031192972425142629 0 -0.015267268413316985 0.02862681795812581 0 -0.018081643033822835 0.02488914691253501 0 -0.012115874990862502 0.025732881259253704 0 -0.013660640683503464 0.02735808422920627 0 -0.01403579600152359 0.024909567214814028 0 -0.012115874990862502 0.025732881259253704 0 -0.013001475619137915 0.024004926165605716 0 -0.01403579600152359 0.024909567214814028 0 -0.012115874990862502 0.025732881259253704 0 -0.013001475619137915 0.024004926165605716 0 -0.011856759969102473 0.02435073587687446 0 -0.013001475619137915 0.024004926165605716 0 -0.011856759969102473 0.02435073587687446 0 -0.011539547695168675 0.023014455230381189 0 -0.012115874990862502 0.025732881259253704 0 -0.011856759969102473 0.02435073587687446 0 -0.01053485381812079 0.024141033496746674 0 -0.011856759969102473 0.02435073587687446 0 -0.011539547695168675 0.023014455230381189 0 -0.01053485381812079 0.024141033496746674 0 -0.011539547695168675 0.023014455230381189 0 -0.010679309226309565 0.021711748479247658 0 -0.01053485381812079 0.024141033496746674 0 -0.011539547695168675 0.023014455230381189 0 -0.011616881214265204 0.021535667194527434 0 -0.010679309226309565 0.021711748479247658 0 -0.011539547695168675 0.023014455230381189 0 -0.012813333634809618 0.022562820881932115 0 -0.011616881214265204 0.021535667194527434 0 -0.013001475619137915 0.024004926165605716 0 -0.011539547695168675 0.023014455230381189 0 -0.012813333634809618 0.022562820881932115 0 -0.012813333634809618 0.022562820881932115 0 -0.013491278059347241 0.021778239646775555 0 -0.012533503095116751 0.021370096359462624 0 -0.013001475619137915 0.024004926165605716 0 -0.012813333634809618 0.022562820881932115 0 -0.014057819404526 0.023056261819956642 0 -0.012813333634809618 0.022562820881932115 0 -0.013491278059347241 0.021778239646775555 0 -0.014057819404526 0.023056261819956642 0 -0.013140270184174567 0.020814813931153271 0 -0.013043681338074823 0.020064042907901803 0 -0.014886708018315859 0.021082422307211669 0 -0.013491278059347241 0.021778239646775555 0 -0.012533503095116751 0.021370096359462624 0 -0.013140270184174567 0.020814813931153271 0 -0.012813333634809618 0.022562820881932115 0 -0.012533503095116751 0.021370096359462624 0 -0.011616881214265204 0.021535667194527434 0 -0.012307990820416913 0.020763699638895315 0 -0.012688172476008478 0.020495900840023871 0 -0.013140270184174567 0.020814813931153271 0 -0.012533503095116751 0.021370096359462624 0 -0.012307990820416913 0.020763699638895315 0 -0.013140270184174567 0.020814813931153271 0 -0.012688172476008478 0.020495900840023871 0 -0.013140270184174567 0.020814813931153271 0 -0.013043681338074823 0.020064042907901803 0 -0.012307990820416913 0.020763699638895315 0 -0.012688172476008478 0.020495900840023871 0 -0.012173276448855332 0.020211598444922169 0 -0.013910994596514615 0.011886180415232948 0 -0.014648629424417522 0.0065401838753241124 0 -0.016662739189353223 0.0085222142541691165 0 -0.014642963371511058 0.0075049697624673646 0 -0.01707718315572854 0.005818046914643377 0 -0.012688172476008478 0.020495900840023871 0 -0.013043681338074823 0.020064042907901803 0 -0.012173276448855332 0.020211598444922169 0 -0.013043681338074823 0.020064042907901803 0 -0.011185967302619625 0.01903394957337284 0 -0.012173276448855332 0.020211598444922169 0 -0.013910994596514615 0.011886180415232948 0 -0.017430890940571982 0.0092165208408155133 0 -0.010895357305173943 0.019225460521674478 0 -0.011185967302619625 0.01903394957337284 0 -0.011290136194207405 0.02015940073292696 0 -0.017430890940571982 0.0092165208408155133 0 -0.018599858962972379 0.0075476451904205053 0 -0.018102327199360738 0.013510455016498179 0 -0.017430890940571982 0.0092165208408155133 0 -0.018102327199360738 0.013510455016498179 0 -0.018599858962972379 0.0075476451904205053 0 -0.019907495310162625 0.009151408539705988 0 -0.018553657627592066 0.01004880950066598 0 -0.019789372998563974 0.010658098047259271 0 -0.011185967302619625 0.01903394957337284 0 -0.012173276448855332 0.020211598444922169 0 -0.011290136194207405 0.02015940073292696 0 -0.010895357305173943 0.019225460521674478 0 -0.011290136194207405 0.02015940073292696 0 -0.010679309226309565 0.021711748479247658 0 -0.011290136194207405 0.02015940073292696 0 -0.011675355678262547 0.020782555153006858 0 -0.010679309226309565 0.021711748479247658 0 -0.012173276448855332 0.020211598444922169 0 -0.011290136194207405 0.02015940073292696 0 -0.011675355678262547 0.020782555153006858 0 -0.012307990820416913 0.020763699638895315 0 -0.012173276448855332 0.020211598444922169 0 -0.011675355678262547 0.020782555153006858 0 -0.012307990820416913 0.020763699638895315 0 -0.011675355678262547 0.020782555153006858 0 -0.012008391155910302 0.021090429075530163 0 -0.012533503095116751 0.021370096359462624 0 -0.012307990820416913 0.020763699638895315 0 -0.012008391155910302 0.021090429075530163 0 -0.012533503095116751 0.021370096359462624 0 -0.012008391155910302 0.021090429075530163 0 -0.011616881214265204 0.021535667194527434 0 -0.011675355678262547 0.020782555153006858 0 -0.012008391155910302 0.021090429075530163 0 -0.011616881214265204 0.021535667194527434 0 -0.011675355678262547 0.020782555153006858 0 -0.011616881214265204 0.021535667194527434 0 -0.010679309226309565 0.021711748479247658 0 -0.022435678631922567 0.017547611082440882 0 -0.022246259678952971 0.020174809740571717 0 -0.021186535568963494 0.019396545167774479 0 -0.018102327199360738 0.013510455016498179 0 -0.016088687169222758 0.021668960150073246 0 -0.022246259678952971 0.020174809740571717 0 -0.021186535568963494 0.019396545167774479 0 -0.021339210753472802 0.020505482733807843 0 -0.021186535568963494 0.019396545167774479 0 -0.020487704135151653 0.020390218544616593 0 -0.021339210753472802 0.020505482733807843 0 -0.021971007646713735 0.018981115189458914 0 -0.022277612032903151 0.01396352572494404 0 -0.018773067695870244 0.0098678267621185485 0 -0.018420802689969464 0.0059527331283443412 0 -0.020228756078488772 0.0077727209368505966 0 -0.022277612032903151 0.01396352572494404 0 -0.023438712109775828 0.0080172848677800817 0 -0.022435678631922567 0.017547611082440882 0 -0.021186535568963494 0.019396545167774479 0 -0.021083096759779225 0.018494684476275104 0 -0.018102327199360738 0.013510455016498179 0 -0.022277612032903151 0.01396352572494404 0 -0.020717789656346103 0.0085312706207458476 0 -0.018773067695870244 0.0098678267621185485 0 -0.020228756078488772 0.0077727209368505966 0 -0.020717789656346103 0.0085312706207458476 0 -0.020753732438819013 0.0080411980858809493 0 -0.020228756078488772 0.0077727209368505966 0 -0.018599858962972379 0.0075476451904205053 0 -0.01934331329123197 0.0078307424666676246 0 -0.028674568048612483 0.013095770250797034 0 -0.027928226166019698 0.013608106977742647 0 -0.027789977390047075 0.012796706932371874 0 -0.028674568048612483 0.013095770250797034 0 -0.027789977390047075 0.012796706932371874 0 -0.028049679917990959 0.01217389115360799 0 -0.021186535568963494 0.019396545167774479 0 -0.021115348569528316 0.018562807679466713 0 -0.019681078899829323 0.019591564969883391 0 -0.021186535568963494 0.019396545167774479 0 -0.019681078899829323 0.019591564969883391 0 -0.020487704135151653 0.020390218544616593 0 -0.022277612032903151 0.01396352572494404 0 -0.023946374227879232 0.016547863846788469 0 -0.019681078899829323 0.019591564969883391 0 -0.019521230444017601 0.021139675569905651 0 -0.020487704135151653 0.020390218544616593 0 -0.019521230444017601 0.021139675569905651 0 -0.020432659000174821 0.021403764222321778 0 -0.020302283433721126 0.022411355461736126 0 -0.020432659000174821 0.021403764222321778 0 -0.02103223633986661 0.021165623974141092 0 -0.020825365150892988 0.021896847519257471 0 -0.020432659000174821 0.021403764222321778 0 -0.020487704135151653 0.020390218544616593 0 -0.02103223633986661 0.021165623974141092 0 -0.019521230444017601 0.021139675569905651 0 -0.020432659000174821 0.021403764222321778 0 -0.020487704135151653 0.020390218544616593 0 -0.021339210753472802 0.020505482733807843 0 -0.021753377851487007 0.021378684736426717 0 -0.02103223633986661 0.021165623974141092 0 -0.020487704135151653 0.020390218544616593 0 -0.021339210753472802 0.020505482733807843 0 -0.02103223633986661 0.021165623974141092 0 -0.016088687169222758 0.021668960150073246 0 -0.018081643033822835 0.02488914691253501 0 -0.022246259678952971 0.020174809740571717 0 -0.021753377851487007 0.021378684736426717 0 -0.021997464267971469 0.022679139801392204 0 -0.022246259678952971 0.020174809740571717 0 -0.021339210753472802 0.020505482733807843 0 -0.021753377851487007 0.021378684736426717 0 -0.021753377851487007 0.021378684736426717 0 -0.02103223633986661 0.021165623974141092 0 -0.021343400804595406 0.021849286407307038 0 -0.02103223633986661 0.021165623974141092 0 -0.021343400804595406 0.021849286407307038 0 -0.020825365150892988 0.021896847519257471 0 -0.021753377851487007 0.021378684736426717 0 -0.021343400804595406 0.021849286407307038 0 -0.021682176965773996 0.022362136591875484 0 -0.021343400804595406 0.021849286407307038 0 -0.0211676754005099 0.022419306260550224 0 -0.020825365150892988 0.021896847519257471 0 -0.021343400804595406 0.021849286407307038 0 -0.0211676754005099 0.022419306260550224 0 -0.021682176965773996 0.022362136591875484 0 -0.0211676754005099 0.022419306260550224 0 -0.021682176965773996 0.022362136591875484 0 -0.021505611239336198 0.022652078121970093 0 -0.021753377851487007 0.021378684736426717 0 -0.021682176965773996 0.022362136591875484 0 -0.021997464267971469 0.022679139801392204 0 -0.021682176965773996 0.022362136591875484 0 -0.021963446384673332 0.022672778691008227 0 -0.021505611239336198 0.022652078121970093 0 -0.018998803635834158 0.024690289679697948 0 -0.018081643033822835 0.02488914691253501 0 -0.021963446384673332 0.022672778691008227 0 -0.021505611239336198 0.022652078121970093 0 -0.02120593453039606 0.023148254865799474 0 -0.0211676754005099 0.022419306260550224 0 -0.02120593453039606 0.023148254865799474 0 -0.020302283433721126 0.022411355461736126 0 -0.0211676754005099 0.022419306260550224 0 -0.021505611239336198 0.022652078121970093 0 -0.02120593453039606 0.023148254865799474 0 -0.020278873800654768 0.023738450492911504 0 -0.02120593453039606 0.023148254865799474 0 -0.020302283433721126 0.022411355461736126 0 -0.019521230444017601 0.021139675569905651 0 -0.020302283433721126 0.022411355461736126 0 -0.018794316669965488 0.022863729705885814 0 -0.020278873800654768 0.023738450492911504 0 -0.020302283433721126 0.022411355461736126 0 -0.018794316669965488 0.022863729705885814 0 -0.020432659000174821 0.021403764222321778 0 -0.020302283433721126 0.022411355461736126 0 -0.020825365150892988 0.021896847519257471 0 -0.0211676754005099 0.022419306260550224 0 -0.020302283433721126 0.022411355461736126 0 -0.020825365150892988 0.021896847519257471 0 -0.020238763855254444 0.024860245153724741 0 -0.020817937473787837 0.024148397890840886 0 -0.020217491618874938 0.023757627080533014 0 -0.020817937473787837 0.024148397890840886 0 -0.020217491618874938 0.023757627080533014 0 -0.020522989130486741 0.022894197783892793 0 -0.020238763855254444 0.024860245153724741 0 -0.019694556767691888 0.024104612124555266 0 -0.020217491618874938 0.023757627080533014 0 -0.019694556767691888 0.024104612124555266 0 -0.020217491618874938 0.023757627080533014 0 -0.019662758299897599 0.023656666113156692 0 -0.020217491618874938 0.023757627080533014 0 -0.019662758299897599 0.023656666113156692 0 -0.020522989130486741 0.022894197783892793 0 -0.022799507951095834 0.019541867195192082 0 -0.023517936500454549 0.018034508840668702 0 -0.026465896187352182 0.014865449839367792 0 -0.027372218383228106 0.01425257794550144 0 -0.026369632339789867 0.013822216485186972 0 -0.019681078899829323 0.019591564969883391 0 -0.019521230444017601 0.021139675569905651 0 -0.018241910392184955 0.020595579201101704 0 -0.019521230444017601 0.021139675569905651 0 -0.018794316669965488 0.022863729705885814 0 -0.018241910392184955 0.020595579201101704 0 -0.019492096166132372 0.024153954552803263 0 -0.023517936500454549 0.018034508840668702 0 -0.023946374227879232 0.016547863846788469 0 -0.023517936500454549 0.018034508840668702 0 -0.023517936500454549 0.018034508840668702 0 -0.027209834744862171 0.012428297442762701 0 -0.027928226166019698 0.013608106977742647 0 -0.027154431570828939 0.014146694864153273 0 -0.026962485206470498 0.013037299669034132 0 -0.027789977390047075 0.012796706932371874 0 -0.026962485206470498 0.013037299669034132 0 -0.027487485407626196 0.012135214649772763 0 -0.027928226166019698 0.013608106977742647 0 -0.027789977390047075 0.012796706932371874 0 -0.026962485206470498 0.013037299669034132 0 -0.026962485206470498 0.013037299669034132 0 -0.026842976790547195 0.012041223860599918 0 -0.027487485407626196 0.012135214649772763 0 -0.027133933838771593 0.01314932198951743 0 -0.026369632339789867 0.013822216485186972 0 -0.025972968910040344 0.012832573368323301 0 -0.027133933838771593 0.01314932198951743 0 -0.025972968910040344 0.012832573368323301 0 -0.026842976790547195 0.012041223860599918 0 -0.027209834744862171 0.012428297442762701 0 -0.026867123748603217 0.012372092276548671 0 -0.027372218383228106 0.01425257794550144 0 -0.027133933838771593 0.01314932198951743 0 -0.026369632339789867 0.013822216485186972 0 -0.026369632339789867 0.013822216485186972 0 -0.025972968910040344 0.012832573368323301 0 -0.025639108713593307 0.013580916411868912 0 -0.026369632339789867 0.013822216485186972 0 -0.025639108713593307 0.013580916411868912 0 -0.025236027271056585 0.014373679543236477 0 -0.025972968910040344 0.012832573368323301 0 -0.024999756884885493 0.013311078697294327 0 -0.024999990509641846 0.012008908063703163 0 -0.025972968910040344 0.012832573368323301 0 -0.024999756884885493 0.013311078697294327 0 -0.025639108713593307 0.013580916411868912 0 -0.025000167488231556 0.013311889176279994 0 -0.025338847094578461 0.013937524761222019 0 -0.024999756884885493 0.013311078697294327 0 -0.025639108713593307 0.013580916411868912 0 -0.025236027271056585 0.014373679543236477 0 -0.025000001590373095 0.013311128481768931 0 -0.025346727021443017 0.014368012574753076 0 -0.024999992259686594 0.014600040132964528 0 -0.025346727021443017 0.014368012574753076 0 -0.024999992259686594 0.014600040132964528 0 -0.0256858780458004 0.015434245065267265 0 -0.026465896187352182 0.014865449839367792 0 -0.026369632339789867 0.013822216485186972 0 -0.025236027271056585 0.014373679543236477 0 -0.019694556767691888 0.024104612124555266 0 -0.019662758299897599 0.023656666113156692 0 -0.0195037518545522 0.023998175562777276 0 -0.026465896187352182 0.014865449839367792 0 -0.025236027271056585 0.014373679543236477 0 -0.025550186821611857 0.015494112008957653 0 -0.022799507951095834 0.019541867195192082 0 -0.024017683277472748 0.018149039845591582 0 -0.01962876057838624 0.024071448790880079 0 -0.019694556767691888 0.024104612124555266 0 -0.0195037518545522 0.023998175562777276 0 -0.024999988629804706 0.015888936358268522 0 -0.024999992259686594 0.014600040132964528 0 -0.0256858780458004 0.015434245065267265 0 -0.025338847094578461 0.013937524761222019 0 -0.024017683277472748 0.018149039845591582 0 -0.014340178539530754 0.029080913655674639 0 -0.014348760686780286 0.029101200119501441 0 -0.014335560979543246 0.029067524596299864 0 -0.014340178539530754 0.029080913655674639 0 -0.014348760686780286 0.029101200119501441 0 -0.014363175524016662 0.029059694421571702 0 -0.014734966596588309 0.028970116334966749 0 -0.014415441429138854 0.028711770638218757 0 -0.014348760686780286 0.029101200119501441 0 -0.014363175524016662 0.029059694421571702 0 -0.014481773396686357 0.028861340159045047 0 -0.014691335751083164 0.02787420698441348 0 -0.0145371905605982 0.027351585644677396 0 -0.014251356933569805 0.027376947507581732 0 -0.014691335751083164 0.02787420698441348 0 -0.01415307896631144 0.02797956405668249 0 -0.014251356933569805 0.027376947507581732 0 -0.014734966596588309 0.028970116334966749 0 -0.011999857356061667 0.024725975281886421 0 -0.014691335751083164 0.02787420698441348 0 -0.0145371905605982 0.027351585644677396 0 -0.014764493872966281 0.027188358264298489 0 -0.014348760686780286 0.029101200119501441 0 -0.014335560979543246 0.029067524596299864 0 -0.014320926329912366 0.029033839365409018 0 -0.014147803477121964 0.029988017241174732 0 -0.012532972688790004 0.027535909440908713 0 -0.010293806040073033 0.025453829506126915 0 -0.012335209670550734 0.026428174221040754 0 -0.010945185537386543 0.023816879952132601 0 -0.013516067176156402 0.030726312639769295 0 -0.013333553269175723 0.030500023824076794 0 -0.013018410909102877 0.030495293193697297 0 -0.013850560989488128 0.030085362862253131 0 -0.013516067176156402 0.030726312639769295 0 -0.013333553269175723 0.030500023824076794 0 -0.012532972688790004 0.027535909440908713 0 -0.011999857356061667 0.024725975281886421 0 -0.014335560979543246 0.029067524596299864 0 -0.014333911391173871 0.029047453291585246 0 -0.014320926329912366 0.029033839365409018 0 -0.014340178539530754 0.029080913655674639 0 -0.014335560979543246 0.029067524596299864 0 -0.014333911391173871 0.029047453291585246 0 -0.011499263350675729 0.026690126317670707 0 -0.0099262640427937275 0.021514721346759771 0 -0.012532972688790004 0.027535909440908713 0 -0.011499263350675729 0.026690126317670707 0 -0.0098619262495215475 0.023317652195805706 0 -0.0087368900120833558 0.023997508434560867 0 -0.0071767636806498863 0.021183379358889032 0 -0.013333553269175723 0.030500023824076794 0 -0.013018410909102877 0.030495293193697297 0 -0.013118026448337471 0.030379642573498233 0 -0.013018410909102877 0.030495293193697297 0 -0.01295858868160649 0.030386689886241894 0 -0.013118026448337471 0.030379642573498233 0 -0.0098619262495215475 0.023317652195805706 0 -0.0087368900120833558 0.023997508434560867 0 -0.0090272762091750339 0.024475704281617765 0 -0.011499263350675729 0.026690126317670707 0 -0.011311153692920689 0.027206401436200206 0 -0.012515609082130249 0.029692891674336495 0 -0.01295858868160649 0.030386689886241894 0 -0.012959747389220238 0.030060096530212573 0 -0.01295858868160649 0.030386689886241894 0 -0.013074766099982404 0.030241309038945285 0 -0.012959747389220238 0.030060096530212573 0 -0.013074766099982404 0.030241309038945285 0 -0.013194866689608484 0.030279078071361428 0 -0.013176563622583107 0.030091477226856626 0 -0.013074766099982404 0.030241309038945285 0 -0.013118026448337471 0.030379642573498233 0 -0.013194866689608484 0.030279078071361428 0 -0.01295858868160649 0.030386689886241894 0 -0.013074766099982404 0.030241309038945285 0 -0.013118026448337471 0.030379642573498233 0 -0.013333553269175723 0.030500023824076794 0 -0.013118026448337471 0.030379642573498233 0 -0.013194866689608484 0.030279078071361428 0 -0.013176563622583107 0.030091477226856626 0 -0.013395634721153429 0.03008761363340412 0 -0.013200521087584315 0.029798551461572734 0 -0.013176563622583107 0.030091477226856626 0 -0.012959747389220238 0.030060096530212573 0 -0.013200521087584315 0.029798551461572734 0 -0.013194866689608484 0.030279078071361428 0 -0.013176563622583107 0.030091477226856626 0 -0.013395634721153429 0.03008761363340412 0 -0.013074766099982404 0.030241309038945285 0 -0.013176563622583107 0.030091477226856626 0 -0.012959747389220238 0.030060096530212573 0 -0.013333553269175723 0.030500023824076794 0 -0.013194866689608484 0.030279078071361428 0 -0.013395634721153429 0.03008761363340412 0 -0.013850560989488128 0.030085362862253131 0 -0.013333553269175723 0.030500023824076794 0 -0.013395634721153429 0.03008761363340412 0 -0.013850560989488128 0.030085362862253131 0 -0.013395634721153429 0.03008761363340412 0 -0.013646364703506522 0.029670500362449243 0 -0.013646364703506522 0.029670500362449243 0 -0.013438208263226923 0.029305133299553827 0 -0.014252967509316377 0.029206453923517828 0 -0.013395634721153429 0.03008761363340412 0 -0.013646364703506522 0.029670500362449243 0 -0.013200521087584315 0.029798551461572734 0 -0.013646364703506522 0.029670500362449243 0 -0.013200521087584315 0.029798551461572734 0 -0.013438208263226923 0.029305133299553827 0 -0.012959747389220238 0.030060096530212573 0 -0.013200521087584315 0.029798551461572734 0 -0.012842682878035682 0.029691591837760017 0 -0.012515609082130249 0.029692891674336495 0 -0.012959747389220238 0.030060096530212573 0 -0.012842682878035682 0.029691591837760017 0 -0.013200521087584315 0.029798551461572734 0 -0.01291662171197832 0.02947399489873468 0 -0.013438208263226923 0.029305133299553827 0 -0.012564764539078357 0.029296611150070109 0 -0.01291662171197832 0.02947399489873468 0 -0.012842682878035682 0.029691591837760017 0 -0.013200521087584315 0.029798551461572734 0 -0.01291662171197832 0.02947399489873468 0 -0.012842682878035682 0.029691591837760017 0 -0.012700807563527787 0.029081581803508519 0 -0.01291662171197832 0.02947399489873468 0 -0.013065646957450534 0.029194087748628098 0 -0.01291662171197832 0.02947399489873468 0 -0.013065646957450534 0.029194087748628098 0 -0.013438208263226923 0.029305133299553827 0 -0.013188017385779396 0.028927312426660967 0 -0.013065646957450534 0.029194087748628098 0 -0.013438208263226923 0.029305133299553827 0 -0.012700807563527787 0.029081581803508519 0 -0.013188017385779396 0.028927312426660967 0 -0.013065646957450534 0.029194087748628098 0 -0.013717921080429744 0.028951792107633427 0 -0.013438208263226923 0.029305133299553827 0 -0.014252967509316377 0.029206453923517828 0 -0.013717921080429744 0.028951792107633427 0 -0.013188017385779396 0.028927312426660967 0 -0.013438208263226923 0.029305133299553827 0 -0.014140695325218838 0.028742429005575377 0 -0.014252967509316377 0.029206453923517828 0 -0.014561099828664168 0.02906410508160389 0 -0.014140695325218838 0.028742429005575377 0 -0.013717921080429744 0.028951792107633427 0 -0.014252967509316377 0.029206453923517828 0 -0.013850560989488128 0.030085362862253131 0 -0.013646364703506522 0.029670500362449243 0 -0.014252967509316377 0.029206453923517828 0 -0.014340178539530754 0.029080913655674639 0 -0.014252967509316377 0.029206453923517828 0 -0.014363175524016662 0.029059694421571702 0 -0.014147803477121964 0.029988017241174732 0 -0.014264424314452474 0.029076319828643067 0 -0.014363175524016662 0.029059694421571702 0 -0.014561099828664168 0.02906410508160389 0 -0.014481773396686357 0.028861340159045047 0 -0.014252967509316377 0.029206453923517828 0 -0.014363175524016662 0.029059694421571702 0 -0.014561099828664168 0.02906410508160389 0 -0.014820865338338721 0.028980065739912186 0 -0.014561099828664168 0.02906410508160389 0 -0.014610763946047446 0.028998270399388446 0 -0.014561099828664168 0.02906410508160389 0 -0.014610763946047446 0.028998270399388446 0 -0.014481773396686357 0.028861340159045047 0 -0.014820865338338721 0.028980065739912186 0 -0.014610763946047446 0.028998270399388446 0 -0.014873336093172264 0.028974144846395284 0 -0.014610763946047446 0.028998270399388446 0 -0.014873336093172264 0.028974144846395284 0 -0.014068209144230086 0.028836972679176502 0 -0.014873336093172264 0.028974144846395284 0 -0.014897192783690472 0.028946672398810911 0 -0.015000265709443773 0.028919037006024509 0 -0.014897192783690472 0.028946672398810911 0 -0.015000265709443773 0.028919037006024509 0 -0.015044643262343536 0.028939095831796872 0 -0.014783783323337948 0.028865767711323691 0 -0.014479728168820632 0.029021629817024542 0 -0.015000265709443773 0.028919037006024509 0 -0.015105532394886153 0.028931455063004891 0 -0.015054150015905014 0.029190237041184602 0 -0.015000265709443773 0.028919037006024509 0 -0.015044643262343536 0.028939095831796872 0 -0.015105532394886153 0.028931455063004891 0 -0.014610763946047446 0.028998270399388446 0 -0.014068209144230086 0.028836972679176502 0 -0.014481773396686357 0.028861340159045047 0 -0.014068209144230086 0.028836972679176502 0 -0.014481773396686357 0.028861340159045047 0 -0.014058005298114762 0.028444407352804776 0 -0.018363576908637103 0.029403914178474128 0 -0.018169031560512847 0.029977853976494984 0 -0.017914493357307531 0.029742978464225047 0 -0.018363576908637103 0.029403914178474128 0 -0.018650217621734598 0.029924434208385958 0 -0.018169031560512847 0.029977853976494984 0 -0.017754512759155287 0.029464646449613947 0 -0.017914493357307531 0.029742978464225047 0 -0.017478862871556256 0.029807069803083702 0 -0.017754512759155287 0.029464646449613947 0 -0.018363576908637103 0.029403914178474128 0 -0.017914493357307531 0.029742978464225047 0 -0.017914493357307531 0.029742978464225047 0 -0.017786238081730195 0.030052393466573919 0 -0.017478862871556256 0.029807069803083702 0 -0.018169031560512847 0.029977853976494984 0 -0.017786238081730195 0.030052393466573919 0 -0.017969902044425504 0.030182768851439119 0 -0.018169031560512847 0.029977853976494984 0 -0.017914493357307531 0.029742978464225047 0 -0.017786238081730195 0.030052393466573919 0 -0.015759836833811613 0.029353363225139085 0 -0.016377716145503263 0.029619554852499778 0 -0.01662007708510857 0.029831912737847195 0 -0.017396926817602396 0.030001866828322607 0 -0.0176739489568154 0.030320524799666428 0 -0.014897192783690472 0.028946672398810911 0 -0.015044643262343536 0.028939095831796872 0 -0.015174599767422577 0.02896784838497091 0 -0.017786238081730195 0.030052393466573919 0 -0.017396926817602396 0.030001866828322607 0 -0.0176739489568154 0.030320524799666428 0 -0.017786238081730195 0.030052393466573919 0 -0.017396926817602396 0.030001866828322607 0 -0.017478862871556256 0.029807069803083702 0 -0.017206254004928184 0.02949115653791709 0 -0.017754512759155287 0.029464646449613947 0 -0.017478862871556256 0.029807069803083702 0 -0.017206254004928184 0.02949115653791709 0 -0.01662007708510857 0.029831912737847195 0 -0.017478862871556256 0.029807069803083702 0 -0.01662007708510857 0.029831912737847195 0 -0.017396926817602396 0.030001866828322607 0 -0.017478862871556256 0.029807069803083702 0 -0.015105532394886153 0.028931455063004891 0 -0.015272311692299376 0.02881931070230075 0 -0.015054150015905014 0.029190237041184602 0 -0.0151607777162141 0.028901591488167067 0 -0.015105532394886153 0.028931455063004891 0 -0.015272311692299376 0.02881931070230075 0 -0.015044643262343536 0.028939095831796872 0 -0.0151607777162141 0.028901591488167067 0 -0.01516670017435247 0.02891699435344397 0 -0.015044643262343536 0.028939095831796872 0 -0.0151607777162141 0.028901591488167067 0 -0.015105532394886153 0.028931455063004891 0 -0.015272311692299376 0.02881931070230075 0 -0.015174599767422577 0.02896784838497091 0 -0.015127331307646253 0.027570508058178393 0 -0.015044643262343536 0.028939095831796872 0 -0.015174599767422577 0.02896784838497091 0 -0.01516670017435247 0.02891699435344397 0 -0.0151607777162141 0.028901591488167067 0 -0.015272311692299376 0.02881931070230075 0 -0.01516670017435247 0.02891699435344397 0 -0.015272311692299376 0.02881931070230075 0 -0.015174599767422577 0.02896784838497091 0 -0.01516670017435247 0.02891699435344397 0 -0.015174599767422577 0.02896784838497091 0 -0.013660640683503464 0.02735808422920627 0 -0.015127331307646253 0.027570508058178393 0 -0.0176739489568154 0.030320524799666428 0 -0.018249481551029609 0.03037180719008226 0 -0.018498430091906024 0.030723414701792035 0 -0.016377716145503263 0.029619554852499778 0 -0.01611497081703684 0.029022182869654571 0 -0.0176739489568154 0.030320524799666428 0 -0.017969902044425504 0.030182768851439119 0 -0.018249481551029609 0.03037180719008226 0 -0.017786238081730195 0.030052393466573919 0 -0.0176739489568154 0.030320524799666428 0 -0.017969902044425504 0.030182768851439119 0 -0.018650217621734598 0.029924434208385958 0 -0.018169031560512847 0.029977853976494984 0 -0.018249481551029609 0.03037180719008226 0 -0.018169031560512847 0.029977853976494984 0 -0.017969902044425504 0.030182768851439119 0 -0.018249481551029609 0.03037180719008226 0 -0.013660640683503464 0.02735808422920627 0 -0.015127331307646253 0.027570508058178393 0 -0.015073112938707984 0.026202000072387127 0 -0.015357027445830347 0.028904825031097689 0 -0.015521619507990447 0.027494433495443692 0 -0.015272311692299376 0.02881931070230075 0 -0.015127331307646253 0.027570508058178393 0 -0.016629721447886638 0.026736894340207658 0 -0.015127331307646253 0.027570508058178393 0 -0.015073112938707984 0.026202000072387127 0 -0.016629721447886638 0.026736894340207658 0 -0.016088566116302768 0.024891612224735363 0 -0.015521619507990447 0.027494433495443692 0 -0.016167225015509563 0.025115623637086602 0 -0.015073112938707984 0.026202000072387127 0 -0.016629721447886638 0.026736894340207658 0 -0.016167225015509563 0.025115623637086602 0 -0.01403579600152359 0.024909567214814028 0 -0.015073112938707984 0.026202000072387127 0 -0.013660640683503464 0.02735808422920627 0 -0.01403579600152359 0.024909567214814028 0 -0.015073112938707984 0.026202000072387127 0 -0.014481773396686357 0.028861340159045047 0 -0.01415307896631144 0.02797956405668249 0 -0.014058005298114762 0.028444407352804776 0 -0.014691335751083164 0.02787420698441348 0 -0.014481773396686357 0.028861340159045047 0 -0.01415307896631144 0.02797956405668249 0 -0.01415307896631144 0.02797956405668249 0 -0.013538404734433206 0.028062707591441107 0 -0.014058005298114762 0.028444407352804776 0 -0.014479728168820632 0.029021629817024542 0 -0.015521619507990447 0.027494433495443692 0 -0.014068209144230086 0.028836972679176502 0 -0.013538404734433206 0.028062707591441107 0 -0.014058005298114762 0.028444407352804776 0 -0.01608898557645486 0.024920180054324854 0 -0.016513133241861221 0.026400594035611673 0 -0.017497015150649067 0.024675644930393099 0 -0.01415307896631144 0.02797956405668249 0 -0.013538404734433206 0.028062707591441107 0 -0.013767861367942804 0.027328611031906504 0 -0.015521619507990447 0.027494433495443692 0 -0.015506209994840672 0.02678766036989921 0 -0.01415307896631144 0.02797956405668249 0 -0.013767861367942804 0.027328611031906504 0 -0.014251356933569805 0.027376947507581732 0 -0.013767861367942804 0.027328611031906504 0 -0.014251356933569805 0.027376947507581732 0 -0.013936202516718066 0.026679462551165337 0 -0.015506209994840672 0.02678766036989921 0 -0.014331991089093147 0.01935469396735778 0 -0.01608898557645486 0.024920180054324854 0 -0.017497015150649067 0.024675644930393099 0 -0.017019838908339562 0.023397275085742915 0 -0.017497015150649067 0.024675644930393099 0 -0.017019838908339562 0.023397275085742915 0 -0.018450120773462253 0.02295505243241508 0 -0.017019838908339562 0.023397275085742915 0 -0.016695316804986565 0.022051576597380246 0 -0.018450120773462253 0.02295505243241508 0 -0.015997466014009188 0.01655272711664928 0 -0.014331991089093147 0.01935469396735778 0 -0.014279658887680664 0.011155722697145432 0 -0.016264434002281336 0.012206869477987095 0 -0.015754329684919677 0.010089863078387195 0 -0.014331991089093147 0.01935469396735778 0 -0.012594121379794539 0.012012582901071626 0 -0.01403579600152359 0.024909567214814028 0 -0.015694159149100936 0.023490117625077311 0 -0.014057819404526 0.023056261819956642 0 -0.013001475619137915 0.024004926165605716 0 -0.01403579600152359 0.024909567214814028 0 -0.014057819404526 0.023056261819956642 0 -0.016167225015509563 0.025115623637086602 0 -0.01403579600152359 0.024909567214814028 0 -0.015694159149100936 0.023490117625077311 0 -0.01608898557645486 0.024920180054324854 0 -0.017019838908339562 0.023397275085742915 0 -0.015694159149100936 0.023490117625077311 0 -0.016088566116302768 0.024891612224735363 0 -0.015751327182397291 0.023706601645016093 0 -0.016695316804986565 0.022051576597380246 0 -0.015694159149100936 0.023490117625077311 0 -0.014886708018315859 0.021082422307211669 0 -0.017019838908339562 0.023397275085742915 0 -0.016695316804986565 0.022051576597380246 0 -0.015694159149100936 0.023490117625077311 0 -0.013491278059347241 0.021778239646775555 0 -0.014057819404526 0.023056261819956642 0 -0.014886708018315859 0.021082422307211669 0 -0.015694159149100936 0.023490117625077311 0 -0.014057819404526 0.023056261819956642 0 -0.014886708018315859 0.021082422307211669 0 -0.013491278059347241 0.021778239646775555 0 -0.013140270184174567 0.020814813931153271 0 -0.014886708018315859 0.021082422307211669 0 -0.013910994596514615 0.011886180415232948 0 -0.013238488890005203 0.015776032788232378 0 -0.015997466014009188 0.01655272711664928 0 -0.013238488890005203 0.015776032788232378 0 -0.014279658887680664 0.011155722697145432 0 -0.012311038691195639 0.010137249928444333 0 -0.014485360356739746 0.0087314754553607307 0 -0.012311038691195639 0.010137249928444333 0 -0.013037046308263025 0.0078580448863784895 0 -0.014485360356739746 0.0087314754553607307 0 -0.010334538263382516 0.0091437782770039909 0 -0.012311038691195639 0.010137249928444333 0 -0.011806112563402558 0.0086259588334575282 0 -0.010334538263382516 0.0091437782770039909 0 -0.011806112563402558 0.0086259588334575282 0 -0.01168870179624041 0.0070240970836167975 0 -0.012311038691195639 0.010137249928444333 0 -0.013037046308263025 0.0078580448863784895 0 -0.011806112563402558 0.0086259588334575282 0 -0.015754329684919677 0.010089863078387195 0 -0.01620874325098071 0.0084892011789675925 0 -0.017554553444381039 0.0098782301416901423 0 -0.016264434002281336 0.012206869477987095 0 -0.015754329684919677 0.010089863078387195 0 -0.017554553444381039 0.0098782301416901423 0 -0.014279658887680664 0.011155722697145432 0 -0.015754329684919677 0.010089863078387195 0 -0.014485360356739746 0.0087314754553607307 0 -0.015754329684919677 0.010089863078387195 0 -0.014485360356739746 0.0087314754553607307 0 -0.01620874325098071 0.0084892011789675925 0 -0.014485360356739746 0.0087314754553607307 0 -0.01620874325098071 0.0084892011789675925 0 -0.015830174513022412 0.006476350144662313 0 -0.01620874325098071 0.0084892011789675925 0 -0.017554553444381039 0.0098782301416901423 0 -0.017324772012505204 0.0072417786306898466 0 -0.017554553444381039 0.0098782301416901423 0 -0.018808083183076238 0.007527503493022572 0 -0.017324772012505204 0.0072417786306898466 0 -0.012594121379794539 0.012012582901071626 0 -0.013294282889781838 0.011503947365726946 0 -0.0082646255010454875 0.015862073880266007 0 -0.0081970855541740589 0.015206823384546988 0 -0.0078299622264946071 0.015188000189228888 0 -0.0082646255010454875 0.015862073880266007 0 -0.0078531890923312815 0.015921509683274788 0 -0.0078299622264946071 0.015188000189228888 0 -0.0082646255010454875 0.015862073880266007 0 -0.0078531890923312815 0.015921509683274788 0 -0.0082675267911077877 0.016281913964833208 0 -0.0082646255010454875 0.015862073880266007 0 -0.0082675267911077877 0.016281913964833208 0 -0.0084568336410268206 0.016210712682805585 0 -0.0078531890923312815 0.015921509683274788 0 -0.0080676731551774968 0.016432616770756477 0 -0.0082675267911077877 0.016281913964833208 0 -0.0078086381600604004 0.016599840243764416 0 -0.0078531890923312815 0.015921509683274788 0 -0.0080676731551774968 0.016432616770756477 0 -0.0078086381600604004 0.016599840243764416 0 -0.0080676731551774968 0.016432616770756477 0 -0.0082218548973849621 0.016831999807632801 0 -0.0080676731551774968 0.016432616770756477 0 -0.0084083538691130232 0.016652517862955293 0 -0.0082218548973849621 0.016831999807632801 0 -0.0082675267911077877 0.016281913964833208 0 -0.0084612951389810027 0.016423622808373499 0 -0.0084568336410268206 0.016210712682805585 0 -0.0082675267911077877 0.016281913964833208 0 -0.0084612951389810027 0.016423622808373499 0 -0.0084083538691130232 0.016652517862955293 0 -0.0084612951389810027 0.016423622808373499 0 -0.0084083538691130232 0.016652517862955293 0 -0.0085570000610769494 0.016562960569495924 0 -0.0080676731551774968 0.016432616770756477 0 -0.0082675267911077877 0.016281913964833208 0 -0.0084083538691130232 0.016652517862955293 0 -0.0145371905605982 0.027351585644677396 0 -0.014764493872966281 0.027188358264298489 0 -0.014400690804959652 0.026984628987607374 0 -0.011999857356061667 0.024725975281886421 0 -0.010663628811687198 0.021685397351400799 0 -0.0084083538691130232 0.016652517862955293 0 -0.0086519043988504962 0.017078437865748936 0 -0.0082218548973849621 0.016831999807632801 0 -0.0084083538691130232 0.016652517862955293 0 -0.0086519043988504962 0.017078437865748936 0 -0.0086065014643928548 0.016740022506206906 0 -0.0084083538691130232 0.016652517862955293 0 -0.0086065014643928548 0.016740022506206906 0 -0.0085570000610769494 0.016562960569495924 0 -0.014331991089093147 0.01935469396735778 0 -0.010663628811687198 0.021685397351400799 0 -0.014251356933569805 0.027376947507581732 0 -0.013936202516718066 0.026679462551165337 0 -0.014400690804959652 0.026984628987607374 0 -0.0145371905605982 0.027351585644677396 0 -0.014251356933569805 0.027376947507581732 0 -0.014400690804959652 0.026984628987607374 0 -0.0090584169893795467 0.021676025841401225 0 -0.0083260914273656974 0.020038855481121356 0 -0.0083027523522399612 0.020052241151428209 0 -0.0083165825238661253 0.019959567359548749 0 -0.0082652737581658305 0.019941408387852837 0 -0.0098619262495215475 0.023317652195805706 0 -0.0071767636806498863 0.021183379358889032 0 -0.0082652737581658305 0.019941408387852837 0 -0.0099262640427937275 0.021514721346759771 0 -0.0089375246395799243 0.018136680755336927 0 -0.0083592552967082807 0.019833716739348951 0 -0.0083165825238661253 0.019959567359548749 0 -0.0082652737581658305 0.019941408387852837 0 -0.012532972688790004 0.027535909440908713 0 -0.0099262640427937275 0.021514721346759771 0 -0.011347488420703525 0.024546965237085293 0 -0.0099632456435657258 0.023857576537696382 0 -0.012116494694245363 0.022593782482621547 0 -0.0099632456435657258 0.023857576537696382 0 -0.012116494694245363 0.022593782482621547 0 -0.011730637122022705 0.021874442808520404 0 -0.011999857356061667 0.024725975281886421 0 -0.0097760256465114891 0.018686403119767523 0 -0.0086519043988504962 0.017078437865748936 0 -0.0086065014643928548 0.016740022506206906 0 -0.0087655119935413275 0.016673467019163512 0 -0.0086065014643928548 0.016740022506206906 0 -0.0087655119935413275 0.016673467019163512 0 -0.008678941732492786 0.016548006555502794 0 -0.0086065014643928548 0.016740022506206906 0 -0.008678941732492786 0.016548006555502794 0 -0.0085570000610769494 0.016562960569495924 0 -0.0093435278768437269 0.019785267694336431 0 -0.0091367801785466416 0.019400829977230874 0 -0.0097721354876796895 0.018684881326087213 0 -0.0099262640427937275 0.021514721346759771 0 -0.0097760256465114891 0.018686403119767523 0 -0.0097760256465114891 0.018686403119767523 0 -0.0091578423129596871 0.017516402936946826 0 -0.008706562062585842 0.016618400611622609 0 -0.0086893096677014697 0.016432203687992725 0 -0.0087986216452438145 0.016414309848782196 0 -0.0097760256465114891 0.018686403119767523 0 -0.0089375246395799243 0.018136680755336927 0 -0.008706562062585842 0.016618400611622609 0 -0.008678941732492786 0.016548006555502794 0 -0.0086893096677014697 0.016432203687992725 0 -0.008678941732492786 0.016548006555502794 0 -0.0086893096677014697 0.016432203687992725 0 -0.0085914905578926663 0.016411455322355675 0 -0.008678941732492786 0.016548006555502794 0 -0.0085570000610769494 0.016562960569495924 0 -0.0085914905578926663 0.016411455322355675 0 -0.0084612951389810027 0.016423622808373499 0 -0.0085570000610769494 0.016562960569495924 0 -0.0085914905578926663 0.016411455322355675 0 -0.0085914905578926663 0.016411455322355675 0 -0.0084568336410268206 0.016210712682805585 0 -0.008615347902350903 0.016249422417940904 0 -0.0084612951389810027 0.016423622808373499 0 -0.0085914905578926663 0.016411455322355675 0 -0.0084568336410268206 0.016210712682805585 0 -0.0086893096677014697 0.016432203687992725 0 -0.0087154053627002178 0.016289118029039686 0 -0.008615347902350903 0.016249422417940904 0 -0.0086893096677014697 0.016432203687992725 0 -0.0087154053627002178 0.016289118029039686 0 -0.0087986216452438145 0.016414309848782196 0 -0.0086893096677014697 0.016432203687992725 0 -0.0085914905578926663 0.016411455322355675 0 -0.008615347902350903 0.016249422417940904 0 -0.0087154053627002178 0.016289118029039686 0 -0.008615347902350903 0.016249422417940904 0 -0.0086999948223366007 0.016146412381305677 0 -0.0087154053627002178 0.016289118029039686 0 -0.0088094636891455861 0.016291734786860464 0 -0.0086999948223366007 0.016146412381305677 0 -0.0088094636891455861 0.016291734786860464 0 -0.0087839890748676805 0.016414745544672656 0 -0.008955352843502927 0.016102936144375461 0 -0.0087154053627002178 0.016289118029039686 0 -0.0088094636891455861 0.016291734786860464 0 -0.0087986216452438145 0.016414309848782196 0 -0.0091480431127404158 0.017129380246207821 0 -0.0089375246395799243 0.018136680755336927 0 -0.0071767636806498863 0.021183379358889032 0 -0.0082652737581658305 0.019941408387852837 0 -0.0079964899645609822 0.01964772765568892 0 -0.0082652737581658305 0.019941408387852837 0 -0.0079964899645609822 0.01964772765568892 0 -0.0082947631789607682 0.019714859527237519 0 -0.0083592552967082807 0.019833716739348951 0 -0.0082652737581658305 0.019941408387852837 0 -0.0082947631789607682 0.019714859527237519 0 -0.0084003319622329067 0.019653154182315176 0 -0.0082947631789607682 0.019714859527237519 0 -0.0083213168865770067 0.019531111070097789 0 -0.0079964899645609822 0.01964772765568892 0 -0.0082947631789607682 0.019714859527237519 0 -0.0083213168865770067 0.019531111070097789 0 -0.0089375246395799243 0.018136680755336927 0 -0.0085286547861631555 0.017915537380251392 0 -0.0088094636891455861 0.016291734786860464 0 -0.008955352843502927 0.016102936144375461 0 -0.0087991890543767035 0.016080678445940633 0 -0.008955352843502927 0.016102936144375461 0 -0.0087991890543767035 0.016080678445940633 0 -0.0088506028568812282 0.015910230555448528 0 -0.0087991890543767035 0.016080678445940633 0 -0.008679386653447951 0.015941869229453367 0 -0.0088506028568812282 0.015910230555448528 0 -0.0088094636891455861 0.016291734786860464 0 -0.0087991890543767035 0.016080678445940633 0 -0.0086999948223366007 0.016146412381305677 0 -0.0087991890543767035 0.016080678445940633 0 -0.008679386653447951 0.015941869229453367 0 -0.0086999948223366007 0.016146412381305677 0 -0.008679386653447951 0.015941869229453367 0 -0.0084862394311502626 0.015671329745651372 0 -0.0088163151452244903 0.015633840894203013 0 -0.008679386653447951 0.015941869229453367 0 -0.0088506028568812282 0.015910230555448528 0 -0.0088163151452244903 0.015633840894203013 0 -0.0091602318545247249 0.015791967389531751 0 -0.0088506028568812282 0.015910230555448528 0 -0.0088163151452244903 0.015633840894203013 0 -0.0091602318545247249 0.015791967389531751 0 -0.008955352843502927 0.016102936144375461 0 -0.0088506028568812282 0.015910230555448528 0 -0.0082646255010454875 0.015862073880266007 0 -0.0084568336410268206 0.016210712682805585 0 -0.008534260856692278 0.016013957090913057 0 -0.0084568336410268206 0.016210712682805585 0 -0.008615347902350903 0.016249422417940904 0 -0.008534260856692278 0.016013957090913057 0 -0.008679386653447951 0.015941869229453367 0 -0.008534260856692278 0.016013957090913057 0 -0.0086999948223366007 0.016146412381305677 0 -0.008615347902350903 0.016249422417940904 0 -0.008534260856692278 0.016013957090913057 0 -0.0086999948223366007 0.016146412381305677 0 -0.008679386653447951 0.015941869229453367 0 -0.008534260856692278 0.016013957090913057 0 -0.0084862394311502626 0.015671329745651372 0 -0.0082646255010454875 0.015862073880266007 0 -0.008534260856692278 0.016013957090913057 0 -0.0084862394311502626 0.015671329745651372 0 -0.0082646255010454875 0.015862073880266007 0 -0.0084862394311502626 0.015671329745651372 0 -0.0081970855541740589 0.015206823384546988 0 -0.0084862394311502626 0.015671329745651372 0 -0.0085085789349389398 0.015292549199354509 0 -0.0081970855541740589 0.015206823384546988 0 -0.0085085789349389398 0.015292549199354509 0 -0.0088163151452244903 0.015633840894203013 0 -0.008823007501720586 0.015111405790133174 0 -0.0090464076916382998 0.015442635405401146 0 -0.0088163151452244903 0.015633840894203013 0 -0.008823007501720586 0.015111405790133174 0 -0.0084862394311502626 0.015671329745651372 0 -0.0085085789349389398 0.015292549199354509 0 -0.0088163151452244903 0.015633840894203013 0 -0.0085085789349389398 0.015292549199354509 0 -0.008823007501720586 0.015111405790133174 0 -0.0083029534859145725 0.014725248597931447 0 -0.008823007501720586 0.015111405790133174 0 -0.0083029534859145725 0.014725248597931447 0 -0.0086550430272997157 0.01449381377929416 0 -0.008823007501720586 0.015111405790133174 0 -0.0086550430272997157 0.01449381377929416 0 -0.0090679100978035259 0.014769426250707976 0 -0.0081970855541740589 0.015206823384546988 0 -0.0083029534859145725 0.014725248597931447 0 -0.0077682294902483616 0.014217962483023655 0 -0.0085085789349389398 0.015292549199354509 0 -0.0081970855541740589 0.015206823384546988 0 -0.0083029534859145725 0.014725248597931447 0 -0.0083029534859145725 0.014725248597931447 0 -0.0077682294902483616 0.014217962483023655 0 -0.0083558836424850597 0.013929249332562637 0 -0.0083558836424850597 0.013929249332562637 0 -0.0086550430272997157 0.01449381377929416 0 -0.0090445898677029568 0.013914662501845006 0 -0.0083029534859145725 0.014725248597931447 0 -0.0083558836424850597 0.013929249332562637 0 -0.0086550430272997157 0.01449381377929416 0 -0.0083558836424850597 0.013929249332562637 0 -0.0086161089638724358 0.012909176743345583 0 -0.0090445898677029568 0.013914662501845006 0 -0.0083558836424850597 0.013929249332562637 0 -0.0086161089638724358 0.012909176743345583 0 -0.0078860643526861528 0.012765085021841809 0 -0.019895192712814511 0.0051048740083950057 0 -0.020357215163068685 0.0032151103100339267 0 -0.019607744706727333 0.0032944070659723197 0 -0.013832668078568009 0.0096144220110642459 0 -0.014118848044987338 0.0080072265655757834 0 -0.0077682294902483616 0.014217962483023655 0 -0.0083558836424850597 0.013929249332562637 0 -0.0078860643526861528 0.012765085021841809 0 -0.020357215163068685 0.0032151103100339267 0 -0.020306246616301662 0.0021111179876804119 0 -0.01989999218380905 0.0024317308636591108 0 -0.020357215163068685 0.0032151103100339267 0 -0.019607744706727333 0.0032944070659723197 0 -0.01989999218380905 0.0024317308636591108 0 -0.0086161089638724358 0.012909176743345583 0 -0.0078860643526861528 0.012765085021841809 0 -0.0083869437733580417 0.010988556475624587 0 -0.014118848044987338 0.0080072265655757834 0 -0.014358307969090671 0.0065591458707332509 0 -0.019140425171738241 0.0030874930996750934 0 -0.018943952522680364 0.0041575947179374618 0 -0.018668026104665052 0.0023827815395925252 0 -0.017475196262052763 0.0036224593779682975 0 -0.016824127129740522 0.0032743780820189989 0 -0.017869088413237887 0.0016813292567211618 0 -0.018943952522680364 0.0041575947179374618 0 -0.017475196262052763 0.0036224593779682975 0 -0.017869088413237887 0.0016813292567211618 0 -0.018743586373866149 0.0042801700887870608 0 -0.019092938907620458 0.0014184528007099135 0 -0.019107676622309427 0.0025294786478964647 0 -0.019140425171738241 0.0030874930996750934 0 -0.018668026104665052 0.0023827815395925252 0 -0.019107676622309427 0.0025294786478964647 0 -0.019431190126856995 0.002491336110375436 0 -0.019140425171738241 0.0030874930996750934 0 -0.019431190126856995 0.002491336110375436 0 -0.019607744706727333 0.0032944070659723197 0 -0.01989999218380905 0.0024317308636591108 0 -0.019431190126856995 0.002491336110375436 0 -0.019607744706727333 0.0032944070659723197 0 -0.019140425171738241 0.0030874930996750934 0 -0.019607744706727333 0.0032944070659723197 0 -0.019140425171738241 0.0030874930996750934 0 -0.018943952522680364 0.0041575947179374618 0 -0.019895192712814511 0.0051048740083950057 0 -0.019607744706727333 0.0032944070659723197 0 -0.018943952522680364 0.0041575947179374618 0 -0.018943952522680364 0.0041575947179374618 0 -0.017475196262052763 0.0036224593779682975 0 -0.017690874797110477 0.0046914914291343581 0 -0.017475196262052763 0.0036224593779682975 0 -0.017690874797110477 0.0046914914291343581 0 -0.016458426183916946 0.0045493754056684602 0 -0.017690874797110477 0.0046914914291343581 0 -0.018353113805077568 0.0055825025636426166 0 -0.017213256324709526 0.0055383627544555152 0 -0.017690874797110477 0.0046914914291343581 0 -0.017213256324709526 0.0055383627544555152 0 -0.016458426183916946 0.0045493754056684602 0 -0.018353113805077568 0.0055825025636426166 0 -0.017213256324709526 0.0055383627544555152 0 -0.017324772012505204 0.0072417786306898466 0 -0.018943952522680364 0.0041575947179374618 0 -0.017690874797110477 0.0046914914291343581 0 -0.018353113805077568 0.0055825025636426166 0 -0.019895192712814511 0.0051048740083950057 0 -0.018353113805077568 0.0055825025636426166 0 -0.018808083183076238 0.007527503493022572 0 -0.019895192712814511 0.0051048740083950057 0 -0.018943952522680364 0.0041575947179374618 0 -0.018353113805077568 0.0055825025636426166 0 -0.0081970855541740589 0.015206823384546988 0 -0.0077682294902483616 0.014217962483023655 0 -0.0078299622264946071 0.015188000189228888 0 -0.013832668078568009 0.0096144220110642459 0 -0.013294282889781838 0.011503947365726946 0 -0.018353113805077568 0.0055825025636426166 0 -0.018808083183076238 0.007527503493022572 0 -0.017324772012505204 0.0072417786306898466 0 -0.01620874325098071 0.0084892011789675925 0 -0.017324772012505204 0.0072417786306898466 0 -0.015830174513022412 0.006476350144662313 0 -0.017213256324709526 0.0055383627544555152 0 -0.017324772012505204 0.0072417786306898466 0 -0.015830174513022412 0.006476350144662313 0 -0.014485360356739746 0.0087314754553607307 0 -0.015830174513022412 0.006476350144662313 0 -0.013890486314700903 0.0066477480579884996 0 -0.015830174513022412 0.006476350144662313 0 -0.014919510806634532 0.005143353399316865 0 -0.013890486314700903 0.0066477480579884996 0 -0.015830174513022412 0.006476350144662313 0 -0.014919510806634532 0.005143353399316865 0 -0.016458426183916946 0.0045493754056684602 0 -0.017213256324709526 0.0055383627544555152 0 -0.015830174513022412 0.006476350144662313 0 -0.016458426183916946 0.0045493754056684602 0 -0.013037046308263025 0.0078580448863784895 0 -0.011806112563402558 0.0086259588334575282 0 -0.01168870179624041 0.0070240970836167975 0 -0.013037046308263025 0.0078580448863784895 0 -0.01168870179624041 0.0070240970836167975 0 -0.013890486314700903 0.0066477480579884996 0 -0.013037046308263025 0.0078580448863784895 0 -0.014485360356739746 0.0087314754553607307 0 -0.013890486314700903 0.0066477480579884996 0 -0.014919510806634532 0.005143353399316865 0 -0.013890486314700903 0.0066477480579884996 0 -0.013076948521878682 0.004897350026717491 0 -0.01168870179624041 0.0070240970836167975 0 -0.013890486314700903 0.0066477480579884996 0 -0.013076948521878682 0.004897350026717491 0 -0.018095582314587914 0.0063282959680483206 0 -0.019509096126315219 0.0041084830731223203 0 -0.01707718315572854 0.005818046914643377 0 -0.020947355020911673 -0.00018795182891984864 0 -0.020894714849902435 -6.9808234640839764e-05 0 -0.020871752325114675 0.00016134195464149534 0 -0.014648629424417522 0.0065401838753241124 0 -0.018055991541151405 0.0027727748686416621 0 -0.018055991541151405 0.0027727748686416621 0 -0.019653289581360874 0.0019198732281780638 0 -0.020914604278799171 -0.00028131386228092813 0 -0.020946019292218478 -0.00050540284869543452 0 -0.021177206613011 -0.0006530778714119328 0 -0.02092485381211109 -0.00029729583848772846 0 -0.021146994045298424 -0.00026418577970958049 0 -0.020894714849902435 -6.9808234640839764e-05 0 -0.020914604278799171 -0.00028131386228092813 0 -0.02088471134032301 -2.5662021244863572e-06 0 -0.018055991541151405 0.0027727748686416621 0 -0.020547672883208488 -0.00055391093972383175 0 -0.020947355020911673 -0.00018795182891984864 0 -0.020914604278799171 -0.00028131386228092813 0 -0.02076206563212301 -0.0005522832963515378 0 -0.020947355020911673 -0.00018795182891984864 0 -0.020894714849902435 -6.9808234640839764e-05 0 -0.020914604278799171 -0.00028131386228092813 0 -0.020914604278799171 -0.00028131386228092813 0 -0.020946019292218478 -0.00050540284869543452 0 -0.02076206563212301 -0.0005522832963515378 0 -0.020852425453934426 -0.00044437914146346942 0 -0.020946019292218478 -0.00050540284869543452 0 -0.02076206563212301 -0.0005522832963515378 0 -0.020852425453934426 -0.00044437914146346942 0 -0.020946019292218478 -0.00050540284869543452 0 -0.021000819128309006 -0.00039385904612766005 0 -0.020946019292218478 -0.00050540284869543452 0 -0.021177655074514721 -0.00049741748567243944 0 -0.021177206613011 -0.0006530778714119328 0 -0.020946019292218478 -0.00050540284869543452 0 -0.021177655074514721 -0.00049741748567243944 0 -0.021000819128309006 -0.00039385904612766005 0 -0.014919510806634532 0.005143353399316865 0 -0.016458426183916946 0.0045493754056684602 0 -0.015490123723203519 0.0032631396364779753 0 -0.016824127129740522 0.0032743780820189989 0 -0.016458426183916946 0.0045493754056684602 0 -0.015490123723203519 0.0032631396364779753 0 -0.017475196262052763 0.0036224593779682975 0 -0.016824127129740522 0.0032743780820189989 0 -0.016458426183916946 0.0045493754056684602 0 -0.014919510806634532 0.005143353399316865 0 -0.013076948521878682 0.004897350026717491 0 -0.015490123723203519 0.0032631396364779753 0 -0.018055991541151405 0.0027727748686416621 0 -0.017291992024726633 0.0020265172198406785 0 -0.018868440888135048 0.0014260908188272869 0 -0.019893144904053348 0.00068253540646984342 0 -0.019535538270109336 0.00043658950210469965 0 -0.019893144904053348 0.00068253540646984342 0 -0.019535538270109336 0.00043658950210469965 0 -0.019957877331151463 0.00023363421813195215 0 -0.019893144904053348 0.00068253540646984342 0 -0.019957877331151463 0.00023363421813195215 0 -0.020113310196565041 0.00024778519092481268 0 -0.016824127129740522 0.0032743780820189989 0 -0.015490123723203519 0.0032631396364779753 0 -0.017869088413237887 0.0016813292567211618 0 -0.019893144904053348 0.00068253540646984342 0 -0.020113310196565041 0.00024778519092481268 0 -0.020469226051598788 0.00011749712295078125 0 -0.017291992024726633 0.0020265172198406785 0 -0.019092938907620458 0.0014184528007099135 0 -0.019957877331151463 0.00023363421813195215 0 -0.020113310196565041 0.00024778519092481268 0 -0.020118930517414018 7.5499941701376441e-05 0 -0.020113310196565041 0.00024778519092481268 0 -0.020226862525498705 -5.077556102025481e-06 0 -0.020118930517414018 7.5499941701376441e-05 0 -0.020113310196565041 0.00024778519092481268 0 -0.020226862525498705 -5.077556102025481e-06 0 -0.020469226051598788 0.00011749712295078125 0 -0.020226862525498705 -5.077556102025481e-06 0 -0.020169583945898101 -0.00016139149869750087 0 -0.020149137279903979 -0.00013115587501242326 0 -0.020226862525498705 -5.077556102025481e-06 0 -0.020169583945898101 -0.00016139149869750087 0 -0.020118930517414018 7.5499941701376441e-05 0 -0.019957877331151463 0.00023363421813195215 0 -0.020169583945898101 -0.00016139149869750087 0 -0.020118930517414018 7.5499941701376441e-05 0 -0.020547672883208488 -0.00055391093972383175 0 -0.019991837757771424 9.0417737407559397e-05 0 -0.019535538270109336 0.00043658950210469965 0 -0.019957877331151463 0.00023363421813195215 0 -0.020169583945898101 -0.00016139149869750087 0 -0.02076206563212301 -0.0005522832963515378 0 -0.020169583945898101 -0.00016139149869750087 0 -0.020429773015076768 -0.00015435216878799979 0 -0.02076206563212301 -0.0005522832963515378 0 -0.020429773015076768 -0.00015435216878799979 0 -0.020708747689196082 -0.00028738197752892826 0 -0.020429773015076768 -0.00015435216878799979 0 -0.020449090896420195 3.6289250887854028e-05 0 -0.020708747689196082 -0.00028738197752892826 0 -0.020429773015076768 -0.00015435216878799979 0 -0.020449090896420195 3.6289250887854028e-05 0 -0.020241298253143282 -4.2878391748668185e-05 0 -0.020241298253143282 -4.2878391748668185e-05 0 -0.020149137279903979 -0.00013115587501242326 0 -0.020079119115722032 0.0002677385886916583 0 -0.020169583945898101 -0.00016139149869750087 0 -0.020241298253143282 -4.2878391748668185e-05 0 -0.020149137279903979 -0.00013115587501242326 0 -0.020169583945898101 -0.00016139149869750087 0 -0.020429773015076768 -0.00015435216878799979 0 -0.020241298253143282 -4.2878391748668185e-05 0 -0.021177655074514721 -0.00049741748567243944 0 -0.021000819128309006 -0.00039385904612766005 0 -0.021381594507465407 -0.00035085367943345008 0 -0.021000819128309006 -0.00039385904612766005 0 -0.021007285874020159 -0.0001436180787058863 0 -0.021381594507465407 -0.00035085367943345008 0 -0.021000819128309006 -0.00039385904612766005 0 -0.020708747689196082 -0.00028738197752892826 0 -0.021007285874020159 -0.0001436180787058863 0 -0.020852425453934426 -0.00044437914146346942 0 -0.02076206563212301 -0.0005522832963515378 0 -0.020708747689196082 -0.00028738197752892826 0 -0.020852425453934426 -0.00044437914146346942 0 -0.021000819128309006 -0.00039385904612766005 0 -0.020708747689196082 -0.00028738197752892826 0 -0.020449090896420195 3.6289250887854028e-05 0 -0.020708747689196082 -0.00028738197752892826 0 -0.021007285874020159 -0.0001436180787058863 0 -0.021007285874020159 -0.0001436180787058863 0 -0.021381594507465407 -0.00035085367943345008 0 -0.021537538946959082 -0.00013271379708575514 0 -0.021007285874020159 -0.0001436180787058863 0 -0.021156242391909018 0.00018770969728017825 0 -0.021537538946959082 -0.00013271379708575514 0 -0.021156242391909018 0.00018770969728017825 0 -0.020682636124890467 0.000314874845555104 0 -0.021000634025544539 0.000540478724616549 0 -0.021007285874020159 -0.0001436180787058863 0 -0.021156242391909018 0.00018770969728017825 0 -0.020682636124890467 0.000314874845555104 0 -0.020449090896420195 3.6289250887854028e-05 0 -0.021007285874020159 -0.0001436180787058863 0 -0.020682636124890467 0.000314874845555104 0 -0.020682636124890467 0.000314874845555104 0 -0.020286233789134491 0.00044148681490268574 0 -0.020636422097747742 0.00099210099413998896 0 -0.020682636124890467 0.000314874845555104 0 -0.021000634025544539 0.000540478724616549 0 -0.020636422097747742 0.00099210099413998896 0 -0.021000634025544539 0.000540478724616549 0 -0.02155801815833152 0.00069569234175372843 0 -0.020636422097747742 0.00099210099413998896 0 -0.021156242391909018 0.00018770969728017825 0 -0.021000634025544539 0.000540478724616549 0 -0.02155801815833152 0.00069569234175372843 0 -0.019201444636279742 0.0016672129537923469 0 -0.019502222856883803 0.0011460841522135377 0 -0.01942112439421579 0.0014553021514023305 0 -0.019759326618451895 0.0007975960533353429 0 -0.019809154847797092 0.00075177267365518963 0 -0.020449090896420195 3.6289250887854028e-05 0 -0.020682636124890467 0.000314874845555104 0 -0.020286233789134491 0.00044148681490268574 0 -0.020449090896420195 3.6289250887854028e-05 0 -0.020241298253143282 -4.2878391748668185e-05 0 -0.020079119115722032 0.0002677385886916583 0 -0.020449090896420195 3.6289250887854028e-05 0 -0.020079119115722032 0.0002677385886916583 0 -0.020286233789134491 0.00044148681490268574 0 -0.020079119115722032 0.0002677385886916583 0 -0.020286233789134491 0.00044148681490268574 0 -0.02000209027954275 0.00082778627943469604 0 -0.020286233789134491 0.00044148681490268574 0 -0.02000209027954275 0.00082778627943469604 0 -0.020636422097747742 0.00099210099413998896 0 -0.019809154847797092 0.00075177267365518963 0 -0.01998665546633625 0.00087264740246894342 0 -0.019502222856883803 0.0011460841522135377 0 -0.019674336682723149 0.0010041270873502332 0 -0.02000209027954275 0.00082778627943469604 0 -0.019502222856883803 0.0011460841522135377 0 -0.019674336682723149 0.0010041270873502332 0 -0.019561974478738028 0.0012098523552884332 0 -0.019674336682723149 0.0010041270873502332 0 -0.019561974478738028 0.0012098523552884332 0 -0.019654466382109041 0.0011780656924998795 0 -0.019502222856883803 0.0011460841522135377 0 -0.019561974478738028 0.0012098523552884332 0 -0.01942112439421579 0.0014553021514023305 0 -0.019561974478738028 0.0012098523552884332 0 -0.019567248595818744 0.0013798316989711745 0 -0.019654466382109041 0.0011780656924998795 0 -0.019561974478738028 0.0012098523552884332 0 -0.01942112439421579 0.0014553021514023305 0 -0.019567248595818744 0.0013798316989711745 0 -0.019567248595818744 0.0013798316989711745 0 -0.019654466382109041 0.0011780656924998795 0 -0.019746278597587368 0.0014605463734648331 0 -0.019567248595818744 0.0013798316989711745 0 -0.019746278597587368 0.0014605463734648331 0 -0.019480037772480557 0.0016848348888559427 0 -0.019654466382109041 0.0011780656924998795 0 -0.019769712442832276 0.0012082214499448205 0 -0.019746278597587368 0.0014605463734648331 0 -0.019769712442832276 0.0012082214499448205 0 -0.019978133233517346 0.0015410055502974194 0 -0.01995553703301875 0.0013449820053751435 0 -0.019769712442832276 0.0012082214499448205 0 -0.019829202316097871 0.0011896667625264621 0 -0.01995553703301875 0.0013449820053751435 0 -0.019978133233517346 0.0015410055502974194 0 -0.020137758270194442 0.0015936819667625225 0 -0.01995553703301875 0.0013449820053751435 0 -0.019769712442832276 0.0012082214499448205 0 -0.019978133233517346 0.0015410055502974194 0 -0.019746278597587368 0.0014605463734648331 0 -0.019978133233517346 0.0015410055502974194 0 -0.019746278597587368 0.0014605463734648331 0 -0.019831650534276761 0.0018354185365156508 0 -0.019978133233517346 0.0015410055502974194 0 -0.020306246616301662 0.0021111179876804119 0 -0.020137758270194442 0.0015936819667625225 0 -0.019978133233517346 0.0015410055502974194 0 -0.019831650534276761 0.0018354185365156508 0 -0.020306246616301662 0.0021111179876804119 0 -0.019831650534276761 0.0018354185365156508 0 -0.01989999218380905 0.0024317308636591108 0 -0.019517152613663085 0.002036584326232722 0 -0.019831650534276761 0.0018354185365156508 0 -0.020306246616301662 0.0021111179876804119 0 -0.01989999218380905 0.0024317308636591108 0 -0.019431190126856995 0.002491336110375436 0 -0.01989999218380905 0.0024317308636591108 0 -0.019517152613663085 0.002036584326232722 0 -0.019517152613663085 0.002036584326232722 0 -0.019322537761189008 0.0019575592051329764 0 -0.019480037772480557 0.0016848348888559427 0 -0.019517152613663085 0.002036584326232722 0 -0.019322537761189008 0.0019575592051329764 0 -0.019117816531353252 0.0021888767789706789 0 -0.019107676622309427 0.0025294786478964647 0 -0.019431190126856995 0.002491336110375436 0 -0.019117816531353252 0.0021888767789706789 0 -0.019431190126856995 0.002491336110375436 0 -0.019517152613663085 0.002036584326232722 0 -0.019117816531353252 0.0021888767789706789 0 -0.019107676622309427 0.0025294786478964647 0 -0.018668026104665052 0.0023827815395925252 0 -0.019117816531353252 0.0021888767789706789 0 -0.019759326618451895 0.0007975960533353429 0 -0.019092938907620458 0.0014184528007099135 0 -0.01906374315094524 0.0022300451792572947 0 -0.019117816531353252 0.0021888767789706789 0 -0.01924499274086848 0.0018657139095285575 0 -0.020226862525498705 -5.077556102025481e-06 0 -0.020149137279903979 -0.00013115587501242326 0 -0.020469226051598788 0.00011749712295078125 0 -0.019201444636279742 0.0016672129537923469 0 -0.01906374315094524 0.0022300451792572947 0 -0.01924499274086848 0.0018657139095285575 0 -0.019092938907620458 0.0014184528007099135 0 -0.018862133999134841 0.0018492920535835198 0 -0.019322537761189008 0.0019575592051329764 0 -0.019117816531353252 0.0021888767789706789 0 -0.01924499274086848 0.0018657139095285575 0 -0.019201444636279742 0.0016672129537923469 0 -0.01942112439421579 0.0014553021514023305 0 -0.01924499274086848 0.0018657139095285575 0 -0.01942112439421579 0.0014553021514023305 0 -0.01924499274086848 0.0018657139095285575 0 -0.019480037772480557 0.0016848348888559427 0 -0.019322537761189008 0.0019575592051329764 0 -0.01924499274086848 0.0018657139095285575 0 -0.019480037772480557 0.0016848348888559427 0 -0.01942112439421579 0.0014553021514023305 0 -0.019567248595818744 0.0013798316989711745 0 -0.019480037772480557 0.0016848348888559427 0 -0.019831650534276761 0.0018354185365156508 0 -0.019517152613663085 0.002036584326232722 0 -0.019480037772480557 0.0016848348888559427 0 -0.019746278597587368 0.0014605463734648331 0 -0.019831650534276761 0.0018354185365156508 0 -0.019480037772480557 0.0016848348888559427 0 -0.024999955307978574 0.0094045081648321312 0 -0.025794048939857064 0.010008108223113528 0 -0.025803566843297435 0.0091056418831809028 0 -0.024999955307978574 0.0094045081648321312 0 -0.025794048939857064 0.010008108223113528 0 -0.024999945233076012 0.010706700495900589 0 -0.025794048939857064 0.010008108223113528 0 -0.02657320856293624 0.0093249774746474133 0 -0.025803566843297435 0.0091056418831809028 0 -0.025794048939857064 0.010008108223113528 0 -0.026815589332213088 0.010255557053665406 0 -0.02657320856293624 0.0093249774746474133 0 -0.025794048939857064 0.010008108223113528 0 -0.02621003523412458 0.010941562740054818 0 -0.026815589332213088 0.010255557053665406 0 -0.025794048939857064 0.010008108223113528 0 -0.024999945233076012 0.010706700495900589 0 -0.02621003523412458 0.010941562740054818 0 -0.024999945233076012 0.010706700495900589 0 -0.024999990509641846 0.012008908063703163 0 -0.025806807222645542 0.011706260265492931 0 -0.024999945233076012 0.010706700495900589 0 -0.025806807222645542 0.011706260265492931 0 -0.02621003523412458 0.010941562740054818 0 -0.025972968910040344 0.012832573368323301 0 -0.024999990509641846 0.012008908063703163 0 -0.025806807222645542 0.011706260265492931 0 -0.025972968910040344 0.012832573368323301 0 -0.025806807222645542 0.011706260265492931 0 -0.026842976790547195 0.012041223860599918 0 -0.025806807222645542 0.011706260265492931 0 -0.02621003523412458 0.010941562740054818 0 -0.026842976790547195 0.012041223860599918 0 -0.02621003523412458 0.010941562740054818 0 -0.026842976790547195 0.012041223860599918 0 -0.027216848060274957 0.010956560418587707 0 -0.026842976790547195 0.012041223860599918 0 -0.027487485407626196 0.012135214649772763 0 -0.027686226896748139 0.011536783477027541 0 -0.027789977390047075 0.012796706932371874 0 -0.027487485407626196 0.012135214649772763 0 -0.028049679917990959 0.01217389115360799 0 -0.027487485407626196 0.012135214649772763 0 -0.027686226896748139 0.011536783477027541 0 -0.028049679917990959 0.01217389115360799 0 -0.026842976790547195 0.012041223860599918 0 -0.027686226896748139 0.011536783477027541 0 -0.027216848060274957 0.010956560418587707 0 -0.027686226896748139 0.011536783477027541 0 -0.027216848060274957 0.010956560418587707 0 -0.027865722321068535 0.011004935596022209 0 -0.027216848060274957 0.010956560418587707 0 -0.027750517828580908 0.010224206871607142 0 -0.026815589332213088 0.010255557053665406 0 -0.027216848060274957 0.010956560418587707 0 -0.027865722321068535 0.011004935596022209 0 -0.027750517828580908 0.010224206871607142 0 -0.02621003523412458 0.010941562740054818 0 -0.027216848060274957 0.010956560418587707 0 -0.026815589332213088 0.010255557053665406 0 -0.026815589332213088 0.010255557053665406 0 -0.027522716530276006 0.0092010835148812319 0 -0.02657320856293624 0.0093249774746474133 0 -0.027750517828580908 0.010224206871607142 0 -0.026815589332213088 0.010255557053665406 0 -0.027522716530276006 0.0092010835148812319 0 -0.027750517828580908 0.010224206871607142 0 -0.028429735880621157 0.0095124420081366037 0 -0.027522716530276006 0.0092010835148812319 0 -0.026431283754353215 0.0076296298815106984 0 -0.025068643231142038 0.0074258469809201531 0 -0.024231898555468159 0.0048727897056368803 0 -0.024702109019013107 0.0051447214335255736 0 -0.024393578704406289 0.006690746012603564 0 -0.027750517828580908 0.010224206871607142 0 -0.028429735880621157 0.0095124420081366037 0 -0.028499093178139485 0.010476389429042728 0 -0.021798607414592015 0.0025148260908139167 0 -0.025068643231142038 0.0074258469809201531 0 -0.018749817138256273 0.0002569614252042396 0 -0.019728120165331306 0.0013526795272116149 0 -0.018154540224503135 0.002263649327471405 0 -0.024231898555468159 0.0048727897056368803 0 -0.024702109019013107 0.0051447214335255736 0 -0.024994698281736321 0.0036298583485834422 0 -0.020024304591614108 -0.00011213818889360775 0 -0.019977226889196658 0.00045107857840390143 0 -0.02084668523601944 0.00013557670266140244 0 -0.018749817138256273 0.0002569614252042396 0 -0.020024304591614108 -0.00011213818889360775 0 -0.019977226889196658 0.00045107857840390143 0 -0.019977226889196658 0.00045107857840390143 0 -0.019728120165331306 0.0013526795272116149 0 -0.02084668523601944 0.00013557670266140244 0 -0.018749817138256273 0.0002569614252042396 0 -0.019977226889196658 0.00045107857840390143 0 -0.019728120165331306 0.0013526795272116149 0 -0.019728120165331306 0.0013526795272116149 0 -0.018154540224503135 0.002263649327471405 0 -0.020966314655071736 0.0038955566475480331 0 -0.027865722321068535 0.011004935596022209 0 -0.027750517828580908 0.010224206871607142 0 -0.028499093178139485 0.010476389429042728 0 -0.028355818759404967 0.009890139718302467 0 -0.028166129779644365 0.011804467325053466 0 -0.028623448954964201 0.011704834924686757 0 -0.025068643231142038 0.0074258469809201531 0 -0.023438712109775828 0.0080172848677800817 0 -0.027865722321068535 0.011004935596022209 0 -0.028499093178139485 0.010476389429042728 0 -0.028166129779644365 0.011804467325053466 0 -0.025068643231142038 0.0074258469809201531 0 -0.028999571235609475 0.012787201262805515 0 -0.027686226896748139 0.011536783477027541 0 -0.027865722321068535 0.011004935596022209 0 -0.028166129779644365 0.011804467325053466 0 -0.027686226896748139 0.011536783477027541 0 -0.028166129779644365 0.011804467325053466 0 -0.028049679917990959 0.01217389115360799 0 -0.028674568048612483 0.013095770250797034 0 -0.028623448954964201 0.011704834924686757 0 -0.028049679917990959 0.01217389115360799 0 -0.028166129779644365 0.011804467325053466 0 -0.028623448954964201 0.011704834924686757 0 -0.028049679917990959 0.01217389115360799 0 -0.018420802689969464 0.0059527331283443412 0 -0.020228756078488772 0.0077727209368505966 0 -0.020966314655071736 0.0038955566475480331 0 -0.018154540224503135 0.002263649327471405 0 -0.018420802689969464 0.0059527331283443412 0 -0.020966314655071736 0.0038955566475480331 0 -0.020757506349335493 0.00010983178932799268 0 -0.020871752325114675 0.00016134195464149534 0 -0.020849049020833097 5.9956600005113424e-05 0 -0.020757506349335493 0.00010983178932799268 0 -0.020732279265928327 0.00029287697828228642 0 -0.020871752325114675 0.00016134195464149534 0 -0.018599858962972379 0.0075476451904205053 0 -0.021161211339714363 0.0012004142695824856 0 -0.020747882773160056 0.0080283555954352021 0 -0.020228756078488772 0.0077727209368505966 0 -0.020966314655071736 0.0038955566475480331 0 -0.020623710206818663 0.00044448146937222548 0 -0.020757506349335493 0.00010983178932799268 0 -0.020732279265928327 0.00029287697828228642 0 -0.0206677093144036 0.00046870251477061609 0 -0.020732279265928327 0.00029287697828228642 0 -0.020871752325114675 0.00016134195464149534 0 -0.017430890940571982 0.0092165208408155133 0 -0.019653289581360874 0.0019198732281780638 0 -0.0206677093144036 0.00046870251477061609 0 -0.020623710206818663 0.00044448146937222548 0 -0.020732279265928327 0.00029287697828228642 0 -0.016662739189353223 0.0085222142541691165 0 -0.018095582314587914 0.0063282959680483206 0 -0.01707718315572854 0.005818046914643377 0 -0.020894714849902435 -6.9808234640839764e-05 0 -0.020871752325114675 0.00016134195464149534 0 -0.020849049020833097 5.9956600005113424e-05 0 -0.020894714849902435 -6.9808234640839764e-05 0 -0.020849049020833097 5.9956600005113424e-05 0 -0.02088471134032301 -2.5662021244863572e-06 0 -0.019728120165331306 0.0013526795272116149 0 -0.020966314655071736 0.0038955566475480331 0 -0.02084668523601944 0.00013557670266140244 0 -0.020757506349335493 0.00010983178932799268 0 -0.020849049020833097 5.9956600005113424e-05 0 -0.02084668523601944 0.00013557670266140244 0 -0.021161211339714363 0.0012004142695824856 0 -0.020772078460153422 0.00060192296065231905 0 -0.020849049020833097 5.9956600005113424e-05 0 -0.02084668523601944 0.00013557670266140244 0 -0.021006755271950589 -1.2688010269836269e-05 0 -0.020024304591614108 -0.00011213818889360775 0 -0.02084668523601944 0.00013557670266140244 0 -0.021006755271950589 -1.2688010269836269e-05 0 -0.020849049020833097 5.9956600005113424e-05 0 -0.021006755271950589 -1.2688010269836269e-05 0 -0.02088471134032301 -2.5662021244863572e-06 0 -0.021037903869082962 -0.00058108911810176363 0 -0.021146994045298424 -0.00026418577970958049 0 -0.021800468431669672 -0.0006406934778117986 0 -0.021177206613011 -0.0006530778714119328 0 -0.021452818570557596 -0.00051755623627532392 0 -0.021177655074514721 -0.00049741748567243944 0 -0.021177206613011 -0.0006530778714119328 0 -0.021452818570557596 -0.00051755623627532392 0 -0.021381594507465407 -0.00035085367943345008 0 -0.021714073722195353 -0.00041582357851340971 0 -0.021631567943152703 -0.00028391509765771133 0 -0.021177655074514721 -0.00049741748567243944 0 -0.021381594507465407 -0.00035085367943345008 0 -0.021452818570557596 -0.00051755623627532392 0 -0.021800468431669672 -0.0006406934778117986 0 -0.021452818570557596 -0.00051755623627532392 0 -0.021714073722195353 -0.00041582357851340971 0 -0.021381594507465407 -0.00035085367943345008 0 -0.021452818570557596 -0.00051755623627532392 0 -0.021714073722195353 -0.00041582357851340971 0 -0.021800468431669672 -0.0006406934778117986 0 -0.021982373188713236 -0.00039471733761247345 0 -0.021714073722195353 -0.00041582357851340971 0 -0.021800468431669672 -0.0006406934778117986 0 -0.021982373188713236 -0.00039471733761247345 0 -0.022286161711799594 -0.00043224639104001158 0 -0.021982373188713236 -0.00039471733761247345 0 -0.021714073722195353 -0.00041582357851340971 0 -0.021900703386499642 -0.00023083207330723546 0 -0.021900703386499642 -0.00023083207330723546 0 -0.021537538946959082 -0.00013271379708575514 0 -0.022025555413872119 -2.8141728211226211e-05 0 -0.021714073722195353 -0.00041582357851340971 0 -0.021900703386499642 -0.00023083207330723546 0 -0.021631567943152703 -0.00028391509765771133 0 -0.021900703386499642 -0.00023083207330723546 0 -0.022095704045446203 -0.00011809497955167263 0 -0.022025555413872119 -2.8141728211226211e-05 0 -0.021982373188713236 -0.00039471733761247345 0 -0.021900703386499642 -0.00023083207330723546 0 -0.022141940803100113 -0.00024240709562271034 0 -0.021900703386499642 -0.00023083207330723546 0 -0.022095704045446203 -0.00011809497955167263 0 -0.022141940803100113 -0.00024240709562271034 0 -0.021900703386499642 -0.00023083207330723546 0 -0.021631567943152703 -0.00028391509765771133 0 -0.021537538946959082 -0.00013271379708575514 0 -0.021381594507465407 -0.00035085367943345008 0 -0.021631567943152703 -0.00028391509765771133 0 -0.021537538946959082 -0.00013271379708575514 0 -0.021156242391909018 0.00018770969728017825 0 -0.021537538946959082 -0.00013271379708575514 0 -0.021564042080156765 0.00015804274132327263 0 -0.021564042080156765 0.00015804274132327263 0 -0.02155801815833152 0.00069569234175372843 0 -0.022025555413872119 -2.8141728211226211e-05 0 -0.021537538946959082 -0.00013271379708575514 0 -0.021564042080156765 0.00015804274132327263 0 -0.022025555413872119 -2.8141728211226211e-05 0 -0.021156242391909018 0.00018770969728017825 0 -0.021564042080156765 0.00015804274132327263 0 -0.02155801815833152 0.00069569234175372843 0 -0.022186385106135083 -0.00042965334814757642 0 -0.022578857705306567 -3.4178491790439708e-05 0 -0.022969063805481905 -0.00014818224596322807 0 -0.02155801815833152 0.00069569234175372843 0 -0.022025555413872119 -2.8141728211226211e-05 0 -0.022578857705306567 -3.4178491790439708e-05 0 -0.021849145579763252 0.00014404776217679031 0 -0.022507237767487892 -2.2905049982623666e-05 0 -0.022025555413872119 -2.8141728211226211e-05 0 -0.022322458149958771 1.3979684403614251e-05 0 -0.022578857705306567 -3.4178491790439708e-05 0 -0.022095704045446203 -0.00011809497955167263 0 -0.022025555413872119 -2.8141728211226211e-05 0 -0.022322458149958771 1.3979684403614251e-05 0 -0.023497880162349088 -0.00079048871985247331 0 -0.023666688673327201 -0.00078540194902751556 0 -0.023750042267140115 -0.00087164771114143374 0 -0.023497880162349088 -0.00079048871985247331 0 -0.023640026537093493 -0.00058741230729181563 0 -0.023666688673327201 -0.00078540194902751556 0 -0.022322458149958771 1.3979684403614251e-05 0 -0.022578857705306567 -3.4178491790439708e-05 0 -0.022969063805481905 -0.00014818224596322807 0 -0.023497880162349088 -0.00079048871985247331 0 -0.023524868963954084 -0.00038920801685597667 0 -0.022969063805481905 -0.00014818224596322807 0 -0.023046007934570536 -0.00064971502299115351 0 -0.022897607699782406 1.6646486009732753e-05 0 -0.023497880162349088 -0.00079048871985247331 0 -0.023640026537093493 -0.00058741230729181563 0 -0.023524868963954084 -0.00038920801685597667 0 -0.023640026537093493 -0.00058741230729181563 0 -0.023524868963954084 -0.00038920801685597667 0 -0.023945633432000273 -0.00023138607521163522 0 -0.023640026537093493 -0.00058741230729181563 0 -0.024003176735834169 -0.00019673552427387198 0 -0.023845172705207418 0.00013760091359590361 0 -0.023727529261155903 -0.00039108513804069308 0 -0.023757251238954759 -0.00041176295165299575 0 -0.025727637170821663 0.0028928897504589307 0 -0.026260839344186077 0.0039225242974594609 0 -0.027547675940345202 0.0060886882029244568 0 -0.027605692183436736 0.0071071166907654051 0 -0.027210047052663625 0.0065713038612449804 0 -0.023640026537093493 -0.00058741230729181563 0 -0.024003176735834169 -0.00019673552427387198 0 -0.023789854006279282 -0.00088721571433227108 0 -0.023640026537093493 -0.00058741230729181563 0 -0.023666688673327201 -0.00078540194902751556 0 -0.023789854006279282 -0.00088721571433227108 0 -0.023666688673327201 -0.00078540194902751556 0 -0.023789854006279282 -0.00088721571433227108 0 -0.023750042267140115 -0.00087164771114143374 0 -0.023744137001064879 -0.00098651134107195109 0 -0.023750042267140115 -0.00087164771114143374 0 -0.023635294297100904 -0.0010535741038404517 0 -0.027208069271418587 0.0076360653848204681 0 -0.027194120397356195 0.0076662551385834046 0 -0.027159542706692703 0.0076887688941946622 0 -0.025904308455657905 0.0047232116112254502 0 -0.027893084417075775 0.0081752041976236624 0 -0.026260839344186077 0.0039225242974594609 0 -0.025904308455657905 0.0047232116112254502 0 -0.023767499207146915 -0.00086336633854322727 0 -0.023744137001064879 -0.00098651134107195109 0 -0.023750042267140115 -0.00087164771114143374 0 -0.026260839344186077 0.0039225242974594609 0 -0.025844194610240179 0.0036626553091964327 0 -0.023497880162349088 -0.00079048871985247331 0 -0.023750042267140115 -0.00087164771114143374 0 -0.023635294297100904 -0.0010535741038404517 0 -0.023046007934570536 -0.00064971502299115351 0 -0.022192639419997787 0.00041658329958809694 0 -0.022322458149958771 1.3979684403614251e-05 0 -0.022141940803100113 -0.00024240709562271034 0 -0.022286161711799594 -0.00043224639104001158 0 -0.022095704045446203 -0.00011809497955167263 0 -0.022322458149958771 1.3979684403614251e-05 0 -0.022141940803100113 -0.00024240709562271034 0 -0.021798607414592015 0.0025148260908139167 0 -0.022192639419997787 0.00041658329958809694 0 -0.020024304591614108 -0.00011213818889360775 0 -0.021006755271950589 -1.2688010269836269e-05 0 -0.019267798032118789 -0.0013014246243767741 0 -0.021037903869082962 -0.00058108911810176363 0 -0.022192639419997787 0.00041658329958809694 0 -0.018749817138256273 0.0002569614252042396 0 -0.020024304591614108 -0.00011213818889360775 0 -0.019267798032118789 -0.0013014246243767741 0 -0.021982373188713236 -0.00039471733761247345 0 -0.022141940803100113 -0.00024240709562271034 0 -0.022286161711799594 -0.00043224639104001158 0 -0.024231898555468159 0.0048727897056368803 0 -0.024074022538046396 0.0031005850782098998 0 -0.024994698281736321 0.0036298583485834422 0 -0.028429735880621157 0.0095124420081366037 0 -0.028342958161026964 0.0085540334773784761 0 -0.027522716530276006 0.0092010835148812319 0 -0.026431283754353215 0.0076296298815106984 0 -0.025904308455657905 0.0047232116112254502 0 -0.025904308455657905 0.0047232116112254502 0 -0.022192639419997787 0.00041658329958809694 0 -0.028342958161026964 0.0085540334773784761 0 -0.027453999503441892 0.0085906411073730857 0 -0.027522716530276006 0.0092010835148812319 0 -0.027453999503441892 0.0085906411073730857 0 -0.027522716530276006 0.0092010835148812319 0 -0.026971152637478429 0.0086973555387161172 0 -0.027522716530276006 0.0092010835148812319 0 -0.02657320856293624 0.0093249774746474133 0 -0.026971152637478429 0.0086973555387161172 0 -0.02657320856293624 0.0093249774746474133 0 -0.026971152637478429 0.0086973555387161172 0 -0.026410563003407612 0.0087145398099132809 0 -0.026971152637478429 0.0086973555387161172 0 -0.027133387236729152 0.0082746118157882836 0 -0.02659523544456302 0.0081634501231808172 0 -0.026971152637478429 0.0086973555387161172 0 -0.02659523544456302 0.0081634501231808172 0 -0.026410563003407612 0.0087145398099132809 0 -0.027133387236729152 0.0082746118157882836 0 -0.02659523544456302 0.0081634501231808172 0 -0.026981744341635697 0.0077462730726304951 0 -0.028342958161026964 0.0085540334773784761 0 -0.027453999503441892 0.0085906411073730857 0 -0.02767698897026127 0.0081684897552153166 0 -0.027133387236729152 0.0082746118157882836 0 -0.02767698897026127 0.0081684897552153166 0 -0.026981744341635697 0.0077462730726304951 0 -0.027893084417075775 0.0081752041976236624 0 -0.02688061425300602 0.0076622180204919225 0 -0.027208069271418587 0.0076360653848204681 0 -0.027159542706692703 0.0076887688941946622 0 -0.027091369710865135 0.007592686119848235 0 -0.027453999503441892 0.0085906411073730857 0 -0.027133387236729152 0.0082746118157882836 0 -0.02767698897026127 0.0081684897552153166 0 -0.027453999503441892 0.0085906411073730857 0 -0.026971152637478429 0.0086973555387161172 0 -0.027133387236729152 0.0082746118157882836 0 -0.027210047052663625 0.0065713038612449804 0 -0.026970956218198696 0.0061888617727250631 0 -0.026716228837000321 0.0068881789175104582 0 -0.027605692183436736 0.0071071166907654051 0 -0.027210047052663625 0.0065713038612449804 0 -0.026716228837000321 0.0068881789175104582 0 -0.026260839344186077 0.0039225242974594609 0 -0.027228727815100124 0.0076438214900160636 0 -0.027159542706692703 0.0076887688941946622 0 -0.027091369710865135 0.007592686119848235 0 -0.026981744341635697 0.0077462730726304951 0 -0.027547675940345202 0.0060886882029244568 0 -0.027210047052663625 0.0065713038612449804 0 -0.026970956218198696 0.0061888617727250631 0 -0.027547675940345202 0.0060886882029244568 0 -0.026970956218198696 0.0061888617727250631 0 -0.027168314327187328 0.0056902987456351429 0 -0.026442155334029979 0.0063425194960354571 0 -0.026118397913174315 0.0058816583933201071 0 -0.026685990328872724 0.0055809459491056616 0 -0.026442155334029979 0.0063425194960354571 0 -0.025828718213303962 0.006734416930813036 0 -0.026118397913174315 0.0058816583933201071 0 -0.026970956218198696 0.0061888617727250631 0 -0.026442155334029979 0.0063425194960354571 0 -0.026716228837000321 0.0068881789175104582 0 -0.026970956218198696 0.0061888617727250631 0 -0.026442155334029979 0.0063425194960354571 0 -0.026685990328872724 0.0055809459491056616 0 -0.02659523544456302 0.0081634501231808172 0 -0.026981744341635697 0.0077462730726304951 0 -0.026123908003554866 0.0071920445601378856 0 -0.026442155334029979 0.0063425194960354571 0 -0.026716228837000321 0.0068881789175104582 0 -0.025828718213303962 0.006734416930813036 0 -0.027091369710865135 0.007592686119848235 0 -0.026981744341635697 0.0077462730726304951 0 -0.026123908003554866 0.0071920445601378856 0 -0.027228727815100124 0.0076438214900160636 0 -0.025876920786221502 0.0069163648553865259 0 -0.025828718213303962 0.006734416930813036 0 -0.02561859420559957 0.0057700407644478216 0 -0.026118397913174315 0.0058816583933201071 0 -0.025876920786221502 0.0069163648553865259 0 -0.02500026628347387 0.0068001430164686995 0 -0.025828718213303962 0.006734416930813036 0 -0.024999868375272849 0.0067992280163856576 0 -0.02561859420559957 0.0057700407644478216 0 -0.026123908003554866 0.0071920445601378856 0 -0.024999981005109331 0.0068002013413078193 0 -0.024999977806389243 0.0081023160764202538 0 -0.026123908003554866 0.0071920445601378856 0 -0.024999977806389243 0.0081023160764202538 0 -0.026000389457659239 0.0082616455463096327 0 -0.024999977806389243 0.0081023160764202538 0 -0.026000389457659239 0.0082616455463096327 0 -0.025803566843297435 0.0091056418831809028 0 -0.02659523544456302 0.0081634501231808172 0 -0.026123908003554866 0.0071920445601378856 0 -0.026000389457659239 0.0082616455463096327 0 -0.02659523544456302 0.0081634501231808172 0 -0.026000389457659239 0.0082616455463096327 0 -0.026410563003407612 0.0087145398099132809 0 -0.026000389457659239 0.0082616455463096327 0 -0.025803566843297435 0.0091056418831809028 0 -0.026410563003407612 0.0087145398099132809 0 -0.02657320856293624 0.0093249774746474133 0 -0.025803566843297435 0.0091056418831809028 0 -0.026410563003407612 0.0087145398099132809 0 -0.024999955307978574 0.0094045081648321312 0 -0.024999977806389243 0.0081023160764202538 0 -0.025803566843297435 0.0091056418831809028 0 -0.025556860290039392 0.0032077694572746574 0 -0.02499971251833669 0.0041448358413673824 0 -0.024999779745170769 0.002817680768003432 0 -0.025556860290039392 0.0032077694572746574 0 -0.025553667383970743 0.0045470611228120841 0 -0.026094572808685223 0.0039556571234164901 0 -0.025556860290039392 0.0032077694572746574 0 -0.02499971251833669 0.0041448358413673824 0 -0.025553667383970743 0.0045470611228120841 0 -0.02499971251833669 0.0041448358413673824 0 -0.024999779668046188 0.0054725901308906146 0 -0.025553667383970743 0.0045470611228120841 0 -0.024999779668046188 0.0054725901308906146 0 -0.02561859420559957 0.0057700407644478216 0 -0.025553667383970743 0.0045470611228120841 0 -0.024999868375272849 0.0067992280163856576 0 -0.024999779668046188 0.0054725901308906146 0 -0.02561859420559957 0.0057700407644478216 0 -0.02561859420559957 0.0057700407644478216 0 -0.026088486316655068 0.0050102917521826105 0 -0.026118397913174315 0.0058816583933201071 0 -0.025553667383970743 0.0045470611228120841 0 -0.026088486316655068 0.0050102917521826105 0 -0.026094572808685223 0.0039556571234164901 0 -0.02561859420559957 0.0057700407644478216 0 -0.025553667383970743 0.0045470611228120841 0 -0.026088486316655068 0.0050102917521826105 0 -0.026088486316655068 0.0050102917521826105 0 -0.026685990328872724 0.0055809459491056616 0 -0.026675727837650501 0.0046771975788943501 0 -0.026088486316655068 0.0050102917521826105 0 -0.026675727837650501 0.0046771975788943501 0 -0.026094572808685223 0.0039556571234164901 0 -0.026088486316655068 0.0050102917521826105 0 -0.026118397913174315 0.0058816583933201071 0 -0.026685990328872724 0.0055809459491056616 0 -0.027168314327187328 0.0056902987456351429 0 -0.026685990328872724 0.0055809459491056616 0 -0.027479595168386349 0.0048770464438794769 0 -0.026970956218198696 0.0061888617727250631 0 -0.027168314327187328 0.0056902987456351429 0 -0.026685990328872724 0.0055809459491056616 0 -0.026685990328872724 0.0055809459491056616 0 -0.026675727837650501 0.0046771975788943501 0 -0.027479595168386349 0.0048770464438794769 0 -0.026898338389622224 0.0038797430158423636 0 -0.02565815267832754 0.0024252602404622025 0 -0.026675727837650501 0.0046771975788943501 0 -0.02714401183571883 0.003933953402196543 0 -0.027479595168386349 0.0048770464438794769 0 -0.02646006004852354 0.0031123855908066628 0 -0.026528389453088743 0.0030064792133484963 0 -0.026518782158115019 0.0033734386952324214 0 -0.02714401183571883 0.003933953402196543 0 -0.026366062252268441 0.0035256846030593063 0 -0.026570216429346649 0.0040601608005253215 0 -0.026675727837650501 0.0046771975788943501 0 -0.02714401183571883 0.003933953402196543 0 -0.026570216429346649 0.0040601608005253215 0 -0.026675727837650501 0.0046771975788943501 0 -0.026570216429346649 0.0040601608005253215 0 -0.026094572808685223 0.0039556571234164901 0 -0.026366062252268441 0.0035256846030593063 0 -0.026570216429346649 0.0040601608005253215 0 -0.026094572808685223 0.0039556571234164901 0 -0.026366062252268441 0.0035256846030593063 0 -0.025997693103452492 0.0030394021802335395 0 -0.026284722516925985 0.0027816038560533034 0 -0.025556860290039392 0.0032077694572746574 0 -0.026094572808685223 0.0039556571234164901 0 -0.025997693103452492 0.0030394021802335395 0 -0.026366062252268441 0.0035256846030593063 0 -0.026094572808685223 0.0039556571234164901 0 -0.025997693103452492 0.0030394021802335395 0 -0.025997693103452492 0.0030394021802335395 0 -0.026284722516925985 0.0027816038560533034 0 -0.026042424930348758 0.0024884059856510989 0 -0.02646006004852354 0.0031123855908066628 0 -0.026284722516925985 0.0027816038560533034 0 -0.026528389453088743 0.0030064792133484963 0 -0.026898338389622224 0.0038797430158423636 0 -0.026353717168309598 0.0027481779646001507 0 -0.02714401183571883 0.003933953402196543 0 -0.026366062252268441 0.0035256846030593063 0 -0.026284722516925985 0.0027816038560533034 0 -0.025797464180653446 0.0020151787029765982 0 -0.025916301960370969 0.0023933277828526089 0 -0.026284722516925985 0.0027816038560533034 0 -0.026528389453088743 0.0030064792133484963 0 -0.025912217152348798 0.0022849895001258429 0 -0.025105243423930716 0.0016058882612503013 0 -0.024832765229493872 0.0017751533492882914 0 -0.025912217152348798 0.0022849895001258429 0 -0.025105243423930716 0.0016058882612503013 0 -0.025141441197133386 0.0011745798547837657 0 -0.025912217152348798 0.0022849895001258429 0 -0.025105243423930716 0.0016058882612503013 0 -0.024832765229493872 0.0017751533492882914 0 -0.024595415374815566 0.0012510483070690358 0 -0.025105243423930716 0.0016058882612503013 0 -0.024595415374815566 0.0012510483070690358 0 -0.025141441197133386 0.0011745798547837657 0 -0.024832765229493872 0.0017751533492882914 0 -0.02367753720525342 0.0013967347895022756 0 -0.024571970113931526 0.0019953050565158382 0 -0.024832765229493872 0.0017751533492882914 0 -0.024595415374815566 0.0012510483070690358 0 -0.02367753720525342 0.0013967347895022756 0 -0.024097162778968624 0.0007353636736074032 0 -0.023253465312319366 0.00048070845920315108 0 -0.02367753720525342 0.0013967347895022756 0 -0.024097162778968624 0.0007353636736074032 0 -0.024595415374815566 0.0012510483070690358 0 -0.02367753720525342 0.0013967347895022756 0 -0.024097162778968624 0.0007353636736074032 0 -0.024596993485901917 0.00087242459147915299 0 -0.024595415374815566 0.0012510483070690358 0 -0.024596993485901917 0.00087242459147915299 0 -0.025141441197133386 0.0011745798547837657 0 -0.024536632830980568 0.00035029880121918017 0 -0.025797464180653446 0.0020151787029765982 0 -0.02565815267832754 0.0024252602404622025 0 -0.024596993485901917 0.00087242459147915299 0 -0.024595415374815566 0.0012510483070690358 0 -0.025141441197133386 0.0011745798547837657 0 -0.024097162778968624 0.0007353636736074032 0 -0.024536632830980568 0.00035029880121918017 0 -0.023734612852700662 0.0001898294111139247 0 -0.024097162778968624 0.0007353636736074032 0 -0.024596993485901917 0.00087242459147915299 0 -0.024536632830980568 0.00035029880121918017 0 -0.02565815267832754 0.0024252602404622025 0 -0.023757251238954759 -0.00041176295165299575 0 -0.027547675940345202 0.0060886882029244568 0 -0.027168314327187328 0.0056902987456351429 0 -0.027479595168386349 0.0048770464438794769 0 -0.024003176735834169 -0.00019673552427387198 0 -0.024225395983195501 0.0010385317963475819 0 -0.023845172705207418 0.00013760091359590361 0 -0.024536632830980568 0.00035029880121918017 0 -0.023945633432000273 -0.00023138607521163522 0 -0.023734612852700662 0.0001898294111139247 0 -0.025727637170821663 0.0028928897504589307 0 -0.02565815267832754 0.0024252602404622025 0 -0.023524868963954084 -0.00038920801685597667 0 -0.023945633432000273 -0.00023138607521163522 0 -0.023564282801113601 -0.00015233009587681948 0 -0.023945633432000273 -0.00023138607521163522 0 -0.023564282801113601 -0.00015233009587681948 0 -0.023734612852700662 0.0001898294111139247 0 -0.023524868963954084 -0.00038920801685597667 0 -0.022969063805481905 -0.00014818224596322807 0 -0.023564282801113601 -0.00015233009587681948 0 -0.022969063805481905 -0.00014818224596322807 0 -0.023564282801113601 -0.00015233009587681948 0 -0.023734612852700662 0.0001898294111139247 0 -0.022969063805481905 -0.00014818224596322807 0 -0.023734612852700662 0.0001898294111139247 0 -0.023253465312319366 0.00048070845920315108 0 -0.024097162778968624 0.0007353636736074032 0 -0.023734612852700662 0.0001898294111139247 0 -0.023253465312319366 0.00048070845920315108 0 -0.023253465312319366 0.00048070845920315108 0 -0.022400887856289273 0.00048775425097974569 0 -0.02259911452500598 0.00090624000203438828 0 -0.023253465312319366 0.00048070845920315108 0 -0.022499206692965231 1.8442125136977814e-05 0 -0.022400887856289273 0.00048775425097974569 0 -0.022969063805481905 -0.00014818224596322807 0 -0.023253465312319366 0.00048070845920315108 0 -0.022499206692965231 1.8442125136977814e-05 0 -0.022186385106135083 -0.00042965334814757642 0 -0.022969063805481905 -0.00014818224596322807 0 -0.022499206692965231 1.8442125136977814e-05 0 -0.022186385106135083 -0.00042965334814757642 0 -0.022499206692965231 1.8442125136977814e-05 0 -0.021569895338358781 0.00039565114458781032 0 -0.022499206692965231 1.8442125136977814e-05 0 -0.022400887856289273 0.00048775425097974569 0 -0.021569895338358781 0.00039565114458781032 0 -0.022400887856289273 0.00048775425097974569 0 -0.021805692546302779 0.00092032280317099575 0 -0.021569895338358781 0.00039565114458781032 0 -0.021805692546302779 0.00092032280317099575 0 -0.02259911452500598 0.00090624000203438828 0 -0.02194872366678623 0.0015997574254411828 0 -0.022400887856289273 0.00048775425097974569 0 -0.021805692546302779 0.00092032280317099575 0 -0.02259911452500598 0.00090624000203438828 0 -0.023253465312319366 0.00048070845920315108 0 -0.02259911452500598 0.00090624000203438828 0 -0.02367753720525342 0.0013967347895022756 0 -0.02367753720525342 0.0013967347895022756 0 -0.02194872366678623 0.0015997574254411828 0 -0.022779523463116465 0.0028622472724415806 0 -0.02367753720525342 0.0013967347895022756 0 -0.024008000275049544 0.001958374139027704 0 -0.024571970113931526 0.0019953050565158382 0 -0.023531294272175683 0.00197193869002625 0 -0.02338840324385362 0.00075825404414880785 0 -0.02259911452500598 0.00090624000203438828 0 -0.02367753720525342 0.0013967347895022756 0 -0.02194872366678623 0.0015997574254411828 0 -0.022151748188019963 0.001758783862214492 0 -0.02338840324385362 0.00075825404414880785 0 -0.02194872366678623 0.0015997574254411828 0 -0.021267513231465543 0.001476287010913576 0 -0.021377941510892937 0.0012882331041023474 0 -0.021805692546302779 0.00092032280317099575 0 -0.02194872366678623 0.0015997574254411828 0 -0.021377941510892937 0.0012882331041023474 0 -0.02194872366678623 0.0015997574254411828 0 -0.021426286380438395 0.0015712277685478184 0 -0.021267513231465543 0.001476287010913576 0 -0.02194872366678623 0.0015997574254411828 0 -0.021426286380438395 0.0015712277685478184 0 -0.02170465058772162 0.0015678075825855604 0 -0.021426286380438395 0.0015712277685478184 0 -0.02170465058772162 0.0015678075825855604 0 -0.021399459250436108 0.0016789732169528433 0 -0.02338840324385362 0.00075825404414880785 0 -0.024872722339600993 -0.00048467773465807177 0 -0.02428803847041822 -0.0027939594521432846 0 -0.024509935438085093 -0.0025924081562884627 0 -0.024703819571199787 -0.0028151776419900053 0 -0.02338840324385362 0.00075825404414880785 0 -0.022893440741959811 -0.00082923422281135995 0 -0.024464491993710195 -0.003068300785184584 0 -0.02428803847041822 -0.0027939594521432846 0 -0.024703819571199787 -0.0028151776419900053 0 -0.021399459250436108 0.0016789732169528433 0 -0.021103206526285802 0.0016311954571814895 0 -0.020793223745417051 0.00170729288204714 0 -0.021426286380438395 0.0015712277685478184 0 -0.021399459250436108 0.0016789732169528433 0 -0.021103206526285802 0.0016311954571814895 0 -0.022893440741959811 -0.00082923422281135995 0 -0.022590177184501761 -0.00013963950788171742 0 -0.021399459250436108 0.0016789732169528433 0 -0.021232550376977695 0.0020077465314220443 0 -0.020793223745417051 0.00170729288204714 0 -0.02428803847041822 -0.0027939594521432846 0 -0.024031969206472548 -0.0024463505527469024 0 -0.024509935438085093 -0.0025924081562884627 0 -0.02416034680097158 -0.0021053484677202891 0 -0.024031969206472548 -0.0024463505527469024 0 -0.024527166958101618 -0.0022721010850687909 0 -0.024031969206472548 -0.0024463505527469024 0 -0.024527166958101618 -0.0022721010850687909 0 -0.024509935438085093 -0.0025924081562884627 0 -0.025797877994901686 0.0019875041643194822 0 -0.025581773669483977 0.0022202569418038965 0 -0.024976476747691705 0.0023192211709628882 0 -0.024509935438085093 -0.0025924081562884627 0 -0.025030635425111476 -0.0025220829302135483 0 -0.024703819571199787 -0.0028151776419900053 0 -0.025376940344629464 -0.00027068887212820407 0 -0.024872722339600993 -0.00048467773465807177 0 -0.024929059019751277 -0.0020720508347538522 0 -0.024527166958101618 -0.0022721010850687909 0 -0.025030635425111476 -0.0025220829302135483 0 -0.024527166958101618 -0.0022721010850687909 0 -0.024509935438085093 -0.0025924081562884627 0 -0.025030635425111476 -0.0025220829302135483 0 -0.025656280296205425 -0.00035802998070908989 0 -0.025376940344629464 -0.00027068887212820407 0 -0.024929059019751277 -0.0020720508347538522 0 -0.025425191741384055 -0.002172750344360336 0 -0.025030635425111476 -0.0025220829302135483 0 -0.025797877994901686 0.0019875041643194822 0 -0.025581773669483977 0.0022202569418038965 0 -0.025795685554314517 0.0019768633221964199 0 -0.025581773669483977 0.0022202569418038965 0 -0.024976476747691705 0.0023192211709628882 0 -0.025239284216325313 0.0021441923854773857 0 -0.024008000275049544 0.001958374139027704 0 -0.024976476747691705 0.0023192211709628882 0 -0.024571970113931526 0.0019953050565158382 0 -0.024976476747691705 0.0023192211709628882 0 -0.024571970113931526 0.0019953050565158382 0 -0.025239284216325313 0.0021441923854773857 0 -0.024832765229493872 0.0017751533492882914 0 -0.024571970113931526 0.0019953050565158382 0 -0.025239284216325313 0.0021441923854773857 0 -0.025581773669483977 0.0022202569418038965 0 -0.025239284216325313 0.0021441923854773857 0 -0.025912217152348798 0.0022849895001258429 0 -0.024832765229493872 0.0017751533492882914 0 -0.025239284216325313 0.0021441923854773857 0 -0.025912217152348798 0.0022849895001258429 0 -0.025912217152348798 0.0022849895001258429 0 -0.026042424930348758 0.0024884059856510989 0 -0.025927238978157487 0.0021879937975674206 0 -0.026284722516925985 0.0027816038560533034 0 -0.025912217152348798 0.0022849895001258429 0 -0.026042424930348758 0.0024884059856510989 0 -0.026042424930348758 0.0024884059856510989 0 -0.025781337235542552 0.0023261341224546381 0 -0.025927238978157487 0.0021879937975674206 0 -0.025997693103452492 0.0030394021802335395 0 -0.026042424930348758 0.0024884059856510989 0 -0.025781337235542552 0.0023261341224546381 0 -0.025781337235542552 0.0023261341224546381 0 -0.025927238978157487 0.0021879937975674206 0 -0.025776913311933051 0.0018340935775850973 0 -0.025581773669483977 0.0022202569418038965 0 -0.025927238978157487 0.0021879937975674206 0 -0.025795685554314517 0.0019768633221964199 0 -0.025927238978157487 0.0021879937975674206 0 -0.025795685554314517 0.0019768633221964199 0 -0.025776913311933051 0.0018340935775850973 0 -0.025581773669483977 0.0022202569418038965 0 -0.025912217152348798 0.0022849895001258429 0 -0.025927238978157487 0.0021879937975674206 0 -0.025797877994901686 0.0019875041643194822 0 -0.025795685554314517 0.0019768633221964199 0 -0.025755556611148291 0.0014308200417377148 0 -0.025912348891493141 0.0013068825693576442 0 -0.025797877994901686 0.0019875041643194822 0 -0.025755556611148291 0.0014308200417377148 0 -0.025795685554314517 0.0019768633221964199 0 -0.025755556611148291 0.0014308200417377148 0 -0.025776913311933051 0.0018340935775850973 0 -0.025755556611148291 0.0014308200417377148 0 -0.025776913311933051 0.0018340935775850973 0 -0.025501179073533772 0.0012115586555939222 0 -0.025776913311933051 0.0018340935775850973 0 -0.025501179073533772 0.0012115586555939222 0 -0.025396365221263924 0.0021401081443273608 0 -0.025492947154184997 0.00082125075668812507 0 -0.025755556611148291 0.0014308200417377148 0 -0.025501179073533772 0.0012115586555939222 0 -0.025492947154184997 0.00082125075668812507 0 -0.025501179073533772 0.0012115586555939222 0 -0.024999990193526778 0.00016516471352737754 0 -0.025501179073533772 0.0012115586555939222 0 -0.024999707627506085 0.0014900225941205931 0 -0.025396365221263924 0.0021401081443273608 0 -0.025501179073533772 0.0012115586555939222 0 -0.024999990193526778 0.00016516471352737754 0 -0.024999707627506085 0.0014900225941205931 0 -0.024999707627506085 0.0014900225941205931 0 -0.025396365221263924 0.0021401081443273608 0 -0.024999779745170769 0.002817680768003432 0 -0.025781337235542552 0.0023261341224546381 0 -0.025776913311933051 0.0018340935775850973 0 -0.025396365221263924 0.0021401081443273608 0 -0.025556860290039392 0.0032077694572746574 0 -0.025997693103452492 0.0030394021802335395 0 -0.025781337235542552 0.0023261341224546381 0 -0.025556860290039392 0.0032077694572746574 0 -0.025781337235542552 0.0023261341224546381 0 -0.025396365221263924 0.0021401081443273608 0 -0.025556860290039392 0.0032077694572746574 0 -0.025396365221263924 0.0021401081443273608 0 -0.024999779745170769 0.002817680768003432 0 -0.019673464914002351 0.0010273763000621251 0 -0.019562387119230668 0.0010827909607429979 0 -0.019633176703475291 0.0010383220177963373 0 -0.019673464914002351 0.0010273763000621251 0 -0.019703749930284245 0.0010911368771795848 0 -0.019562387119230668 0.0010827909607429979 0 -0.019673464914002351 0.0010273763000621251 0 -0.019703749930284245 0.0010911368771795848 0 -0.019765406088938019 0.00098360648086638766 0 -0.019703749930284245 0.0010911368771795848 0 -0.019765406088938019 0.00098360648086638766 0 -0.019880939105488941 0.0011045547773428901 0 -0.019703749930284245 0.0010911368771795848 0 -0.019880939105488941 0.0011045547773428901 0 -0.019712009943890392 0.0012145878575770602 0 -0.019703749930284245 0.0010911368771795848 0 -0.019562387119230668 0.0010827909607429979 0 -0.019712009943890392 0.0012145878575770602 0 -0.019562387119230668 0.0010827909607429979 0 -0.019599251052010283 0.0010274817497380208 0 -0.019418951108474945 0.001120668845856174 0 -0.019599251052010283 0.0010274817497380208 0 -0.01944750503994357 0.0011227127266164349 0 -0.019418951108474945 0.001120668845856174 0 -0.019562387119230668 0.0010827909607429979 0 -0.019599251052010283 0.0010274817497380208 0 -0.019633176703475291 0.0010383220177963373 0 -0.019599251052010283 0.0010274817497380208 0 -0.019633176703475291 0.0010383220177963373 0 -0.019693168000917229 0.0010836110839797805 0 -0.019633176703475291 0.0010383220177963373 0 -0.019693168000917229 0.0010836110839797805 0 -0.019679037692288608 0.0010086589063312578 0 -0.019693168000917229 0.0010836110839797805 0 -0.019829202316097871 0.0011896667625264621 0 -0.019814232184873104 0.0011167338725942837 0 -0.019599251052010283 0.0010274817497380208 0 -0.019693168000917229 0.0010836110839797805 0 -0.019814232184873104 0.0011167338725942837 0 -0.019769712442832276 0.0012082214499448205 0 -0.019693168000917229 0.0010836110839797805 0 -0.019829202316097871 0.0011896667625264621 0 -0.019769712442832276 0.0012082214499448205 0 -0.019693168000917229 0.0010836110839797805 0 -0.019679037692288608 0.0010086589063312578 0 -0.019654466382109041 0.0011780656924998795 0 -0.019769712442832276 0.0012082214499448205 0 -0.019679037692288608 0.0010086589063312578 0 -0.019673464914002351 0.0010273763000621251 0 -0.019633176703475291 0.0010383220177963373 0 -0.019679037692288608 0.0010086589063312578 0 -0.019679037692288608 0.0010086589063312578 0 -0.019765406088938019 0.00098360648086638766 0 -0.019785303521284776 0.00093263048515637487 0 -0.019673464914002351 0.0010273763000621251 0 -0.019679037692288608 0.0010086589063312578 0 -0.019765406088938019 0.00098360648086638766 0 -0.019674336682723149 0.0010041270873502332 0 -0.019654466382109041 0.0011780656924998795 0 -0.019679037692288608 0.0010086589063312578 0 -0.019674336682723149 0.0010041270873502332 0 -0.019679037692288608 0.0010086589063312578 0 -0.019785303521284776 0.00093263048515637487 0 -0.02000209027954275 0.00082778627943469604 0 -0.019785303521284776 0.00093263048515637487 0 -0.019949990121538655 0.00083044223518317667 0 -0.019674336682723149 0.0010041270873502332 0 -0.02000209027954275 0.00082778627943469604 0 -0.019785303521284776 0.00093263048515637487 0 -0.02000209027954275 0.00082778627943469604 0 -0.019949990121538655 0.00083044223518317667 0 -0.020636422097747742 0.00099210099413998896 0 -0.020024689338026966 0.00079187473724606663 0 -0.020776031835950889 0.0004796900948092638 0 -0.020118510903010721 0.00091090392933627245 0 -0.019949990121538655 0.00083044223518317667 0 -0.02049046479927092 0.00076172788008218011 0 -0.019949990121538655 0.00083044223518317667 0 -0.020872608747883575 -3.7958329903326464e-05 0 -0.02049046479927092 0.00076172788008218011 0 -0.020118510903010721 0.00091090392933627245 0 -0.019914373982433578 0.00095416488934187908 0 -0.019949990121538655 0.00083044223518317667 0 -0.019765406088938019 0.00098360648086638766 0 -0.019914373982433578 0.00095416488934187908 0 -0.019785303521284776 0.00093263048515637487 0 -0.019914373982433578 0.00095416488934187908 0 -0.019785303521284776 0.00093263048515637487 0 -0.019949990121538655 0.00083044223518317667 0 -0.021849145579763252 0.00014404776217679031 0 -0.020776031835950889 0.0004796900948092638 0 -0.022186385106135083 -0.00042965334814757642 0 -0.020872608747883575 -3.7958329903326464e-05 0 -0.021569895338358781 0.00039565114458781032 0 -0.020872608747883575 -3.7958329903326464e-05 0 -0.02049046479927092 0.00076172788008218011 0 -0.020989227361516385 0.00054535177726308345 0 -0.02049046479927092 0.00076172788008218011 0 -0.020989227361516385 0.00054535177726308345 0 -0.021023381007288088 0.00096838581938473106 0 -0.020872608747883575 -3.7958329903326464e-05 0 -0.020989227361516385 0.00054535177726308345 0 -0.021569895338358781 0.00039565114458781032 0 -0.020989227361516385 0.00054535177726308345 0 -0.021569895338358781 0.00039565114458781032 0 -0.021023381007288088 0.00096838581938473106 0 -0.021805692546302779 0.00092032280317099575 0 -0.021569895338358781 0.00039565114458781032 0 -0.021023381007288088 0.00096838581938473106 0 -0.021805692546302779 0.00092032280317099575 0 -0.021023381007288088 0.00096838581938473106 0 -0.021377941510892937 0.0012882331041023474 0 -0.02049046479927092 0.00076172788008218011 0 -0.021023381007288088 0.00096838581938473106 0 -0.020449255247967913 0.0011223058266349544 0 -0.021023381007288088 0.00096838581938473106 0 -0.020877418527108015 0.001322218871249234 0 -0.020449255247967913 0.0011223058266349544 0 -0.020480589682178741 0.0012828610144846209 0 -0.020877418527108015 0.001322218871249234 0 -0.020449255247967913 0.0011223058266349544 0 -0.020480589682178741 0.0012828610144846209 0 -0.020877418527108015 0.001322218871249234 0 -0.020596752635384668 0.0014095949110666515 0 -0.020480589682178741 0.0012828610144846209 0 -0.02034611334156881 0.0013378691306490263 0 -0.020596752635384668 0.0014095949110666515 0 -0.021023381007288088 0.00096838581938473106 0 -0.020877418527108015 0.001322218871249234 0 -0.021377941510892937 0.0012882331041023474 0 -0.020877418527108015 0.001322218871249234 0 -0.021267513231465543 0.001476287010913576 0 -0.021377941510892937 0.0012882331041023474 0 -0.019765406088938019 0.00098360648086638766 0 -0.019914373982433578 0.00095416488934187908 0 -0.019880939105488941 0.0011045547773428901 0 -0.019914373982433578 0.00095416488934187908 0 -0.02004458449166913 0.0010663720971185993 0 -0.019880939105488941 0.0011045547773428901 0 -0.020118510903010721 0.00091090392933627245 0 -0.019914373982433578 0.00095416488934187908 0 -0.02004458449166913 0.0010663720971185993 0 -0.020118510903010721 0.00091090392933627245 0 -0.02004458449166913 0.0010663720971185993 0 -0.020449255247967913 0.0011223058266349544 0 -0.020118510903010721 0.00091090392933627245 0 -0.02049046479927092 0.00076172788008218011 0 -0.020449255247967913 0.0011223058266349544 0 -0.02004458449166913 0.0010663720971185993 0 -0.020449255247967913 0.0011223058266349544 0 -0.02018948972040192 0.0012078816145400053 0 -0.020480589682178741 0.0012828610144846209 0 -0.020449255247967913 0.0011223058266349544 0 -0.02018948972040192 0.0012078816145400053 0 -0.020480589682178741 0.0012828610144846209 0 -0.02018948972040192 0.0012078816145400053 0 -0.02034611334156881 0.0013378691306490263 0 -0.02018948972040192 0.0012078816145400053 0 -0.02014964356314166 0.0013500190608089968 0 -0.02034611334156881 0.0013378691306490263 0 -0.02018948972040192 0.0012078816145400053 0 -0.019880939105488941 0.0011045547773428901 0 -0.019975542904354306 0.0012504781114119985 0 -0.02018948972040192 0.0012078816145400053 0 -0.019975542904354306 0.0012504781114119985 0 -0.02014964356314166 0.0013500190608089968 0 -0.02004458449166913 0.0010663720971185993 0 -0.02018948972040192 0.0012078816145400053 0 -0.019880939105488941 0.0011045547773428901 0 -0.019880939105488941 0.0011045547773428901 0 -0.019975542904354306 0.0012504781114119985 0 -0.019712009943890392 0.0012145878575770602 0 -0.019969307853203885 0.0013653155535836097 0 -0.019975542904354306 0.0012504781114119985 0 -0.019712009943890392 0.0012145878575770602 0 -0.019969307853203885 0.0013653155535836097 0 -0.02014964356314166 0.0013500190608089968 0 -0.020167068569721624 0.0014806300124002071 0 -0.019969307853203885 0.0013653155535836097 0 -0.019975542904354306 0.0012504781114119985 0 -0.02014964356314166 0.0013500190608089968 0 -0.02014964356314166 0.0013500190608089968 0 -0.02034611334156881 0.0013378691306490263 0 -0.020348843778236023 0.0014444089958052747 0 -0.02034611334156881 0.0013378691306490263 0 -0.020348843778236023 0.0014444089958052747 0 -0.020596752635384668 0.0014095949110666515 0 -0.020348843778236023 0.0014444089958052747 0 -0.020329602152494849 0.0015403683776921489 0 -0.020548156061654287 0.0015266079245962567 0 -0.020348843778236023 0.0014444089958052747 0 -0.020167068569721624 0.0014806300124002071 0 -0.020329602152494849 0.0015403683776921489 0 -0.02014964356314166 0.0013500190608089968 0 -0.020348843778236023 0.0014444089958052747 0 -0.020167068569721624 0.0014806300124002071 0 -0.020167068569721624 0.0014806300124002071 0 -0.020192711952275295 0.0016349493527984531 0 -0.020023221302898693 0.0015064244396624641 0 -0.020167068569721624 0.0014806300124002071 0 -0.020329602152494849 0.0015403683776921489 0 -0.020192711952275295 0.0016349493527984531 0 -0.020329602152494849 0.0015403683776921489 0 -0.020192711952275295 0.0016349493527984531 0 -0.020353451881542004 0.0016502049222263707 0 -0.020192711952275295 0.0016349493527984531 0 -0.020353451881542004 0.0016502049222263707 0 -0.020219484576899101 0.0017400174697297557 0 -0.020192711952275295 0.0016349493527984531 0 -0.020023221302898693 0.0015064244396624641 0 -0.020053340699014561 0.0016289369248018381 0 -0.020023221302898693 0.0015064244396624641 0 -0.019912528807410988 0.0015376015427739586 0 -0.020053340699014561 0.0016289369248018381 0 -0.020023221302898693 0.0015064244396624641 0 -0.019912528807410988 0.0015376015427739586 0 -0.019832401546473494 0.0013987962907834552 0 -0.019969307853203885 0.0013653155535836097 0 -0.020023221302898693 0.0015064244396624641 0 -0.019832401546473494 0.0013987962907834552 0 -0.019969307853203885 0.0013653155535836097 0 -0.020167068569721624 0.0014806300124002071 0 -0.020023221302898693 0.0015064244396624641 0 -0.021426286380438395 0.0015712277685478184 0 -0.021267513231465543 0.001476287010913576 0 -0.020950928185468457 0.0015295826931183297 0 -0.021426286380438395 0.0015712277685478184 0 -0.020950928185468457 0.0015295826931183297 0 -0.021103206526285802 0.0016311954571814895 0 -0.020877418527108015 0.001322218871249234 0 -0.021267513231465543 0.001476287010913576 0 -0.020950928185468457 0.0015295826931183297 0 -0.020877418527108015 0.001322218871249234 0 -0.020950928185468457 0.0015295826931183297 0 -0.020596752635384668 0.0014095949110666515 0 -0.020950928185468457 0.0015295826931183297 0 -0.020596752635384668 0.0014095949110666515 0 -0.020548156061654287 0.0015266079245962567 0 -0.020348843778236023 0.0014444089958052747 0 -0.020596752635384668 0.0014095949110666515 0 -0.020548156061654287 0.0015266079245962567 0 -0.020645365311734578 0.0016286785197891019 0 -0.020793223745417051 0.00170729288204714 0 -0.02030855272420113 0.0017779829912257796 0 -0.020548156061654287 0.0015266079245962567 0 -0.020353451881542004 0.0016502049222263707 0 -0.020645365311734578 0.0016286785197891019 0 -0.020329602152494849 0.0015403683776921489 0 -0.020548156061654287 0.0015266079245962567 0 -0.020353451881542004 0.0016502049222263707 0 -0.020353451881542004 0.0016502049222263707 0 -0.020645365311734578 0.0016286785197891019 0 -0.02030855272420113 0.0017779829912257796 0 -0.020950928185468457 0.0015295826931183297 0 -0.020548156061654287 0.0015266079245962567 0 -0.020645365311734578 0.0016286785197891019 0 -0.020645365311734578 0.0016286785197891019 0 -0.021103206526285802 0.0016311954571814895 0 -0.020793223745417051 0.00170729288204714 0 -0.020950928185468457 0.0015295826931183297 0 -0.020645365311734578 0.0016286785197891019 0 -0.021103206526285802 0.0016311954571814895 0 -0.021232550376977695 0.0020077465314220443 0 -0.020793223745417051 0.00170729288204714 0 -0.020130998345136007 0.0018995548077864644 0 -0.020793223745417051 0.00170729288204714 0 -0.02030855272420113 0.0017779829912257796 0 -0.020130998345136007 0.0018995548077864644 0 -0.020353451881542004 0.0016502049222263707 0 -0.02030855272420113 0.0017779829912257796 0 -0.020219484576899101 0.0017400174697297557 0 -0.02030855272420113 0.0017779829912257796 0 -0.020202905827603247 0.0018404466654142887 0 -0.020130998345136007 0.0018995548077864644 0 -0.02030855272420113 0.0017779829912257796 0 -0.020202905827603247 0.0018404466654142887 0 -0.020209673812068202 0.0017995667024341422 0 -0.019906402356714887 0.0018397587283409047 0 -0.018097224450094953 0.0018066723459045358 0 -0.018095820440842531 0.0029894257376315474 0 -0.020130998345136007 0.0018995548077864644 0 -0.015802598575005957 0.0017235322588587787 0 -0.020578448862228121 0.0042485429336854156 0 -0.018095820440842531 0.0029894257376315474 0 -0.020130998345136007 0.0018995548077864644 0 -0.020202905827603247 0.0018404466654142887 0 -0.020130998345136007 0.0018995548077864644 0 -0.020196675241882397 0.0018272458858255287 0 -0.023755450634804047 -0.0020181657764909698 0 -0.02416034680097158 -0.0021053484677202891 0 -0.024031969206472548 -0.0024463505527469024 0 -0.022445696216693341 0.0013398357370140452 0 -0.022590177184501761 -0.00013963950788171742 0 -0.020578448862228121 0.0042485429336854156 0 -0.021232550376977695 0.0020077465314220443 0 -0.020130998345136007 0.0018995548077864644 0 -0.019921070023371623 0.0016350275869083174 0 -0.019807237447108567 0.0018089526095811316 0 -0.0197279831381739 0.0015224680481755097 0 -0.020073912394660359 0.0017318303856575677 0 -0.019921070023371623 0.0016350275869083174 0 -0.019807237447108567 0.0018089526095811316 0 -0.019912528807410988 0.0015376015427739586 0 -0.019921070023371623 0.0016350275869083174 0 -0.0197279831381739 0.0015224680481755097 0 -0.019912528807410988 0.0015376015427739586 0 -0.019921070023371623 0.0016350275869083174 0 -0.020053340699014561 0.0016289369248018381 0 -0.020073912394660359 0.0017318303856575677 0 -0.019921070023371623 0.0016350275869083174 0 -0.020053340699014561 0.0016289369248018381 0 -0.020192711952275295 0.0016349493527984531 0 -0.020141570446354246 0.0017006626178484197 0 -0.020219484576899101 0.0017400174697297557 0 -0.020073912394660359 0.0017318303856575677 0 -0.020053340699014561 0.0016289369248018381 0 -0.020141570446354246 0.0017006626178484197 0 -0.020192711952275295 0.0016349493527984531 0 -0.020053340699014561 0.0016289369248018381 0 -0.020141570446354246 0.0017006626178484197 0 -0.020141570446354246 0.0017006626178484197 0 -0.020219484576899101 0.0017400174697297557 0 -0.020172722249995088 0.0017648040103108368 0 -0.02030855272420113 0.0017779829912257796 0 -0.020219484576899101 0.0017400174697297557 0 -0.020209673812068202 0.0017995667024341422 0 -0.020209673812068202 0.0017995667024341422 0 -0.020172722249995088 0.0017648040103108368 0 -0.020196675241882397 0.0018272458858255287 0 -0.020202905827603247 0.0018404466654142887 0 -0.020209673812068202 0.0017995667024341422 0 -0.020196675241882397 0.0018272458858255287 0 -0.020219484576899101 0.0017400174697297557 0 -0.020209673812068202 0.0017995667024341422 0 -0.020172722249995088 0.0017648040103108368 0 -0.020073912394660359 0.0017318303856575677 0 -0.020172722249995088 0.0017648040103108368 0 -0.020196675241882397 0.0018272458858255287 0 -0.020073912394660359 0.0017318303856575677 0 -0.020141570446354246 0.0017006626178484197 0 -0.020172722249995088 0.0017648040103108368 0 -0.017633245351192522 0.0047711395782986596 0 -0.018095820440842531 0.0029894257376315474 0 -0.015749953796724062 0.0017470139297112567 0 -0.01620819089521441 0.0030404930231915498 0 -0.015702579009910709 0.0016689261371082582 0 -0.018095820440842531 0.0029894257376315474 0 -0.015802598575005957 0.0017235322588587787 0 -0.015749953796724062 0.0017470139297112567 0 -0.020073912394660359 0.0017318303856575677 0 -0.020196675241882397 0.0018272458858255287 0 -0.019807237447108567 0.0018089526095811316 0 -0.015802598575005957 0.0017235322588587787 0 -0.015749953796724062 0.0017470139297112567 0 -0.016330386868900454 0.0016474516085898396 0 -0.018097224450094953 0.0018066723459045358 0 -0.018069008021986729 0.0017243019342490715 0 -0.015781868016684488 0.0007925534430723583 0 -0.015749953796724062 0.0017470139297112567 0 -0.016330386868900454 0.0016474516085898396 0 -0.018069008021986729 0.0017243019342490715 0 -0.018468654411102917 0.0016183101629076867 0 -0.016817423628019641 0.00071874577643457713 0 -0.016330386868900454 0.0016474516085898396 0 -0.017564064506629746 0.0016045488679399035 0 -0.019807237447108567 0.0018089526095811316 0 -0.019345447753628175 0.0016626339555381744 0 -0.0197279831381739 0.0015224680481755097 0 -0.019345447753628175 0.0016626339555381744 0 -0.01946586634115197 0.0013595798560069035 0 -0.0197279831381739 0.0015224680481755097 0 -0.019345447753628175 0.0016626339555381744 0 -0.01946586634115197 0.0013595798560069035 0 -0.019049619651477702 0.0011332614570679809 0 -0.0197279831381739 0.0015224680481755097 0 -0.019832401546473494 0.0013987962907834552 0 -0.019629729081850334 0.0013179392755624387 0 -0.019912528807410988 0.0015376015427739586 0 -0.0197279831381739 0.0015224680481755097 0 -0.019832401546473494 0.0013987962907834552 0 -0.01946586634115197 0.0013595798560069035 0 -0.0197279831381739 0.0015224680481755097 0 -0.019629729081850334 0.0013179392755624387 0 -0.01946586634115197 0.0013595798560069035 0 -0.019458279833883825 0.0011887379581731129 0 -0.019049619651477702 0.0011332614570679809 0 -0.01946586634115197 0.0013595798560069035 0 -0.019629729081850334 0.0013179392755624387 0 -0.019458279833883825 0.0011887379581731129 0 -0.019562387119230668 0.0010827909607429979 0 -0.019458279833883825 0.0011887379581731129 0 -0.019712009943890392 0.0012145878575770602 0 -0.019629729081850334 0.0013179392755624387 0 -0.019458279833883825 0.0011887379581731129 0 -0.019712009943890392 0.0012145878575770602 0 -0.019969307853203885 0.0013653155535836097 0 -0.019832401546473494 0.0013987962907834552 0 -0.019712009943890392 0.0012145878575770602 0 -0.019832401546473494 0.0013987962907834552 0 -0.019629729081850334 0.0013179392755624387 0 -0.019712009943890392 0.0012145878575770602 0 -0.01944750503994357 0.0011227127266164349 0 -0.019418951108474945 0.001120668845856174 0 -0.019049619651477702 0.0011332614570679809 0 -0.019562387119230668 0.0010827909607429979 0 -0.019458279833883825 0.0011887379581731129 0 -0.019418951108474945 0.001120668845856174 0 -0.019458279833883825 0.0011887379581731129 0 -0.019418951108474945 0.001120668845856174 0 -0.019049619651477702 0.0011332614570679809 0 -0.019014719810656184 0.00067204207695547614 0 -0.019077145854721738 0.0011780047379346742 0 -0.018551583782057866 0.00047075970621241099 0 -0.019049619651477702 0.0011332614570679809 0 -0.018249316920514683 0.0009618083422162037 0 -0.019049619651477702 0.0011332614570679809 0 -0.018577608769331941 0.0012803412526610882 0 -0.018249316920514683 0.0009618083422162037 0 -0.019049619651477702 0.0011332614570679809 0 -0.018672655129823589 0.0014556707097662413 0 -0.018577608769331941 0.0012803412526610882 0 -0.019345447753628175 0.0016626339555381744 0 -0.019049619651477702 0.0011332614570679809 0 -0.018672655129823589 0.0014556707097662413 0 -0.018468654411102917 0.0016183101629076867 0 -0.018673887745030784 0.0014912630894225688 0 -0.018577193226136584 0.0013330480154517452 0 -0.018672655129823589 0.0014556707097662413 0 -0.018577608769331941 0.0012803412526610882 0 -0.018577193226136584 0.0013330480154517452 0 -0.018577608769331941 0.0012803412526610882 0 -0.018277114078226714 0.0012524232864556167 0 -0.017792513029045453 0.0015037397175207974 0 -0.018277114078226714 0.0012524232864556167 0 -0.017749094399779421 0.0011362561209521305 0 -0.018277114078226714 0.0012524232864556167 0 -0.017749094399779421 0.0011362561209521305 0 -0.018249316920514683 0.0009618083422162037 0 -0.017749094399779421 0.0011362561209521305 0 -0.017617665575025806 0.00082923562202191564 0 -0.018249316920514683 0.0009618083422162037 0 -0.018577608769331941 0.0012803412526610882 0 -0.018277114078226714 0.0012524232864556167 0 -0.018249316920514683 0.0009618083422162037 0 -0.017123531806820413 0.0012947439993211886 0 -0.017792513029045453 0.0015037397175207974 0 -0.017749094399779421 0.0011362561209521305 0 -0.017123531806820413 0.0012947439993211886 0 -0.017749094399779421 0.0011362561209521305 0 -0.017176206076952683 0.00093677408314211019 0 -0.017749094399779421 0.0011362561209521305 0 -0.017176206076952683 0.00093677408314211019 0 -0.017617665575025806 0.00082923562202191564 0 -0.017176206076952683 0.00093677408314211019 0 -0.017206349724124256 0.00076170156353273788 0 -0.017617665575025806 0.00082923562202191564 0 -0.017206349724124256 0.00076170156353273788 0 -0.017617665575025806 0.00082923562202191564 0 -0.017446768032831218 0.00052236399582949425 0 -0.017617665575025806 0.00082923562202191564 0 -0.017446768032831218 0.00052236399582949425 0 -0.017980058639686752 0.00045104136364650566 0 -0.017206349724124256 0.00076170156353273788 0 -0.017446768032831218 0.00052236399582949425 0 -0.017027970321776751 0.0006377300782300549 0 -0.017617665575025806 0.00082923562202191564 0 -0.018249316920514683 0.0009618083422162037 0 -0.017980058639686752 0.00045104136364650566 0 -0.018551583782057866 0.00047075970621241099 0 -0.018249316920514683 0.0009618083422162037 0 -0.017980058639686752 0.00045104136364650566 0 -0.018551583782057866 0.00047075970621241099 0 -0.017980058639686752 0.00045104136364650566 0 -0.018132739283610824 -2.7767207639927269e-05 0 -0.019599251052010283 0.0010274817497380208 0 -0.01944750503994357 0.0011227127266164349 0 -0.019439839926858226 0.0010298441179159173 0 -0.019014719810656184 0.00067204207695547614 0 -0.018483872663830964 0.001238732514346352 0 -0.019599251052010283 0.0010274817497380208 0 -0.019876642701962675 0.0009658179938165127 0 -0.019814232184873104 0.0011167338725942837 0 -0.020082879297416006 0.00094492860064217309 0 -0.018483872663830964 0.001238732514346352 0 -0.016805007737585718 0.0026055956386413157 0 -0.016159753027877623 0.0026880256906730328 0 -0.016475022817147151 0.0021467054784365825 0 -0.019876642701962675 0.0009658179938165127 0 -0.019814232184873104 0.0011167338725942837 0 -0.019965472054775044 0.0011049299681134446 0 -0.018483872663830964 0.001238732514346352 0 -0.016952714761971369 0.0013593943427389369 0 -0.018483872663830964 0.001238732514346352 0 -0.018314835121909769 0.001746197006595517 0 -0.017980058639686752 0.00045104136364650566 0 -0.018132739283610824 -2.7767207639927269e-05 0 -0.017672533528455443 6.0098511368518879e-05 0 -0.015209141034818192 0.0018871207772383682 0 -0.016952714761971369 0.0013593943427389369 0 -0.017446768032831218 0.00052236399582949425 0 -0.017197777937675095 0.0002106750463498761 0 -0.017672533528455443 6.0098511368518879e-05 0 -0.017446768032831218 0.00052236399582949425 0 -0.017980058639686752 0.00045104136364650566 0 -0.017672533528455443 6.0098511368518879e-05 0 -0.017446768032831218 0.00052236399582949425 0 -0.017197777937675095 0.0002106750463498761 0 -0.017027970321776751 0.0006377300782300549 0 -0.01239039643759597 0.0016376396453805465 0 -0.011519406480452077 0.0033517199375377922 0 -0.013216755907040518 0.0028309656714693081 0 -0.015209141034818192 0.0018871207772383682 0 -0.013487339616589093 0.0029842030639030464 0 -0.016159753027877623 0.0026880256906730328 0 -0.015840458864755068 0.0022282977089223017 0 -0.016475022817147151 0.0021467054784365825 0 -0.015525295715560992 0.0027613224515297351 0 -0.016159753027877623 0.0026880256906730328 0 -0.015840458864755068 0.0022282977089223017 0 -0.011519406480452077 0.0033517199375377922 0 -0.011798844449096397 0.0047755321211634446 0 -0.010716990499961792 0.0049906521124769574 0 -0.013487339616589093 0.0029842030639030464 0 -0.014452929543247757 0.0032346532582562901 0 -0.015840458864755068 0.0022282977089223017 0 -0.01615077223758872 0.0017003005215329517 0 -0.016475022817147151 0.0021467054784365825 0 -0.011519406480452077 0.0033517199375377922 0 -0.012910155431201498 0.0042914861918739887 0 -0.013216755907040518 0.0028309656714693081 0 -0.011519406480452077 0.0033517199375377922 0 -0.011798844449096397 0.0047755321211634446 0 -0.012910155431201498 0.0042914861918739887 0 -0.011798844449096397 0.0047755321211634446 0 -0.012910155431201498 0.0042914861918739887 0 -0.012405105524510955 0.0057522517567809598 0 -0.012910155431201498 0.0042914861918739887 0 -0.012405105524510955 0.0057522517567809598 0 -0.013480745852503105 0.0055118382446190358 0 -0.011798844449096397 0.0047755321211634446 0 -0.012405105524510955 0.0057522517567809598 0 -0.011475902928336319 0.0059899878493147552 0 -0.012405105524510955 0.0057522517567809598 0 -0.013480745852503105 0.0055118382446190358 0 -0.01304952052299051 0.0067609347693806058 0 -0.010971539403205768 0.0051855872287093832 0 -0.011475902928336319 0.0059899878493147552 0 -0.010036209951178172 0.0070744831989799839 0 -0.014452929543247757 0.0032346532582562901 0 -0.012071941468368132 0.0052054502478439688 0 -0.011798844449096397 0.0047755321211634446 0 -0.010716990499961792 0.0049906521124769574 0 -0.011475902928336319 0.0059899878493147552 0 -0.020004324445175567 0.0012178655662133649 0 -0.019929496845079338 0.0012321033113150553 0 -0.020011872471527629 0.0013553352130757162 0 -0.020004324445175567 0.0012178655662133649 0 -0.019929496845079338 0.0012321033113150553 0 -0.019936904589174995 0.0011734502967516709 0 -0.014452929543247757 0.0032346532582562901 0 -0.015185220239654969 0.0041659928708036491 0 -0.019829202316097871 0.0011896667625264621 0 -0.019929496845079338 0.0012321033113150553 0 -0.019814232184873104 0.0011167338725942837 0 -0.019829202316097871 0.0011896667625264621 0 -0.019929496845079338 0.0012321033113150553 0 -0.01995553703301875 0.0013449820053751435 0 -0.019929496845079338 0.0012321033113150553 0 -0.019814232184873104 0.0011167338725942837 0 -0.019936904589174995 0.0011734502967516709 0 -0.019814232184873104 0.0011167338725942837 0 -0.019965472054775044 0.0011049299681134446 0 -0.019936904589174995 0.0011734502967516709 0 -0.020004324445175567 0.0012178655662133649 0 -0.019965472054775044 0.0011049299681134446 0 -0.019936904589174995 0.0011734502967516709 0 -0.014452929543247757 0.0032346532582562901 0 -0.018314835121909769 0.001746197006595517 0 -0.016195851305945762 0.0057619949585711663 0 -0.015698565773629464 0.0058937306755295401 0 -0.015936240150157471 0.0050798238471492455 0 -0.015431228221034245 0.0040828295255749504 0 -0.017195071103440915 0.0031950138579636559 0 -0.016206665873794612 0.0026968464818183631 0 -0.016466466444533954 0.004949989604082332 0 -0.015431228221034245 0.0040828295255749504 0 -0.017195071103440915 0.0031950138579636559 0 -0.016007800733673503 0.0054775976953892946 0 -0.014346179373216719 0.0028922679235517021 0 -0.012119805457460478 0.0040727371673836953 0 -0.014346179373216719 0.0028922679235517021 0 -0.016195851305945762 0.0057619949585711663 0 -0.016790994584703244 0.0054507101060930823 0 -0.015936240150157471 0.0050798238471492455 0 -0.016362307200981297 0.0066297003732929448 0 -0.017016999261923047 0.0063364588545445789 0 -0.017310044128443454 0.0071759288899749963 0 -0.016195851305945762 0.0057619949585711663 0 -0.016790994584703244 0.0054507101060930823 0 -0.016362307200981297 0.0066297003732929448 0 -0.012119805457460478 0.0040727371673836953 0 -0.017298807999352295 0.0067703144069526282 0 -0.016702913719227528 0.0056089870528168466 0 -0.016362307200981297 0.0066297003732929448 0 -0.017016999261923047 0.0063364588545445789 0 -0.016007800733673503 0.0054775976953892946 0 -0.015625450052430562 0.0063961078149344019 0 -0.016195851305945762 0.0057619949585711663 0 -0.016362307200981297 0.0066297003732929448 0 -0.015698565773629464 0.0058937306755295401 0 -0.016362307200981297 0.0066297003732929448 0 -0.015698565773629464 0.0058937306755295401 0 -0.015495846729189758 0.0065835254487803694 0 -0.016466466444533954 0.004949989604082332 0 -0.01482031118062256 0.0054295274303239587 0 -0.015495846729189758 0.0065835254487803694 0 -0.01482031118062256 0.0054295274303239587 0 -0.014005175702646184 0.0065242821440761054 0 -0.015495846729189758 0.0065835254487803694 0 -0.01482031118062256 0.0054295274303239587 0 -0.013480745852503105 0.0055118382446190358 0 -0.014208341730775606 0.0043149507510387448 0 -0.01482031118062256 0.0054295274303239587 0 -0.013480745852503105 0.0055118382446190358 0 -0.014005175702646184 0.0065242821440761054 0 -0.013480745852503105 0.0055118382446190358 0 -0.01304952052299051 0.0067609347693806058 0 -0.014005175702646184 0.0065242821440761054 0 -0.012910155431201498 0.0042914861918739887 0 -0.013480745852503105 0.0055118382446190358 0 -0.014208341730775606 0.0043149507510387448 0 -0.014208341730775606 0.0043149507510387448 0 -0.013759222710651347 0.003557626695193156 0 -0.014570432624239151 0.002832955323596818 0 -0.012910155431201498 0.0042914861918739887 0 -0.013759222710651347 0.003557626695193156 0 -0.013216755907040518 0.0028309656714693081 0 -0.012910155431201498 0.0042914861918739887 0 -0.014208341730775606 0.0043149507510387448 0 -0.013759222710651347 0.003557626695193156 0 -0.016466466444533954 0.004949989604082332 0 -0.01482031118062256 0.0054295274303239587 0 -0.015431228221034245 0.0040828295255749504 0 -0.01482031118062256 0.0054295274303239587 0 -0.014208341730775606 0.0043149507510387448 0 -0.015431228221034245 0.0040828295255749504 0 -0.014208341730775606 0.0043149507510387448 0 -0.015316994523729711 0.0031717586199223788 0 -0.014570432624239151 0.002832955323596818 0 -0.014208341730775606 0.0043149507510387448 0 -0.015431228221034245 0.0040828295255749504 0 -0.015316994523729711 0.0031717586199223788 0 -0.015431228221034245 0.0040828295255749504 0 -0.015316994523729711 0.0031717586199223788 0 -0.016206665873794612 0.0026968464818183631 0 -0.015316994523729711 0.0031717586199223788 0 -0.015431673412517086 0.0021669109487643125 0 -0.016206665873794612 0.0026968464818183631 0 -0.015431673412517086 0.0021669109487643125 0 -0.016289003122264455 0.0010639573280816993 0 -0.016206665873794612 0.0026968464818183631 0 -0.015316994523729711 0.0031717586199223788 0 -0.015431673412517086 0.0021669109487643125 0 -0.014570432624239151 0.002832955323596818 0 -0.015431673412517086 0.0021669109487643125 0 -0.014570432624239151 0.002832955323596818 0 -0.014200561123259172 0.0013045926602574915 0 -0.01239039643759597 0.0016376396453805465 0 -0.013216755907040518 0.0028309656714693081 0 -0.014200561123259172 0.0013045926602574915 0 -0.013759222710651347 0.003557626695193156 0 -0.013216755907040518 0.0028309656714693081 0 -0.014570432624239151 0.002832955323596818 0 -0.013216755907040518 0.0028309656714693081 0 -0.014570432624239151 0.002832955323596818 0 -0.014200561123259172 0.0013045926602574915 0 -0.017197777937675095 0.0002106750463498761 0 -0.016757476248143138 0.00046837476448585941 0 -0.017027970321776751 0.0006377300782300549 0 -0.015209141034818192 0.0018871207772383682 0 -0.015474456683984348 0.00089687561871524678 0 -0.015474456683984348 0.00089687561871524678 0 -0.016252070925449925 0.00098487753699851173 0 -0.015431673412517086 0.0021669109487643125 0 -0.014200561123259172 0.0013045926602574915 0 -0.016289003122264455 0.0010639573280816993 0 -0.016757476248143138 0.00046837476448585941 0 -0.016289003122264455 0.0010639573280816993 0 -0.016658388508738138 0.00075572154584002552 0 -0.016289003122264455 0.0010639573280816993 0 -0.016897769456151842 0.0028595836512311443 0 -0.017079247191292734 0.0009494501661029927 0 -0.016289003122264455 0.0010639573280816993 0 -0.017079247191292734 0.0009494501661029927 0 -0.01664456144356187 0.00074425871527216238 0 -0.016289003122264455 0.0010639573280816993 0 -0.016897769456151842 0.0028595836512311443 0 -0.016206665873794612 0.0026968464818183631 0 -0.014346179373216719 0.0028922679235517021 0 -0.012240259260533624 0.0019766213716286419 0 -0.014346179373216719 0.0028922679235517021 0 -0.016526214117155581 0.0032010545558661999 0 -0.0078451783442363802 0.0020971802547732291 0 -0.0083099077022228372 0.0022872126415413307 0 -0.0078892887054275388 0.0025151199859679511 0 -0.0083099077022228372 0.0022872126415413307 0 -0.0078892887054275388 0.0025151199859679511 0 -0.0079321443538781788 0.0030001416091021945 0 -0.0078451783442363802 0.0020971802547732291 0 -0.0078892887054275388 0.0025151199859679511 0 -0.0075119982714505372 0.00276493906595612 0 -0.0078892887054275388 0.0025151199859679511 0 -0.0079321443538781788 0.0030001416091021945 0 -0.0075119982714505372 0.00276493906595612 0 -0.017079247191292734 0.0009494501661029927 0 -0.016840525405979623 0.00075053440633335744 0 -0.016936831015817236 0.00072983661473517182 0 -0.012240259260533624 0.0019766213716286419 0 -0.012283910057329119 0.0021106483058730328 0 -0.017079247191292734 0.0009494501661029927 0 -0.01664456144356187 0.00074425871527216238 0 -0.016840525405979623 0.00075053440633335744 0 -0.01664456144356187 0.00074425871527216238 0 -0.016840525405979623 0.00075053440633335744 0 -0.016710398438232989 0.00066124795302259206 0 -0.016840525405979623 0.00075053440633335744 0 -0.016936831015817236 0.00072983661473517182 0 -0.016710398438232989 0.00066124795302259206 0 -0.017027970321776751 0.0006377300782300549 0 -0.016658388508738138 0.00075572154584002552 0 -0.016812813598829499 0.00076516425495745427 0 -0.016757476248143138 0.00046837476448585941 0 -0.017027970321776751 0.0006377300782300549 0 -0.016658388508738138 0.00075572154584002552 0 -0.016289003122264455 0.0010639573280816993 0 -0.01664456144356187 0.00074425871527216238 0 -0.016658388508738138 0.00075572154584002552 0 -0.01664456144356187 0.00074425871527216238 0 -0.016658388508738138 0.00075572154584002552 0 -0.016812813598829499 0.00076516425495745427 0 -0.01664456144356187 0.00074425871527216238 0 -0.016812813598829499 0.00076516425495745427 0 -0.016710398438232989 0.00066124795302259206 0 -0.017206349724124256 0.00076170156353273788 0 -0.017027970321776751 0.0006377300782300549 0 -0.016812813598829499 0.00076516425495745427 0 -0.017176206076952683 0.00093677408314211019 0 -0.017206349724124256 0.00076170156353273788 0 -0.016812813598829499 0.00076516425495745427 0 -0.017176206076952683 0.00093677408314211019 0 -0.016812813598829499 0.00076516425495745427 0 -0.016865562176466342 0.00086000797189076696 0 -0.016865562176466342 0.00086000797189076696 0 -0.016739168545765105 0.00085171958730094293 0 -0.016710398438232989 0.00066124795302259206 0 -0.016812813598829499 0.00076516425495745427 0 -0.016865562176466342 0.00086000797189076696 0 -0.016710398438232989 0.00066124795302259206 0 -0.016205443858096583 0.00019541040234044704 0 -0.016362454412269016 0.00021698233882590535 0 -0.017123531806820413 0.0012947439993211886 0 -0.016865562176466342 0.00086000797189076696 0 -0.016739168545765105 0.00085171958730094293 0 -0.017123531806820413 0.0012947439993211886 0 -0.017176206076952683 0.00093677408314211019 0 -0.016865562176466342 0.00086000797189076696 0 -0.016936831015817236 0.00072983661473517182 0 -0.016710398438232989 0.00066124795302259206 0 -0.016801563561784211 0.00027261971218207599 0 -0.016936831015817236 0.00072983661473517182 0 -0.016801563561784211 0.00027261971218207599 0 -0.017330292144293734 2.3996128535355128e-05 0 -0.016739168545765105 0.00085171958730094293 0 -0.016710398438232989 0.00066124795302259206 0 -0.016801563561784211 0.00027261971218207599 0 -0.016362454412269016 0.00021698233882590535 0 -0.016815673443037814 0.00029158237349267171 0 -0.016445466494705931 -0.00076881016662540323 0 -0.015883352475201874 -0.00043856339963868347 0 -0.016801563561784211 0.00027261971218207599 0 -0.016445466494705931 -0.00076881016662540323 0 -0.016801563561784211 0.00027261971218207599 0 -0.01691435625868146 -0.00035387500296066727 0 -0.016801563561784211 0.00027261971218207599 0 -0.01691435625868146 -0.00035387500296066727 0 -0.017330292144293734 2.3996128535355128e-05 0 -0.0070746637744202954 0.0036319236329501962 0 -0.0072740217488053132 0.0036152983723013407 0 -0.0070390891530138049 0.0035761272010009604 0 -0.0072740217488053132 0.0036152983723013407 0 -0.0072240273648886853 0.0035436223092256349 0 -0.0070390891530138049 0.0035761272010009604 0 -0.012283910057329119 0.0021106483058730328 0 -0.012334355744505785 0.0017680256327687607 0 -0.0075241640991437885 0.0035142567160622107 0 -0.0072740217488053132 0.0036152983723013407 0 -0.0072240273648886853 0.0035436223092256349 0 -0.0072240273648886853 0.0035436223092256349 0 -0.0070390891530138049 0.0035761272010009604 0 -0.0070921237885897097 0.0034833852069767858 0 -0.0070390891530138049 0.0035761272010009604 0 -0.0069535006516199061 0.0034839062458809108 0 -0.0068192099305253709 0.003554274590853669 0 -0.0068584547806731736 0.003638469678425303 0 -0.0070746637744202954 0.0036319236329501962 0 -0.0070390891530138049 0.0035761272010009604 0 -0.0068584547806731736 0.003638469678425303 0 -0.0070390891530138049 0.0035761272010009604 0 -0.0068192099305253709 0.003554274590853669 0 -0.0070921237885897097 0.0034833852069767858 0 -0.0069535006516199061 0.0034839062458809108 0 -0.0070726307905227019 0.0034317599989466068 0 -0.0070390891530138049 0.0035761272010009604 0 -0.0070921237885897097 0.0034833852069767858 0 -0.0069535006516199061 0.0034839062458809108 0 -0.0069535006516199061 0.0034839062458809108 0 -0.0068004344771717398 0.0034710975905712298 0 -0.0069334687524155829 0.0034345096515843642 0 -0.0069535006516199061 0.0034839062458809108 0 -0.0070726307905227019 0.0034317599989466068 0 -0.0069334687524155829 0.0034345096515843642 0 -0.0070921237885897097 0.0034833852069767858 0 -0.0070726307905227019 0.0034317599989466068 0 -0.0072159013227639105 0.0033890816122078798 0 -0.0070726307905227019 0.0034317599989466068 0 -0.0072159013227639105 0.0033890816122078798 0 -0.0071764511795447137 0.0034065995694964419 0 -0.0073928614539706785 0.0034000280640137603 0 -0.0067781324992112011 0.0029388729689686817 0 -0.0079321443538781788 0.0030001416091021945 0 -0.0075241640991437885 0.0035142567160622107 0 -0.0072159013227639105 0.0033890816122078798 0 -0.0075241640991437885 0.0035142567160622107 0 -0.0072240273648886853 0.0035436223092256349 0 -0.0072159013227639105 0.0033890816122078798 0 -0.0072240273648886853 0.0035436223092256349 0 -0.0070921237885897097 0.0034833852069767858 0 -0.0072159013227639105 0.0033890816122078798 0 0.013789482729011433 0.0051388448438297457 0 0.013549137653840615 0.0051894413487580749 0 0.013490139226393987 0.0051333671224280892 0 0.013789482729011433 0.0051388448438297457 0 0.013598528468516504 0.0052391764429831561 0 0.013549137653840615 0.0051894413487580749 0 0.013464292256641442 0.0052417087001653132 0 0.013598528468516504 0.0052391764429831561 0 0.013549137653840615 0.0051894413487580749 0 0.013464292256641442 0.0052417087001653132 0 0.013549137653840615 0.0051894413487580749 0 0.013406447670730405 0.0051817845793289173 0 0.013464292256641442 0.0052417087001653132 0 0.013341557765174681 0.0052494057732290498 0 0.013406447670730405 0.0051817845793289173 0 0.013549137653840615 0.0051894413487580749 0 0.013490139226393987 0.0051333671224280892 0 0.013406447670730405 0.0051817845793289173 0 0.013490139226393987 0.0051333671224280892 0 0.013406447670730405 0.0051817845793289173 0 0.013268508738684367 0.0051450903993275664 0 0.013124331245952959 0.0052515506665089546 0 0.013406447670730405 0.0051817845793289173 0 0.013268508738684367 0.0051450903993275664 0 0.013341557765174681 0.0052494057732290498 0 0.013124331245952959 0.0052515506665089546 0 0.013406447670730405 0.0051817845793289173 0 0.0031473494957177102 0.0042803998550706469 0 0.0032153290713959927 0.0044045761578428589 0 0.0032153290713959927 0.0044045761578428589 0 0.0033136445922028641 0.0042223168849992781 0 -0.0069535006516199061 0.0034839062458809108 0 -0.0068192099305253709 0.003554274590853669 0 -0.0068004344771717398 0.0034710975905712298 0 0.013490139226393987 0.0051333671224280892 0 0.013268508738684367 0.0051450903993275664 0 0.013393650093223502 0.0050842937407401508 0 0.013490139226393987 0.0051333671224280892 0 0.013393650093223502 0.0050842937407401508 0 0.013642634340249407 0.0051000622233702006 0 0.013393650093223502 0.0050842937407401508 0 0.013642634340249407 0.0051000622233702006 0 0.01358483849511595 0.005081364645901686 0 0.013789482729011433 0.0051388448438297457 0 0.013490139226393987 0.0051333671224280892 0 0.013642634340249407 0.0051000622233702006 0 0.013878006007622736 0.0050945522880822131 0 0.013642634340249407 0.0051000622233702006 0 0.01378389349665092 0.0050973133752583782 0 0.013642634340249407 0.0051000622233702006 0 0.01378389349665092 0.0050973133752583782 0 0.01358483849511595 0.005081364645901686 0 0.013726053127961104 0.0050870116171294688 0 0.01378389349665092 0.0050973133752583782 0 0.01358483849511595 0.005081364645901686 0 0.01358483849511595 0.005081364645901686 0 0.013471657523339668 0.0050619459197772847 0 0.013586407919082484 0.0050593297027471517 0 0.013726053127961104 0.0050870116171294688 0 0.01358483849511595 0.005081364645901686 0 0.013586407919082484 0.0050593297027471517 0 0.0033136445922028641 0.0042223168849992781 0 0.0032420397702403996 0.0044708499069016161 0 0.013393650093223502 0.0050842937407401508 0 0.01358483849511595 0.005081364645901686 0 0.013471657523339668 0.0050619459197772847 0 -0.0068004344771717398 0.0034710975905712298 0 -0.006785116619852905 0.0034402386298272359 0 -0.0069334687524155829 0.0034345096515843642 0 -0.006785116619852905 0.0034402386298272359 0 -0.0069334687524155829 0.0034345096515843642 0 -0.0069485172816509408 0.0034249792656547017 0 -0.006785116619852905 0.0034402386298272359 0 -0.0068632105838971396 0.0034222374452490844 0 -0.0069485172816509408 0.0034249792656547017 0 -0.0068632105838971396 0.0034222374452490844 0 -0.006740831342616097 0.0034283807833161736 0 -0.0068511167888416109 0.0033919641438591832 0 0.0032420397702403996 0.0044708499069016161 0 0.0039511066191717324 0.0033021759416526739 0 0.013471657523339668 0.0050619459197772847 0 0.013465547445942831 0.0050144960350368434 0 0.013586407919082484 0.0050593297027471517 0 -0.006785116619852905 0.0034402386298272359 0 -0.0068632105838971396 0.0034222374452490844 0 -0.006740831342616097 0.0034283807833161736 0 0.013465547445942831 0.0050144960350368434 0 0.013586407919082484 0.0050593297027471517 0 0.01368923101990418 0.0050477318850239766 0 0.013465547445942831 0.0050144960350368434 0 0.01368923101990418 0.0050477318850239766 0 0.013635198818144904 0.004989064143289596 0 0.013816812036296918 0.0050393593209424837 0 0.01368923101990418 0.0050477318850239766 0 0.013635198818144904 0.004989064143289596 0 0.013859133259682608 0.0050917535802464759 0 0.013726053127961104 0.0050870116171294688 0 0.01368923101990418 0.0050477318850239766 0 0.013726053127961104 0.0050870116171294688 0 0.013586407919082484 0.0050593297027471517 0 0.01368923101990418 0.0050477318850239766 0 0.013816812036296918 0.0050393593209424837 0 0.013859133259682608 0.0050917535802464759 0 0.01368923101990418 0.0050477318850239766 0 -0.0072107573187715221 0.0033794380040296215 0 -0.0072064299363887993 0.0033249171404101624 0 -0.0070589607034214864 0.0034043380286313666 0 -0.0071437252621489389 0.0029789126052345142 0 -0.0070177497965839197 0.0035387727992995787 0 -0.0072107573187715221 0.0033794380040296215 0 -0.0072064299363887993 0.0033249171404101624 0 -0.0072863630545059116 0.0033431187076722896 0 -0.012119805457460478 0.0040727371673836953 0 -0.0067781324992112011 0.0029388729689686817 0 -0.0072107573187715221 0.0033794380040296215 0 -0.0072863630545059116 0.0033431187076722896 0 -0.0072664582409876291 0.0034034711933580691 0 -0.0074290736202266431 0.003320951588471727 0 -0.0072863630545059116 0.0033431187076722896 0 -0.0072664582409876291 0.0034034711933580691 0 -0.0079321443538781788 0.0030001416091021945 0 -0.0072159013227639105 0.0033890816122078798 0 -0.0075119982714505372 0.00276493906595612 0 -0.0072159013227639105 0.0033890816122078798 0 -0.0072664582409876291 0.0034034711933580691 0 -0.0071764511795447137 0.0034065995694964419 0 -0.0072107573187715221 0.0033794380040296215 0 -0.0072664582409876291 0.0034034711933580691 0 -0.0071764511795447137 0.0034065995694964419 0 -0.0070726307905227019 0.0034317599989466068 0 -0.0071764511795447137 0.0034065995694964419 0 -0.0070589607034214864 0.0034043380286313666 0 -0.0072107573187715221 0.0033794380040296215 0 -0.0071764511795447137 0.0034065995694964419 0 -0.0070589607034214864 0.0034043380286313666 0 -0.0070726307905227019 0.0034317599989466068 0 -0.0070589607034214864 0.0034043380286313666 0 -0.0069334687524155829 0.0034345096515843642 0 -0.0070589607034214864 0.0034043380286313666 0 -0.0069334687524155829 0.0034345096515843642 0 -0.0069485172816509408 0.0034249792656547017 0 -0.0070346893065685945 0.0034370393465205738 0 -0.0070589607034214864 0.0034043380286313666 0 -0.0069485172816509408 0.0034249792656547017 0 -0.0070346893065685945 0.0034370393465205738 0 -0.0069485172816509408 0.0034249792656547017 0 -0.0069876516181681704 0.0034165141222698148 0 -0.0068632105838971396 0.0034222374452490844 0 -0.0069485172816509408 0.0034249792656547017 0 -0.0069876516181681704 0.0034165141222698148 0 -0.0068632105838971396 0.0034222374452490844 0 -0.0069876516181681704 0.0034165141222698148 0 -0.0068511167888416109 0.0033919641438591832 0 -0.0083294226190527582 0.0096587345822918714 0 -0.010478235096121922 0.0071940557486329061 0 -0.010586824504512629 0.015500857322379609 0 -0.011603497737351389 0.015851595974183511 0 -0.011493979236971185 0.015251634320849861 0 -0.0072064299363887993 0.0033249171404101624 0 -0.0072863630545059116 0.0033431187076722896 0 -0.0073174454919535722 0.0032861393416005482 0 -0.0070346893065685945 0.0034370393465205738 0 -0.0069876516181681704 0.0034165141222698148 0 -0.0070659244501289986 0.003440734628055928 0 -0.0071437252621489389 0.0029789126052345142 0 -0.010478235096121922 0.0071940557486329061 0 -0.016702913719227528 0.0056089870528168466 0 -0.017656485493963377 0.0060357106514866568 0 -0.017016999261923047 0.0063364588545445789 0 -0.012119805457460478 0.0040727371673836953 0 -0.010478235096121922 0.0071940557486329061 0 -0.0074290736202266431 0.003320951588471727 0 -0.0072863630545059116 0.0033431187076722896 0 -0.0073174454919535722 0.0032861393416005482 0 -0.011603497737351389 0.015851595974183511 0 -0.012112127883315565 0.015040356504612827 0 -0.011493979236971185 0.015251634320849861 0 -0.017656485493963377 0.0060357106514866568 0 -0.017016999261923047 0.0063364588545445789 0 -0.017310044128443454 0.0071759288899749963 0 -0.010478235096121922 0.0071940557486329061 0 -0.015103475646331785 0.011679982970461395 0 -0.012112127883315565 0.015040356504612827 0 -0.011833122010742391 0.014551658877594608 0 -0.011493979236971185 0.015251634320849861 0 -0.015103475646331785 0.011679982970461395 0 -0.014766542288866933 0.011359411082880582 0 -0.012112127883315565 0.015040356504612827 0 -0.011833122010742391 0.014551658877594608 0 -0.012756488451784538 0.014238054423301439 0 -0.011833122010742391 0.014551658877594608 0 -0.011658957738771665 0.013969204942563724 0 -0.012756488451784538 0.014238054423301439 0 -0.011833122010742391 0.014551658877594608 0 -0.011218179363010148 0.014739506694653799 0 -0.011658957738771665 0.013969204942563724 0 -0.011218179363010148 0.014739506694653799 0 -0.01081919700674653 0.014219746889986356 0 -0.011658957738771665 0.013969204942563724 0 -0.011833122010742391 0.014551658877594608 0 -0.011493979236971185 0.015251634320849861 0 -0.011218179363010148 0.014739506694653799 0 -0.010586824504512629 0.015500857322379609 0 -0.011493979236971185 0.015251634320849861 0 -0.011218179363010148 0.014739506694653799 0 -0.010586824504512629 0.015500857322379609 0 -0.011218179363010148 0.014739506694653799 0 -0.010468917330651917 0.014624620481582494 0 -0.010586824504512629 0.015500857322379609 0 -0.0099604533189150638 0.014731571902146169 0 -0.010468917330651917 0.014624620481582494 0 -0.010586824504512629 0.015500857322379609 0 -0.0099604533189150638 0.014731571902146169 0 -0.0094594832661078383 0.015151255027899999 0 -0.0083294226190527582 0.0096587345822918714 0 -0.0096210742839696398 0.0096260471812550149 0 -0.0099604533189150638 0.014731571902146169 0 -0.010468917330651917 0.014624620481582494 0 -0.0099612677712003668 0.013944195808536217 0 -0.0099604533189150638 0.014731571902146169 0 -0.0099612677712003668 0.013944195808536217 0 -0.0091714935674036876 0.014341986688562154 0 -0.011218179363010148 0.014739506694653799 0 -0.01081919700674653 0.014219746889986356 0 -0.010468917330651917 0.014624620481582494 0 -0.01081919700674653 0.014219746889986356 0 -0.010468917330651917 0.014624620481582494 0 -0.0099612677712003668 0.013944195808536217 0 -0.01081919700674653 0.014219746889986356 0 -0.010623044571885242 0.013684704979091595 0 -0.0099612677712003668 0.013944195808536217 0 -0.01081919700674653 0.014219746889986356 0 -0.010623044571885242 0.013684704979091595 0 -0.01113781136084427 0.013598082803743555 0 -0.010623044571885242 0.013684704979091595 0 -0.010729195871715223 0.013228019277054878 0 -0.01113781136084427 0.013598082803743555 0 -0.0099612677712003668 0.013944195808536217 0 -0.010219933844873543 0.01334448046933695 0 -0.0096910666597859289 0.013432774851606199 0 -0.010623044571885242 0.013684704979091595 0 -0.0099612677712003668 0.013944195808536217 0 -0.010219933844873543 0.01334448046933695 0 -0.010219933844873543 0.01334448046933695 0 -0.0099617977198247741 0.012958958830545569 0 -0.0096910666597859289 0.013432774851606199 0 -0.010219933844873543 0.01334448046933695 0 -0.0099617977198247741 0.012958958830545569 0 -0.010368151854986749 0.012881210671301487 0 -0.010623044571885242 0.013684704979091595 0 -0.010219933844873543 0.01334448046933695 0 -0.010729195871715223 0.013228019277054878 0 -0.010219933844873543 0.01334448046933695 0 -0.010729195871715223 0.013228019277054878 0 -0.010368151854986749 0.012881210671301487 0 -0.010729195871715223 0.013228019277054878 0 -0.010773946617052707 0.012878767850811398 0 -0.0112059592802517 0.013066534721329256 0 -0.010729195871715223 0.013228019277054878 0 -0.010368151854986749 0.012881210671301487 0 -0.010773946617052707 0.012878767850811398 0 -0.010773946617052707 0.012878767850811398 0 -0.0112059592802517 0.013066534721329256 0 -0.011091696610230409 0.012631845841621513 0 -0.010729195871715223 0.013228019277054878 0 -0.0112059592802517 0.013066534721329256 0 -0.01113781136084427 0.013598082803743555 0 -0.0112059592802517 0.013066534721329256 0 -0.011883427961727928 0.013340243016883772 0 -0.01113781136084427 0.013598082803743555 0 -0.0112059592802517 0.013066534721329256 0 -0.011883427961727928 0.013340243016883772 0 -0.011583099656158094 0.012803454550070021 0 -0.011883427961727928 0.013340243016883772 0 -0.012188241757697862 0.012584884175476848 0 -0.011583099656158094 0.012803454550070021 0 -0.011883427961727928 0.013340243016883772 0 -0.012188241757697862 0.012584884175476848 0 -0.012733255788174443 0.013085715742928751 0 -0.011883427961727928 0.013340243016883772 0 -0.012756488451784538 0.014238054423301439 0 -0.012733255788174443 0.013085715742928751 0 -0.011883427961727928 0.013340243016883772 0 -0.011658957738771665 0.013969204942563724 0 -0.012756488451784538 0.014238054423301439 0 -0.01081919700674653 0.014219746889986356 0 -0.011658957738771665 0.013969204942563724 0 -0.01113781136084427 0.013598082803743555 0 -0.011883427961727928 0.013340243016883772 0 -0.011658957738771665 0.013969204942563724 0 -0.01113781136084427 0.013598082803743555 0 0.011455153028174797 0.0082941553843959258 0 0.010835316016377185 0.008100446865936705 0 0.013819631496777514 0.004730713177727967 0 0.01372774444295906 0.0048471874950524168 0 0.013544989726333685 0.0048193796278556402 0 0.01372774444295906 0.0048471874950524168 0 0.013642686539626867 0.0049163131609504772 0 0.013544989726333685 0.0048193796278556402 0 0.013834971644358273 0.0048195831080482098 0 0.013803680367038235 0.0049351348068831253 0 0.01372774444295906 0.0048471874950524168 0 0.013803680367038235 0.0049351348068831253 0 0.01372774444295906 0.0048471874950524168 0 0.013642686539626867 0.0049163131609504772 0 0.013816812036296918 0.0050393593209424837 0 0.013803680367038235 0.0049351348068831253 0 0.013635198818144904 0.004989064143289596 0 0.013803680367038235 0.0049351348068831253 0 0.013635198818144904 0.004989064143289596 0 0.013642686539626867 0.0049163131609504772 0 0.013635198818144904 0.004989064143289596 0 0.013642686539626867 0.0049163131609504772 0 0.013491022703569645 0.0049348691709782157 0 0.013465547445942831 0.0050144960350368434 0 0.013635198818144904 0.004989064143289596 0 0.013491022703569645 0.0049348691709782157 0 0.010835316016377185 0.008100446865936705 0 -0.00025728519536295406 0.0079286784165814393 0 0.0045487889214068291 0.010048143797954741 0 0.0048621682175488011 0.009888667421373315 0 0.0047596917699306704 0.010558967478462715 0 0.013491022703569645 0.0049348691709782157 0 0.013439939257660795 0.0049807592275722947 0 0.01342756188321852 0.0049375441077787255 0 0.013336518911141036 0.0042820981199434014 0 0.010835316016377185 0.008100446865936705 0 0.013642686539626867 0.0049163131609504772 0 0.013491022703569645 0.0049348691709782157 0 0.013544989726333685 0.0048193796278556402 0 -0.0080083103479284962 0.013460773755070073 0 -0.007557540457091512 0.014543190994091499 0 -0.0071232960106292079 0.01255074966931796 0 -0.00025728519536295406 0.0079286784165814393 0 -0.001654467795474551 0.012348962020510258 0 -0.0080083103479284962 0.013460773755070073 0 -0.007557540457091512 0.014543190994091499 0 -0.0091714935674036876 0.014341986688562154 0 0.0039511066191717324 0.0033021759416526739 0 -0.00025728519536295406 0.0079286784165814393 0 -0.006740831342616097 0.0034283807833161736 0 -0.0066694140060107963 0.0033888608892899551 0 -0.0068511167888416109 0.0033919641438591832 0 0.013465547445942831 0.0050144960350368434 0 0.013491022703569645 0.0049348691709782157 0 0.01342756188321852 0.0049375441077787255 0 -0.00025728519536295406 0.0079286784165814393 0 -0.0096210742839696398 0.0096260471812550149 0 -0.007557540457091512 0.014543190994091499 0 -0.0094594832661078383 0.015151255027899999 0 -0.0091714935674036876 0.014341986688562154 0 -0.0099604533189150638 0.014731571902146169 0 -0.0094594832661078383 0.015151255027899999 0 -0.0091714935674036876 0.014341986688562154 0 -0.0099612677712003668 0.013944195808536217 0 -0.0091714935674036876 0.014341986688562154 0 -0.0093871498663239718 0.013764406596588463 0 -0.0091258334400641308 0.014301607669937171 0 -0.0087186396581107987 0.012883084513409826 0 -0.0091714935674036876 0.014341986688562154 0 -0.0093871498663239718 0.013764406596588463 0 -0.0089870983745511061 0.013530723546605516 0 -0.0099612677712003668 0.013944195808536217 0 -0.0093871498663239718 0.013764406596588463 0 -0.0096910666597859289 0.013432774851606199 0 -0.0093871498663239718 0.013764406596588463 0 -0.0093504265685980543 0.01346025954427961 0 -0.0089870983745511061 0.013530723546605516 0 -0.0093871498663239718 0.013764406596588463 0 -0.0093504265685980543 0.01346025954427961 0 -0.0096910666597859289 0.013432774851606199 0 -0.0093504265685980543 0.01346025954427961 0 -0.0096910666597859289 0.013432774851606199 0 -0.0093565176498841621 0.013108009798815507 0 -0.0099617977198247741 0.012958958830545569 0 -0.0096910666597859289 0.013432774851606199 0 -0.0093565176498841621 0.013108009798815507 0 -0.0099617977198247741 0.012958958830545569 0 -0.0093565176498841621 0.013108009798815507 0 -0.0098583333938852043 0.012595428752597634 0 -0.0093504265685980543 0.01346025954427961 0 -0.0093565176498841621 0.013108009798815507 0 -0.0089870983745511061 0.013530723546605516 0 -0.0093565176498841621 0.013108009798815507 0 -0.0089870983745511061 0.013530723546605516 0 -0.0085755970568902225 0.012676437430952587 0 -0.0081813476588986703 0.012394843673069009 0 -0.0071232960106292079 0.01255074966931796 0 -0.0071637992881495739 0.010501083941574577 0 -0.0087186396581107987 0.012883084513409826 0 -0.0066606208564849714 0.012355676210281301 0 -0.0080083103479284962 0.013460773755070073 0 -0.0081813476588986703 0.012394843673069009 0 -0.0071232960106292079 0.01255074966931796 0 -0.0080083103479284962 0.013460773755070073 0 -0.0091714935674036876 0.014341986688562154 0 -0.0081813476588986703 0.012394843673069009 0 0.0045487889214068291 0.010048143797954741 0 0.0047596917699306704 0.010558967478462715 0 0.0043376107418261521 0.010601142343380802 0 0.0047596917699306704 0.010558967478462715 0 0.0043376107418261521 0.010601142343380802 0 0.0046587411661540472 0.011146417626655181 0 -0.0071232960106292079 0.01255074966931796 0 -0.0067285366466423328 0.010550170086239633 0 -0.0071637992881495739 0.010501083941574577 0 -0.001654467795474551 0.012348962020510258 0 0.0016946413311582597 0.011519955278794349 0 0.0043376107418261521 0.010601142343380802 0 0.0041556572864601907 0.011079742479561686 0 0.0046587411661540472 0.011146417626655181 0 0.0062955486363348561 0.011818529870575823 0 0.008246642683336549 0.011737491620746677 0 0.0091379275859269447 0.011838893855775528 0 0.0094880948217192698 0.011732920073605586 0 0.0092784404253776591 0.012115056989270572 0 0.010835316016377185 0.008100446865936705 0 0.0062955486363348561 0.011818529870575823 0 0.0091379275859269447 0.011838893855775528 0 0.0092171881809266984 0.011511089449349881 0 0.0094880948217192698 0.011732920073605586 0 0.0092171881809266984 0.011511089449349881 0 0.0097242219301199757 0.011224989707487303 0 0.0094880948217192698 0.011732920073605586 0 0.0087198508194360515 0.012052759961588838 0 0.0083021435907841227 0.012280707978072177 0 0.0084121659348821015 0.011936621976870411 0 0.0083021435907841227 0.012280707978072177 0 0.0080678960625377612 0.012098522083268972 0 0.0084121659348821015 0.011936621976870411 0 0.0083021435907841227 0.012280707978072177 0 0.0081117410398763214 0.012488882254373173 0 0.0079247797381154315 0.012277475417977243 0 0.0084239699189896395 0.012741461029996981 0 0.0081117410398763214 0.012488882254373173 0 0.0078082664859321976 0.012672179961151586 0 0.0083021435907841227 0.012280707978072177 0 0.0084239699189896395 0.012741461029996981 0 0.0081117410398763214 0.012488882254373173 0 0.008246642683336549 0.011737491620746677 0 0.0016946413311582597 0.011519955278794349 0 0.0016946413311582597 0.011519955278794349 0 0.0010429779660428278 0.012399869576998224 0 -0.0096204562555729529 0.012621941914206446 0 -0.0095660550643667432 0.01249095545492755 0 -0.0096932489071960594 0.012517779620331546 0 -0.00087541570524453968 0.011621268350865195 0 -0.00077764889691806503 0.011633368730904009 0 -0.00090207991538046844 0.011980060554814369 0 0.0081117410398763214 0.012488882254373173 0 0.0078082664859321976 0.012672179961151586 0 0.0079247797381154315 0.012277475417977243 0 -0.0066606208564849714 0.012355676210281301 0 0.0010429779660428278 0.012399869576998224 0 0.0016946413311582597 0.011519955278794349 0 -0.0066606208564849714 0.012355676210281301 0 0.0083021435907841227 0.012280707978072177 0 0.0079247797381154315 0.012277475417977243 0 0.0080678960625377612 0.012098522083268972 0 0.0010429779660428278 0.012399869576998224 0 0.0060419980338166984 0.010819128539592229 0 -0.0095660550643667432 0.01249095545492755 0 -0.0096932489071960594 0.012517779620331546 0 -0.0097075702589684461 0.01241750181679502 0 -0.0096932489071960594 0.012517779620331546 0 -0.0098315590021647008 0.012487194014118734 0 -0.0097075702589684461 0.01241750181679502 0 -0.0096932489071960594 0.012517779620331546 0 -0.0097678140520003984 0.012606134463478495 0 -0.0098315590021647008 0.012487194014118734 0 -0.0096204562555729529 0.012621941914206446 0 -0.0096932489071960594 0.012517779620331546 0 -0.0097678140520003984 0.012606134463478495 0 -0.0093565176498841621 0.013108009798815507 0 -0.0085755970568902225 0.012676437430952587 0 -0.0091727543978768721 0.012612354691433366 0 -0.0066606208564849714 0.012355676210281301 0 -0.0098565765149773322 0.012553519815840068 0 -0.0093565176498841621 0.013108009798815507 0 -0.0091727543978768721 0.012612354691433366 0 -0.0098583333938852043 0.012595428752597634 0 -0.0097678140520003984 0.012606134463478495 0 -0.0098583333938852043 0.012595428752597634 0 -0.0098315590021647008 0.012487194014118734 0 -0.0098565765149773322 0.012553519815840068 0 -0.0096823972847460034 0.012603435815177075 0 -0.0098315590021647008 0.012487194014118734 0 -0.0098527099580976232 0.012364905155577848 0 -0.010070447847209656 0.012370910686973076 0 -0.0098583333938852043 0.012595428752597634 0 -0.0098315590021647008 0.012487194014118734 0 -0.010070447847209656 0.012370910686973076 0 -0.0098315590021647008 0.012487194014118734 0 -0.0098527099580976232 0.012364905155577848 0 -0.0097075702589684461 0.01241750181679502 0 -0.0099145172612951013 0.012311406684170464 0 -0.0098527099580976232 0.012364905155577848 0 -0.0097276678276388313 0.012341411045627176 0 -0.0099145172612951013 0.012311406684170464 0 -0.0098527099580976232 0.012364905155577848 0 -0.01003524886785752 0.01231059662783866 0 -0.0098527099580976232 0.012364905155577848 0 -0.0097276678276388313 0.012341411045627176 0 -0.0097075702589684461 0.01241750181679502 0 0.0010429779660428278 0.012399869576998224 0 -0.00095532643511973185 0.012147993579736014 0 -0.0097276678276388313 0.012341411045627176 0 -0.0097075702589684461 0.01241750181679502 0 -0.0095928914645913993 0.012365459971323654 0 0.0079188901699771084 0.012239180063198171 0 0.0080678960625377612 0.012098522083268972 0 0.0081628651070104526 0.011840831419444267 0 -0.0095660550643667432 0.01249095545492755 0 -0.0097075702589684461 0.01241750181679502 0 -0.0095928914645913993 0.012365459971323654 0 -0.00062497818363281847 0.011915582416870418 0 -0.00095532643511973185 0.012147993579736014 0 -0.0095960679534046727 0.012325515021611031 0 -0.0097276678276388313 0.012341411045627176 0 -0.0095928914645913993 0.012365459971323654 0 0.0085805627353502806 0.011761314226800931 0 0.0082675537669627316 0.011623603989685464 0 0.0081628651070104526 0.011840831419444267 0 0.0085805627353502806 0.011761314226800931 0 0.0081628651070104526 0.011840831419444267 0 0.0084121659348821015 0.011936621976870411 0 0.0080678960625377612 0.012098522083268972 0 0.0081628651070104526 0.011840831419444267 0 0.0084121659348821015 0.011936621976870411 0 -0.010583400187665282 0.012344694284638868 0 -0.010574736248266256 0.012341797768167321 0 -0.010298507569152519 0.012296224237886672 0 -0.011979753474312958 0.013690029868412241 0 -0.011407251506610627 0.014257197561990578 0 -0.011206404659564653 0.011935881074827924 0 -0.01102558293264405 0.01219435435072351 0 -0.010574736248266256 0.012341797768167321 0 -0.011979753474312958 0.013690029868412241 0 -0.010812259477935689 0.012988719320764246 0 -0.011206404659564653 0.011935881074827924 0 -0.012470062902867989 0.011550650777490339 0 -0.011573114969165738 0.012356639042867715 0 -0.011979753474312958 0.013690029868412241 0 -0.012695580554217132 0.013785629888098614 0 -0.012822585378402611 0.016099810457085376 0 -0.012961966820014551 0.015956064573951791 0 -0.012935193896889107 0.015969004136646106 0 -0.012470062902867989 0.011550650777490339 0 -0.012188241757697862 0.012584884175476848 0 -0.01324648514485929 0.012279393812432506 0 -0.012470062902867989 0.011550650777490339 0 -0.012188241757697862 0.012584884175476848 0 -0.011573114969165738 0.012356639042867715 0 -0.012188241757697862 0.012584884175476848 0 -0.011583099656158094 0.012803454550070021 0 -0.011573114969165738 0.012356639042867715 0 -0.011583099656158094 0.012803454550070021 0 -0.011573114969165738 0.012356639042867715 0 -0.011091696610230409 0.012631845841621513 0 -0.0112059592802517 0.013066534721329256 0 -0.011583099656158094 0.012803454550070021 0 -0.011091696610230409 0.012631845841621513 0 -0.011573114969165738 0.012356639042867715 0 -0.011238940881411157 0.012301057555266479 0 -0.011091696610230409 0.012631845841621513 0 -0.011206404659564653 0.011935881074827924 0 -0.011573114969165738 0.012356639042867715 0 -0.011238940881411157 0.012301057555266479 0 -0.010905990811604612 0.012407148472637705 0 -0.011091696610230409 0.012631845841621513 0 -0.01056344936619037 0.012583322249143145 0 -0.01102558293264405 0.01219435435072351 0 -0.010905990811604612 0.012407148472637705 0 -0.010574736248266256 0.012341797768167321 0 -0.011238940881411157 0.012301057555266479 0 -0.01102558293264405 0.01219435435072351 0 -0.010905990811604612 0.012407148472637705 0 -0.011206404659564653 0.011935881074827924 0 -0.011238940881411157 0.012301057555266479 0 -0.01102558293264405 0.01219435435072351 0 -0.011238940881411157 0.012301057555266479 0 -0.010905990811604612 0.012407148472637705 0 -0.011091696610230409 0.012631845841621513 0 -0.010368151854986749 0.012881210671301487 0 -0.010773946617052707 0.012878767850811398 0 -0.01056344936619037 0.012583322249143145 0 -0.010773946617052707 0.012878767850811398 0 -0.011091696610230409 0.012631845841621513 0 -0.01056344936619037 0.012583322249143145 0 -0.010368151854986749 0.012881210671301487 0 -0.01056344936619037 0.012583322249143145 0 -0.010188728686989685 0.012517835580083436 0 -0.01056344936619037 0.012583322249143145 0 -0.010188728686989685 0.012517835580083436 0 -0.010318470503333012 0.012359458072720587 0 -0.010905990811604612 0.012407148472637705 0 -0.01056344936619037 0.012583322249143145 0 -0.010574736248266256 0.012341797768167321 0 -0.01056344936619037 0.012583322249143145 0 -0.010574736248266256 0.012341797768167321 0 -0.010318470503333012 0.012359458072720587 0 -0.0099617977198247741 0.012958958830545569 0 -0.0098583333938852043 0.012595428752597634 0 -0.010188728686989685 0.012517835580083436 0 -0.0099617977198247741 0.012958958830545569 0 -0.010368151854986749 0.012881210671301487 0 -0.010188728686989685 0.012517835580083436 0 -0.0098583333938852043 0.012595428752597634 0 -0.010188728686989685 0.012517835580083436 0 -0.010070447847209656 0.012370910686973076 0 -0.010188728686989685 0.012517835580083436 0 -0.010070447847209656 0.012370910686973076 0 -0.010318470503333012 0.012359458072720587 0 -0.010574736248266256 0.012341797768167321 0 -0.010318470503333012 0.012359458072720587 0 -0.010298507569152519 0.012296224237886672 0 -0.010070447847209656 0.012370910686973076 0 -0.010318470503333012 0.012359458072720587 0 -0.010298507569152519 0.012296224237886672 0 -0.0098527099580976232 0.012364905155577848 0 -0.010070447847209656 0.012370910686973076 0 -0.01003524886785752 0.01231059662783866 0 -0.010070447847209656 0.012370910686973076 0 -0.010298507569152519 0.012296224237886672 0 -0.01003524886785752 0.01231059662783866 0 -0.010066273350423881 0.012283703566857632 0 -0.0099145172612951013 0.012311406684170464 0 -0.01003524886785752 0.01231059662783866 0 -0.010066273350423881 0.012283703566857632 0 -0.010298507569152519 0.012296224237886672 0 -0.01003524886785752 0.01231059662783866 0 -0.010983706858903312 0.013821958160367411 0 -0.011407251506610627 0.014257197561990578 0 -0.011907160999214225 0.015432539656742421 0 -0.012565057955417899 0.016035399806339924 0 -0.013223056599840594 0.015774562432274437 0 -0.012565057955417899 0.016035399806339924 0 -0.012935193896889107 0.015969004136646106 0 -0.013223056599840594 0.015774562432274437 0 -0.012822585378402611 0.016099810457085376 0 -0.012565057955417899 0.016035399806339924 0 -0.012935193896889107 0.015969004136646106 0 -0.012961966820014551 0.015956064573951791 0 -0.012935193896889107 0.015969004136646106 0 -0.012994130477924724 0.015867953246795401 0 -0.012935193896889107 0.015969004136646106 0 -0.013223056599840594 0.015774562432274437 0 -0.012994130477924724 0.015867953246795401 0 -0.013223056599840594 0.015774562432274437 0 -0.012753420755370665 0.015943899139138767 0 -0.012994130477924724 0.015867953246795401 0 -0.012753420755370665 0.015943899139138767 0 -0.01290392023343119 0.015809609296421986 0 -0.012767665459596985 0.015811311240294446 0 -0.01236327539432314 0.015899865614668298 0 -0.013229367168944782 0.013922865459441634 0 -0.012753420755370665 0.015943899139138767 0 -0.012994130477924724 0.015867953246795401 0 -0.01290392023343119 0.015809609296421986 0 -0.012470062902867989 0.011550650777490339 0 -0.013889883408071705 0.011351036736117148 0 -0.01324648514485929 0.012279393812432506 0 -0.012961966820014551 0.015956064573951791 0 -0.012994130477924724 0.015867953246795401 0 -0.01290392023343119 0.015809609296421986 0 -0.012695580554217132 0.013785629888098614 0 -0.013446887639666279 0.013596261225648708 0 -0.013889883408071705 0.011351036736117148 0 -0.014617160835914815 0.011901252071678256 0 -0.014587073804091613 0.011669636738158287 0 -0.013446887639666279 0.013596261225648708 0 -0.013229367168944782 0.013922865459441634 0 -0.013889883408071705 0.011351036736117148 0 -0.014617160835914815 0.011901252071678256 0 -0.01324648514485929 0.012279393812432506 0 -0.014617160835914815 0.011901252071678256 0 -0.01324648514485929 0.012279393812432506 0 -0.013598766275496013 0.013276022678967409 0 -0.014666997346042517 0.011863863260414182 0 -0.014770479147464108 0.011820087635810158 0 -0.012188241757697862 0.012584884175476848 0 -0.01324648514485929 0.012279393812432506 0 -0.012733255788174443 0.013085715742928751 0 -0.014163286570114458 0.011857156692290245 0 -0.012778268621130481 0.012059168319133496 0 -0.013217245866969974 0.010476338301936146 0 -0.014617160835914815 0.011901252071678256 0 -0.014163286570114458 0.011857156692290245 0 -0.014595394715213737 0.010599577091886527 0 -0.014337330746489751 0.011575336618755459 0 -0.013229367168944782 0.013922865459441634 0 -0.014617160835914815 0.011901252071678256 0 -0.014163286570114458 0.011857156692290245 0 -0.014587073804091613 0.011669636738158287 0 -0.014163286570114458 0.011857156692290245 0 -0.014953721471779882 0.013390478706726541 0 -0.013140059192859523 0.0138201560508695 0 -0.014163286570114458 0.011857156692290245 0 -0.013140059192859523 0.0138201560508695 0 -0.012778268621130481 0.012059168319133496 0 -0.010754195703830597 0.01455152594740816 0 -0.011244586519019609 0.015044993095953025 0 -0.010413287167648985 0.01518105281172363 0 -0.013229367168944782 0.013922865459441634 0 -0.011969354842772768 0.014184487247497053 0 -0.011670520255076446 0.01433964728324664 0 -0.010754195703830597 0.01455152594740816 0 -0.011244586519019609 0.015044993095953025 0 -0.012204217296172683 0.015383020331208972 0 -0.011670520255076446 0.01433964728324664 0 -0.011244586519019609 0.015044993095953025 0 -0.011098705469433567 0.015908376115446279 0 -0.012204217296172683 0.015383020331208972 0 -0.011244586519019609 0.015044993095953025 0 -0.011098705469433567 0.015908376115446279 0 -0.011244586519019609 0.015044993095953025 0 -0.010413287167648985 0.01518105281172363 0 -0.0098828269459883995 0.015512715455330226 0 -0.010284879999345001 0.01574441659995866 0 -0.010413287167648985 0.01518105281172363 0 -0.010413287167648985 0.01518105281172363 0 -0.0098188674097877786 0.015077435699655238 0 -0.0099496997279718384 0.014773156402055241 0 -0.0098828269459883995 0.015512715455330226 0 -0.010413287167648985 0.01518105281172363 0 -0.0098188674097877786 0.015077435699655238 0 -0.0098828269459883995 0.015512715455330226 0 -0.0098188674097877786 0.015077435699655238 0 -0.0095037780028376494 0.015297429060775138 0 -0.011415508644914229 0.014301603449531766 0 -0.0096004729513058124 0.014717365135849212 0 -0.010973669501847961 0.013542170480395665 0 -0.0098188674097877786 0.015077435699655238 0 -0.0099496997279718384 0.014773156402055241 0 -0.0096004729513058124 0.014717365135849212 0 -0.011415508644914229 0.014301603449531766 0 -0.012127514888036182 0.013288542630229347 0 -0.010973669501847961 0.013542170480395665 0 -0.013140059192859523 0.0138201560508695 0 -0.011415508644914229 0.014301603449531766 0 -0.012127514888036182 0.013288542630229347 0 -0.010754195703830597 0.01455152594740816 0 -0.010413287167648985 0.01518105281172363 0 -0.0099496997279718384 0.014773156402055241 0 -0.011969354842772768 0.014184487247497053 0 -0.010660429020562544 0.014526330764929145 0 -0.0090464076916382998 0.015442635405401146 0 -0.008823007501720586 0.015111405790133174 0 -0.0092593163334572896 0.015188482606907441 0 -0.008823007501720586 0.015111405790133174 0 -0.0090679100978035259 0.014769426250707976 0 -0.0092593163334572896 0.015188482606907441 0 -0.0090679100978035259 0.014769426250707976 0 -0.0092593163334572896 0.015188482606907441 0 -0.0096004729513058124 0.014717365135849212 0 -0.0098188674097877786 0.015077435699655238 0 -0.0095037780028376494 0.015297429060775138 0 -0.0096004729513058124 0.014717365135849212 0 -0.0092593163334572896 0.015188482606907441 0 -0.0095037780028376494 0.015297429060775138 0 -0.0096004729513058124 0.014717365135849212 0 -0.009078053887408186 0.015587529745133052 0 -0.0092593163334572896 0.015188482606907441 0 -0.0095037780028376494 0.015297429060775138 0 -0.010660429020562544 0.014526330764929145 0 -0.0096669781964753843 0.014716061604818205 0 -0.0096004729513058124 0.014717365135849212 0 -0.0098826675298576607 0.013499185209009036 0 -0.010973669501847961 0.013542170480395665 0 -0.0096004729513058124 0.014717365135849212 0 -0.0090445898677029568 0.013914662501845006 0 -0.0098826675298576607 0.013499185209009036 0 -0.0090679100978035259 0.014769426250707976 0 -0.0096004729513058124 0.014717365135849212 0 -0.0090445898677029568 0.013914662501845006 0 -0.0086550430272997157 0.01449381377929416 0 -0.0090679100978035259 0.014769426250707976 0 -0.0090445898677029568 0.013914662501845006 0 -0.0090445898677029568 0.013914662501845006 0 -0.0098826675298576607 0.013499185209009036 0 -0.0094185292608530442 0.01265970746605781 0 -0.0086161089638724358 0.012909176743345583 0 -0.0090445898677029568 0.013914662501845006 0 -0.0094185292608530442 0.01265970746605781 0 -0.0098826675298576607 0.013499185209009036 0 -0.010476206421980638 0.012662836578310268 0 -0.0094185292608530442 0.01265970746605781 0 -0.0098826675298576607 0.013499185209009036 0 -0.010476206421980638 0.012662836578310268 0 -0.010973669501847961 0.013542170480395665 0 -0.010476206421980638 0.012662836578310268 0 -0.0094185292608530442 0.01265970746605781 0 -0.010074578994575731 0.011089485835983163 0 -0.010476206421980638 0.012662836578310268 0 -0.011477613694625743 0.01193409394121585 0 -0.010074578994575731 0.011089485835983163 0 -0.0086161089638724358 0.012909176743345583 0 -0.0083869437733580417 0.010988556475624587 0 -0.0094185292608530442 0.01265970746605781 0 -0.013140059192859523 0.0138201560508695 0 -0.012127514888036182 0.013288542630229347 0 -0.012778268621130481 0.012059168319133496 0 -0.011013351815314095 0.013418749212829574 0 -0.01138634246317792 0.011714899119341076 0 -0.012127514888036182 0.013288542630229347 0 -0.010973669501847961 0.013542170480395665 0 -0.011308114340208454 0.011467369965176735 0 -0.010476206421980638 0.012662836578310268 0 -0.010973669501847961 0.013542170480395665 0 -0.011477613694625743 0.01193409394121585 0 -0.011308114340208454 0.011467369965176735 0 -0.012778268621130481 0.012059168319133496 0 -0.013217245866969974 0.010476338301936146 0 -0.012127514888036182 0.013288542630229347 0 -0.011308114340208454 0.011467369965176735 0 -0.012778268621130481 0.012059168319133496 0 -0.011308114340208454 0.011467369965176735 0 -0.011670717954167267 0.0096315221499471936 0 -0.013217245866969974 0.010476338301936146 0 -0.011477613694625743 0.01193409394121585 0 -0.011910904940484579 0.0099973166367011354 0 -0.010074578994575731 0.011089485835983163 0 -0.01138634246317792 0.011714899119341076 0 -0.011784545684858101 0.0098132659261080946 0 -0.011910904940484579 0.0099973166367011354 0 -0.010074578994575731 0.011089485835983163 0 -0.010752413947256735 0.0087415043403922185 0 -0.011670717954167267 0.0096315221499471936 0 -0.012932115026720422 0.0089779786085012313 0 -0.012009358575437119 0.0077879861972900474 0 -0.011670717954167267 0.0096315221499471936 0 -0.012932115026720422 0.0089779786085012313 0 -0.013217245866969974 0.010476338301936146 0 -0.0083869437733580417 0.010988556475624587 0 -0.0094185292608530442 0.01265970746605781 0 -0.010074578994575731 0.011089485835983163 0 -0.010074578994575731 0.011089485835983163 0 -0.0091449816620111438 0.0090675143548550226 0 -0.010752413947256735 0.0087415043403922185 0 -0.0083869437733580417 0.010988556475624587 0 -0.010074578994575731 0.011089485835983163 0 -0.0091449816620111438 0.0090675143548550226 0 -0.014358307969090671 0.0065591458707332509 0 -0.014622723683303808 0.0053546842896393613 0 -0.020137758270194442 0.0015936819667625225 0 -0.020011872471527629 0.0013553352130757162 0 -0.01995553703301875 0.0013449820053751435 0 -0.014622723683303808 0.0053546842896393613 0 -0.015185220239654969 0.0041659928708036491 0 -0.0091449816620111438 0.0090675143548550226 0 -0.010752413947256735 0.0087415043403922185 0 -0.010036209951178172 0.0070744831989799839 0 -0.010752413947256735 0.0087415043403922185 0 -0.010036209951178172 0.0070744831989799839 0 -0.011121208065875805 0.0074226510027364722 0 -0.019929496845079338 0.0012321033113150553 0 -0.020011872471527629 0.0013553352130757162 0 -0.01995553703301875 0.0013449820053751435 0 -0.011784545684858101 0.0098132659261080946 0 -0.012117729431667813 0.0078240763232374222 0 -0.012932115026720422 0.0089779786085012313 0 -0.012009358575437119 0.0077879861972900474 0 -0.013459642642174941 0.0078661387018158762 0 -0.011910904940484579 0.0099973166367011354 0 -0.010752413947256735 0.0087415043403922185 0 -0.012233801512775989 0.0079076049544277941 0 -0.010752413947256735 0.0087415043403922185 0 -0.012233801512775989 0.0079076049544277941 0 -0.011121208065875805 0.0074226510027364722 0 -0.011475902928336319 0.0059899878493147552 0 -0.012233801512775989 0.0079076049544277941 0 -0.011121208065875805 0.0074226510027364722 0 -0.011475902928336319 0.0059899878493147552 0 -0.010036209951178172 0.0070744831989799839 0 -0.011121208065875805 0.0074226510027364722 0 -0.012405105524510955 0.0057522517567809598 0 -0.011475902928336319 0.0059899878493147552 0 -0.012233801512775989 0.0079076049544277941 0 -0.012398699069336301 0.0058970841317326122 0 -0.012117729431667813 0.0078240763232374222 0 -0.012405105524510955 0.0057522517567809598 0 -0.012009358575437119 0.0077879861972900474 0 -0.01304952052299051 0.0067609347693806058 0 -0.012009358575437119 0.0077879861972900474 0 -0.01304952052299051 0.0067609347693806058 0 -0.013459642642174941 0.0078661387018158762 0 -0.01304952052299051 0.0067609347693806058 0 -0.014005175702646184 0.0065242821440761054 0 -0.013459642642174941 0.0078661387018158762 0 -0.014005175702646184 0.0065242821440761054 0 -0.013459642642174941 0.0078661387018158762 0 -0.014543612999748358 0.0076307387368881163 0 -0.013459642642174941 0.0078661387018158762 0 -0.014543612999748358 0.0076307387368881163 0 -0.014243529145072063 0.0090862749971787442 0 -0.012932115026720422 0.0089779786085012313 0 -0.013459642642174941 0.0078661387018158762 0 -0.014243529145072063 0.0090862749971787442 0 -0.014543612999748358 0.0076307387368881163 0 -0.015542762655977437 0.0080942257208997184 0 -0.014243529145072063 0.0090862749971787442 0 -0.014005175702646184 0.0065242821440761054 0 -0.015495846729189758 0.0065835254487803694 0 -0.014543612999748358 0.0076307387368881163 0 -0.015495846729189758 0.0065835254487803694 0 -0.014543612999748358 0.0076307387368881163 0 -0.015542762655977437 0.0080942257208997184 0 -0.016362307200981297 0.0066297003732929448 0 -0.015495846729189758 0.0065835254487803694 0 -0.016375703486936025 0.0074581346653635654 0 -0.015495846729189758 0.0065835254487803694 0 -0.016375703486936025 0.0074581346653635654 0 -0.015542762655977437 0.0080942257208997184 0 -0.016362307200981297 0.0066297003732929448 0 -0.017310044128443454 0.0071759288899749963 0 -0.016375703486936025 0.0074581346653635654 0 -0.017310044128443454 0.0071759288899749963 0 -0.016375703486936025 0.0074581346653635654 0 -0.016837661862957563 0.008674958788174281 0 -0.016375703486936025 0.0074581346653635654 0 -0.016837661862957563 0.008674958788174281 0 -0.015542762655977437 0.0080942257208997184 0 -0.016837661862957563 0.008674958788174281 0 -0.015542762655977437 0.0080942257208997184 0 -0.0153447000331216 0.0093470138747085065 0 -0.016837661862957563 0.008674958788174281 0 -0.0153447000331216 0.0093470138747085065 0 -0.015964265925490273 0.010417107529745574 0 -0.014766542288866933 0.011359411082880582 0 -0.014770479147464108 0.011820087635810158 0 -0.012756488451784538 0.014238054423301439 0 -0.012733255788174443 0.013085715742928751 0 -0.013598766275496013 0.013276022678967409 0 -0.01324648514485929 0.012279393812432506 0 -0.012733255788174443 0.013085715742928751 0 -0.013598766275496013 0.013276022678967409 0 -0.014617160835914815 0.011901252071678256 0 -0.015964265925490273 0.010417107529745574 0 -0.014595394715213737 0.010599577091886527 0 -0.0153447000331216 0.0093470138747085065 0 -0.015964265925490273 0.010417107529745574 0 -0.014595394715213737 0.010599577091886527 0 -0.014595394715213737 0.010599577091886527 0 -0.013217245866969974 0.010476338301936146 0 -0.014243529145072063 0.0090862749971787442 0 -0.014163286570114458 0.011857156692290245 0 -0.014595394715213737 0.010599577091886527 0 -0.013217245866969974 0.010476338301936146 0 -0.012932115026720422 0.0089779786085012313 0 -0.013217245866969974 0.010476338301936146 0 -0.014243529145072063 0.0090862749971787442 0 -0.015542762655977437 0.0080942257208997184 0 -0.0153447000331216 0.0093470138747085065 0 -0.014243529145072063 0.0090862749971787442 0 -0.0153447000331216 0.0093470138747085065 0 -0.014595394715213737 0.010599577091886527 0 -0.014243529145072063 0.0090862749971787442 0 
</DataArray>
</PointData>
<CellData Scalars="region_id,cross_section_updated," Vectors="" Tensors="stress,">
<DataArray type="Float64" Name="region_id" format="ascii">
5 5 5 5 5 6 5 5 5 5 5 5 5 5 5 5 6 5 5 6 5 6 5 5 5 5 6 5 5 5 5 5 5 6 5 5 5 5 5 5 6 6 5 5 6 6 5 5 5 5 5 5 5 5 5 5 6 6 5 5 5 6 5 5 5 5 6 5 5 5 5 5 5 5 5 5 5 5 6 5 5 5 6 5 5 5 6 5 5 5 5 6 5 5 5 5 5 5 6 5 5 6 5 5 5 5 6 5 5 5 5 5 6 5 5 5 5 5 5 5 5 5 5 5 5 5 5 5 5 5 5 5 5 5 5 6 5 5 5 6 5 5 5 5 5 5 6 5 5 5 5 5 5 5 5 5 5 5 5 5 5 5 5 5 5 5 5 5 5 5 6 5 6 5 5 5 5 5 5 5 5 5 5 5 5 6 5 5 5 5 5 5 5 5 5 5 5 5 6 5 5 5 5 5 5 5 5 5 5 5 5 6 5 5 5 6 6 5 5 5 5 5 5 5 6 5 5 5 5 5 5 5 5 5 6 5 5 6 5 5 5 5 5 5 5 5 5 5 5 5 5 5 5 5 5 5 6 5 5 5 5 5 5 5 5 5 6 5 5 5 5 5 5 5 5 5 5 5 5 5 5 5 6 5 5 5 5 5 5 5 5 5 5 5 5 5 5 5 5 5 5 6 5 5 5 5 6 5 5 5 5 5 5 5 5 6 5 5 6 5 5 5 5 5 5 5 5 5 5 5 5 5 5 5 5 5 5 5 5 5 5 5 6 5 5 5 5 6 5 5 5 5 5 6 6 5 5 6 6 5 5 5 5 5 5 5 6 5 5 5 5 5 5 5 5 6 5 5 5 5 5 5 5 5 6 5 5 5 5 6 5 5 5 5 5 5 6 5 5 5 5 5 5 5 5 5 5 5 5 5 5 5 5 5 5 5 5 5 5 5 5 5 5 5 5 5 6 5 5 5 5 5 5 5 5 6 5 5 5 6 5 5 6 5 5 5 5 5 5 5 5 6 5 5 5 6 5 6 5 5 5 5 6 5 5 6 5 5 6 5 5 5 6 5 5 5 5 5 5 5 5 5 5 5 5 5 5 5 5 5 5 5 5 5 5 5 6 5 5 5 5 5 5 5 5 6 5 5 5 5 5 5 5 5 5 5 5 5 5 6 5 5 5 5 5 5 5 5 5 5 5 5 5 5 5 5 5 5 5 5 5 6 5 5 5 6 5 5 6 5 5 5 5 6 5 5 5 5 5 5 5 6 5 6 5 5 5 5 5 5 5 5 5 5 5 5 5 5 5 5 5 5 5 5 5 5 6 5 6 5 6 5 5 6 6 5 5 5 5 5 5 5 5 5 5 5 5 5 5 5 5 5 6 5 5 5 5 6 5 5 5 5 6 6 5 6 5 5 5 5 5 5 5 5 5 5 5 5 5 5 5 5 5 5 5 5 5 5 5 5 5 5 6 5 5 5 5 5 5 5 5 5 5 5 5 6 5 5 5 6 5 6 5 5 5 5 5 5 5 5 5 5 6 5 5 5 6 5 5 5 5 5 5 5 5 5 6 5 5 5 5 6 5 5 5 5 5 5 5 5 5 6 5 5 6 5 5 5 5 5 6 5 5 5 5 6 5 5 5 5 5 5 5 6 6 5 5 5 5 5 5 6 5 6 5 5 6 5 6 5 5 5 6 5 5 5 5 6 5 5 6 5 6 6 5 6 6 5 5 6 5 6 5 5 5 6 6 5 5 5 5 5 6 5 5 5 5 5 5 5 5 6 5 6 5 5 5 5 6 6 5 5 6 5 5 5 5 5 6 5 5 6 5 6 5 6 6 5 6 5 6 6 6 5 5 6 5 6 5 5 6 5 5 5 5 5 6 5 5 6 5 5 5 5 6 5 5 5 5 5 5 5 6 5 6 5 5 5 6 5 5 5 5 5 5 5 5 5 5 5 5 5 5 5 5 5 5 6 5 5 5 5 5 5 5 5 5 6 5 5 5 5 5 5 5 5 5 5 5 5 5 6 5 5 5 5 5 5 5 5 5 5 5 5 5 5 5 5 5 5 5 5 5 5 5 5 5 5 5 5 5 5 5 5 5 5 5 5 5 5 5 5 6 5 5 5 5 5 5 5 5 5 5 5 5 5 5 5 6 6 5 5 6 5 5 5 5 5 5 5 5 5 5 5 5 5 5 5 5 5 5 5 5 6 5 6 5 5 5 5 5 6 6 5 5 5 5 5 5 5 5 5 5 5 5 5 5 5 5 5 5 5 5 5 5 5 5 5 5 5 5 5 5 5 5 5 5 5 5 5 5 5 5 5 5 5 5 5 5 5 5 5 5 5 5 5 5 5 5 6 5 5 5 5 5 5 5 6 5 5 5 5 6 5 5 5 5 5 5 5 5 5 5 5 5 5 5 5 6 5 5 5 5 6 5 5 5 5 6 5 5 6 5 5 6 5 5 5 5 6 5 5 5 5 5 5 5 5 5 5 5 5 5 5 5 5 5 5 5 5 5 5 5 5 6 5 6 5 5 5 5 5 5 5 5 5 5 5 5 6 5 5 5 5 5 6 5 5 5 5 5 5 5 5 5 5 5 6 6 5 5 6 5 5 5 5 6 5 5 6 5 5 5 5 5 5 6 5 5 5 5 5 5 5 5 5 5 5 5 5 5 5 5 5 6 5 5 6 5 5 5 6 5 6 5 5 5 5 6 5 5 5 5 5 5 5 6 5 5 5 5 6 6 5 5 6 5 5 5 6 5 5 6 5 5 6 5 5 6 5 5 5 6 5 5 5 5 5 5 5 5 5 5 5 6 5 5 5 6 6 5 5 6 5 5 6 5 5 6 5 6 5 5 5 6 6 6 5 5 6 5 5 5 5 5 6 5 5 5 5 6 5 5 6 5 5 6 6 5 5 5 5 6 5 5 5 6 5 6 5 5 5 5 5 5 5 5 6 5 5 5 6 5 5 5 5 5 5 5 5 5 5 5 6 5 5 5 5 5 6 6 5 6 6 5 5 5 6 5 6 5 5 6 5 5 5 5 5 5 5 5 5 6 5 5 5 5 6 5 5 5 5 5 5 5 5 5 6 5 5 5 5 5 6 6 5 5 6 5 5 5 5 5 6 5 6 5 5 5 6 5 5 5 5 5 5 5 5 5 6 6 5 5 5 6 5 5 6 6 5 5 5 6 5 5 5 5 5 5 6 5 5 5 6 6 5 5 5 6 6 5 5 6 5 5 5 6 5 6 5 5 5 6 5 5 5 5 5 5 6 6 5 6 5 5 6 5 6 6 5 5 6 5 5 5 5 5 6 5 5 5 5 6 5 5 5 5 5 5 5 6 5 5 5 5 6 5 5 5 5 5 5 5 5 5 5 6 5 5 6 6 5 5 5 5 5 5 5 6 5 5 5 6 6 5 5 5 5 5 5 5 5 6 5 5 5 5 6 5 5 5 5 5 6 5 5 5 5 5 5 5 5 5 5 5 5 5 5 5 5 5 5 5 5 5 6 5 5 6 5 5 5 5 6 5 5 5 5 5 5 5 5 5 5 5 5 5 5 5 5 5 5 5 5 5 5 5 5 5 5 5 5 5 5 5 5 5 5 5 5 5 5 5 5 5 5 5 5 5 5 5 5 5 6 5 5 5 5 5 5 6 5 5 5 5 6 5 6 5 5 6 5 5 5 5 5 5 5 5 5 5 5 5 5 6 5 5 6 5 5 6 5 6 5 5 5 5 5 5 5 5 5 5 5 5 5 5 5 5 5 5 5 5 5 5 6 5 5 5 5 5 5 5 5 5 5 5 5 5 5 5 5 5 5 5 5 5 5 5 5 5 5 5 5 5 5 5 5 5 5 6 5 5 5 5 5 5 6 5 5 6 6 5 5 5 5 5 5 5 6 5 5 6 5 5 5 5 5 5 6 5 5 5 6 5 6 5 5 5 6 5 5 5 6 5 5 5 5 5 6 5 5 6 5 6 6 5 5 6 5 6 5 5 5 5 5 6 5 5 6 5 6 5 5 6 5 5 5 5 5 6 6 6 5 5 5 5 5 5 5 5 5 5 6 5 5 6 5 5 6 6 6 5 6 5 5 5 5 6 5 6 5 5 5 6 5 6 5 6 5 5 5 6 5 5 6 5 6 6 6 5 5 6 5 6 6 5 5 5 5 5 5 5 5 5 5 5 5 6 5 5 5 5 6 5 5 5 6 6 6 5 5 5 6 5 6 5 6 5 5 5 5 5 5 6 5 5 6 6 6 5 5 5 6 5 6 5 5 5 5 5 5 5 6 5 5 5 5 6 5 5 5 6 5 6 6 5 6 5 5 5 5 5 5 5 5 5 5 5 5 5 5 6 5 5 5 5 5 5 5 5 5 5 5 6 5 5 5 5 5 5 5 5 5 5 5 5 5 5 5 5 5 6 5 5 5 5 6 5 5 5 5 5 5 5 5 5 5 5 5 5 5 5 5 6 5 6 5 5 5 5 6 5 5 6 5 5 6 5 5 6 6 5 5 6 5 5 6 5 5 5 6 5 5 5 5 6 5 6 5 5 5 5 5 5 5 5 5 5 5 5 5 5 5 5 5 5 5 5 5 5 5 5 5 6 5 5 6 5 5 5 5 5 5 5 5 5 5 5 6 5 5 5 5 6 5 5 6 5 5 5 5 5 6 5 6 5 5 5 5 5 5 5 5 5 5 5 5 5 5 5 5 5 5 5 5 5 5 5 5 5 6 5 6 5 6 6 5 5 5 5 5 6 5 5 5 5 5 5 6 5 5 5 5 5 5 6 6 5 5 5 5 6 5 5 5 5 5 5 5 5 5 5 5 5 5 5 5 5 5 5 6 5 6 6 5 5 5 5 5 5 5 6 5 5 5 6 6 5 5 5 5 5 5 5 5 5 5 5 5 5 5 5 5 5 5 5 5 5 5 5 5 5 5 5 5 6 5 5 5 5 6 5 5 5 5 5 5 5 5 5 5 5 5 5 5 5 5 5 5 6 5 5 5 5 5 5 5 5 6 6 5 6 5 5 5 5 5 5 5 5 5 5 5 6 5 6 5 5 5 5 5 5 5 5 5 6 5 5 5 6 6 5 5 5 6 6 5 6 5 5 5 5 5 5 5 5 5 6 5 5 5 5 5 5 5 6 5 5 5 5 5 5 6 5 5 5 5 5 5 6 5 5 5 5 5 5 5 5 5 5 5 5 5 5 5 6 5 5 5 5 5 5 5 5 5 5 5 5 5 5 5 6 5 5 5 5 5 5 5 5 5 5 6 5 5 5 6 5 5 5 5 5 5 5 6 5 5 5 6 5 5 6 5 5 5 6 6 5 5 5 6 5 5 5 5 5 5 5 6 5 5 5 5 5 6 5 5 5 5 6 5 5 5 5 5 5 5 5 6 5 5 5 5 5 5 5 5 5 5 5 5 5 5 5 5 5 5 5 5 5 5 5 5 5 5 5 5 5 5 5 5 5 6 5 5 6 5 5 5 6 6 5 5 5 5 6 6 5 5 5 5 5 6 5 5 5 5 5 5 5 6 5 5 5 5 5 6 5 5 5 6 5 5 5 5 5 6 6 5 5 5 5 5 5 5 5 5 5 5 6 5 5 6 5 5 5 5 5 5 5 5 5 5 5 5 5 6 6 5 5 5 5 5 5 5 5 5 5 5 5 5 5 6 5 5 5 6 5 5 5 5 5 5 5 5 5 5 5 5 5 5 6 5 6 5 6 5 5 5 5 5 6 6 5 5 5 5 5 6 5 5 5 5 5 5 5 5 5 5 6 5 5 5 5 5 5 5 5 5 5 5 5 5 5 5 5 5 5 5 5 6 5 5 5 5 5 5 5 5 5 5 5 5 5 5 5 5 5 5 5 5 5 5 5 5 5 6 5 5 5 5 5 5 5 6 5 5 5 6 5 5 5 5 6 5 6 5 5 5 5 5 5 6 5 5 5 6 5 5 5 5 6 5 6 5 6 5 5 5 6 5 6 5 5 5 5 5 5 5 5 6 5 5 5 5 5 5 6 5 5 5 5 5 6 6 6 5 5 5 5 5 5 5 5 5 5 5 5 5 6 5 6 5 5 5 5 5 5 5 5 5 6 5 5 6 6 5 5 6 5 5 5 5 6 5 5 5 5 6 5 5 5 5 5 6 5 5 5 5 6 5 5 5 6 5 5 5 5 5 6 5 5 5 5 5 5 5 5 5 6 5 5 5 5 5 5 5 5 5 6 5 5 5 5 5 5 5 5 5 5 6 5 5 6 5 6 5 5 5 5 5 5 5 5 5 5 6 5 6 5 5 5 5 5 5 5 5 5 5 5 6 5 5 5 6 5 5 5 5 6 5 5 6 5 5 5 5 5 5 5 5 5 5 5 5 5 5 5 5 5 5 5 5 5 5 5 5 5 5 5 6 5 5 5 5 6 5 6 6 5 5 5 5 5 6 6 5 5 5 5 5 5 5 5 5 5 5 5 5 5 5 5 5 5 5 6 5 5 5 5 6 5 5 5 5 5 5 5 6 6 5 5 6 5 5 6 5 6 5 6 5 5 5 5 5 6 5 5 6 5 6 5 5 5 5 5 5 5 5 5 5 5 5 5 5 5 5 6 5 6 5 5 5 5 5 5 5 5 5 5 5 5 5 5 5 5 5 5 5 5 5 5 5 5 5 5 5 5 5 5 5 5 5 5 5 6 5 5 5 5 6 5 5 5 5 5 5 5 5 5 5 5 5 5 6 5 6 5 5 5 6 6 5 5 5 5 5 6 5 5 5 5 6 5 5 6 5 5 5 5 5 5 5 5 5 5 5 5 5 5 5 5 5 5 5 5 5 5 5 5 5 5 5 5 5 5 5 5 5 5 5 5 6 5 5 5 5 5 5 5 5 5 5 5 5 5 5 5 5 5 5 5 5 5 5 5 5 5 5 5 5 5 5 5 5 6 5 6 5 5 5 5 6 5 5 5 5 6 5 5 5 5 5 5 5 5 5 5 5 5 5 5 5 5 5 5 5 6 5 5 5 5 5 5 6 5 5 5 5 5 6 5 5 5 5 5 5 5 5 5 5 5 6 5 5 5 5 5 5 5 5 6 5 5 5 5 5 5 5 6 5 5 5 5 5 5 5 5 5 5 5 5 5 5 5 5 5 5 5 5 6 5 6 5 5 5 5 5 5 5 5 5 6 6 5 5 6 5 5 5 6 5 5 5 5 6 5 5 5 6 5 5 5 5 5 5 5 5 5 5 5 6 5 5 6 5 5 5 5 6 5 5 6 5 5 5 5 5 5 5 5 5 5 5 5 5 6 5 5 5 5 5 5 6 5 5 5 6 5 5 5 5 5 5 5 5 6 5 5 5 6 5 5 5 6 5 6 5 5 5 5 5 5 5 5 5 5 6 5 6 5 6 5 6 5 5 5 5 5 5 5 5 6 5 6 5 5 5 5 6 5 5 5 5 5 6 5 5 5 5 6 5 5 5 5 5 6 5 6 5 6 6 5 5 5 5 6 5 5 5 5 5 5 5 5 5 5 5 5 5 5 5 5 5 5 5 5 5 5 6 5 6 5 6 5 5 5 6 5 6 5 5 5 6 5 5 5 5 5 5 5 5 5 5 5 5 5 5 5 5 5 5 5 5 5 5 5 5 5 5 5 5 5 5 5 5 5 5 5 5 5 5 5 5 5 5 5 5 5 5 5 5 5 5 5 5 5 5 5 5 5 5 5 5 5 5 5 5 5 5 5 5 5 5 5 5 5 5 5 5 5 5 5 6 5 5 5 5 5 5 6 5 5 5 5 5 5 6 5 5 5 5 5 6 5 5 5 6 5 5 5 5 5 5 6 5 5 6 5 6 6 5 5 5 6 5 5 5 5 5 5 5 5 5 5 5 5 5 5 5 5 5 5 5 5 5 5 5 5 5 5 5 5 5 5 5 5 5 5 5 5 6 5 5 5 5 5 6 5 5 5 5 5 5 5 5 5 6 6 5 5 6 5 6 5 5 6 6 5 5 6 5 5 5 5 5 5 5 5 5 5 5 5 5 6 5 5 5 5 5 5 5 5 5 5 5 5 5 5 5 5 5 5 5 5 6 5 5 5 5 6 5 5 6 5 5 5 5 5 5 5 5 5 5 5 6 5 5 5 5 5 5 5 5 5 5 5 5 5 5 6 5 5 5 5 6 5 5 5 5 5 6 5 5 5 5 5 5 5 5 5 5 5 5 5 6 5 5 5 5 5 5 5 5 5 5 5 5 5 5 5 5 5 5 6 6 5 5 5 5 5 5 5 5 5 5 6 5 5 5 5 5 5 5 5 5 5 5 6 5 5 5 5 6 5 5 5 5 5 5 5 5 5 5 5 5 6 5 5 5 5 5 5 5 5 5 5 5 5 5 5 5 5 5 5 5 5 5 6 6 5 5 5 5 5 5 5 5 5 5 5 6 6 5 5 5 5 5 6 5 5 5 5 6 6 5 6 5 5 6 5 6 5 5 5 6 5 5 5 5 6 5 5 5 5 5 6 5 5 5 6 5 5 5 5 5 6 5 5 5 5 5 6 5 5 6 5 5 6 5 5 5 6 5 5 5 6 5 5 5 6 5 5 5 6 5 6 5 5 5 5 5 5 5 6 5 5 5 6 5 5 5 5 5 5 5 5 5 5 5 5 5 5 5 5 5 5 5 5 5 5 5 5 5 5 5 5 5 5 5 5 5 5 5 5 5 5 5 5 5 5 5 5 5 5 5 5 5 5 5 5 5 5 5 5 5 5 5 5 5 5 5 5 5 5 5 5 5 5 5 5 5 5 5 5 5 5 6 5 5 6 5 5 5 5 5 5 5 5 5 5 5 5 5 5 6 5 5 6 5 5 6 5 5 5 5 5 5 5 5 5 5 5 5 5 5 5 5 5 5 5 5 5 5 5 5 5 5 5 5 5 5 5 5 5 6 5 5 5 5 5 5 5 5 5 5 5 5 5 5 5 5 5 5 5 5 5 5 5 5 5 5 5 5 5 5 5 5 5 5 5 5 5 6 5 5 5 5 5 5 5 5 5 5 5 5 5 5 5 5 5 5 5 5 5 5 5 5 5 5 5 5 5 5 5 5 5 5 5 5 5 5 5 5 5 5 5 5 5 5 5 5 5 5 5 5 5 5 5 5 5 5 6 5 5 5 5 5 5 5 5 5 5 5 5 5 5 5 5 6 5 5 6 5 6 6 5 5 5 5 5 5 5 5 5 5 5 5 5 5 5 5 5 5 5 5 5 5 5 5 5 5 5 5 5 5 5 5 5 5 5 5 5 5 5 5 6 5 5 5 5 6 5 5 5 5 5 6 6 5 5 5 6 6 6 5 5 5 5 5 5 5 6 5 5 6 5 5 6 5 5 6 5 5 5 5 5 5 6 5 5 6 5 5 5 5 5 5 5 5 5 5 5 5 5 5 5 5 5 5 5 5 5 5 5 5 5 5 6 5 5 5 5 5 5 5 5 5 5 5 5 5 5 5 5 5 5 5 5 5 5 5 5 5 5 5 5 5 5 5 5 5 5 5 5 5 5 5 5 5 5 5 5 5 5 5 5 5 5 5 5 5 5 5 5 6 5 5 6 6 5 5 6 6 5 5 5 6 5 6 5 5 5 6 5 5 5 5 5 5 5 5 5 5 5 5 5 5 6 5 5 5 5 5 6 5 5 5 5 5 5 5 5 6 5 5 5 5 5 6 5 5 5 5 5 5 5 5 5 5 5 5 5 5 6 5 5 5 6 6 5 5 5 5 5 5 5 5 6 5 6 5 6 5 6 5 5 6 5 6 5 5 5 5 5 5 5 5 5 5 5 6 5 5 5 5 5 5 5 5 5 5 6 5 5 5 5 5 5 5 5 5 5 5 5 5 5 5 6 5 5 5 5 5 5 5 5 6 5 5 6 6 5 6 6 5 6 5 5 6 5 6 5 6 5 6 5 5 5 5 5 6 5 5 5 6 5 5 5 5 5 5 5 5 5 6 5 5 5 5 5 5 5 5 5 5 5 5 5 5 5 5 5 5 5 6 5 5 5 5 5 5 5 6 5 6 5 5 5 5 6 5 5 5 5 5 5 6 5 5 5 5 5 5 5 5 5 5 5 5 5 5 5 5 5 6 5 5 5 5 6 5 6 5 5 5 6 6 5 5 5 5 5 6 5 5 5 6 5 5 5 6 6 5 5 5 5 5 6 6 5 6 5 5 5 5 5 5 5 5 5 5 5 5 5 5 5 5 6 5 5 5 5 6 5 5 6 5 5 5 5 5 5 5 5 5 5 5 5 5 5 5 5 5 5 6 5 5 5 5 5 5 5 5 6 5 5 6 5 5 5 5 6 5 5 5 5 5 5 6 6 5 5 5 5 5 6 5 5 5 5 6 5 5 6 5 5 5 5 6 6 5 5 5 5 6 6 5 5 5 5 5 5 5 5 5 5 6 5 5 5 5 5 6 6 5 5 5 5 5 5 5 5 5 5 5 5 6 5 5 5 5 5 5 5 5 6 5 5 5 6 5 5 5 5 6 5 5 6 5 5 5 5 5 5 5 5 5 5 5 5 5 5 5 5 5 5 5 5 5 5 5 5 6 5 5 5 5 5 5 5 5 5 5 5 5 5 5 5 5 5 5 5 5 5 5 5 5 5 5 5 5 6 5 5 6 5 5 6 5 5 5 5 6 5 5 5 5 5 6 5 5 5 5 5 5 6 5 5 5 5 5 5 5 5 6 5 5 5 5 5 5 5 5 5 5 5 5 5 5 5 5 5 5 6 5 5 6 5 6 5 5 6 5 5 5 5 5 5 5 5 5 5 5 5 5 5 5 5 5 5 5 5 5 5 5 5 5 5 5 5 5 5 5 6 5 5 6 5 5 6 6 5 5 5 5 5 5 5 5 5 5 5 5 5 5 5 5 5 5 5 5 5 5 5 5 5 5 5 5 5 5 5 5 5 6 5 6 5 6 5 5 5 5 5 6 5 5 5 5 5 6 5 6 5 6 5 5 5 5 5 5 5 5 6 5 6 5 5 6 5 5 5 5 5 5 6 5 6 6 5 5 5 5 5 5 5 5 6 5 5 6 5 5 6 5 6 5 5 5 6 6 5 6 5 5 5 5 5 5 5 5 5 5 5 5 5 5 5 5 5 5 5 6 5 5 5 5 5 5 5 5 5 5 5 5 5 5 5 5 5 5 5 5 5 5 5 5 5 5 5 5 5 5 5 5 5 5 5 5 5 5 5 5 5 5 5 5 5 5 5 5 5 5 5 5 5 5 6 5 5 5 5 6 5 5 5 5 5 5 5 5 5 5 5 5 5 5 5 5 6 5 6 5 5 5 5 5 5 5 6 6 6 5 5 5 5 6 6 6 6 6 5 5 6 5 5 5 5 6 5 5 5 5 5 5 5 6 5 5 6 6 5 5 5 5 5 5 6 5 6 6 5 6 6 5 5 5 5 6 5 6 5 5 6 5 5 6 5 6 5 5 6 5 6 5 5 5 5 6 5 5 5 5 6 5 5 6 5 5 5 5 5 5 6 5 5 5 5 5 5 5 5 5 6 5 6 5 5 5 5 5 5 5 6 5 5 5 5 5 5 5 5 5 5 5 6 6 5 5 6 6 5 5 6 5 5 5 6 5 6 6 5 5 5 6 6 5 5 6 5 5 6 5 6 5 6 5 5 5 5 5 6 5 5 6 5 6 6 5 6 6 5 5 5 5 5 5 6 6 5 6 5 5 5 5 6 5 5 5 5 5 5 5 5 5 5 5 5 5 5 5 5 5 5 5 5 5 5 5 5 5 5 5 5 5 5 5 5 5 5 5 5 5 5 5 5 5 5 5 5 5 5 5 5 5 5 5 5 5 5 5 5 5 5 5 5 5 5 5 5 5 5 5 5 5 5 5 5 5 5 5 5 5 5 5 5 5 6 5 5 5 5 5 5 6 5 5 5 5 5 5 6 5 5 6 5 5 5 5 5 5 5 5 5 5 5 5 5 5 6 5 5 5 5 5 6 5 5 5 5 6 5 5 5 5 5 5 5 5 5 5 5 5 5 5 5 5 5 5 5 5 5 5 5 5 5 5 5 5 5 5 5 5 5 5 5 6 5 5 5 5 5 5 5 5 5 5 5 5 5 5 5 5 5 5 5 5 5 5 5 5 5 5 5 5 5 5 5 5 5 5 5 5 5 5 5 5 5 5 5 5 5 5 5 5 5 5 5 5 5 5 5 5 5 5 5 5 5 5 5 5 5 5 5 5 5 5 5 5 5 5 5 5 5 5 5 5 5 5 5 5 5 5 5 5 5 5 5 5 5 5 5 5 5 5 5 5 6 5 5 5 5 5 5 5 5 5 5 5 5 5 5 5 5 5 5 5 5 5 5 6 5 6 5 5 5 5 5 6 6 5 5 6 5 6 5 5 6 5 5 5 5 5 5 5 5 5 5 5 5 5 5 5 5 5 5 6 5 5 5 6 5 5 5 6 5 6 5 5 5 5 5 5 5 5 5 5 6 5 5 5 5 6 6 6 5 5 5 5 5 5 5 5 6 5 5 5 5 5 5 5 5 6 5 5 6 5 5 5 5 5 6 5 6 5 6 6 5 6 5 5 6 5 6 5 5 5 5 5 5 5 5 6 5 6 6 5 6 5 6 5 5 5 6 6 5 5 6 5 6 5 6 5 5 5 5 5 6 5 5 5 5 5 5 5 5 5 6 5 6 5 5 5 5 5 5 5 6 5 5 5 6 5 6 6 5 5 5 5 5 6 6 5 5 5 5 5 5 5 5 6 5 6 5 6 5 5 5 5 5 6 5 5 5 5 5 5 5 5 5 5 5 5 5 5 5 5 5 5 5 5 5 5 6 5 5 5 5 5 6 5 5 5 5 6 5 5 5 5 5 5 5 6 5 5 6 5 5 5 5 5 5 5 5 5 5 5 5 5 6 5 6 5 5 5 5 5 5 5 5 5 5 5 5 5 6 5 5 5 6 5 5 6 5 6 5 5 5 5 5 5 6 5 5 5 5 5 5 5 6 5 5 6 5 6 5 6 6 6 5 5 5 6 5 5 6 5 6 5 5 5 5 5 5 5 5 5 5 5 5 5 5 5 5 6 5 6 5 5 5 5 5 5 5 5 5 5 5 5 5 5 5 5 6 5 5 5 5 6 5 5 5 5 5 5 5 5 5 5 5 5 5 5 5 5 5 5 5 5 6 5 5 5 5 6 5 5 5 5 5 5 6 5 5 5 5 5 5 5 5 5 5 5 5 5 5 6 6 5 5 5 5 6 5 5 5 5 6 6 5 5 5 5 5 5 5 5 5 5 5 5 5 5 6 5 6 5 5 5 5 5 5 5 5 5 5 5 5 5 5 5 5 5 5 5 5 5 5 5 5 5 5 5 5 5 5 5 5 5 5 5 5 5 5 5 5 5 6 5 5 5 5 5 5 5 5 5 5 6 5 5 5 5 5 5 5 5 5 5 5 5 5 5 5 5 6 5 5 6 5 6 5 5 5 5 5 6 5 6 5 5 6 5 5 5 5 5 5 5 5 5 5 5 5 5 5 5 5 6 5 5 6 5 5 5 5 5 5 5 5 5 5 5 5 5 5 5 5 5 5 5 5 5 5 5 5 5 5 5 5 5 5 5 5 5 5 5 6 5 5 5 6 5 5 5 5 5 5 5 5 6 5 5 5 6 5 5 6 5 5 5 5 6 6 5 6 5 5 5 5 5 6 5 6 5 6 5 5 5 5 5 5 5 6 5 5 5 5 5 6 5 5 5 6 5 5 5 6 5 5 6 5 5 6 5 5 5 5 5 5 5 5 5 6 5 5 5 5 5 5 6 5 5 5 6 6 5 5 5 5 5 5 5 5 5 5 5 5 5 5 5 5 5 5 5 5 6 5 5 5 5 5 5 5 5 6 5 5 5 5 5 5 5 5 5 5 5 5 5 6 5 5 6 5 5 5 5 5 5 5 5 5 5 5 5 5 5 5 5 5 5 5 5 5 5 5 5 5 5 5 5 5 5 5 5 5 5 5 5 5 5 5 5 5 5 5 5 5 5 5 5 5 5 5 5 5 6 5 5 5 5 5 5 5 5 5 5 5 5 5 5 5 5 5 5 5 5 5 5 5 5 5 5 5 5 5 5 5 5 5 5 5 5 5 5 5 5 5 5 5 5 5 5 5 5 5 5 5 5 5 5 5 5 5 5 5 5 5 6 5 5 5 5 5 5 5 5 5 6 5 5 5 5 5 5 5 6 5 5 5 5 5 5 5 5 6 5 5 5 5 5 5 5 6 6 5 5 5 5 5 5 5 5 5 5 5 5 5 5 5 5 5 5 5 5 5 5 6 5 5 5 5 5 5 5 5 5 5 5 5 5 5 5 5 5 5 5 5 5 5 5 5 5 5 5 5 5 5 5 5 5 5 5 5 5 5 5 5 5 5 5 6 5 5 5 5 5 5 5 5 5 6 5 5 5 5 5 5 6 5 5 5 5 5 5 5 6 5 6 5 5 6 5 5 5 5 6 5 6 5 6 5 5 6 5 5 5 5 5 5 5 5 5 5 5 5 6 5 5 5 5 5 5 5 5 5 5 5 5 5 5 5 5 5 5 5 5 5 5 5 5 5 5 5 5 5 5 6 5 5 5 5 5 5 5 5 5 5 5 5 5 6 5 5 6 5 5 5 6 6 5 5 6 6 5 5 5 5 5 5 5 5 5 5 5 5 5 6 5 5 5 5 6 5 6 5 5 6 6 5 5 5 5 6 5 5 5 6 5 5 5 5 5 5 5 5 5 5 5 5 5 5 6 6 5 5 5 5 5 5 5 6 5 5 6 5 6 5 5 5 5 5 6 6 5 5 6 5 5 6 5 6 5 5 5 5 5 6 6 5 5 5 5 5 6 5 6 5 5 5 5 6 5 5 5 5 6 5 5 5 5 5 5 5 5 6 5 5 6 5 5 5 5 5 5 5 5 5 6 5 5 5 5 5 5 5 5 5 5 5 5 5 6 5 5 5 5 6 5 5 5 5 5 5 6 5 5 5 6 5 6 6 5 5 5 5 5 5 5 5 5 5 5 5 6 5 5 5 5 5 6 5 6 5 5 5 5 5 5 6 5 5 5 5 5 5 5 5 5 5 5 5 5 5 5 5 6 5 5 5 5 5 5 5 5 5 5 6 5 5 5 6 6 5 5 5 5 5 6 6 5 6 5 5 6 5 5 5 5 6 5 5 5 5 5 5 5 5 5 5 5 5 6 5 5 5 5 6 5 5 5 6 5 5 5 6 5 5 5 6 5 5 5 6 5 5 5 5 5 5 5 5 5 5 5 5 5 6 5 5 5 6 5 5 5 5 5 5 6 5 5 5 5 5 5 5 5 5 5 5 5 6 5 5 5 5 5 6 5 5 5 5 6 5 5 5 5 5 5 5 5 5 5 5 6 5 5 5 5 5 5 6 5 5 5 5 5 5 5 5 5 5 5 5 5 5 5 5 5 5 5 5 5 6 5 5 5 5 6 5 5 5 5 5 5 5 5 5 5 6 5 6 5 5 5 5 6 5 5 5 5 5 5 5 5 6 5 5 5 5 5 6 5 5 5 6 5 5 5 5 5 6 5 5 5 5 5 5 6 6 5 5 5 6 5 5 6 6 6 5 5 5 6 5 5 5 6 5 5 5 5 5 5 5 5 5 5 5 6 6 5 5 5 5 6 5 5 5 5 5 5 5 5 5 5 5 5 5 6 5 5 5 6 5 5 5 5 5 5 5 5 6 5 5 6 5 5 5 5 5 5 6 5 5 5 5 6 5 5 6 6 5 6 6 5 5 6 5 5 6 5 5 5 5 5 5 5 5 6 5 5 5 6 5 5 5 5 5 5 5 5 5 5 5 5 5 5 5 5 5 5 5 5 5 5 5 5 5 5 5 5 5 5 5 5 5 6 5 5 5 5 5 5 5 5 5 5 5 5 5 5 5 5 5 6 5 5 5 5 5 5 5 5 5 6 5 5 5 5 5 6 5 6 5 5 5 5 5 5 5 5 5 5 5 5 5 5 5 5 5 5 5 5 5 6 5 5 5 5 5 5 5 5 5 5 5 6 6 5 5 5 6 5 5 5 5 5 5 5 5 5 6 5 5 5 5 5 5 5 6 5 6 5 5 5 5 5 5 5 5 5 5 5 5 5 5 5 5 5 5 5 5 5 5 6 5 5 5 5 5 5 5 5 5 5 5 5 5 5 5 5 5 5 5 6 5 5 5 5 5 5 5 5 5 5 5 5 5 5 5 5 5 5 5 5 5 5 5 5 5 5 5 5 5 5 5 5 5 5 5 5 5 5 5 5 5 5 5 5 5 5 5 5 5 5 5 5 5 5 5 5 5 5 5 5 5 5 5 5 5 5 5 5 5 5 5 5 5 5 5 5 5 5 5 5 5 5 5 5 5 5 5 5 5 5 5 5 5 5 5 5 5 5 5 5 5 5 5 5 5 5 5 6 6 5 5 5 5 5 5 6 6 5 5 5 5 5 5 5 5 5 5 5 5 5 5 6 5 5 5 5 5 5 5 5 5 5 5 5 5 5 5 5 5 6 5 5 5 5 5 5 5 5 5 5 6 5 5 5 6 5 5 5 5 5 5 5 5 5 5 5 5 5 5 5 6 5 5 6 5 5 5 5 5 5 5 5 5 5 5 5 5 5 5 5 6 5 5 6 5 5 5 5 5 6 5 5 5 5 5 5 6 6 5 5 5 6 5 5 6 6 5 5 5 5 6 6 5 5 5 6 5 5 5 5 5 5 6 6 5 5 6 5 6 6 5 5 5 5 6 5 5 6 5 5 5 5 6 5 5 5 5 5 5 5 6 5 5 5 5 5 5 5 5 5 5 5 5 5 5 5 5 5 5 5 6 5 5 5 5 6 5 5 5 5 5 6 5 5 5 5 6 5 5 5 5 6 5 5 5 5 5 6 5 5 5 5 6 5 5 5 5 5 5 6 5 5 6 6 5 5 6 5 5 5 5 6 5 6 5 5 5 6 6 6 5 5 5 5 5 6 5 5 6 5 5 5 5 5 5 5 5 5 5 5 6 5 5 5 5 5 6 5 6 6 5 5 5 6 6 5 5 6 5 5 5 6 5 6 5 5 5 6 5 5 5 6 6 5 5 5 5 5 5 5 5 5 5 5 5 5 5 5 5 5 5 5 5 5 5 5 5 5 5 5 5 5 5 5 5 5 5 5 5 5 5 5 5 5 5 5 5 5 5 5 5 5 6 5 5 6 5 5 5 6 5 5 5 5 6 5 5 5 6 5 5 6 5 5 5 6 5 6 5 6 5 5 5 5 5 6 5 5 5 5 5 5 5 5 5 5 5 5 5 5 5 5 6 5 5 6 5 5 5 5 5 5 6 5 5 6 5 5 5 5 6 6 6 6 5 5 5 5 5 5 5 5 6 6 5 5 5 5 6 5 5 5 5 5 5 5 6 5 5 5 5 5 5 5 5 5 5 5 5 5 5 5 5 5 5 5 5 5 5 5 5 5 5 5 5 5 5 5 5 5 5 5 5 5 5 5 5 5 5 5 5 5 5 5 5 5 5 5 5 5 5 5 5 5 5 5 5 5 5 6 5 5 5 5 5 6 6 5 5 5 6 5 5 6 5 6 5 5 6 5 5 5 5 5 5 5 5 5 5 5 5 5 5 5 5 5 5 5 5 5 5 5 5 5 5 5 5 5 5 6 5 5 5 5 5 5 6 5 5 5 6 5 5 5 5 5 5 5 6 5 5 5 5 5 5 5 5 6 5 5 6 5 5 5 5 5 5 5 5 5 5 5 5 5 5 5 5 5 5 5 5 5 5 5 5 5 5 6 5 5 5 5 5 5 5 5 5 6 5 5 5 5 5 5 5 5 5 6 5 6 5 5 6 5 6 5 5 5 5 5 5 5 6 5 5 5 5 5 5 5 5 5 5 5 5 5 5 5 6 5 5 6 5 5 5 5 5 6 5 5 6 5 5 6 6 5 5 6 5 5 5 6 5 6 5 5 5 5 6 5 5 5 5 5 5 5 5 5 6 5 5 5 5 5 5 5 5 6 5 5 5 5 6 5 6 5 5 5 5 5 6 5 6 6 5 5 6 5 5 5 5 5 6 5 6 5 5 5 5 5 6 5 5 6 5 6 5 5 5 5 5 5 6 5 5 5 5 6 5 5 6 6 5 5 5 5 5 5 6 5 5 5 5 5 5 5 5 5 5 6 5 5 5 6 5 5 5 5 5 5 5 5 5 5 6 5 5 5 5 5 5 5 5 5 5 5 5 5 5 5 5 5 5 6 5 5 5 5 5 6 5 6 5 5 5 5 5 5 5 5 5 5 6 5 5 5 6 5 5 5 5 5 5 5 5 5 5 5 5 5 5 5 5 6 5 5 5 5 5 5 5 6 5 5 5 5 6 5 5 5 5 6 5 5 6 5 5 6 5 5 5 5 6 6 5 5 5 5 5 5 5 5 5 5 5 5 5 5 5 5 5 5 5 5 5 6 5 5 5 5 6 5 5 5 5 5 5 5 5 6 5 6 6 5 5 5 6 5 5 5 5 5 5 5 5 5 6 5 6 5 5 5 6 5 5 6 5 6 5 5 5 5 6 6 5 5 5 5 6 5 6 6 5 5 5 5 5 5 5 5 5 5 5 5 5 5 5 5 6 5 5 5 5 5 5 5 5 5 5 5 5 5 5 5 5 5 5 5 5 5 5 5 5 5 5 5 5 5 5 5 5 5 5 5 5 5 6 5 5 5 5 5 6 5 5 5 6 5 5 5 5 5 5 6 6 5 5 5 5 6 5 5 5 5 5 5 5 6 5 5 5 5 5 6 5 5 5 6 5 5 5 5 6 5 5 5 5 5 5 6 5 5 5 5 5 5 5 5 5 5 5 6 5 5 5 5 5 5 5 5 5 5 5 5 5 5 6 5 5 6 5 6 6 5 5 5 5 5 5 5 5 5 5 5 5 5 5 5 5 5 5 5 5 5 6 5 5 5 5 5 5 5 5 5 5 5 5 5 5 5 5 5 5 5 5 5 5 5 5 5 5 5 5 5 5 5 5 5 5 5 5 5 5 5 5 5 5 5 5 5 5 5 5 5 5 5 5 5 5 5 5 5 5 5 5 5 5 5 5 5 5 6 5 5 5 5 6 6 5 5 5 5 6 5 5 5 5 5 5 5 5 5 5 5 5 6 5 5 5 5 5 5 5 5 5 5 5 5 6 5 5 5 5 5 5 5 5 5 5 6 5 5 6 5 5 5 5 5 5 5 5 5 5 5 5 5 5 5 5 5 5 5 5 5 5 5 5 5 6 5 5 6 5 5 6 5 5 5 5 5 5 6 5 5 5 5 6 5 5 5 5 5 5 5 5 5 5 5 5 5 5 5 5 5 5 5 5 5 6 5 5 5 5 5 5 5 5 5 5 5 5 5 5 5 6 5 6 5 5 5 5 5 5 5 5 5 5 5 5 5 6 5 5 5 5 5 5 6 5 5 6 5 5 5 5 5 5 5 5 6 5 5 5 5 5 5 6 5 5 5 5 5 5 5 5 5 5 5 5 5 5 5 5 5 5 5 5 5 5 6 5 5 5 5 5 5 5 5 5 5 5 5 5 5 5 5 5 5 5 5 5 5 6 5 5 5 5 6 5 5 6 5 5 6 5 5 5 5 5 6 6 5 6 6 5 5 5 6 5 5 6 5 5 5 5 5 5 5 5 5 5 5 5 5 5 5 5 5 5 5 5 5 5 5 5 5 5 5 5 5 5 5 5 5 5 5 5 5 5 5 5 5 5 5 5 5 5 6 5 5 5 5 5 5 5 5 5 5 5 5 5 6 5 5 6 6 5 5 5 5 5 5 5 6 5 5 6 5 5 5 6 5 5 5 6 5 5 5 5 5 5 5 5 5 5 5 5 5 5 5 5 5 5 5 5 5 6 5 5 5 5 6 5 6 5 6 5 5 6 6 5 5 5 5 5 5 5 6 5 6 5 5 5 5 5 5 5 5 5 6 5 6 5 5 5 6 5 5 6 5 6 5 5 5 6 5 5 5 5 5 5 5 5 5 5 5 6 5 5 5 5 6 5 5 5 5 5 5 5 5 5 5 5 5 5 5 5 5 5 5 5 5 6 5 5 5 6 5 6 6 6 5 5 5 5 5 5 5 5 5 5 5 5 6 5 5 6 5 6 5 6 5 5 6 5 5 5 5 6 5 5 5 5 5 5 5 6 5 5 5 5 5 5 5 5 5 5 6 5 5 5 5 5 5 5 5 5 5 5 5 5 6 5 5 5 6 6 6 5 5 5 5 5 5 6 5 5 5 5 5 6 5 5 5 5 5 5 6 5 5 6 5 5 6 5 5 5 6 5 5 6 5 5 5 6 5 5 6 6 5 5 5 5 6 5 5 5 5 5 5 5 5 5 5 5 5 5 5 5 5 5 5 5 5 5 5 5 5 5 5 5 5 5 5 5 6 5 5 5 5 5 5 5 5 6 5 5 5 5 5 5 5 5 5 5 5 6 5 5 5 5 5 5 5 5 5 5 5 5 5 5 5 5 5 6 5 5 5 5 5 6 5 5 6 5 5 5 5 5 5 6 5 5 5 6 5 5 6 5 5 5 6 5 6 5 5 5 5 6 5 5 5 5 5 6 6 5 5 5 5 5 5 5 5 5 5 5 5 6 5 5 5 5 5 5 5 5 5 5 5 5 5 6 5 5 5 6 5 5 6 5 5 6 5 6 5 5 6 5 5 5 5 6 6 5 6 5 5 5 5 5 5 5 5 5 5 5 5 5 6 5 5 5 5 5 6 5 5 5 5 5 5 5 5 5 5 5 5 5 5 5 5 5 5 5 5 5 5 5 5 5 5 5 5 5 5 5 6 5 5 5 5 6 5 5 5 6 5 5 5 5 5 5 5 5 5 5 5 5 5 5 5 6 5 5 5 5 5 5 5 5 5 5 5 5 5 5 6 6 5 6 5 6 5 5 5 5 5 5 5 5 5 5 5 6 5 5 5 5 5 6 5 5 5 5 5 5 6 5 5 5 5 5 5 5 5 5 5 5 5 5 5 5 5 5 5 5 5 5 5 5 5 6 5 5 5 5 5 6 5 5 5 5 5 5 5 5 5 5 5 5 5 5 5 5 5 5 5 5 5 5 5 5 6 5 5 5 6 5 5 5 5 5 5 5 5 5 5 5 5 5 5 5 5 5 5 5 5 5 5 5 5 5 5 5 5 5 5 6 5 5 6 5 5 5 5 5 5 5 5 5 6 5 6 5 5 5 5 5 5 5 5 6 5 5 5 6 5 5 5 5 5 5 6 5 5 5 6 5 5 5 5 5 5 5 5 5 5 5 5 5 5 5 5 5 5 5 5 5 5 6 5 5 5 5 5 5 6 5 5 5 6 6 5 5 5 5 5 5 6 6 5 6 5 6 5 5 6 5 6 5 5 5 5 6 6 5 5 5 5 5 5 5 5 5 6 5 5 5 5 5 6 5 5 5 5 5 5 5 5 5 5 6 5 6 5 5 5 5 5 5 5 5 5 5 5 5 5 5 5 5 5 5 5 5 5 5 5 5 6 5 5 5 5 5 5 5 5 5 5 5 6 5 6 5 5 5 5 5 5 5 5 5 5 5 6 5 5 5 6 5 5 5 6 5 5 5 5 5 5 5 5 5 5 5 5 5 5 5 5 5 5 6 5 6 5 5 5 5 5 6 5 6 5 5 5 6 5 5 5 5 5 5 6 5 5 6 5 5 5 5 5 5 5 5 5 5 5 5 5 5 5 5 5 5 5 5 5 5 5 5 5 5 5 5 5 5 5 5 5 5 5 5 5 5 5 5 5 5 5 5 5 5 5 5 5 5 5 5 5 5 6 5 5 5 5 5 6 5 5 5 5 5 5 5 5 5 5 5 5 5 5 5 5 5 5 5 5 5 5 5 5 5 5 5 5 5 5 5 5 5 5 5 5 5 5 5 5 5 5 5 5 5 5 5 5 5 5 5 5 5 5 5 5 5 5 5 5 5 5 6 5 5 5 5 6 5 5 5 5 5 5 5 5 5 5 5 5 5 5 5 5 5 6 5 5 5 6 5 6 5 5 5 5 5 5 5 5 5 5 5 5 5 5 5 5 6 5 5 5 5 6 5 5 5 5 5 5 5 5 5 5 5 5 5 5 5 5 5 6 5 6 5 5 6 6 5 6 5 5 5 5 6 5 5 5 6 5 5 5 5 5 5 5 5 6 5 5 5 6 5 5 5 5 5 6 5 5 5 6 6 5 5 5 6 5 6 5 5 5 5 5 5 5 5 5 5 5 5 5 5 5 5 5 5 5 5 5 5 5 5 6 6 5 5 5 5 5 6 6 5 5 5 5 5 6 5 5 5 5 5 5 5 5 5 5 5 5 5 6 5 5 5 5 5 6 5 5 5 5 5 6 5 5 5 5 5 5 5 5 5 5 5 6 5 5 5 5 5 5 5 5 5 5 5 5 6 6 5 5 5 5 5 5 5 5 5 5 6 5 5 5 5 5 6 5 5 5 5 5 5 5 5 5 6 5 6 5 5 5 5 5 5 5 5 5 5 5 5 5 6 5 5 5 6 5 6 5 5 5 6 5 6 5 5 5 5 5 5 5 5 5 6 5 5 5 5 5 5 5 5 5 5 5 5 5 5 5 5 5 5 5 5 5 5 5 5 5 6 5 5 5 5 5 5 5 5 6 5 5 6 5 5 6 5 6 5 5 6 5 5 5 6 5 5 5 5 5 5 5 5 5 5 6 5 5 5 5 5 6 5 6 5 6 5 5 5 5 5 5 5 6 6 5 5 5 6 6 5 6 5 5 5 5 5 6 5 5 6 5 5 5 5 5 5 6 5 5 5 6 5 5 5 5 5 6 5 6 5 6 5 5 5 5 5 5 5 5 5 5 5 5 5 5 5 5 5 5 5 5 5 5 5 5 5 5 5 5 5 6 5 5 5 5 5 5 5 6 5 5 5 6 5 6 5 5 6 5 5 5 6 5 5 5 5 6 5 5 5 5 5 5 5 5 5 5 5 5 5 6 5 5 5 5 5 5 6 5 5 5 5 5 5 5 5 5 5 5 5 6 5 5 5 5 5 5 6 5 5 5 5 5 5 6 5 6 5 5 5 6 5 5 5 5 5 5 6 5 5 5 5 5 5 5 5 5 5 5 5 5 5 5 5 6 5 5 5 5 5 5 5 5 5 
</DataArray>
<DataArray type="Float64" Name="stress" NumberOfComponents="9" format="ascii">
-1115.7081646727966 657.66160805610343 0 657.66160805610343 654.97235118674143 0 0 0 0 24.799842038088173 12.012683884759099 0 12.012683884759099 -101.0761325694275 0 0 0 0 -1072.3216100515529 923.39221828013433 0 923.39221828013433 -0.21196217336910195 0 0 0 0 2.1397889090403623 2247.4665722427781 0 2247.4665722427781 -1479.6631031216548 0 0 0 0 -1182.9692267756182 599.35558418630171 0 599.35558418630171 1230.5423925268988 0 0 0 0 -9.034237278674965 7.2769687873310787 0 7.2769687873310787 -4.7075085807762775 0 0 0 0 -852.84621540246007 4.7194309330661781 0 4.7194309330661781 1087.4273421791004 0 0 0 0 -919.12422202315065 574.15444570281215 0 574.15444570281215 148.30501709192322 0 0 0 0 -2.439954080790661 456.33502531133047 0 456.33502531133047 -305.93041532113421 0 0 0 0 -549.94659331172443 291.46419563640484 0 291.46419563640484 96.953566740550741 0 0 0 0 -425.14588560520497 550.20316289037874 0 550.20316289037874 -20.874272600747645 0 0 0 0 -242.13146835665248 336.56477798905416 0 336.56477798905416 -82.153245703455468 0 0 0 0 -212.68607416529267 439.15818053114344 0 439.15818053114344 14.883009340252102 0 0 0 0 462.08075625804486 316.29244198870583 0 316.29244198870583 166.76658564872923 0 0 0 0 481.19817320568109 376.68477894089301 0 376.68477894089301 65.896742006907289 0 0 0 0 95.043247025358141 38.032218895888946 0 38.032218895888946 152.9310113722313 0 0 0 0 -9.7451642463689439 15.856372622754257 0 15.856372622754257 -21.915129900532889 0 0 0 0 244.31055431335335 335.24348776611623 0 335.24348776611623 -63.930477087524196 0 0 0 0 823.83395662141265 -109.33601461196668 0 -109.33601461196668 567.45558636894566 0 0 0 0 -3.7844724434587818 5.5862847119527927 0 5.5862847119527927 -6.381314455604354 0 0 0 0 634.3995273896071 836.39241523212331 0 836.39241523212331 649.77788969526591 0 0 0 0 4.4044667563016446 7.9588677257931266 0 7.9588677257931266 -8.1687828480395499 0 0 0 0 244.80078909618896 739.81144803019561 0 739.81144803019561 1249.1185689555568 0 0 0 0 181.15839980060991 452.63301853538724 0 452.63301853538724 707.36363086177153 0 0 0 0 599.17020321276505 616.49246036205295 0 616.49246036205295 58.598144539259692 0 0 0 0 236.96659231171179 315.98088471706797 0 315.98088471706797 272.28537604810117 0 0 0 0 -17.109132044825856 18.946405996832713 0 18.946405996832713 -13.685963200441037 0 0 0 0 1211.0071528020635 621.00369737300207 0 621.00369737300207 230.50208392579179 0 0 0 0 894.29670821456239 1105.7683221183252 0 1105.7683221183252 -356.60637151462288 0 0 0 0 54.419751091438229 84.147068201426009 0 84.147068201426009 -46.578852841412299 0 0 0 0 34.69395569405242 46.875821706391434 0 46.875821706391434 -84.278779556554582 0 0 0 0 104.67370378553642 162.10087120972639 0 162.10087120972639 64.788612448974163 0 0 0 0 144.05920384012916 354.8509380946748 0 354.8509380946748 449.95567420141015 0 0 0 0 1.7703038281745478 3.5133080520304816 0 3.5133080520304816 0.071582021599515322 0 0 0 0 192.63887242203054 56.818402977489313 0 56.818402977489313 -334.74166758439242 0 0 0 0 -127.99295961794269 50.880361612486013 0 50.880361612486013 -19.477568216978398 0 0 0 0 10.33273372126132 8.2817933837795863 0 8.2817933837795863 -15.923146433357033 0 0 0 0 11.251786161617929 19.017860642987216 0 19.017860642987216 6.1763503994225175 0 0 0 0 -76.313853161154839 49.219813174866431 0 49.219813174866431 90.993443647817116 0 0 0 0 23.02627208919148 57.296265405071608 0 57.296265405071608 -52.859603979341045 0 0 0 0 -11.346841609429248 18.875617365536819 0 18.875617365536819 -16.710419299943268 0 0 0 0 2.4646668006727737 7.6685722699664041 0 7.6685722699664041 -5.9667498178468943 0 0 0 0 27.197406928229611 41.508576516949688 0 41.508576516949688 -160.23956712687936 0 0 0 0 -6.9278165338928375 -29.502714024096349 0 -29.502714024096349 -35.98380305954197 0 0 0 0 3.4697331055480447 4.415325189886488 0 4.415325189886488 0.67580848262268267 0 0 0 0 -10.272489909012023 17.61184027728978 0 17.61184027728978 -18.567285573228986 0 0 0 0 -44.632362525517237 79.78365684592427 0 79.78365684592427 31.175191806694784 0 0 0 0 187.26512661626475 159.73501177164144 0 159.73501177164144 104.81430721387005 0 0 0 0 178.51069765115972 278.31672966835686 0 278.31672966835686 268.83232887160557 0 0 0 0 270.28505789295014 343.15144772164786 0 343.15144772164786 279.85326135941068 0 0 0 0 334.25668650055741 250.36216966624488 0 250.36216966624488 149.34780803876492 0 0 0 0 374.65557725704275 345.24277517192604 0 345.24277517192604 153.83724280484603 0 0 0 0 77.285075678053545 185.87941339824101 0 185.87941339824101 146.62491341756322 0 0 0 0 366.22479020343599 301.76258575115207 0 301.76258575115207 94.347567554017587 0 0 0 0 309.82734640446142 247.71884222983135 0 247.71884222983135 50.651487630588235 0 0 0 0 292.50596061272154 255.18376802986131 0 255.18376802986131 143.03081263109925 0 0 0 0 -8.4284475041003191 18.804263340081206 0 18.804263340081206 -15.689464889194085 0 0 0 0 -1.713030804277281 10.324431163958948 0 10.324431163958948 13.276966133975009 0 0 0 0 -13.329862410049827 43.874015187313489 0 43.874015187313489 9.5647627806247328 0 0 0 0 131.49606579716055 29.016351750928152 0 29.016351750928152 -1.2434834400191903 0 0 0 0 246.75788314216334 63.078382468011114 0 63.078382468011114 -29.070207403638051 0 0 0 0 -1.5399297516430579 5.0147717258926434 0 5.0147717258926434 1.7471243607735119 0 0 0 0 125.55437650065141 120.82560296920565 0 120.82560296920565 51.437554733867728 0 0 0 0 -40.649508999893442 108.6024696276545 0 108.6024696276545 -225.94766150534269 0 0 0 0 -219.86965800553662 146.08429239299039 0 146.08429239299039 -233.42890095621988 0 0 0 0 960.84901478345273 228.32118022380018 0 228.32118022380018 -0.19679899408220081 0 0 0 0 -0.04093093646288537 -0.15067205679247309 0 -0.15067205679247309 2.5220043080483379 0 0 0 0 378.53439396727663 570.91833801022312 0 570.91833801022312 399.52950652557774 0 0 0 0 60.654677951679332 182.48173664553906 0 182.48173664553906 385.22944180217064 0 0 0 0 448.06595453784394 659.53793828748894 0 659.53793828748894 492.21717590783373 0 0 0 0 -487.61308259185898 593.93301090118985 0 593.93301090118985 140.8673479569843 0 0 0 0 357.08421564701712 754.90257856504468 0 754.90257856504468 86.820526085130041 0 0 0 0 108.61788137156691 462.9740220165404 0 462.9740220165404 716.11829643098463 0 0 0 0 -116.51553228947159 525.94147963963042 0 525.94147963963042 361.88760507878033 0 0 0 0 794.3476727338857 666.77425048861187 0 666.77425048861187 96.215172233216435 0 0 0 0 468.43273667445465 297.45413674078736 0 297.45413674078736 450.80018885323079 0 0 0 0 229.84588684787741 324.38474144844804 0 324.38474144844804 321.90338493691524 0 0 0 0 -139.48908657190168 132.30509722505758 0 132.30509722505758 364.83487933943979 0 0 0 0 -20.224071898189862 31.659363507092621 0 31.659363507092621 -48.568769571421569 0 0 0 0 109.80880265610176 102.4897776134967 0 102.4897776134967 -71.797323502680229 0 0 0 0 245.12864311278827 290.3827573482813 0 290.3827573482813 147.58025054257041 0 0 0 0 264.78615268850263 338.6562171002588 0 338.6562171002588 135.71619764089701 0 0 0 0 -29.249029024102427 43.523377879684467 0 43.523377879684467 -51.742766432701899 0 0 0 0 330.08217176681319 262.64341001563616 0 262.64341001563616 14.085118022514507 0 0 0 0 -7.013726794422837 70.761231775511988 0 70.761231775511988 235.976929747143 0 0 0 0 5.0183293488953495 -34.110098206656403 0 -34.110098206656403 -111.34312590480113 0 0 0 0 -14.049180773870972 15.249930822756276 0 15.249930822756276 -9.0759138327502313 0 0 0 0 66.176656595580425 57.998316006272034 0 57.998316006272034 -46.143744984219666 0 0 0 0 42.043378249290981 -96.794253763891902 0 -96.794253763891902 -264.19537828274042 0 0 0 0 -7.667848094002693 -24.095040825168326 0 -24.095040825168326 -32.255169761039724 0 0 0 0 9.8338168269547168 -48.365918845411215 0 -48.365918845411215 -84.588245701841515 0 0 0 0 -8.5302927170120597 8.6342746574361655 0 8.6342746574361655 -9.0011742097325254 0 0 0 0 115.76567215711839 79.841229025088978 0 79.841229025088978 -20.835713439275423 0 0 0 0 15.691989130467846 254.77248274217527 0 254.77248274217527 513.20669698201164 0 0 0 0 218.04534898950078 296.33316934524555 0 296.33316934524555 216.80180003981877 0 0 0 0 -0.0092484320703078993 170.4953956827103 0 170.4953956827103 329.47761741721297 0 0 0 0 103.20517504219606 218.37539907812607 0 218.37539907812607 272.79913316269449 0 0 0 0 92.692953249199491 118.79872501146747 0 118.79872501146747 105.99302003018238 0 0 0 0 -4.9466066156175543 4.4848517095038289 0 4.4848517095038289 -4.2455782087318994 0 0 0 0 -31.354105264072132 -183.69347165969884 0 -183.69347165969884 -323.93216240419133 0 0 0 0 0.23987921616935637 109.87695382024685 0 109.87695382024685 166.97515984876736 0 0 0 0 -2.709485803930761 1.005383309954361 0 1.005383309954361 -0.57214722468933132 0 0 0 0 -92.574547615346091 -107.08747740609033 0 -107.08747740609033 -782.47141955148254 0 0 0 0 -81.914560833723044 21.517385379473126 0 21.517385379473126 -105.39187937978568 0 0 0 0 39.497855008492479 -11.259472973659285 0 -11.259472973659285 -143.85580990380458 0 0 0 0 58.866205714293756 146.67551600215666 0 146.67551600215666 121.68919899032335 0 0 0 0 -16.115909461920495 25.194432602416001 0 25.194432602416001 -35.779109196084562 0 0 0 0 236.60993900550238 203.28299013153082 0 203.28299013153082 -21.064176318563113 0 0 0 0 155.88143076275992 -44.349031481528073 0 -44.349031481528073 -98.922137680303422 0 0 0 0 -57.102125567274925 10.415666443608643 0 10.415666443608643 -23.398926281268359 0 0 0 0 -880.61542599604945 500.299736460649 0 500.299736460649 -39.813011296842888 0 0 0 0 -470.04807368988622 347.59260260498195 0 347.59260260498195 -316.95588829288317 0 0 0 0 -1.3949519093405058 -0.57734759249024137 0 -0.57734759249024137 -1.7273843153596999 0 0 0 0 -1051.0814609441659 348.47515770861355 0 348.47515770861355 0.54797848963062279 0 0 0 0 -275.43602228293457 60.867082367760304 0 60.867082367760304 -82.410989484124002 0 0 0 0 -414.69222262399489 272.6140634506155 0 272.6140634506155 -335.50806119698973 0 0 0 0 -727.38901858226382 260.73514791311027 0 260.73514791311027 -4.9776858692348469 0 0 0 0 -532.99457953326419 281.9732982100395 0 281.9732982100395 -257.97786936756165 0 0 0 0 -558.86565717822123 217.10687398368555 0 217.10687398368555 1.1256069328228477 0 0 0 0 -426.096597452075 272.0070597764261 0 272.0070597764261 0.1358242142086965 0 0 0 0 -41.22605081708025 189.3126782977979 0 189.3126782977979 -167.18009449831152 0 0 0 0 -462.55279833874738 194.42431207088521 0 194.42431207088521 40.318535079793946 0 0 0 0 -68.017725540117681 283.22770015807691 0 283.22770015807691 -245.49223432973668 0 0 0 0 -55.907704152159567 208.61145484884764 0 208.61145484884764 186.96373111857974 0 0 0 0 357.43101155379554 293.99390591696647 0 293.99390591696647 -0.092124543534737313 0 0 0 0 308.97326360913576 376.36154974555393 0 376.36154974555393 -78.426570723273471 0 0 0 0 418.89111303524987 220.42026944229656 0 220.42026944229656 79.880395794971264 0 0 0 0 644.3390772465209 539.63909263354435 0 539.63909263354435 -147.1734141088964 0 0 0 0 -32.143857956019929 131.93027811441061 0 131.93027811441061 -55.398772011370056 0 0 0 0 114.69286755649591 331.2382925722286 0 331.2382925722286 145.89240796877129 0 0 0 0 575.35949506396719 170.05131679448823 0 170.05131679448823 63.87426954129478 0 0 0 0 784.98998909862712 370.04384272985772 0 370.04384272985772 144.82670921790123 0 0 0 0 87.277449624700239 123.86098512844183 0 123.86098512844183 654.81634092061722 0 0 0 0 687.05487836779503 519.70066488067823 0 519.70066488067823 96.823438561405055 0 0 0 0 118.39519752030174 533.94776970019666 0 533.94776970019666 -103.1698441732442 0 0 0 0 -1.5372228587666967 4.3972927716002204 0 4.3972927716002204 -5.2563475524881085 0 0 0 0 -26.970979619585705 664.92673011841907 0 664.92673011841907 446.83039178456238 0 0 0 0 1110.1256218560557 155.37373381053112 0 155.37373381053112 -41.676939494092949 0 0 0 0 470.04665559339628 1091.0836533394104 0 1091.0836533394104 -487.98517717301729 0 0 0 0 0.76477530209909617 1.5553165275801888 0 1.5553165275801888 5.9089122664792626 0 0 0 0 41.75472476453433 142.9833957354931 0 142.9833957354931 76.35424308515212 0 0 0 0 -125.27350916073192 295.29451447320753 0 295.29451447320753 -57.139442744482949 0 0 0 0 -379.60332293140345 110.52400373089586 0 110.52400373089586 513.98434897883999 0 0 0 0 -128.39795505556037 494.30204503858727 0 494.30204503858727 629.95372930381563 0 0 0 0 516.49694945327428 366.67927554432026 0 366.67927554432026 -617.08796702535619 0 0 0 0 -207.23325299785938 -106.03886809466348 0 -106.03886809466348 7.3061192037093861 0 0 0 0 -4.2015604367762762 6.3360325256514329 0 6.3360325256514329 -2.1522690769681674 0 0 0 0 -65.527377055259421 186.25963291741937 0 186.25963291741937 -467.41744300257415 0 0 0 0 -237.94266865010468 144.35401697713496 0 144.35401697713496 75.341874079836998 0 0 0 0 -422.61560515322344 348.74910216260832 0 348.74910216260832 -101.97184201349592 0 0 0 0 -291.69087136681628 252.61272680923139 0 252.61272680923139 90.24853387492476 0 0 0 0 -83.978563016717089 238.38743478775723 0 238.38743478775723 89.675555407446609 0 0 0 0 -252.99898529628263 187.30609982812166 0 187.30609982812166 86.837965987142525 0 0 0 0 -230.12974889166071 279.17977696128946 0 279.17977696128946 -81.11906179653306 0 0 0 0 -235.88877132251218 141.32430748566549 0 141.32430748566549 178.53735337029502 0 0 0 0 -289.43614763818914 336.04587287311733 0 336.04587287311733 269.18200712186808 0 0 0 0 -84.412963556475006 210.8582988325652 0 210.8582988325652 -108.76008214914327 0 0 0 0 -172.14859290107779 265.53633598297711 0 265.53633598297711 -14.727575166238239 0 0 0 0 -208.09048413598794 195.65514402821282 0 195.65514402821282 64.278328680447885 0 0 0 0 -303.88908710341639 -16.762280310284041 0 -16.762280310284041 106.6057425824547 0 0 0 0 697.57127325727197 133.38103562518882 0 133.38103562518882 -424.758722996914 0 0 0 0 267.15275059174746 104.78889833011272 0 104.78889833011272 -82.391468095345772 0 0 0 0 156.42963314992812 423.12268279186537 0 423.12268279186537 -91.995666906193946 0 0 0 0 211.38448573286951 271.99481792386359 0 271.99481792386359 -273.42675607111596 0 0 0 0 101.81902228209947 329.57223917359806 0 329.57223917359806 211.12888882949483 0 0 0 0 101.08585145728284 312.19880533172 0 312.19880533172 -83.127274181169923 0 0 0 0 157.17016110895611 443.13183379379393 0 443.13183379379393 260.60801427758997 0 0 0 0 -112.56848887298111 862.87988756774575 0 862.87988756774575 -345.22542431266629 0 0 0 0 -154.19236026082945 746.12971377027134 0 746.12971377027134 293.65543916962451 0 0 0 0 656.30137486796775 551.30997946796606 0 551.30997946796606 -422.68235222506337 0 0 0 0 -0.97418499207003606 4.0972190243185338 0 4.0972190243185338 -5.7677282085756474 0 0 0 0 466.34253908669416 634.29460639694298 0 634.29460639694298 495.3348858872414 0 0 0 0 -3.3791725899667 8.410290505619713 0 8.410290505619713 -10.690267807096774 0 0 0 0 525.2223152143597 630.0865856744349 0 630.0865856744349 345.60465384941199 0 0 0 0 448.7191140617615 325.90890642534123 0 325.90890642534123 -35.476275118766353 0 0 0 0 -454.46793210060309 271.37018123657981 0 271.37018123657981 -246.46360686131811 0 0 0 0 -454.72798727548798 242.00752158640171 0 242.00752158640171 140.67148006476054 0 0 0 0 -431.90838691484169 255.12934859053712 0 255.12934859053712 -109.85545170304249 0 0 0 0 -684.58205850314698 443.26958276502046 0 443.26958276502046 75.294412374161766 0 0 0 0 -73.230574373632408 349.19370288681239 0 349.19370288681239 382.8831312616021 0 0 0 0 -103.01001043881115 491.78657725296216 0 491.78657725296216 -70.736610099975223 0 0 0 0 57.784223779106469 817.33883187301944 0 817.33883187301944 -178.40972764701291 0 0 0 0 97.784367197120446 193.3995835590249 0 193.3995835590249 182.53756324945061 0 0 0 0 -292.18903897188284 379.26346863400249 0 379.26346863400249 519.14745305970428 0 0 0 0 380.62961915215055 497.43713240070429 0 497.43713240070429 -92.729567506937656 0 0 0 0 0.22021038878572341 1.775314059960948 0 1.775314059960948 -3.0331334097933791 0 0 0 0 -989.73855930862555 617.54692129848627 0 617.54692129848627 156.75241357056075 0 0 0 0 -1333.0491358688523 293.60409403027006 0 293.60409403027006 60.444976289876195 0 0 0 0 -1244.6837575461104 -158.22182553174935 0 -158.22182553174935 -61.595504678549332 0 0 0 0 -702.97661285179493 207.00254586680239 0 207.00254586680239 150.37457939737942 0 0 0 0 -489.3375296160375 416.17180382467632 0 416.17180382467632 57.049268565227294 0 0 0 0 -137.51888821627654 833.87742955113936 0 833.87742955113936 207.2979752131796 0 0 0 0 -814.26525764419785 783.01288335066056 0 783.01288335066056 289.84392081508122 0 0 0 0 -234.07129914879624 368.10085502557195 0 368.10085502557195 189.7804998572683 0 0 0 0 -423.88813353096339 243.62977504799346 0 243.62977504799346 708.78552455565659 0 0 0 0 -239.20963928046694 469.82417496617563 0 469.82417496617563 846.80883686459129 0 0 0 0 40.176275239478855 212.25745402886969 0 212.25745402886969 495.14733763743425 0 0 0 0 123.93961762840627 -262.11829971553016 0 -262.11829971553016 627.34404545795405 0 0 0 0 -4.7427742330380944 3.4464405380424523 0 3.4464405380424523 15.291384967477541 0 0 0 0 -221.00430463810335 201.53136362366786 0 201.53136362366786 1282.3888858616119 0 0 0 0 18.380774609671789 287.32599643993308 0 287.32599643993308 588.47535636290922 0 0 0 0 -304.47692307051329 91.584439677055343 0 91.584439677055343 262.0776430714468 0 0 0 0 -292.41304011901957 295.73755583463935 0 295.73755583463935 588.73680434540074 0 0 0 0 -262.05713025302975 -45.975245088367956 0 -45.975245088367956 -97.426334686795599 0 0 0 0 -154.79654676228529 156.36637816193979 0 156.36637816193979 -35.907021737744799 0 0 0 0 -51.148103244362574 -45.629355222947197 0 -45.629355222947197 -229.15357170323841 0 0 0 0 30.096683949741418 262.29550171129813 0 262.29550171129813 118.09789541480131 0 0 0 0 -831.66144419221382 -458.84497918385023 0 -458.84497918385023 -309.7083866678222 0 0 0 0 -230.27333151783387 -470.67204086550191 0 -470.67204086550191 -796.17491680162493 0 0 0 0 -223.08649012073874 -359.82099001761526 0 -359.82099001761526 -349.93914154000231 0 0 0 0 -138.64371619717986 -231.5849428685342 0 -231.5849428685342 -587.70126739586703 0 0 0 0 -6.7987466497893223 9.2338802079642477 0 9.2338802079642477 -0.79333716303676738 0 0 0 0 -125.25028840705363 -15.020956872422175 0 -15.020956872422175 -308.56553347286535 0 0 0 0 -271.11816337530036 -267.17920290163238 0 -267.17920290163238 -386.68215785903158 0 0 0 0 17.341318138409406 59.864599406661 0 59.864599406661 -172.23983206026605 0 0 0 0 2.2443388081262015 5.7372438270741952 0 5.7372438270741952 2.6241050655983287 0 0 0 0 -22.838978714564881 24.464219107658039 0 24.464219107658039 10.503974695697366 0 0 0 0 -539.64006745627557 -93.571833310561487 0 -93.571833310561487 -117.73882853568648 0 0 0 0 -306.95965240028454 -289.2818270779826 0 -289.2818270779826 -394.24320034697303 0 0 0 0 -433.42779424678884 24.026243322747177 0 24.026243322747177 -89.0710256966413 0 0 0 0 54.801810028930049 -98.281749601508636 0 -98.281749601508636 -13.738948612910463 0 0 0 0 -92.336309792517568 182.19085690414795 0 182.19085690414795 -436.18749505493906 0 0 0 0 -234.77380956840352 447.90631027643394 0 447.90631027643394 -283.45966880003107 0 0 0 0 -586.50543561461382 737.84390138117305 0 737.84390138117305 -347.87252643069769 0 0 0 0 -0.31509290492541453 1.3686996631168427 0 1.3686996631168427 -4.9168653919330723 0 0 0 0 -1056.2837853473065 668.66442358396307 0 668.66442358396307 182.35147830392816 0 0 0 0 -467.45601026853547 -202.39693750544393 0 -202.39693750544393 -964.09106370020891 0 0 0 0 -936.60251930165941 617.32576710194189 0 617.32576710194189 73.359980842404184 0 0 0 0 -700.50574086566485 346.72596450911078 0 346.72596450911078 282.46802999724605 0 0 0 0 -677.25728325323144 435.15301714837551 0 435.15301714837551 -165.3687504784757 0 0 0 0 -707.09326331182092 503.40103478262972 0 503.40103478262972 -61.024218556383858 0 0 0 0 -380.38261867578694 419.24296141367086 0 419.24296141367086 -39.470913051336538 0 0 0 0 -657.40335327252251 442.77819590698346 0 442.77819590698346 -175.34527389664436 0 0 0 0 -169.76632434914063 125.01521602590947 0 125.01521602590947 -28.653499546890089 0 0 0 0 -19.146699446145618 18.803518450756101 0 18.803518450756101 -7.0507411014979056 0 0 0 0 -22.532713196693294 34.924993498445474 0 34.924993498445474 -13.934119683806784 0 0 0 0 139.0569213648414 29.322339791251579 0 29.322339791251579 1.0936331125230936 0 0 0 0 -9.2068995707158763 3.3028409566714316 0 3.3028409566714316 -2.1776870242088222 0 0 0 0 -31.779497419738618 51.645257248310372 0 51.645257248310372 135.94477726125479 0 0 0 0 187.04621038025653 396.47230196460441 0 396.47230196460441 -1628.3964427839383 0 0 0 0 -16.325671243521697 241.55639154178942 0 241.55639154178942 -724.69050609634724 0 0 0 0 323.97155529040901 1142.580222077595 0 1142.580222077595 -858.52458016581659 0 0 0 0 -220.66271068149217 675.10146572205122 0 675.10146572205122 -741.83774990498205 0 0 0 0 -87.868711662784335 565.53987846762175 0 565.53987846762175 -702.85999258176889 0 0 0 0 -221.25739655719372 654.30269942892483 0 654.30269942892483 -795.39953440235877 0 0 0 0 -199.3664779234241 483.6958759468107 0 483.6958759468107 -488.24202060967127 0 0 0 0 -294.18017981792582 616.85389194504205 0 616.85389194504205 -673.78151192207588 0 0 0 0 -15.829516006627557 84.791198603325157 0 84.791198603325157 -441.88643853343092 0 0 0 0 -463.14789795452998 332.52708441455616 0 332.52708441455616 -108.3093273229606 0 0 0 0 -466.64607094757048 754.45950033156532 0 754.45950033156532 -394.30076180922333 0 0 0 0 -459.46473371086631 774.22250262258331 0 774.22250262258331 -639.24122122830886 0 0 0 0 615.15867377624818 18.103106086793559 0 18.103106086793559 2044.0550001987431 0 0 0 0 -812.89197698610224 1776.4708242802444 0 1776.4708242802444 1522.540246886434 0 0 0 0 -278.37263200360758 508.20400364006491 0 508.20400364006491 1795.8812530133291 0 0 0 0 -23.775029090738826 507.14737731683454 0 507.14737731683454 1323.7615147188189 0 0 0 0 -477.3397757862549 22.977868049070821 0 22.977868049070821 2191.7378059677721 0 0 0 0 -12.668626175607585 6.1937294204268056 0 6.1937294204268056 0.84580413645229591 0 0 0 0 -393.63811710186565 222.62115917023402 0 222.62115917023402 2303.8875074000098 0 0 0 0 -181.08743413923366 -176.39414363263859 0 -176.39414363263859 1779.9017198084548 0 0 0 0 -87.421546726738597 713.44872618922818 0 713.44872618922818 -1141.7048865606703 0 0 0 0 29.047762514077476 490.21523745063314 0 490.21523745063314 -826.00756087648551 0 0 0 0 -413.97480433647797 194.99337811214173 0 194.99337811214173 475.58604603753338 0 0 0 0 74.448086652642814 275.34828138483135 0 275.34828138483135 -551.85775440263387 0 0 0 0 -502.3898471747234 325.12838586744328 0 325.12838586744328 -140.44981220563932 0 0 0 0 240.94209363009577 176.58000681468548 0 176.58000681468548 624.68149261206054 0 0 0 0 -78.854564937673786 631.79092018560186 0 631.79092018560186 867.41970263706753 0 0 0 0 -27.218180195974156 13.576141385967887 0 13.576141385967887 1.5106628127141812 0 0 0 0 -264.94317107875395 180.94562485165807 0 180.94562485165807 1530.6738237316677 0 0 0 0 183.64742971744272 72.839276624996273 0 72.839276624996273 558.96262889239006 0 0 0 0 -171.60551902280713 550.32577898299496 0 550.32577898299496 -106.45056978521461 0 0 0 0 296.69651146690012 250.12928664274659 0 250.12928664274659 -264.32437797967577 0 0 0 0 -3.9036220750276698 583.18003497848986 0 583.18003497848986 -461.47421410207608 0 0 0 0 -112.00124152746866 493.65290991764778 0 493.65290991764778 -893.58859090275655 0 0 0 0 -444.55374614645734 764.50901029310808 0 764.50901029310808 -911.47183138283435 0 0 0 0 -370.53955694937758 385.46037496376084 0 385.46037496376084 -568.10015434943489 0 0 0 0 -1148.598300241465 1443.8050681609238 0 1443.8050681609238 -1082.0866376792947 0 0 0 0 -81.282862530024431 812.14094883875077 0 812.14094883875077 -1688.6682034137339 0 0 0 0 -149.86698267726752 278.04065039298439 0 278.04065039298439 -1193.1826463810285 0 0 0 0 -377.62752251645725 457.32880456603016 0 457.32880456603016 -624.38071785126522 0 0 0 0 -6.9667246264580172 808.90684985448024 0 808.90684985448024 -296.77448883894249 0 0 0 0 546.81916513781471 1474.873793524428 0 1474.873793524428 -396.48492002862986 0 0 0 0 1356.0323385426709 -424.86958319711539 0 -424.86958319711539 -1783.1711613094376 0 0 0 0 4.1077735734519223 4.3556062519917873 0 4.3556062519917873 -2.1295677760401759 0 0 0 0 209.06633867192431 -152.31712688997504 0 -152.31712688997504 317.78996302319138 0 0 0 0 -435.8550403547124 406.60125000253174 0 406.60125000253174 -556.83343424378745 0 0 0 0 -1008.4578721221696 748.36608959338537 0 748.36608959338537 -696.58729532980942 0 0 0 0 -206.87711280923395 357.67158498702338 0 357.67158498702338 -581.80738676830515 0 0 0 0 -347.76285006726539 521.8999808829285 0 521.8999808829285 -727.85671997672762 0 0 0 0 -84.362436022584916 337.32303726374812 0 337.32303726374812 -515.5913966873195 0 0 0 0 -82.396916780674474 344.76270206005847 0 344.76270206005847 -691.35554012368084 0 0 0 0 -138.63643845655315 284.49287018314499 0 284.49287018314499 -597.37014136153448 0 0 0 0 -39.311677376143052 281.19773114087002 0 281.19773114087002 -587.23365763843321 0 0 0 0 -82.397958153791933 222.74884527332142 0 222.74884527332142 -512.16754220268922 0 0 0 0 -83.485282170440769 242.56692571625172 0 242.56692571625172 -637.40201908121526 0 0 0 0 -112.86029774812778 323.82316180168345 0 323.82316180168345 -737.66839546649135 0 0 0 0 -25.931509847097914 404.1104327147259 0 404.1104327147259 -583.03465956774016 0 0 0 0 -153.48486780837993 286.74774591318419 0 286.74774591318419 -620.57471966568846 0 0 0 0 -78.68383045808514 192.20443100791999 0 192.20443100791999 1700.1126098542518 0 0 0 0 -68.20990161510781 218.51984408159569 0 218.51984408159569 -53.114437610609457 0 0 0 0 -81.4405562539323 306.52378608161416 0 306.52378608161416 -695.50275220157346 0 0 0 0 327.25105548323882 -95.493747540261211 0 -95.493747540261211 -18.981707677216036 0 0 0 0 -20.522970157010576 13.070901909930171 0 13.070901909930171 1.8553220793105627 0 0 0 0 -70.963872890817584 298.15378018997581 0 298.15378018997581 577.38667698483914 0 0 0 0 21.436465738137485 490.24282698561001 0 490.24282698561001 312.94794603725313 0 0 0 0 8.6023425549647072 26.263526442358852 0 26.263526442358852 79.145341958268546 0 0 0 0 8.2593039267667336 72.136683131357131 0 72.136683131357131 303.16175260202363 0 0 0 0 -0.96156667974685206 3.5579956943533233 0 3.5579956943533233 -0.075819592520382173 0 0 0 0 14.346592574976967 122.62765191879589 0 122.62765191879589 -827.9849958329396 0 0 0 0 -151.04992484000104 -18.837585665038205 0 -18.837585665038205 1948.1278270560433 0 0 0 0 17.176672989095096 162.58401550728013 0 162.58401550728013 -576.27561242370575 0 0 0 0 36.663739282783354 -11.455339938474935 0 -11.455339938474935 -494.0259807354887 0 0 0 0 -22.121837078215322 111.41066897084238 0 111.41066897084238 -289.53867381931559 0 0 0 0 -21.908905551033968 -48.745296442939434 0 -48.745296442939434 -242.0042006396834 0 0 0 0 -56.699364950203744 60.280196269362932 0 60.280196269362932 -138.97057884336391 0 0 0 0 41.497109757165163 512.40483037591639 0 512.40483037591639 2943.6020279934091 0 0 0 0 -0.5961285160247769 10.100323852539987 0 10.100323852539987 -0.68216816351005605 0 0 0 0 499.06878228523419 -42.143575813417556 0 -42.143575813417556 2776.9729387187845 0 0 0 0 31.297911675370415 325.06833803498012 0 325.06833803498012 -599.62939021826605 0 0 0 0 -5.9413318125439218 6.5774053699400667 0 6.5774053699400667 1.5820961106990525 0 0 0 0 -3.1628889365674695 108.80626454398589 0 108.80626454398589 -370.42809269562713 0 0 0 0 -119.87078536401532 326.23205686837173 0 326.23205686837173 -9.9850668431608938 0 0 0 0 -127.39542294210696 465.47285068842757 0 465.47285068842757 -495.07983716817398 0 0 0 0 -153.6902497843198 322.95493599250403 0 322.95493599250403 216.68608757416951 0 0 0 0 -452.57728789036628 652.26847536498099 0 652.26847536498099 552.02518940228038 0 0 0 0 -338.72790792863816 709.44212485749449 0 709.44212485749449 3.3336123241060704 0 0 0 0 -756.16344047899474 2025.3372815576149 0 2025.3372815576149 -122.31499191926559 0 0 0 0 -278.11892642905877 405.70860253418505 0 405.70860253418505 788.40492859890219 0 0 0 0 -5.0834679465333465 -25.75573354090011 0 -25.75573354090011 -20.829052068904275 0 0 0 0 56.551133537013811 0.056908223772552446 0 0.056908223772552446 -118.24950997854467 0 0 0 0 43.743392576667247 52.332711245675455 0 52.332711245675455 -213.68950200958352 0 0 0 0 -41.913396186733735 143.95025447226362 0 143.95025447226362 -203.67206517152317 0 0 0 0 4.632100330418325 94.633476123461151 0 94.633476123461151 -191.05900780002412 0 0 0 0 -22.851043373349967 45.995371046141372 0 45.995371046141372 -75.568047985027079 0 0 0 0 -57.78116571999999 274.40132666101999 0 274.40132666101999 -347.26805393082759 0 0 0 0 -8.6218531037302455 100.38360473002103 0 100.38360473002103 -174.48834267894563 0 0 0 0 -18.343834847335529 177.44838746417372 0 177.44838746417372 -413.78970040594868 0 0 0 0 -32.983576081162028 217.10908588027996 0 217.10908588027996 -372.56195372833463 0 0 0 0 -65.250163480013725 341.0333071232817 0 341.0333071232817 -483.68732076080778 0 0 0 0 -87.729269692514208 432.16196540098463 0 432.16196540098463 -508.94770096027423 0 0 0 0 -41.951745008620492 334.9424304764143 0 334.9424304764143 -553.63813044064591 0 0 0 0 -39.94984965839285 258.62531966602 0 258.62531966602 -395.51873887798138 0 0 0 0 -174.50604369192479 363.6187000055379 0 363.6187000055379 -415.15474028766039 0 0 0 0 -42.978800337887918 51.54794934112951 0 51.54794934112951 -57.896968119402203 0 0 0 0 -79.27406442915526 737.38281405781527 0 737.38281405781527 -668.72112151058536 0 0 0 0 -112.5913495230343 442.42398434157076 0 442.42398434157076 -503.61299750977923 0 0 0 0 -110.5037494566277 280.71038682499784 0 280.71038682499784 -435.08714209661412 0 0 0 0 -76.272444106944022 457.21357599261682 0 457.21357599261682 -498.63047437142086 0 0 0 0 -35.152326739234411 54.267537285445513 0 54.267537285445513 -57.54683333301503 0 0 0 0 -16.91121783159906 339.41743304084957 0 339.41743304084957 -440.81747621894465 0 0 0 0 31.459919410495786 360.90071510912094 0 360.90071510912094 -477.87478189824469 0 0 0 0 -5.0484249805467698 183.65626824038145 0 183.65626824038145 -369.38148781199561 0 0 0 0 -11.823559177908464 129.27602603537525 0 129.27602603537525 -213.66054596169124 0 0 0 0 -5.8837866954927449 106.46569416118109 0 106.46569416118109 -196.86651304254519 0 0 0 0 31.631184115385309 38.627642838410992 0 38.627642838410992 -0.7051238576036738 0 0 0 0 -0.75487643779192126 12.480063249426024 0 12.480063249426024 -17.592833545864863 0 0 0 0 -132.18379243915842 -65.936154668437666 0 -65.936154668437666 -185.80523255609535 0 0 0 0 -5.2450733063787993 115.80957727434304 0 115.80957727434304 -160.23934777959948 0 0 0 0 12.953618388219198 27.183763587338376 0 27.183763587338376 -5.3102957268798718 0 0 0 0 -7.7564634860192427 44.665049665184625 0 44.665049665184625 -80.154433747678155 0 0 0 0 -40.885445201980474 177.72618172343573 0 177.72618172343573 -187.58371554614223 0 0 0 0 36.024417734879535 -6.4425136074605689 0 -6.4425136074605689 -66.961624198367645 0 0 0 0 -30.417859446795774 72.165592648709662 0 72.165592648709662 -32.757363762124442 0 0 0 0 -31.421615254369499 73.186698346768026 0 73.186698346768026 115.89876916861976 0 0 0 0 130.97167738467397 96.199772986907192 0 96.199772986907192 -20.050178617755591 0 0 0 0 31.649222328465839 6.8516838993018609 0 6.8516838993018609 -97.07410693980637 0 0 0 0 -21.122595701679529 230.79836660204728 0 230.79836660204728 -453.74476092096302 0 0 0 0 16.026426576686546 14.62937684805523 0 14.62937684805523 2.9628322669708211 0 0 0 0 -375.9389016302448 623.66438278046462 0 623.66438278046462 240.75097350838769 0 0 0 0 -150.34189394962596 249.057002480542 0 249.057002480542 -107.44692496939388 0 0 0 0 -120.76815542513214 514.37817996168451 0 514.37817996168451 -317.28345853765131 0 0 0 0 -58.997254083198641 403.03795441477814 0 403.03795441477814 -512.5965414831735 0 0 0 0 -118.91233854148595 403.33703542787771 0 403.33703542787771 -511.66616233145032 0 0 0 0 -124.22790240828908 440.0767951946691 0 440.0767951946691 -630.73624338132504 0 0 0 0 -471.91615650548556 315.78457093378529 0 315.78457093378529 -421.86393683103233 0 0 0 0 268.64868622745234 4.30372969394557 0 4.30372969394557 14.259525336441584 0 0 0 0 11.602317138011784 11.329186827428003 0 11.329186827428003 -2.2380178104480706 0 0 0 0 -605.77960490610712 533.51039429367665 0 533.51039429367665 -543.03796015249145 0 0 0 0 105.46032963538164 76.211573278298602 0 76.211573278298602 21.370458813846199 0 0 0 0 140.28919653955745 163.31899071090265 0 163.31899071090265 192.41062088817125 0 0 0 0 66.667701875110652 120.07874007392093 0 120.07874007392093 6.2790063471329631 0 0 0 0 143.36504956414137 64.593912254731549 0 64.593912254731549 -140.65225936215575 0 0 0 0 87.020761030387803 99.493969411389116 0 99.493969411389116 -200.01414015953196 0 0 0 0 18.696216147902305 12.909606085835549 0 12.909606085835549 23.423853408830837 0 0 0 0 80.649700483256311 -103.84881059130566 0 -103.84881059130566 -378.84590002075129 0 0 0 0 -1.216546374426315 -0.61416793896529498 0 -0.61416793896529498 0.95870875130904665 0 0 0 0 44.764386812126759 224.33229086003303 0 224.33229086003303 261.05814357749477 0 0 0 0 11.431583584919281 41.342685108233127 0 41.342685108233127 147.85507370905179 0 0 0 0 90.169060040496333 59.362894062489431 0 59.362894062489431 -54.055525680058054 0 0 0 0 -5.7240207346476382 123.19254386211105 0 123.19254386211105 207.44619754984888 0 0 0 0 -1.7533521485706842 -0.80634068685951377 0 -0.80634068685951377 -0.14590615029479181 0 0 0 0 54.63934341354252 31.535167491638276 0 31.535167491638276 -152.60232162209286 0 0 0 0 -29.942253487955895 5.9844828260320355 0 5.9844828260320355 -95.892269530559133 0 0 0 0 23.277886688621948 38.202201403022627 0 38.202201403022627 -55.796252234798885 0 0 0 0 32.349034804734401 64.137890062726001 0 64.137890062726001 3.5012848970945925 0 0 0 0 4.036750164363184 94.860613070239197 0 94.860613070239197 119.46017676694464 0 0 0 0 73.24431073237065 62.091780419941642 0 62.091780419941642 -3.998339196521556 0 0 0 0 6.1353576143852422 9.4429206181259815 0 9.4429206181259815 8.7733166317134277 0 0 0 0 53.15455886493146 57.665450070460793 0 57.665450070460793 -0.12233906443361775 0 0 0 0 48.819518676027656 46.734954841100262 0 46.734954841100262 61.40972278296249 0 0 0 0 55.008429091787548 51.221401548686117 0 51.221401548686117 -7.1054011615706258 0 0 0 0 33.711080850858707 95.663154715513883 0 95.663154715513883 -22.453945913453936 0 0 0 0 27.001296130183619 95.73461372953534 0 95.73461372953534 -11.834823653029162 0 0 0 0 20.521985180814227 79.780051630653816 0 79.780051630653816 -23.262702990949037 0 0 0 0 78.065024913892557 106.5214789325255 0 106.5214789325255 -87.327076960818886 0 0 0 0 55.560796801029937 116.93976220044715 0 116.93976220044715 -8.874341344468121 0 0 0 0 17.636321818332362 98.834738453406317 0 98.834738453406317 7.2119864538472029 0 0 0 0 78.334839867997289 145.89733030802654 0 145.89733030802654 43.677790974456002 0 0 0 0 -54.424614598523476 64.323294671241456 0 64.323294671241456 37.918955818233371 0 0 0 0 96.660984692556667 295.83835176040157 0 295.83835176040157 104.8073619332863 0 0 0 0 -76.918834592037456 142.56468611147648 0 142.56468611147648 -10.674615913070738 0 0 0 0 -57.727706203062553 397.81300373452905 0 397.81300373452905 113.14263936749921 0 0 0 0 60.457110842166003 318.63740918016993 0 318.63740918016993 159.91993987478418 0 0 0 0 -130.15820717788301 432.86850754220359 0 432.86850754220359 -152.69768053247026 0 0 0 0 42.057139074138831 278.3473118004531 0 278.3473118004531 -82.026355119829532 0 0 0 0 -218.64009531243937 158.11372073663733 0 158.11372073663733 -126.38977683391386 0 0 0 0 -65.655336323688971 269.92941531138786 0 269.92941531138786 -169.98348644405633 0 0 0 0 -8.605367170770478 10.041159581820466 0 10.041159581820466 -364.66466901281638 0 0 0 0 -0.06770666989905294 256.49814323578903 0 256.49814323578903 -91.61299258235158 0 0 0 0 -63.51124562593759 131.94638371574729 0 131.94638371574729 270.59174888372945 0 0 0 0 34.551191301710787 34.533149572533148 0 34.533149572533148 104.85589071311551 0 0 0 0 39.211872977895837 263.75863370942898 0 263.75863370942898 364.67782516215084 0 0 0 0 96.709071561810561 140.49460601416285 0 140.49460601416285 140.43048511712914 0 0 0 0 -0.063517258473439142 205.23561252354375 0 205.23561252354375 370.93638628819463 0 0 0 0 303.15632899239426 231.47641905342971 0 231.47641905342971 342.06542843161878 0 0 0 0 72.608150192667381 114.57801302010557 0 114.57801302010557 444.92844201923981 0 0 0 0 21.724938460582052 281.94025108333881 0 281.94025108333881 1130.4146556518026 0 0 0 0 2.6950478729384031 -1.0243591311210309 0 -1.0243591311210309 1.282700890381161 0 0 0 0 169.73584242910147 453.11128211263167 0 453.11128211263167 686.66749984928174 0 0 0 0 211.91069212203729 263.21390540060384 0 263.21390540060384 321.59232355165204 0 0 0 0 4.8680014850833686 232.79361383911601 0 232.79361383911601 319.30500525618845 0 0 0 0 86.432004765661986 416.02156669490978 0 416.02156669490978 257.43011871248018 0 0 0 0 61.20747724933608 382.91677929146681 0 382.91677929146681 540.02038214230561 0 0 0 0 93.425027840406983 299.2236698518027 0 299.2236698518027 351.51710923247447 0 0 0 0 110.25612271585851 290.51631756924326 0 290.51631756924326 534.86344811047593 0 0 0 0 24.234109176904894 303.63121478176981 0 303.63121478176981 646.13067920895992 0 0 0 0 10.177902198609388 0.90795704879400319 0 0.90795704879400319 -2.8480858585041133 0 0 0 0 102.25303179955517 214.96411626633926 0 214.96411626633926 501.55663740151795 0 0 0 0 130.8428503187024 311.87257087912076 0 311.87257087912076 330.65291914989939 0 0 0 0 -37.332141696067993 55.382840372665669 0 55.382840372665669 51.331103706892463 0 0 0 0 -3.2159848436714924 23.493841713660075 0 23.493841713660075 -23.780162891851948 0 0 0 0 60.310714040660969 62.7996831976061 0 62.7996831976061 -67.583070763597789 0 0 0 0 126.691610935668 235.47736635952606 0 235.47736635952606 136.35557762690587 0 0 0 0 0.11453580940650454 2.5829192668733043 0 2.5829192668733043 6.5942039408564597 0 0 0 0 65.215321239331388 270.87447167274149 0 270.87447167274149 174.2078527068079 0 0 0 0 69.00163170734595 296.21330750907873 0 296.21330750907873 341.55306616707821 0 0 0 0 145.18922460416798 358.84816438269627 0 358.84816438269627 161.86167177899642 0 0 0 0 128.60158852780296 384.37453709899273 0 384.37453709899273 138.25970121157297 0 0 0 0 103.28142206012853 395.94118556262401 0 395.94118556262401 200.57607925787306 0 0 0 0 110.38309418888821 345.97385330230099 0 345.97385330230099 261.31429416181345 0 0 0 0 71.500746133217035 373.10789278189441 0 373.10789278189441 350.60422674397705 0 0 0 0 -298.1363525402121 899.29062088392675 0 899.29062088392675 1019.5515428635845 0 0 0 0 6.6083605676573995 17.227986188279715 0 17.227986188279715 -6.3023936229816115 0 0 0 0 344.38001892153989 236.30525599971952 0 236.30525599971952 809.16516093550308 0 0 0 0 -152.83069693885909 351.32100773941124 0 351.32100773941124 651.31281273337663 0 0 0 0 35.386418395952205 588.0702163324022 0 588.0702163324022 531.86345148767577 0 0 0 0 -0.77088086969129499 10.363471293555492 0 10.363471293555492 1.9309707508147653 0 0 0 0 1205.6413880094769 476.59458850664669 0 476.59458850664669 481.68883784383797 0 0 0 0 -19.362804169731874 41.487769717403211 0 41.487769717403211 -31.543182745388023 0 0 0 0 146.75150585272058 98.275378123915289 0 98.275378123915289 -236.54181156808772 0 0 0 0 -309.28521311169152 160.36479433827662 0 160.36479433827662 247.50861289084423 0 0 0 0 29.723369367053238 303.00089414401373 0 303.00089414401373 156.71008686779533 0 0 0 0 -8.4141872194886673 46.16590100711619 0 46.16590100711619 -22.567353066266151 0 0 0 0 -22.697612674491296 36.574451865005599 0 36.574451865005599 -39.015608491701641 0 0 0 0 121.76125745556055 215.82105333833533 0 215.82105333833533 96.108587898605037 0 0 0 0 62.749116801831406 45.739975654181762 0 45.739975654181762 -67.513917187432526 0 0 0 0 -16.024300074963989 38.318854802697274 0 38.318854802697274 -27.250828029999639 0 0 0 0 -10.857298026094213 23.633870373174432 0 23.633870373174432 13.341673347746109 0 0 0 0 33.039007341154502 6.5690881504488061 0 6.5690881504488061 -118.60541789157287 0 0 0 0 -34.305114172027629 50.475333830606473 0 50.475333830606473 -60.148566880906969 0 0 0 0 -99.305117777810665 167.70835064835046 0 167.70835064835046 -80.81802181002422 0 0 0 0 266.12372891961422 249.29407540184548 0 249.29407540184548 22.231300861461932 0 0 0 0 703.75605498816731 265.54663439748947 0 265.54663439748947 -64.156720664166642 0 0 0 0 -10.203103837003795 13.916149799400074 0 13.916149799400074 -11.178731285003892 0 0 0 0 319.25606273530866 432.54741409543567 0 432.54741409543567 7.2223698081252223 0 0 0 0 407.72329947461549 460.25992709339698 0 460.25992709339698 -20.753824060302577 0 0 0 0 -101.54328013406212 150.33774914438709 0 150.33774914438709 -135.705893363629 0 0 0 0 137.07015043092542 425.17731625103261 0 425.17731625103261 46.903318019052676 0 0 0 0 40.37557075299992 433.74126416287118 0 433.74126416287118 189.2523178448173 0 0 0 0 205.11779247986851 373.02182645947323 0 373.02182645947323 113.32522880894248 0 0 0 0 147.42913434559887 391.85178273218116 0 391.85178273218116 137.98398238194693 0 0 0 0 160.42948045910452 417.8693607838577 0 417.8693607838577 69.714499551948393 0 0 0 0 237.03765275464684 355.62570644191874 0 355.62570644191874 11.879297483457776 0 0 0 0 234.30711242963298 391.88620526338855 0 391.88620526338855 -201.00810986370197 0 0 0 0 386.53789907346072 347.30633173233218 0 347.30633173233218 -40.265630745871022 0 0 0 0 -4.6555352910218062 436.93093127555403 0 436.93093127555403 54.828747670802841 0 0 0 0 48.001366868600599 336.59984161800458 0 336.59984161800458 -101.72618458321813 0 0 0 0 -31.713338626592304 253.33098056305744 0 253.33098056305744 -339.09919332653226 0 0 0 0 176.03900988888927 124.59039129789744 0 124.59039129789744 -473.74690171211478 0 0 0 0 4.989164443338268 471.24371113798247 0 471.24371113798247 -223.83924098016723 0 0 0 0 665.15411604786277 458.20847174048504 0 458.20847174048504 -861.79646273461913 0 0 0 0 322.69504918828898 450.96504340276806 0 450.96504340276806 -846.14035427791168 0 0 0 0 382.52486061079253 339.00533452239688 0 339.00533452239688 -1429.0681778966755 0 0 0 0 -28.25086380263383 384.04004825959055 0 384.04004825959055 -702.10236247527428 0 0 0 0 -1079.821488800575 742.10856893322125 0 742.10856893322125 -335.69631769794069 0 0 0 0 -332.97086263794336 184.12794247367128 0 184.12794247367128 -118.4469325629052 0 0 0 0 1268.610087556619 -54.167603667747244 0 -54.167603667747244 -434.50588043642165 0 0 0 0 1.8788212916327112 1.9467106089694823 0 1.9467106089694823 -4.8260061240038112 0 0 0 0 184.74590071320563 293.05999447905742 0 293.05999447905742 -940.44297518016538 0 0 0 0 -171.62746923877421 663.06226682091074 0 663.06226682091074 -1013.2175885080142 0 0 0 0 71.971959876769688 204.07381627125869 0 204.07381627125869 -610.14605200824735 0 0 0 0 -45.87905276057063 284.46007240359268 0 284.46007240359268 -473.57664090987237 0 0 0 0 40.967858112930116 287.61330032021488 0 287.61330032021488 -687.06818760318129 0 0 0 0 77.974131235620007 104.60089572527795 0 104.60089572527795 -521.44955835336077 0 0 0 0 38.695791961872601 191.92151261028994 0 191.92151261028994 -440.44275758960066 0 0 0 0 34.4912861068442 82.52025774480353 0 82.52025774480353 -315.96475912099413 0 0 0 0 31.858480709421656 23.280086002239841 0 23.280086002239841 18.358242022932252 0 0 0 0 -12.026923972807708 157.99408928380944 0 157.99408928380944 -279.88219025607395 0 0 0 0 -1.8885028252116172 -207.60894796028879 0 -207.60894796028879 -751.7999861615026 0 0 0 0 22.271910206169196 -509.72540752158761 0 -509.72540752158761 -2001.6586630256352 0 0 0 0 256.49306431072182 -73.139248647210479 0 -73.139248647210479 -1338.8168555417969 0 0 0 0 277.79545918601798 69.12584976904327 0 69.12584976904327 -798.60068906168817 0 0 0 0 114.73296787285653 131.29026277105004 0 131.29026277105004 -722.13862399971913 0 0 0 0 -11.759710508718854 -39.468323577391857 0 -39.468323577391857 -385.66231644670916 0 0 0 0 16.755981954309391 64.971999854267779 0 64.971999854267779 -357.01219281098383 0 0 0 0 527.67187452607322 -259.55588781418192 0 -259.55588781418192 -149.89789224768901 0 0 0 0 -223.18223173594743 1292.7172419492435 0 1292.7172419492435 85.65711415054875 0 0 0 0 -105.37147889699554 342.69885065250492 0 342.69885065250492 -660.04531601045892 0 0 0 0 -207.44004526660638 593.37093203184418 0 593.37093203184418 -842.1143643753494 0 0 0 0 38.21399588767963 199.48464269209217 0 199.48464269209217 -1217.2818427670172 0 0 0 0 -2.2817318221987932 4.6313824287494185 0 4.6313824287494185 -9.4580666686150892 0 0 0 0 -595.87016099414905 810.9908678695756 0 810.9908678695756 -1404.2078670155825 0 0 0 0 8.5946690446362481 221.89994630505134 0 221.89994630505134 -918.52828482682526 0 0 0 0 -98.093090684538765 192.81535026080019 0 192.81535026080019 -741.65962737179507 0 0 0 0 -516.31463551565093 -113.85714430844484 0 -113.85714430844484 -946.34809631514509 0 0 0 0 -25.453853895880457 224.23112350930205 0 224.23112350930205 -410.87841059500715 0 0 0 0 -361.33486658841139 13.503193263913545 0 13.503193263913545 -508.30147644941462 0 0 0 0 -248.28933679801412 510.63448297344439 0 510.63448297344439 -558.72844570006055 0 0 0 0 -53.425392089731758 170.63760831495165 0 170.63760831495165 -460.62340129426957 0 0 0 0 -41.002648489680723 17.143241657092858 0 17.143241657092858 -729.60087746831414 0 0 0 0 0.15504459117801161 227.13196562109442 0 227.13196562109442 -691.62775301430156 0 0 0 0 0.094931987950985786 256.14715301455544 0 256.14715301455544 -735.46052124685593 0 0 0 0 53.800168983048934 218.28774899673226 0 218.28774899673226 -708.95939730353166 0 0 0 0 45.922518957690045 272.98040220286566 0 272.98040220286566 -947.08209038932 0 0 0 0 -96.221690468009911 290.66257215505266 0 290.66257215505266 -473.79684223943332 0 0 0 0 -47.456903931531997 353.39821720888358 0 353.39821720888358 -632.96103656024025 0 0 0 0 -0.106452320527751 220.63095092147887 0 220.63095092147887 -409.54805848923206 0 0 0 0 -159.41729891310388 356.28735378165584 0 356.28735378165584 -361.87418714843079 0 0 0 0 -103.94920639176416 213.7057518236561 0 213.7057518236561 -251.9014903212319 0 0 0 0 -114.47924067967688 272.27559950166869 0 272.27559950166869 -296.14510732745111 0 0 0 0 -498.28061539155351 118.70497039443762 0 118.70497039443762 90.661043370280822 0 0 0 0 -450.12151190634177 386.48203247992751 0 386.48203247992751 -226.63572913018288 0 0 0 0 -2.1218272762978145 1.1589344362657812 0 1.1589344362657812 -8.352461524249847 0 0 0 0 -358.4929296275368 240.13140625908818 0 240.13140625908818 -31.811557416469441 0 0 0 0 -148.04039634022047 295.85682640541927 0 295.85682640541927 -320.76132170095298 0 0 0 0 -286.7516416894141 474.0089313374483 0 474.0089313374483 -498.12497504162457 0 0 0 0 -0.82999697838587139 3.1011291102722538 0 3.1011291102722538 0.42708232802505108 0 0 0 0 251.44315545933205 29.845844444149407 0 29.845844444149407 -62.373112916488026 0 0 0 0 181.09103523370868 70.428246910762027 0 70.428246910762027 -78.829546327764547 0 0 0 0 10.195015994842201 6.4473698442529894 0 6.4473698442529894 -30.410866836207276 0 0 0 0 -348.53758489033135 -565.74764629112406 0 -565.74764629112406 562.14493001472147 0 0 0 0 111.47744184738985 37.262109450774005 0 37.262109450774005 -13.548098177008796 0 0 0 0 111.83339257366606 29.558899047551677 0 29.558899047551677 -21.340629484970123 0 0 0 0 73.559420145931654 36.556311485837796 0 36.556311485837796 -26.25569987561903 0 0 0 0 10.411548390715836 4.5340743010501967 0 4.5340743010501967 -8.4668759665395754 0 0 0 0 161.31352276174584 2.2332956358040974 0 2.2332956358040974 -13.827162114379462 0 0 0 0 145.45688305253861 54.897112696096883 0 54.897112696096883 -42.998126108541328 0 0 0 0 112.51044337893836 84.461495958239539 0 84.461495958239539 -13.215934348816518 0 0 0 0 153.02949980740232 28.840628628408012 0 28.840628628408012 46.398804410418961 0 0 0 0 155.37551646577776 82.480132413344108 0 82.480132413344108 21.397876518456542 0 0 0 0 162.4132885901563 -7.6716778800073371 0 -7.6716778800073371 24.697177266105427 0 0 0 0 -37.943012479830941 69.258752612557146 0 69.258752612557146 -19.298170257683523 0 0 0 0 -1.4011097079157224 3.6585135485538558 0 3.6585135485538558 0.82224095770875749 0 0 0 0 206.96133433477371 70.415842994401828 0 70.415842994401828 -14.239922585049499 0 0 0 0 -2.9496051983694755 37.781427293681318 0 37.781427293681318 13.364254394567979 0 0 0 0 150.66720341827022 32.909792671978721 0 32.909792671978721 6.7027729952424124 0 0 0 0 82.406292619692977 62.677334942791276 0 62.677334942791276 15.293938200880802 0 0 0 0 99.582669137656922 43.73061174848408 0 43.73061174848408 20.491359802799707 0 0 0 0 155.24867996127068 69.454421214164825 0 69.454421214164825 -19.823246452811873 0 0 0 0 -0.08835262027423596 151.55232535077266 0 151.55232535077266 -196.26320684983693 0 0 0 0 -327.72883317850756 209.92016065082817 0 209.92016065082817 -102.99081833588207 0 0 0 0 -78.42990910638764 52.850728490104302 0 52.850728490104302 -18.524690631604244 0 0 0 0 -11.298310666417819 102.01708574899931 0 102.01708574899931 -47.394706269078597 0 0 0 0 -118.54723952200766 167.69864175991188 0 167.69864175991188 -63.673364410762588 0 0 0 0 -18.402764584585384 83.44302628708283 0 83.44302628708283 0.67585504388989648 0 0 0 0 -0.052682776775327511 82.040399575437732 0 82.040399575437732 -15.384355635749671 0 0 0 0 -8.5964631960960105 62.140942873053064 0 62.140942873053064 8.8066506143732113 0 0 0 0 2.9090400802670047 52.770348011395981 0 52.770348011395981 23.842710492237529 0 0 0 0 -2.141943284557783 65.874078308028402 0 65.874078308028402 2.4467009037762182 0 0 0 0 -5.6510236948815873 66.127303601350832 0 66.127303601350832 25.092973337159492 0 0 0 0 23.695920015219599 48.048044648663563 0 48.048044648663563 18.334716880748601 0 0 0 0 -5.5982015796544147 64.026268056508343 0 64.026268056508343 15.636213894707907 0 0 0 0 -24.872786506139164 29.857129049622017 0 29.857129049622017 12.523752315653837 0 0 0 0 -47.54512597041321 93.075941376524497 0 93.075941376524497 4.9287016259731899 0 0 0 0 48.52859988027194 34.903444194422264 0 34.903444194422264 -0.25200126419986191 0 0 0 0 96.852551060044789 54.465983715741459 0 54.465983715741459 16.986927787151217 0 0 0 0 64.155404778903176 55.379118453995034 0 55.379118453995034 14.880855485742359 0 0 0 0 5.5965684463022001 6.9478301661723521 0 6.9478301661723521 3.4200341240750163 0 0 0 0 101.70257147953089 55.673383151715825 0 55.673383151715825 15.383834705364279 0 0 0 0 14.959259791285543 41.335037897735504 0 41.335037897735504 0.24911057674026438 0 0 0 0 99.650112982839346 54.126450426516385 0 54.126450426516385 15.51452990564394 0 0 0 0 5.5362834229428906 44.51961764112265 0 44.51961764112265 18.031931407505212 0 0 0 0 27.324779478738492 44.728418711572886 0 44.728418711572886 13.215695817056258 0 0 0 0 98.380251566297375 55.910415581764028 0 55.910415581764028 16.630137587395438 0 0 0 0 42.211359192468251 35.224259506087826 0 35.224259506087826 12.147697885945483 0 0 0 0 -0.56224610313851286 29.377064456347981 0 29.377064456347981 19.468344403867263 0 0 0 0 136.01120994701341 40.561429039643372 0 40.561429039643372 -6.1881853462546133 0 0 0 0 72.922999365779106 20.189874288313149 0 20.189874288313149 30.844427324416756 0 0 0 0 116.75293621144374 20.732915598655381 0 20.732915598655381 7.0503912178246537 0 0 0 0 62.888107393839164 29.812796350204735 0 29.812796350204735 24.519420136318331 0 0 0 0 83.239671977557009 43.032983668039378 0 43.032983668039378 12.865048771098373 0 0 0 0 35.67390207250719 59.138807679675665 0 59.138807679675665 19.379481173076783 0 0 0 0 37.693194757564925 44.915442176858051 0 44.915442176858051 26.645907155485475 0 0 0 0 55.684165391838178 46.577236077580892 0 46.577236077580892 12.688663281189292 0 0 0 0 86.413267713942332 33.3920722221701 0 33.3920722221701 5.2858976120296575 0 0 0 0 72.986432672267256 50.639726469447851 0 50.639726469447851 5.8765707648999523 0 0 0 0 104.35050206209417 56.932492179916153 0 56.932492179916153 15.529993614902196 0 0 0 0 100.20051194613916 26.615572719983902 0 26.615572719983902 16.052392359361818 0 0 0 0 26.932156603725161 44.09718773368877 0 44.09718773368877 15.363837034774406 0 0 0 0 85.728429026450613 49.054575165528149 0 49.054575165528149 2.6317381149456196 0 0 0 0 28.01691825943999 46.527582657128733 0 46.527582657128733 17.500110792419946 0 0 0 0 36.355417485821818 42.950849995270801 0 42.950849995270801 11.624171144238062 0 0 0 0 12.313931606857295 37.947435335953287 0 37.947435335953287 23.388345671039133 0 0 0 0 -12.126852713676328 29.85821910372178 0 29.85821910372178 11.310063230842545 0 0 0 0 94.33738708931196 18.902817663994938 0 18.902817663994938 5.9088770023008692 0 0 0 0 49.027219745286857 9.0013261081239762 0 9.0013261081239762 -16.105404420597097 0 0 0 0 87.959331099169503 39.75253012209123 0 39.75253012209123 -10.490122245484599 0 0 0 0 9.0570107009116327 30.32788767267084 0 30.32788767267084 19.742057212279178 0 0 0 0 10.614737948685928 6.2125182957087901 0 6.2125182957087901 1.6319799899745178 0 0 0 0 -1.4080053790239617 -11.836350019091697 0 -11.836350019091697 -23.121802545621904 0 0 0 0 -171.99489819449082 32.710654027036071 0 32.710654027036071 182.2828374725359 0 0 0 0 18.141523282800335 -1.6263900139056204 0 -1.6263900139056204 -77.15182071194431 0 0 0 0 13.990479203304858 18.918452749467178 0 18.918452749467178 29.393937048595035 0 0 0 0 9.3485871550098807 8.3203487349035541 0 8.3203487349035541 -8.6841287009519981 0 0 0 0 -1.6256953187354242 -0.57268093147763466 0 -0.57268093147763466 16.283631405186824 0 0 0 0 -182.38156344254821 60.660639362941765 0 60.660639362941765 140.47295934428985 0 0 0 0 93.771399024035645 -70.180671772849706 0 -70.180671772849706 -31.590412623728838 0 0 0 0 7.2891386927076383 44.324910040231771 0 44.324910040231771 -70.76297770700512 0 0 0 0 -0.06922966500390941 67.775550199773647 0 67.775550199773647 -17.596047117051057 0 0 0 0 -28.419602328445762 -36.697277162194951 0 -36.697277162194951 -94.691869219466753 0 0 0 0 5.3185353471926646 50.533245257198359 0 50.533245257198359 -6.9209612272461527 0 0 0 0 10.810115363448858 44.82266395226543 0 44.82266395226543 -1.9535533161979401 0 0 0 0 28.391402674518758 47.195043698728114 0 47.195043698728114 2.9668860817037057 0 0 0 0 28.70651539703249 52.078981296072016 0 52.078981296072016 17.11852394095331 0 0 0 0 11.806641686271178 48.871620148784132 0 48.871620148784132 7.8796229188083089 0 0 0 0 27.870793694339227 30.298935222377622 0 30.298935222377622 -9.1649546177686716 0 0 0 0 23.676567303147749 42.73495196501608 0 42.73495196501608 -27.456238090097031 0 0 0 0 -41.958101595548214 59.483466030758336 0 59.483466030758336 -148.22526987085075 0 0 0 0 -59.761551340685401 81.813266159772866 0 81.813266159772866 -43.218993021875576 0 0 0 0 23.385930105228908 12.981111158014755 0 12.981111158014755 -23.607308215007833 0 0 0 0 -44.281508020882029 77.435703428632223 0 77.435703428632223 18.37098624610735 0 0 0 0 2.942914833634859 95.414696453966826 0 95.414696453966826 -56.485215940101398 0 0 0 0 -66.738015494389401 166.24022391531753 0 166.24022391531753 22.426459152464304 0 0 0 0 -34.175664200021856 103.71034348912281 0 103.71034348912281 -69.323393599939664 0 0 0 0 -15.844836249576474 143.15928444451401 0 143.15928444451401 -266.51068405855767 0 0 0 0 -125.16987630217045 141.70220169397726 0 141.70220169397726 -63.478921872576848 0 0 0 0 -162.28293026689062 337.5443549751235 0 337.5443549751235 -335.90833988320446 0 0 0 0 58.491193961996032 48.364250231057667 0 48.364250231057667 -877.73123697627034 0 0 0 0 -27.58567884864533 40.335845344362951 0 40.335845344362951 -245.55021078394748 0 0 0 0 -256.7591206406978 157.02957569529235 0 157.02957569529235 -112.01892992556532 0 0 0 0 49.984672045422485 136.39275507242201 0 136.39275507242201 -150.15078120882436 0 0 0 0 58.131973637842748 99.950877801607021 0 99.950877801607021 4.6753874529287032 0 0 0 0 187.30128919576009 81.104411581445333 0 81.104411581445333 -52.331089646449072 0 0 0 0 -17.392893040365575 38.900470128422079 0 38.900470128422079 21.223264394409497 0 0 0 0 86.799506363073306 -13.234244399833187 0 -13.234244399833187 12.763407446415158 0 0 0 0 154.07883238689101 -5.3511296881870294 0 -5.3511296881870294 -0.63676150889295968 0 0 0 0 7.2283998170896666 -6.0565632755715342 0 -6.0565632755715342 -64.366104496751177 0 0 0 0 41.116090300689393 -13.8322702210844 0 -13.8322702210844 15.392494874386102 0 0 0 0 54.669688749989291 44.590591427921936 0 44.590591427921936 -10.297503162189969 0 0 0 0 73.424304520936857 1.2005702775441023 0 1.2005702775441023 53.099682050968113 0 0 0 0 61.134886014056974 14.818071250579123 0 14.818071250579123 53.580618037321983 0 0 0 0 32.940506218430528 22.692469982643161 0 22.692469982643161 94.186955911660334 0 0 0 0 199.18471398639213 41.59924941306349 0 41.59924941306349 11.261164504383487 0 0 0 0 93.863844951221836 44.244860717934898 0 44.244860717934898 67.657231905126537 0 0 0 0 89.132575406474643 13.713062890818037 0 13.713062890818037 63.065163071525603 0 0 0 0 63.596660349438025 63.393240788437879 0 63.393240788437879 -26.129523415045696 0 0 0 0 59.666954762311946 49.808418876923845 0 49.808418876923845 20.979673036345673 0 0 0 0 58.138028210283665 81.7859791988285 0 81.7859791988285 1.3075110981699254 0 0 0 0 90.511557273546714 50.010277684172252 0 50.010277684172252 85.330782850787728 0 0 0 0 78.763065617393295 25.2060408961961 0 25.2060408961961 52.35212172777392 0 0 0 0 70.913875703366699 34.755395802980047 0 34.755395802980047 6.5994242352664507 0 0 0 0 -211.80376117234118 9.3547323840339232 0 9.3547323840339232 55.829737483339613 0 0 0 0 5.1599941465806296 18.377716736423483 0 18.377716736423483 12.639109833709259 0 0 0 0 41.440874523985258 74.27870265670208 0 74.27870265670208 148.8392569229436 0 0 0 0 -71.151056655355205 280.24106169053812 0 280.24106169053812 -23.196219886693598 0 0 0 0 11.157831247284776 444.32574879800632 0 444.32574879800632 240.24272378733531 0 0 0 0 -328.85838298741146 80.505643582261655 0 80.505643582261655 393.01745037281944 0 0 0 0 39.20637565254583 7.2063729991232321 0 7.2063729991232321 56.370641107885604 0 0 0 0 12.685541346392711 41.324364342232002 0 41.324364342232002 102.86123460589806 0 0 0 0 83.947494466054195 20.122776447784418 0 20.122776447784418 60.822466784498829 0 0 0 0 31.590378618377144 10.52506583135073 0 10.52506583135073 136.91138286946443 0 0 0 0 70.752078687568428 45.948589164382611 0 45.948589164382611 24.330111069128179 0 0 0 0 11.911636298820667 32.914417964038876 0 32.914417964038876 45.315722058137908 0 0 0 0 -2.0646030861892228 -2.1800382267611376 0 -2.1800382267611376 0.0033689542780805937 0 0 0 0 391.36392202273419 81.867402274996493 0 81.867402274996493 -201.806469170132 0 0 0 0 32.250426705425525 158.48780222553023 0 158.48780222553023 22.973221804206332 0 0 0 0 2091.9617599888588 998.81294801612967 0 998.81294801612967 -405.41931573796774 0 0 0 0 12.48222666626782 5.4879010089020213 0 5.4879010089020213 2.0248668259255034 0 0 0 0 25.949152291148494 303.16720813170105 0 303.16720813170105 644.33342241546961 0 0 0 0 350.86548220988334 -248.56798737226927 0 -248.56798737226927 110.15557333972902 0 0 0 0 49.411199545458658 -97.724189985947305 0 -97.724189985947305 429.55318525954317 0 0 0 0 787.68096006202541 -60.621091112136128 0 -60.621091112136128 -141.46774877450298 0 0 0 0 220.17123987282685 1604.214856243776 0 1604.214856243776 2157.5798640984649 0 0 0 0 258.84668997513654 29.858902501182456 0 29.858902501182456 -88.71940013449057 0 0 0 0 106.32392806715507 -101.26542765224622 0 -101.26542765224622 134.62162690349578 0 0 0 0 329.38809606873838 -58.087866761805344 0 -58.087866761805344 -139.65930633457174 0 0 0 0 243.26319864700781 205.55890298216582 0 205.55890298216582 -367.51556058543065 0 0 0 0 77.427398872754509 57.117718755126702 0 57.117718755126702 36.068170153008964 0 0 0 0 20.627207819052273 159.4201500434574 0 159.4201500434574 -51.305386119788636 0 0 0 0 61.779779166827211 -47.224803492932551 0 -47.224803492932551 54.756816812878242 0 0 0 0 293.16802714460937 9.6217554540635319 0 9.6217554540635319 -184.60563585939963 0 0 0 0 123.51597962401866 85.184524730779231 0 85.184524730779231 78.703877967196604 0 0 0 0 108.37776122631206 73.734929420760665 0 73.734929420760665 30.149320990867921 0 0 0 0 -69.878059444476094 205.90316521764544 0 205.90316521764544 15.372397218503465 0 0 0 0 -167.45181604431127 356.88572386566011 0 356.88572386566011 -93.619901937148825 0 0 0 0 111.95730788933724 8.9594708686872764 0 8.9594708686872764 34.601471236797806 0 0 0 0 -464.06054187317204 -11.068339589583047 0 -11.068339589583047 40.270046879873917 0 0 0 0 100.73329760954221 14.14625026511203 0 14.14625026511203 -64.293569787259912 0 0 0 0 408.86303867621609 171.95611051574087 0 171.95611051574087 0.81488037732924568 0 0 0 0 144.5432351287709 -234.63317383813774 0 -234.63317383813774 -253.65885257839545 0 0 0 0 87.661949437233488 66.417574941244993 0 66.417574941244993 29.705112704650674 0 0 0 0 220.62957708445902 188.60835160871284 0 188.60835160871284 -88.573438252482447 0 0 0 0 51.830403318069727 12.277345102110409 0 12.277345102110409 -44.723729362033495 0 0 0 0 67.262264337383385 37.696101642799476 0 37.696101642799476 8.0067924502473033 0 0 0 0 101.97522182519606 188.7802821868645 0 188.7802821868645 -74.312006672778807 0 0 0 0 57.804936089284126 35.58530688249607 0 35.58530688249607 -26.57890442380004 0 0 0 0 133.79466572905949 215.67616208326581 0 215.67616208326581 -40.550940530141816 0 0 0 0 138.30452763561379 266.06169488619116 0 266.06169488619116 -159.40096964164695 0 0 0 0 279.55120951292338 248.08894339446124 0 248.08894339446124 -183.87411461717784 0 0 0 0 234.8210494791856 -82.658259193791309 0 -82.658259193791309 -421.45270300523043 0 0 0 0 618.3320196390996 148.67952540877013 0 148.67952540877013 -310.52142870729404 0 0 0 0 6.9595875756280634 7.1814604600488963 0 7.1814604600488963 0.11578374347046605 0 0 0 0 793.41991587843222 418.09606121937759 0 418.09606121937759 -363.00924414116889 0 0 0 0 375.59579967582977 421.59515913522955 0 421.59515913522955 128.9869339496363 0 0 0 0 70.371086981816916 181.09563317226275 0 181.09563317226275 295.25361991356476 0 0 0 0 31.367245805580751 114.5754726362793 0 114.5754726362793 183.48302507400513 0 0 0 0 1.6574103029548155 14.126834447427996 0 14.126834447427996 -17.659524467237219 0 0 0 0 857.08882917248411 -246.6596814854056 0 -246.6596814854056 35.92773286503143 0 0 0 0 725.07873906228633 164.11431672072285 0 164.11431672072285 -111.86965032784792 0 0 0 0 268.92559514640743 273.78817829742547 0 273.78817829742547 -120.78602530800708 0 0 0 0 236.39479778912028 111.76320806435888 0 111.76320806435888 -128.90862564962299 0 0 0 0 -228.03823363431729 453.03982797110439 0 453.03982797110439 10.760772208781418 0 0 0 0 25.72376008979063 54.804052452409451 0 54.804052452409451 -261.1673922944683 0 0 0 0 -405.47003417294763 57.553041783699882 0 57.553041783699882 13.357757032215886 0 0 0 0 4.1946140718593483 6.7363509979613667 0 6.7363509979613667 -3.179212682238628 0 0 0 0 24.433781748361952 23.328912597887054 0 23.328912597887054 10.990387873016232 0 0 0 0 -8.4303433330205735 -23.081262890185826 0 -23.081262890185826 -137.35849691662588 0 0 0 0 -135.12829123811389 123.5412772377058 0 123.5412772377058 -16.958616487233485 0 0 0 0 134.35876244248357 229.50159752378386 0 229.50159752378386 -290.1512569116021 0 0 0 0 -110.36474124438246 211.86684970742181 0 211.86684970742181 -106.74111463859299 0 0 0 0 28.543101733142976 118.06849545872683 0 118.06849545872683 -397.73320016596699 0 0 0 0 64.496554041521449 120.84867891420799 0 120.84867891420799 196.06136907065229 0 0 0 0 0.67445537757774332 1.2122587700772129 0 1.2122587700772129 0.31085139745335688 0 0 0 0 49.325216870143777 125.67261767547461 0 125.67261767547461 305.56658988437812 0 0 0 0 2.9913617435717299 2.1502204712415676 0 2.1502204712415676 0.71845754935556982 0 0 0 0 254.22890064858075 90.344583640940982 0 90.344583640940982 -185.66709104581241 0 0 0 0 -74.888017549441429 -71.184063864948257 0 -71.184063864948257 -3.6434345251291234 0 0 0 0 24.405149348880073 31.594776628833216 0 31.594776628833216 28.408016592835509 0 0 0 0 21.844587143379613 93.163948329543928 0 93.163948329543928 -66.204779499092183 0 0 0 0 5.6841749910592512 11.78410267114711 0 11.78410267114711 4.7490842111266183 0 0 0 0 -26.078233332722448 52.741937583068648 0 52.741937583068648 55.395099358951484 0 0 0 0 -41.643405115544738 83.744894195861889 0 83.744894195861889 114.47922919816847 0 0 0 0 -18.197170617771917 46.797716573593789 0 46.797716573593789 22.393219524696178 0 0 0 0 2.0231561156925579 9.4049020296906249 0 9.4049020296906249 -6.2064042675831432 0 0 0 0 -0.13680480454786448 71.473995992279015 0 71.473995992279015 -178.1676388195192 0 0 0 0 -19.160277847782709 24.769944659790781 0 24.769944659790781 -260.08537474790865 0 0 0 0 8.1334563854616135 41.427837676455965 0 41.427837676455965 -127.28208779779743 0 0 0 0 2.2514215364244592 34.72375753167762 0 34.72375753167762 -13.485877335937403 0 0 0 0 5.01174430152291 29.872170652003533 0 29.872170652003533 -42.085747117454687 0 0 0 0 9.9245901620452059 39.932455411071714 0 39.932455411071714 -17.171469846900436 0 0 0 0 -31.045164340044721 17.290300234199094 0 17.290300234199094 -69.536595182471501 0 0 0 0 10.889892218830184 43.541649002745899 0 43.541649002745899 -33.045341558668525 0 0 0 0 -0.599877873348305 34.624307757774659 0 34.624307757774659 -12.413188257451111 0 0 0 0 6.5603521763221977 32.840653937443605 0 32.840653937443605 -18.707234479290008 0 0 0 0 20.467694839702659 17.626229507497442 0 17.626229507497442 -11.701535691200291 0 0 0 0 30.367746577445359 28.323747682259636 0 28.323747682259636 24.497928168904764 0 0 0 0 0.66722853510555069 3.6591674688332176 0 3.6591674688332176 -3.7194964477354873 0 0 0 0 13.998909327291329 35.168585097419296 0 35.168585097419296 -4.814936835722861 0 0 0 0 29.701619455088803 33.117377406095329 0 33.117377406095329 -123.72631319231732 0 0 0 0 1.5996824805042706 37.681187602051068 0 37.681187602051068 -52.437410494447249 0 0 0 0 -7.4287438739887079 24.316275299724936 0 24.316275299724936 12.086203013223468 0 0 0 0 15.665547927004809 29.602728829002444 0 29.602728829002444 -48.708662755867408 0 0 0 0 -1.7613129065405957 30.232265421805451 0 30.232265421805451 -17.68702778663112 0 0 0 0 -5.9867981237730419 2.9165961949724988 0 2.9165961949724988 15.483929113543127 0 0 0 0 4.0790635198209202 47.851449347046582 0 47.851449347046582 -64.201088472516858 0 0 0 0 108.73110776039539 12.310414426232455 0 12.310414426232455 -52.920512595890614 0 0 0 0 7.7016461817526647 28.944757009584904 0 28.944757009584904 5.0008451443580171 0 0 0 0 2.5462504025011299 2.5316712244198101 0 2.5316712244198101 1.966452498320276 0 0 0 0 -66.464206090822699 -92.344675072246901 0 -92.344675072246901 69.649056886345534 0 0 0 0 60.00445748137281 66.171726188579669 0 66.171726188579669 -129.57988104922697 0 0 0 0 66.310620358999586 199.43838000262622 0 199.43838000262622 131.11212584840541 0 0 0 0 61.153323270715191 419.2105572849996 0 419.2105572849996 245.93922299187579 0 0 0 0 27.338126768314396 96.223744170960344 0 96.223744170960344 -58.012916709429192 0 0 0 0 21.312593639789881 39.761112340853416 0 39.761112340853416 18.752405744946479 0 0 0 0 89.451737812716601 88.955388770446234 0 88.955388770446234 -118.98618035960317 0 0 0 0 58.808241024849849 76.662836839693227 0 76.662836839693227 -97.195548571467953 0 0 0 0 57.660111356497509 76.028632620473218 0 76.028632620473218 -111.99027863409538 0 0 0 0 50.232001764125016 63.394722204777281 0 63.394722204777281 -117.69598469025914 0 0 0 0 42.927056104894291 48.813955291418097 0 48.813955291418097 -135.37321644328586 0 0 0 0 -5.5953763828438241 25.661132277787146 0 25.661132277787146 -128.56557797135065 0 0 0 0 44.881840130015917 64.736405715836554 0 64.736405715836554 -100.68369925033221 0 0 0 0 -69.880515958400792 45.546490867091052 0 45.546490867091052 -72.608421484506835 0 0 0 0 12.180588544297962 30.669708699992 0 30.669708699992 25.721848597976983 0 0 0 0 -46.058038497896632 101.92408374336446 0 101.92408374336446 -60.381079230835894 0 0 0 0 8.0324670856577853 7.2169145017577776 0 7.2169145017577776 5.1246243183918452 0 0 0 0 64.376316989768384 46.269526692879026 0 46.269526692879026 40.714606783652926 0 0 0 0 -18.773253141363966 102.74869885646331 0 102.74869885646331 -85.79111162591289 0 0 0 0 -71.418475904458319 78.877982399990287 0 78.877982399990287 -61.736978349981655 0 0 0 0 5.6562748981814366 6.6179805622396088 0 6.6179805622396088 36.172103170234095 0 0 0 0 22.662957567848451 11.388621300853202 0 11.388621300853202 -34.404038632262591 0 0 0 0 14.787054877670244 16.184091261726039 0 16.184091261726039 3.4104734141086936 0 0 0 0 60.686229724764416 56.212952622188823 0 56.212952622188823 -161.80845680676248 0 0 0 0 -21.701896216487512 44.034094100421498 0 44.034094100421498 122.44312024315514 0 0 0 0 -1.9934402968561074 3.2581829668680982 0 3.2581829668680982 -2.0600666250436959 0 0 0 0 29.125059398138546 68.773916592004753 0 68.773916592004753 19.777518471724761 0 0 0 0 70.938345341972308 -21.273580858658534 0 -21.273580858658534 13.946620620121394 0 0 0 0 66.271303553876351 -104.46667612348028 0 -104.46667612348028 -24.876001298784104 0 0 0 0 -2.1980935345636681 16.650131616237559 0 16.650131616237559 81.404771748806525 0 0 0 0 177.47903792762372 129.77635637023741 0 129.77635637023741 -27.944603519950761 0 0 0 0 41.003955617632244 45.290483116090471 0 45.290483116090471 31.535127092067583 0 0 0 0 20.915642351421411 83.487239665471861 0 83.487239665471861 -89.568228332063882 0 0 0 0 -42.846441246309041 -40.06481807884893 0 -40.06481807884893 -60.60964021836844 0 0 0 0 -4.0683760039717356 5.4260354662097683 0 5.4260354662097683 4.9491952439293172 0 0 0 0 41.129262188411303 68.586036776106084 0 68.586036776106084 -52.622945625982538 0 0 0 0 6.7021171518015317 22.968952976429073 0 22.968952976429073 -46.311766976214429 0 0 0 0 68.201803442444543 39.262989239974331 0 39.262989239974331 -73.01723750646488 0 0 0 0 36.098872221553904 33.396560938206107 0 33.396560938206107 -13.991469387147447 0 0 0 0 14.264472941990391 35.425391358189806 0 35.425391358189806 1.1116114181077075 0 0 0 0 21.946153388395032 33.356151598381985 0 33.356151598381985 -50.087901044898899 0 0 0 0 -5.1559449491747396 45.735692554252282 0 45.735692554252282 8.2534111973472477 0 0 0 0 -5.7924461221846286 43.129149102984229 0 43.129149102984229 6.5898133535229135 0 0 0 0 17.092530693074664 60.042993834778414 0 60.042993834778414 8.780861235533763 0 0 0 0 24.309585699146481 55.639591739355318 0 55.639591739355318 18.956764254276735 0 0 0 0 12.246435306835545 51.249118314126846 0 51.249118314126846 -7.8009639988634376 0 0 0 0 4.803874014178291 34.708182817761553 0 34.708182817761553 -29.027463649807032 0 0 0 0 54.532617393771943 76.140363055494163 0 76.140363055494163 -94.809416690968646 0 0 0 0 35.88447045964206 18.44963003700552 0 18.44963003700552 1.565806556948985 0 0 0 0 101.41470616344304 104.60965787272653 0 104.60965787272653 -24.624112503093784 0 0 0 0 25.065253167866473 36.935023461346788 0 36.935023461346788 11.493191224525697 0 0 0 0 -1.5233982683130307 43.098026148298231 0 43.098026148298231 -78.087820705142803 0 0 0 0 55.35965004258469 42.963081813335521 0 42.963081813335521 -74.896053852025034 0 0 0 0 21.594275073182217 30.706621270417401 0 30.706621270417401 2.0807781209914271 0 0 0 0 -3.6093955151900445 49.138401994586275 0 49.138401994586275 -25.789352276115096 0 0 0 0 -148.2135225963284 157.16388777965039 0 157.16388777965039 193.74182922697946 0 0 0 0 193.88464602077147 -88.640674937531003 0 -88.640674937531003 -119.63664407864144 0 0 0 0 28.076450726823168 70.665605721047541 0 70.665605721047541 -61.537225145690172 0 0 0 0 102.63159204210388 73.783597482128243 0 73.783597482128243 -61.409814819277017 0 0 0 0 39.835730310200347 28.720012691247277 0 28.720012691247277 5.5342043123878284 0 0 0 0 23.652483109188324 87.886718419753379 0 87.886718419753379 -51.465025299004992 0 0 0 0 29.880795456061605 68.972288962902894 0 68.972288962902894 -40.474121679231757 0 0 0 0 -10.944165357726646 37.839181120846561 0 37.839181120846561 -40.113397228959741 0 0 0 0 -227.91159360316306 -49.677490078293886 0 -49.677490078293886 425.83716177299902 0 0 0 0 81.158888644100443 112.52653219417675 0 112.52653219417675 -94.920157411826949 0 0 0 0 47.985884742171038 92.656784067986337 0 92.656784067986337 -94.049385743589539 0 0 0 0 4.389533527984895 46.114592320369411 0 46.114592320369411 4.0254958040022757 0 0 0 0 -15.064308999021385 21.114493653777611 0 21.114493653777611 -33.995969649675544 0 0 0 0 21.155128758808132 67.074089553911108 0 67.074089553911108 -8.9632167013096478 0 0 0 0 33.651998850513337 55.900384688431586 0 55.900384688431586 -17.396336110025004 0 0 0 0 8.7751981437049835 72.52853520347071 0 72.52853520347071 -24.069438699250895 0 0 0 0 43.719767874456011 34.49509662757373 0 34.49509662757373 -28.58706902547965 0 0 0 0 84.628609257502831 38.786937342289093 0 38.786937342289093 -1.327825766236856 0 0 0 0 67.419542246636411 82.972847630290744 0 82.972847630290744 -5.8837322458584822 0 0 0 0 132.19387528416337 50.840306318659714 0 50.840306318659714 -33.499141377371416 0 0 0 0 0.76063799498289342 17.929039134478458 0 17.929039134478458 -29.879525976195112 0 0 0 0 468.54587268747491 88.312141142382643 0 88.312141142382643 -114.03448192157248 0 0 0 0 0.33929148610514837 15.298086202052517 0 15.298086202052517 -15.103750246830145 0 0 0 0 276.36267610033565 71.406009557839411 0 71.406009557839411 -40.838106975010305 0 0 0 0 5.3830555173235553 10.351089848944412 0 10.351089848944412 -4.4968974788607738 0 0 0 0 48.286468655602221 115.3805400965839 0 115.3805400965839 50.65701354041812 0 0 0 0 -9.3970700602358264 13.94245068894984 0 13.94245068894984 -20.16314654634661 0 0 0 0 30.230515609950089 10.250345381172338 0 10.250345381172338 -69.824682142194433 0 0 0 0 26.33205326406096 -13.064165787477577 0 -13.064165787477577 -98.51236010291359 0 0 0 0 14.099597458840435 74.760002659293605 0 74.760002659293605 31.995155240087115 0 0 0 0 30.791648646907561 85.384512942222045 0 85.384512942222045 -54.895982000994991 0 0 0 0 38.887266532634385 31.436799015429642 0 31.436799015429642 -28.472719037416937 0 0 0 0 190.01896071826923 37.459359079952264 0 37.459359079952264 -251.65282710060819 0 0 0 0 83.928492916642426 -7.3877074133961287 0 -7.3877074133961287 -175.50788796951383 0 0 0 0 84.99018731016622 -19.599957681898559 0 -19.599957681898559 -109.29103819145166 0 0 0 0 147.85060682532276 72.419089280992011 0 72.419089280992011 -191.56316985820922 0 0 0 0 220.09465610379993 118.32645862900063 0 118.32645862900063 -210.67011392739914 0 0 0 0 265.24235478586343 190.83916230673094 0 190.83916230673094 -90.444774333000169 0 0 0 0 231.75193684619444 84.198342548967048 0 84.198342548967048 -252.44792426947242 0 0 0 0 150.43532245864753 76.646895257516917 0 76.646895257516917 -475.63693412281282 0 0 0 0 -0.054114747115818318 107.03189020627906 0 107.03189020627906 -186.36881288599761 0 0 0 0 5.9690804059064249 156.45358972397935 0 156.45358972397935 -471.20378166429873 0 0 0 0 21.352675750829803 -126.79759716271383 0 -126.79759716271383 -287.45919499155207 0 0 0 0 -33.029721823044383 -59.859503496580146 0 -59.859503496580146 -75.947669568909987 0 0 0 0 -64.448296406178997 -193.59580741096488 0 -193.59580741096488 -473.09583126725556 0 0 0 0 -3.9230283004256066 4.8143863768189945 0 4.8143863768189945 -6.7935775770750837 0 0 0 0 -83.622590734182722 -27.510265395377928 0 -27.510265395377928 -921.32009228288371 0 0 0 0 -168.84968922220287 377.47396573260994 0 377.47396573260994 -732.83179398071206 0 0 0 0 -356.27712451158732 250.15196438169369 0 250.15196438169369 -336.68373866757975 0 0 0 0 -765.8814231596989 744.35569569134532 0 744.35569569134532 -851.11962853641273 0 0 0 0 -1517.2902004712087 -126.29297340235462 0 -126.29297340235462 -464.85527716207253 0 0 0 0 -790.20895387879136 282.1234658416256 0 282.1234658416256 -617.56589467313097 0 0 0 0 -827.10530585477682 397.78390054238844 0 397.78390054238844 -978.64522595834205 0 0 0 0 -2961.5237195367749 695.02468182989128 0 695.02468182989128 204.42298824478348 0 0 0 0 -1077.4032787028627 644.13093501431376 0 644.13093501431376 -192.58726447516165 0 0 0 0 -1.0020128627128351 7.6656690058797921 0 7.6656690058797921 -4.3791268771824789 0 0 0 0 -13.173944934256724 151.60972978230166 0 151.60972978230166 -30.261933357396629 0 0 0 0 -26.07132395413646 156.60744423049891 0 156.60744423049891 -6.4024452051635308 0 0 0 0 15.638818330909999 133.5167078170216 0 133.5167078170216 -48.634129181584285 0 0 0 0 34.14400462359481 183.49242723580755 0 183.49242723580755 -31.152117978302442 0 0 0 0 -11.717051684921898 233.88029693440876 0 233.88029693440876 9.4101605460855353 0 0 0 0 23.221983129260479 225.74821978937689 0 225.74821978937689 -2.1791064946783081 0 0 0 0 7.3377633077980136 296.16956950267286 0 296.16956950267286 210.38352718487658 0 0 0 0 -36.059627541631926 178.5416770894808 0 178.5416770894808 111.46197944760024 0 0 0 0 -60.983800704081659 96.150695849408294 0 96.150695849408294 37.549809050951808 0 0 0 0 -24.722223366778053 102.23817268570201 0 102.23817268570201 10.734606117963267 0 0 0 0 -43.251840150049247 133.58818312562198 0 133.58818312562198 81.241592774556921 0 0 0 0 -42.805248211705475 96.776638892073606 0 96.776638892073606 205.57352162721151 0 0 0 0 -93.851669552750536 36.600748555152677 0 36.600748555152677 90.606117389167594 0 0 0 0 7.034509321105773 1.9754566698060074 0 1.9754566698060074 -4.5679436137829192 0 0 0 0 -34.070801549889438 38.966864430097303 0 38.966864430097303 -75.444494435167144 0 0 0 0 -19.605549791260273 108.06407455448061 0 108.06407455448061 -59.071512552585773 0 0 0 0 -28.452819549886044 88.911319842215562 0 88.911319842215562 -23.755869338488992 0 0 0 0 -32.531242593875504 121.03646803028823 0 121.03646803028823 17.228517900268344 0 0 0 0 -20.88411984484992 108.4260975372772 0 108.4260975372772 -38.103472183069243 0 0 0 0 -13.963849581006798 111.1402219096517 0 111.1402219096517 -42.177685590499095 0 0 0 0 -27.916396858970984 98.228421769630586 0 98.228421769630586 -53.950986730001205 0 0 0 0 -30.661629752274166 91.919459184721745 0 91.919459184721745 -41.299638153617707 0 0 0 0 -28.740122984920163 58.576087630222901 0 58.576087630222901 -71.901837806888125 0 0 0 0 -6.4481432129141467 72.336625464704866 0 72.336625464704866 -68.838963124577276 0 0 0 0 16.855405495462037 50.263872321670078 0 50.263872321670078 -97.220744604750507 0 0 0 0 20.713578781338583 77.115714927627778 0 77.115714927627778 -89.63914834199386 0 0 0 0 23.317593581261463 84.979631454787523 0 84.979631454787523 -70.036005029818853 0 0 0 0 47.22951783931785 66.352578904595248 0 66.352578904595248 -91.929892954009119 0 0 0 0 48.172504121801467 54.53578466793806 0 54.53578466793806 -84.129933953649925 0 0 0 0 39.634406229888555 40.613352346758802 0 40.613352346758802 -103.80745611634484 0 0 0 0 73.863196400154266 85.349898779573778 0 85.349898779573778 -120.90554764403169 0 0 0 0 101.43853044018761 37.996856776140703 0 37.996856776140703 -110.23690052399616 0 0 0 0 66.348618568299571 95.3169579569294 0 95.3169579569294 -86.984929850517346 0 0 0 0 29.183558546479617 128.83755701779501 0 128.83755701779501 -67.395562619725752 0 0 0 0 29.306921809111373 162.1499951953374 0 162.1499951953374 -87.811939973918925 0 0 0 0 97.819941590496455 181.39505788251518 0 181.39505788251518 -115.12977557260456 0 0 0 0 95.054735595458624 165.44312858289254 0 165.44312858289254 -103.66352941688638 0 0 0 0 122.5301044983571 109.76933471988741 0 109.76933471988741 -144.21834823565587 0 0 0 0 177.58906095693965 126.04204245219626 0 126.04204245219626 -148.86835159831026 0 0 0 0 181.98163459367788 133.52297451160666 0 133.52297451160666 -157.00293745864747 0 0 0 0 278.38520518417499 215.13090450907384 0 215.13090450907384 -91.979107769329858 0 0 0 0 222.77050000543386 86.481160220871971 0 86.481160220871971 -177.54480324714132 0 0 0 0 95.689636417650036 151.34966750290459 0 151.34966750290459 -49.768169422075516 0 0 0 0 177.19540937652346 201.86350195273462 0 201.86350195273462 -125.02095632959026 0 0 0 0 95.835842832282651 155.17061073178775 0 155.17061073178775 -141.29667347120085 0 0 0 0 40.124755305172584 126.28620462668732 0 126.28620462668732 -146.83509374831738 0 0 0 0 80.114215928946578 211.87107877479593 0 211.87107877479593 -160.92702174751139 0 0 0 0 45.649897197610699 248.52397968224068 0 248.52397968224068 -73.521016401320821 0 0 0 0 20.979666116392764 207.94838790013637 0 207.94838790013637 -67.753246643525927 0 0 0 0 118.27731993013367 254.52280182585218 0 254.52280182585218 -275.04826349939503 0 0 0 0 49.195150813524378 261.26201256700097 0 261.26201256700097 -42.589328806402591 0 0 0 0 53.847325621700293 140.90731699978005 0 140.90731699978005 -197.22211780476573 0 0 0 0 -20.702579874458024 57.477198809442598 0 57.477198809442598 -264.88144193199827 0 0 0 0 -17.802691109685838 218.84080133478574 0 218.84080133478574 580.00726801097971 0 0 0 0 -10.712070557828284 7.7670676356058959 0 7.7670676356058959 -3.9420325651607122 0 0 0 0 91.72659764324635 156.54400927753295 0 156.54400927753295 198.69076087136 0 0 0 0 19.339607326110126 88.632459394975285 0 88.632459394975285 485.19349337581843 0 0 0 0 91.398995728435693 155.19425107986353 0 155.19425107986353 302.5466703046468 0 0 0 0 28.811453102629457 20.151358375947893 0 20.151358375947893 -276.03682446612129 0 0 0 0 26.575727186104814 75.067366436305861 0 75.067366436305861 -29.490102037223551 0 0 0 0 -36.286687950843771 133.60185352862936 0 133.60185352862936 21.734675857328511 0 0 0 0 20.998111229353526 90.635989309454089 0 90.635989309454089 -4.4286597567297576 0 0 0 0 175.74436734007759 202.43967237005472 0 202.43967237005472 -27.512113315959141 0 0 0 0 311.19749180308645 169.53421658156549 0 169.53421658156549 -81.57085148484839 0 0 0 0 195.36070624782587 118.33486999781599 0 118.33486999781599 -0.14528178890213894 0 0 0 0 198.70125682223443 232.92634680854098 0 232.92634680854098 260.81359326943493 0 0 0 0 250.57019907902577 429.35344413999337 0 429.35344413999337 325.16245503280334 0 0 0 0 380.84632214394514 533.36897516868339 0 533.36897516868339 233.70892090068628 0 0 0 0 353.9388229453034 305.8552686831481 0 305.8552686831481 31.004689387842518 0 0 0 0 -96.658648630009338 -28.78766681571949 0 -28.78766681571949 59.847186258961301 0 0 0 0 -20.371652108166529 16.437002715127797 0 16.437002715127797 -9.2792090291854628 0 0 0 0 -3.4532138380760671 -0.0015734079692606429 0 -0.0015734079692606429 4.6305782517928407 0 0 0 0 508.75442777515855 517.30146664158383 0 517.30146664158383 182.90172382423043 0 0 0 0 22.598477075938717 315.81609591746815 0 315.81609591746815 636.22745541040058 0 0 0 0 -17.321798097596172 12.0992504513688 0 12.0992504513688 -5.8571037940721222 0 0 0 0 -22.253226805165468 236.95388022832594 0 236.95388022832594 618.16013704074567 0 0 0 0 58.940500699842232 107.53593249047469 0 107.53593249047469 355.12128926161313 0 0 0 0 113.42019009968135 274.17132829636125 0 274.17132829636125 489.61435950391933 0 0 0 0 -10.210785405462957 135.18539203122737 0 135.18539203122737 301.70028199329863 0 0 0 0 -77.548267489804857 83.992707307700357 0 83.992707307700357 395.03664292720077 0 0 0 0 -6.3475729388592299 201.03818874795797 0 201.03818874795797 599.27787837248798 0 0 0 0 155.16438570922764 354.72711431857715 0 354.72711431857715 457.72196940645335 0 0 0 0 117.28525541941053 206.98240364342746 0 206.98240364342746 587.24889975015094 0 0 0 0 -55.577143191738287 103.75252399843339 0 103.75252399843339 367.90344176050712 0 0 0 0 2.4131682599581836 257.05027311593108 0 257.05027311593108 469.66507651704524 0 0 0 0 -135.33739774677088 84.747743364143389 0 84.747743364143389 396.30276464961753 0 0 0 0 -45.059611693595798 308.46722962610238 0 308.46722962610238 450.03925515125411 0 0 0 0 -300.40946027484461 78.366731227110904 0 78.366731227110904 294.59328567676175 0 0 0 0 -69.267185135409818 84.941637448250731 0 84.941637448250731 259.58766409383861 0 0 0 0 -285.94680822407099 5.8709660971144331 0 5.8709660971144331 240.45261898951139 0 0 0 0 -158.82068306561996 61.809755082628044 0 61.809755082628044 16.513166879037271 0 0 0 0 -75.076473018378238 -179.81430000552706 0 -179.81430000552706 10.898247158279446 0 0 0 0 -121.69354868940718 -35.959011949343676 0 -35.959011949343676 187.01517417783998 0 0 0 0 -127.48239405309141 -38.906463159036321 0 -38.906463159036321 194.62579442521974 0 0 0 0 -156.65789181356377 -86.163302775851662 0 -86.163302775851662 115.3098128874517 0 0 0 0 -0.73691394695791246 -0.87657255049823135 0 -0.87657255049823135 1.9699745315014656 0 0 0 0 109.06295380438678 223.34119577081856 0 223.34119577081856 304.28809028875003 0 0 0 0 -1.7020960807215317 -1.0298568975521043 0 -1.0298568975521043 1.3033762682725962 0 0 0 0 201.13601599025424 152.05172204599876 0 152.05172204599876 128.18030118300328 0 0 0 0 96.085729885053297 -83.396193604310156 0 -83.396193604310156 -224.49219217235168 0 0 0 0 -36.116212082692073 48.224246561961536 0 48.224246561961536 79.054815439485537 0 0 0 0 80.518057650850096 129.33683160923829 0 129.33683160923829 227.36151318691918 0 0 0 0 111.14328599049986 62.703376734108588 0 62.703376734108588 -78.096156200334008 0 0 0 0 5.6565237996195776 7.4921582078641329 0 7.4921582078641329 -1.9864082876773548 0 0 0 0 -1.6152771452390908 -1.287321316357577 0 -1.287321316357577 3.5727908245783748 0 0 0 0 120.07425150781637 127.69020641424504 0 127.69020641424504 166.03434920067775 0 0 0 0 133.6202066612251 179.28947334261312 0 179.28947334261312 206.7895170638667 0 0 0 0 -11.335862841253402 -38.808292093779528 0 -38.808292093779528 146.96073195177757 0 0 0 0 135.38336200284675 136.09657320837118 0 136.09657320837118 135.23233286437971 0 0 0 0 -80.475870504737031 116.8621210546346 0 116.8621210546346 333.077390902763 0 0 0 0 32.680758713155228 76.013660105952113 0 76.013660105952113 18.343983108099366 0 0 0 0 -636.98583852558295 308.70899654057848 0 308.70899654057848 96.454667229112601 0 0 0 0 -849.26395845235129 248.36915319845593 0 248.36915319845593 128.06732314890905 0 0 0 0 -691.0379025525217 66.039082200455596 0 66.039082200455596 -92.607722435688629 0 0 0 0 -829.99985623682733 273.73457411024538 0 273.73457411024538 -238.91186021632893 0 0 0 0 -1074.6712835976759 -11.15080974394732 0 -11.15080974394732 -173.36203997786652 0 0 0 0 -759.59556628484279 409.3279535287993 0 409.3279535287993 13.299501184827022 0 0 0 0 -835.91964333151554 138.21238789783729 0 138.21238789783729 -87.64571083296687 0 0 0 0 -333.62022508772498 343.70359132781778 0 343.70359132781778 -381.69333072234349 0 0 0 0 -689.56187219942149 331.12112471152477 0 331.12112471152477 133.92491656093989 0 0 0 0 -393.60437857816214 176.33669337976971 0 176.33669337976971 118.87193261205721 0 0 0 0 -684.78750277464133 366.1473546647544 0 366.1473546647544 267.71764733333339 0 0 0 0 -244.93252729492815 394.4592379105643 0 394.4592379105643 370.10880498449842 0 0 0 0 47.164322183205513 343.76765604513457 0 343.76765604513457 128.79554777695762 0 0 0 0 -172.59071306732949 293.11252121550024 0 293.11252121550024 102.23139046020879 0 0 0 0 35.427469528818619 184.04768122889254 0 184.04768122889254 145.09415761351897 0 0 0 0 -194.63519982137223 350.18804004255981 0 350.18804004255981 -31.19555165663769 0 0 0 0 -78.845074370554357 160.13417204946563 0 160.13417204946563 -97.021408592263469 0 0 0 0 -334.13027759516353 339.48143759957526 0 339.48143759957526 -200.55464081359969 0 0 0 0 -10.685575210030947 294.38525077413942 0 294.38525077413942 -318.6180443726962 0 0 0 0 85.727168863137194 137.10999784891828 0 137.10999784891828 -62.647429139447922 0 0 0 0 177.62165811276645 230.37211335442953 0 230.37211335442953 -117.29255710915459 0 0 0 0 172.14051786223717 192.00887821982906 0 192.00887821982906 16.313750840676221 0 0 0 0 301.23481914645527 299.28308931364882 0 299.28308931364882 -12.426814269143506 0 0 0 0 178.61056785457549 269.39688087339437 0 269.39688087339437 -134.69736092697713 0 0 0 0 272.7602816180588 185.18797781907961 0 185.18797781907961 -59.721511196446954 0 0 0 0 271.52693216300395 308.08159200214141 0 308.08159200214141 49.400184201895172 0 0 0 0 355.98462657003256 263.31627151298017 0 263.31627151298017 7.4790423085978546 0 0 0 0 376.38629439084616 395.29570055472504 0 395.29570055472504 91.799894765450517 0 0 0 0 463.82755395975983 381.43764981266213 0 381.43764981266213 68.161089627843467 0 0 0 0 465.83810182948946 424.25000361514685 0 424.25000361514685 114.24753860921555 0 0 0 0 618.53777470739442 405.21629173012843 0 405.21629173012843 103.09164344811506 0 0 0 0 501.53128676544293 294.83683871328321 0 294.83683871328321 78.692294699583726 0 0 0 0 420.44745766278356 307.42248029963957 0 307.42248029963957 170.17924860664061 0 0 0 0 380.16978238681622 337.38480771478862 0 337.38480771478862 74.454168414238666 0 0 0 0 293.83599229920947 231.31055693379676 0 231.31055693379676 114.3612494947447 0 0 0 0 285.42430011273245 265.07248140851516 0 265.07248140851516 -2.9262613310220331 0 0 0 0 280.93302875582594 199.45143272037967 0 199.45143272037967 190.69119969032909 0 0 0 0 51.708474059705622 283.64116524801261 0 283.64116524801261 169.34394822961622 0 0 0 0 287.26878538429446 269.82729047289104 0 269.82729047289104 234.78638199574198 0 0 0 0 431.22727840390871 263.5279906445503 0 263.5279906445503 101.08434319693515 0 0 0 0 46.520205681736115 318.27042881943635 0 318.27042881943635 375.16561814887427 0 0 0 0 446.4131968964648 176.1427791261558 0 176.1427791261558 285.96221545641311 0 0 0 0 382.17316292277246 286.15296380728978 0 286.15296380728978 339.32535634487431 0 0 0 0 341.00400819037168 223.08027255118759 0 223.08027255118759 436.17578542798765 0 0 0 0 187.81143787746987 192.07185607316205 0 192.07185607316205 480.46089321262116 0 0 0 0 619.72294009313919 245.28900920239903 0 245.28900920239903 626.19065253568988 0 0 0 0 616.70619952480774 320.66730831699533 0 320.66730831699533 462.31863662078899 0 0 0 0 632.54716881991772 340.77484986097625 0 340.77484986097625 250.16509009804577 0 0 0 0 645.28363361459924 99.094261352714966 0 99.094261352714966 471.97773431412134 0 0 0 0 1092.6477992250584 1012.598892138205 0 1012.598892138205 1387.561862278526 0 0 0 0 2.3161820979682659 2.3419214244125541 0 2.3419214244125541 -2.2542463863382771 0 0 0 0 549.22505531074421 305.17937111409992 0 305.17937111409992 308.01726321167371 0 0 0 0 575.9503823594132 289.43210572429598 0 289.43210572429598 159.38617054052156 0 0 0 0 688.30023343165522 342.11892333699097 0 342.11892333699097 235.70950090995757 0 0 0 0 168.85137447109446 648.12933265431423 0 648.12933265431423 483.72385653172478 0 0 0 0 422.43919975349127 372.84850059341716 0 372.84850059341716 284.35490461358859 0 0 0 0 147.08509370315005 491.52451271773953 0 491.52451271773953 408.85233147594408 0 0 0 0 355.76893258499831 641.04469474776272 0 641.04469474776272 431.76491416943281 0 0 0 0 -16.695407799374294 16.585464906176981 0 16.585464906176981 -10.744512652536095 0 0 0 0 399.23096956990776 263.22114374543708 0 263.22114374543708 473.63108760315299 0 0 0 0 -11.890763993404107 291.06563046156953 0 291.06563046156953 453.50768023336906 0 0 0 0 316.40512725612643 226.14041335343302 0 226.14041335343302 -104.42215661720184 0 0 0 0 -185.14387907547643 508.02149209878326 0 508.02149209878326 517.85182176424144 0 0 0 0 -6.3694650948202423 6.7889516470905988 0 6.7889516470905988 -6.0506082149404286 0 0 0 0 -282.11856935823016 86.720129411438791 0 86.720129411438791 270.02675943226495 0 0 0 0 201.02053483985947 391.37523026959252 0 391.37523026959252 187.89284019260958 0 0 0 0 2.5061569088538818 187.52212229625547 0 187.52212229625547 184.58942230790854 0 0 0 0 -1043.0991873198655 181.38859404789719 0 181.38859404789719 330.37843199232839 0 0 0 0 -860.67417043958631 875.4107112753361 0 875.4107112753361 -330.46011051165533 0 0 0 0 -459.81788703851998 445.79774370052837 0 445.79774370052837 129.60535014901598 0 0 0 0 -640.28033800016055 352.52443646428173 0 352.52443646428173 128.77051069720073 0 0 0 0 -576.51460189413774 336.03202990377667 0 336.03202990377667 96.005786829546196 0 0 0 0 -83.65551006082751 -96.414549939760946 0 -96.414549939760946 -149.681569712282 0 0 0 0 -624.28431510295741 480.33684214555274 0 480.33684214555274 489.74348944519352 0 0 0 0 -78.919511378210018 320.37017560692709 0 320.37017560692709 -717.06798749585596 0 0 0 0 186.79721118366069 788.57725454621641 0 788.57725454621641 -880.00451350329695 0 0 0 0 545.03501071372739 869.2193783203727 0 869.2193783203727 -861.8839964245708 0 0 0 0 -653.8918825785513 1066.4927782550781 0 1066.4927782550781 -767.44888014205594 0 0 0 0 -1142.5837903461361 353.98578420721844 0 353.98578420721844 876.21902523092479 0 0 0 0 -15.895381075552905 6.6395282944691232 0 6.6395282944691232 -2.288511745641272 0 0 0 0 251.05569895363806 772.58878058050936 0 772.58878058050936 -1434.5060505668084 0 0 0 0 -154.67776319956101 -77.115824944941352 0 -77.115824944941352 523.62946327992813 0 0 0 0 -45.68301291224634 -156.23070554929018 0 -156.23070554929018 346.21397951748139 0 0 0 0 80.655289351005194 86.479623551412317 0 86.479623551412317 386.3855998072911 0 0 0 0 -38.88668039949826 17.239245055347055 0 17.239245055347055 -4.834817870015752 0 0 0 0 -202.50928142718112 298.91550344948223 0 298.91550344948223 1323.0381653147749 0 0 0 0 -330.93246583358268 -250.55712679908993 0 -250.55712679908993 625.25451628545079 0 0 0 0 67.904474983295586 -87.742514190295992 0 -87.742514190295992 -81.01728680717406 0 0 0 0 -144.6185074037312 827.98324421083805 0 827.98324421083805 2.3293532589982533 0 0 0 0 -44.326246882913182 21.117765891081834 0 21.117765891081834 -6.5153331412667166 0 0 0 0 -216.94725373398069 62.183904270323069 0 62.183904270323069 749.62441979167534 0 0 0 0 2.7307402118458413 178.14290275968369 0 178.14290275968369 224.36184353417798 0 0 0 0 -39.098549435980246 46.500306125275472 0 46.500306125275472 8.2748045889984905 0 0 0 0 294.28310054731992 257.46304212866471 0 257.46304212866471 49.333749966476262 0 0 0 0 399.48987210485939 86.764178957846411 0 86.764178957846411 -176.12168277298679 0 0 0 0 -17.798305769361392 10.362040876443757 0 10.362040876443757 -2.9235239244377533 0 0 0 0 -116.71341848259181 -219.78084347224672 0 -219.78084347224672 26.126728008552163 0 0 0 0 186.17917957196914 68.131336809745108 0 68.131336809745108 10.164206482328154 0 0 0 0 673.99848447610566 196.42339889621644 0 196.42339889621644 -183.01179485855027 0 0 0 0 172.62578356633458 175.83258984023723 0 175.83258984023723 -28.599320362318394 0 0 0 0 -44.865231506690264 42.732096838253199 0 42.732096838253199 -1.1885345935686686 0 0 0 0 -294.61902773295878 465.90372862109098 0 465.90372862109098 -23.931180426540095 0 0 0 0 223.2545273368014 72.653213175368364 0 72.653213175368364 -126.48620369956643 0 0 0 0 134.98702086768753 92.291017621512196 0 92.291017621512196 -64.123238141022739 0 0 0 0 137.28329892916008 -53.076359939399936 0 -53.076359939399936 -174.73117722849565 0 0 0 0 70.143648898338142 -57.530055744668061 0 -57.530055744668061 148.14728398558395 0 0 0 0 -476.7783659679917 -34.274361162407331 0 -34.274361162407331 126.51563781520849 0 0 0 0 -36.437918961142714 -275.69801401879295 0 -275.69801401879295 -297.79821706322036 0 0 0 0 -1138.5870158124671 -139.71083004323327 0 -139.71083004323327 -135.08200064695575 0 0 0 0 -365.89816154591972 222.67904650267428 0 222.67904650267428 -33.516181847105827 0 0 0 0 -183.70433500903164 -96.200783493538438 0 -96.200783493538438 -1049.0344834219309 0 0 0 0 -802.04068989671941 1053.1489151484709 0 1053.1489151484709 -605.83408775841895 0 0 0 0 145.75411233395425 -90.112858544036726 0 -90.112858544036726 -87.449282338771354 0 0 0 0 -182.65069136388047 631.73650719093609 0 631.73650719093609 -50.032793393241747 0 0 0 0 -108.96258344389207 149.25334368217409 0 149.25334368217409 -271.99582233666661 0 0 0 0 -375.68238243016094 460.38298267780704 0 460.38298267780704 190.20877483771392 0 0 0 0 -706.0355402806963 510.62380654240678 0 510.62380654240678 190.48928780180083 0 0 0 0 -813.57444731945725 335.80878260547047 0 335.80878260547047 287.34126743818661 0 0 0 0 64.999377158303105 45.596880541644168 0 45.596880541644168 186.20191406596223 0 0 0 0 -288.70407326335044 261.70824976745934 0 261.70824976745934 184.02826792529686 0 0 0 0 -1371.6641146828624 128.84665281309981 0 128.84665281309981 206.4160602041265 0 0 0 0 47.656677025690442 116.40156248121912 0 116.40156248121912 453.95686578164054 0 0 0 0 -39.368367648916319 148.77590834354078 0 148.77590834354078 462.74190156584154 0 0 0 0 -173.20420822570304 354.01713868274521 0 354.01713868274521 -43.839649117157023 0 0 0 0 506.31791977998364 205.56139578358602 0 205.56139578358602 -11.406504078810713 0 0 0 0 -11.942681415915445 37.878625770991441 0 37.878625770991441 -47.117965708178914 0 0 0 0 -47.472734271694208 -7.8060509906213156 0 -7.8060509906213156 38.536621444940465 0 0 0 0 -0.31036030594357555 39.500572989734607 0 39.500572989734607 66.31933763153134 0 0 0 0 -92.977927851912682 57.007019762432265 0 57.007019762432265 69.128691248713608 0 0 0 0 -86.91050107034971 49.612800346878885 0 49.612800346878885 66.688570641182196 0 0 0 0 -40.074742479628185 111.00482031805723 0 111.00482031805723 77.621763536263643 0 0 0 0 -144.77899880839414 140.27189526598755 0 140.27189526598755 33.781053809186687 0 0 0 0 -87.104415455181879 52.894730214607534 0 52.894730214607534 71.903079754063583 0 0 0 0 -129.07701112958603 32.069978767436169 0 32.069978767436169 61.711686928250856 0 0 0 0 -58.044151277121273 140.6610099880952 0 140.6610099880952 -246.65723942948807 0 0 0 0 -382.58364707492001 197.00592805872941 0 197.00592805872941 -23.321243793207941 0 0 0 0 -12.984026122336218 27.899504502445097 0 27.899504502445097 -76.380847099032962 0 0 0 0 54.241743193160801 19.439358323922079 0 19.439358323922079 21.442895450077231 0 0 0 0 -143.29754897934617 -52.806506293495659 0 -52.806506293495659 154.03886487110782 0 0 0 0 -716.35476718537393 168.08179658762219 0 168.08179658762219 114.16870579079114 0 0 0 0 -5.3406334800187096 1.2452180908091264 0 1.2452180908091264 -0.17336286405063883 0 0 0 0 -255.10223119103466 -817.06674648601074 0 -817.06674648601074 -108.74677082732887 0 0 0 0 -278.79451820722898 -0.62461200085454038 0 -0.62461200085454038 177.89867589257938 0 0 0 0 -41.306523069935793 -44.090487355597361 0 -44.090487355597361 50.693723064180631 0 0 0 0 -35.62125554864906 102.10173152929656 0 102.10173152929656 -1.8537778282989166 0 0 0 0 -39.216133505280595 37.494299835500897 0 37.494299835500897 178.74847417964168 0 0 0 0 -15.144179218352946 2.6937766644079582 0 2.6937766644079582 -0.3353937631212317 0 0 0 0 15.257199062005384 25.9606967075988 0 25.9606967075988 -8.3105693052617085 0 0 0 0 11.702215370009071 84.115726496811476 0 84.115726496811476 48.526086795413903 0 0 0 0 0.037143908841244411 83.534788254587284 0 83.534788254587284 65.515176611330389 0 0 0 0 -73.885635651909979 68.706892796658167 0 68.706892796658167 152.07122503531355 0 0 0 0 112.34197957538709 187.63004117850414 0 187.63004117850414 142.62094571754005 0 0 0 0 149.04883339630032 183.59428547839707 0 183.59428547839707 49.512515490581791 0 0 0 0 50.319006593294034 179.40574901885066 0 179.40574901885066 67.649739367875739 0 0 0 0 25.393900429458881 94.159709203637249 0 94.159709203637249 45.968497162466065 0 0 0 0 153.88902880177193 115.66361314427854 0 115.66361314427854 40.04878297198502 0 0 0 0 -4.3654128567868611 172.12979025602488 0 172.12979025602488 559.80517049269429 0 0 0 0 18.932507806166541 253.98085526343732 0 253.98085526343732 322.91001341237188 0 0 0 0 -0.067898358013422921 10.747161254105649 0 10.747161254105649 -24.002945274298124 0 0 0 0 4.9238570758843991 9.7285677726423714 0 9.7285677726423714 5.3449102714355918 0 0 0 0 48.295210248354124 471.29616579617618 0 471.29616579617618 -347.88784644037696 0 0 0 0 -679.50376756631886 318.99310722705286 0 318.99310722705286 -205.79851794977822 0 0 0 0 -1.0853644987986684 3.6344434391188827 0 3.6344434391188827 0.84772653227039108 0 0 0 0 268.32645147280709 91.139822699763954 0 91.139822699763954 4.7346982688304706 0 0 0 0 195.13643546018284 201.63078094788671 0 201.63078094788671 60.3363234584167 0 0 0 0 6.5686878072156105 -42.145292477901421 0 -42.145292477901421 -314.38296963592256 0 0 0 0 38.787989518255927 97.673733974326751 0 97.673733974326751 140.71907091504818 0 0 0 0 0.66559698934756284 1.4427729942456295 0 1.4427729942456295 -4.0993802184227501 0 0 0 0 267.53909169885446 149.56308600059583 0 149.56308600059583 52.503729447204023 0 0 0 0 517.27588991209632 289.05351084803442 0 289.05351084803442 -263.14787345060176 0 0 0 0 3.0067111375678905 2.892297945741106 0 2.892297945741106 3.6200325899006756 0 0 0 0 0.35062568190915044 306.81793077459014 0 306.81793077459014 -420.73726292928404 0 0 0 0 -235.27062412092528 68.042023524152512 0 68.042023524152512 -9.1728203216239308 0 0 0 0 -0.35260636900056852 247.60746417871678 0 247.60746417871678 502.64168912438026 0 0 0 0 537.81082416333084 -8.8947671971368436 0 -8.8947671971368436 -26.770234384269656 0 0 0 0 -228.26447400928009 255.48696814816549 0 255.48696814816549 606.85347773635658 0 0 0 0 -213.73751510851434 -153.73827529814275 0 -153.73827529814275 647.97112642987395 0 0 0 0 -0.17971720380787559 0.28248824281952523 0 0.28248824281952523 6.8140983057134541 0 0 0 0 -23.129443056226592 -181.02464919557201 0 -181.02464919557201 300.39291646971515 0 0 0 0 -1.1679489008729433 -32.817249253693149 0 -32.817249253693149 -4.5137881537648354 0 0 0 0 321.6153888582412 305.99984007272815 0 305.99984007272815 254.70972633980182 0 0 0 0 31.738363990793005 233.43427078903369 0 233.43427078903369 398.45472988104484 0 0 0 0 236.89584565731639 347.25077085092789 0 347.25077085092789 73.312240076811577 0 0 0 0 131.0322492068517 455.01975932155619 0 455.01975932155619 208.8698380050123 0 0 0 0 253.29521848305012 292.92124483030602 0 292.92124483030602 71.506980870823099 0 0 0 0 134.86467921489384 492.54267755644923 0 492.54267755644923 -73.948104841094391 0 0 0 0 27.054595462119323 375.87742965649772 0 375.87742965649772 78.962987367583992 0 0 0 0 -291.79165559343528 851.54510445203141 0 851.54510445203141 -611.71486974967229 0 0 0 0 -676.79000780951537 -51.274911699679137 0 -51.274911699679137 480.52528777786756 0 0 0 0 -159.58967207270325 72.264721820756677 0 72.264721820756677 -298.01224200364663 0 0 0 0 -355.02774695288099 -15.090020550759618 0 -15.090020550759618 662.7635804741567 0 0 0 0 -357.90621487512544 30.669490041061181 0 30.669490041061181 1019.7590025167028 0 0 0 0 -145.60692149895476 56.14601980102907 0 56.14601980102907 444.06481374217151 0 0 0 0 41.605036675944575 27.603853498654644 0 27.603853498654644 4.0395717031971685 0 0 0 0 263.33331093349261 567.47263913730239 0 567.47263913730239 837.07355719957923 0 0 0 0 -14.365436517086707 11.138250133690974 0 11.138250133690974 1.7017557006469595 0 0 0 0 35.808542591257719 40.625371620224996 0 40.625371620224996 45.875055676582633 0 0 0 0 -98.361245720501756 209.62958846851234 0 209.62958846851234 571.23749351011429 0 0 0 0 0.97154279726055393 5.7979718953577395 0 5.7979718953577395 -0.52928846874873625 0 0 0 0 -63.67892711472814 166.24567756758279 0 166.24567756758279 424.76548691807602 0 0 0 0 5.4352241724081978 -76.940246299359387 0 -76.940246299359387 289.92086055830259 0 0 0 0 -14.675095973769203 51.718751187500402 0 51.718751187500402 83.088823002576476 0 0 0 0 -23.782658277869416 4.8508859382708431 0 4.8508859382708431 1.2458061706034005 0 0 0 0 -13.741654855402885 -53.983222908855623 0 -53.983222908855623 249.01871432623261 0 0 0 0 -6.2188493483251648 -0.11536695718841372 0 -0.11536695718841372 4.3804103246051778 0 0 0 0 23.104139954772108 28.790401085800454 0 28.790401085800454 -18.633461762465231 0 0 0 0 21.139997226920968 29.185404409064176 0 29.185404409064176 6.5139446922858042 0 0 0 0 4.457208933919901 43.782136048504299 0 43.782136048504299 9.6340612927383518 0 0 0 0 16.542430938308826 29.028045960119925 0 29.028045960119925 14.158141942555403 0 0 0 0 11.365332244760083 18.119534056402223 0 18.119534056402223 5.1280915883661926 0 0 0 0 14.995584817623239 28.256057850597983 0 28.256057850597983 18.062063369148291 0 0 0 0 24.39139746294677 32.271657228187451 0 32.271657228187451 11.950349851828832 0 0 0 0 20.779704557302466 15.393548440300947 0 15.393548440300947 -1.8287550801696852 0 0 0 0 10.749714064226282 16.987825981529795 0 16.987825981529795 4.7057154534459187 0 0 0 0 17.557052878371906 64.465065313377181 0 64.465065313377181 96.140327956869442 0 0 0 0 0.36620828174636699 43.028594355008408 0 43.028594355008408 86.99278735439475 0 0 0 0 57.828285823314218 56.050893108134005 0 56.050893108134005 60.447286273400096 0 0 0 0 -0.87179808160918526 0.45251030376145707 0 0.45251030376145707 18.322709407846297 0 0 0 0 -5.657608475201414 52.265641768998648 0 52.265641768998648 -7.756909152437629 0 0 0 0 -84.057242891947681 38.808292295328329 0 38.808292295328329 24.29785659960271 0 0 0 0 -13.120040560184862 73.969788305281327 0 73.969788305281327 -35.597451656389467 0 0 0 0 23.694470197282499 18.933713640513361 0 18.933713640513361 9.261486588689877 0 0 0 0 -10.872912816611091 14.577759856730097 0 14.577759856730097 7.0333612040953213 0 0 0 0 0.41908545058518598 12.171745051049815 0 12.171745051049815 7.2837148332144199 0 0 0 0 -19.371488888888052 6.5016710166825078 0 6.5016710166825078 18.842619143106276 0 0 0 0 -0.057900951018382329 4.1340903165955751 0 4.1340903165955751 7.7652282656822536 0 0 0 0 0.8170326806596222 -2.6647863418157982 0 -2.6647863418157982 4.24739399607639 0 0 0 0 42.900340931300889 29.092350521720618 0 29.092350521720618 45.955091994463146 0 0 0 0 27.427662475980469 25.701742918634409 0 25.701742918634409 13.809688668548006 0 0 0 0 -0.20241028402961092 1.7927797258107603 0 1.7927797258107603 -4.7964734513734584 0 0 0 0 -1.2546117388014864 4.053065182159159 0 4.053065182159159 3.0712566149924001 0 0 0 0 -1.804488468762429 15.352228239125907 0 15.352228239125907 14.137925524391903 0 0 0 0 16.216168103070231 21.084766391984886 0 21.084766391984886 33.997678682058904 0 0 0 0 -5.8222879067508586 8.8845729985947202 0 8.8845729985947202 7.3345450258122753 0 0 0 0 22.951393642317271 17.818843424006445 0 17.818843424006445 16.333677067064855 0 0 0 0 9.1133272831211798 10.211712201646151 0 10.211712201646151 16.28748535340408 0 0 0 0 -0.96259964699911649 1.9031931110719569 0 1.9031931110719569 1.1715510336412862 0 0 0 0 36.899632392800413 -18.261447570336713 0 -18.261447570336713 -79.396341660634789 0 0 0 0 -183.53290605044458 44.113768730730044 0 44.113768730730044 8.1945425629455713 0 0 0 0 11.169899901602491 15.424133846379469 0 15.424133846379469 7.6228058947295514 0 0 0 0 17.166311085544294 36.642512710523988 0 36.642512710523988 5.4821291636199021 0 0 0 0 20.568301277788123 36.881462600298619 0 36.881462600298619 28.298766130659715 0 0 0 0 11.419954910466913 31.859300922158582 0 31.859300922158582 25.674236807448324 0 0 0 0 -4.8175726352827155 14.315691432057548 0 14.315691432057548 0.039616858821197809 0 0 0 0 12.836841424825252 41.476070788704419 0 41.476070788704419 33.254378568177344 0 0 0 0 8.9654835192195605 39.668304827800284 0 39.668304827800284 33.900137054606603 0 0 0 0 10.552971703327785 40.066347820230021 0 40.066347820230021 16.062764415215497 0 0 0 0 14.214384017337579 9.0582539761326188 0 9.0582539761326188 2.8232443650776986 0 0 0 0 1.3966783196519827 21.984420876178774 0 21.984420876178774 19.336580156257696 0 0 0 0 14.998139800954959 26.141933506276473 0 26.141933506276473 -18.988742426101453 0 0 0 0 21.132721042027697 24.657429047345431 0 24.657429047345431 8.241150222489523 0 0 0 0 6.0692611368722282 23.27006953964792 0 23.27006953964792 26.59029460617603 0 0 0 0 17.335209460026817 21.704036252580408 0 21.704036252580408 30.983451267013152 0 0 0 0 31.503294738417026 32.262260559105925 0 32.262260559105925 20.706649490488871 0 0 0 0 29.62710981440614 32.748240709621314 0 32.748240709621314 11.944341535934655 0 0 0 0 21.055382259914438 4.3444440478324928 0 4.3444440478324928 -6.761320805512895 0 0 0 0 50.506579230248462 46.837131066295115 0 46.837131066295115 36.773343537332948 0 0 0 0 16.437036273182457 26.452231803687937 0 26.452231803687937 24.956170003901207 0 0 0 0 21.302890139020747 23.801312863710336 0 23.801312863710336 23.667228944004819 0 0 0 0 -6.018774512585999 19.536420553335773 0 19.536420553335773 11.816950257197448 0 0 0 0 2.6514305337305757 20.408282070528344 0 20.408282070528344 -1.3898711500746685 0 0 0 0 12.462978623336312 46.423273971974368 0 46.423273971974368 36.715653373757959 0 0 0 0 17.664239637335413 35.318117274817268 0 35.318117274817268 60.584971189317002 0 0 0 0 0.5634515529449402 -0.32852313608899664 0 -0.32852313608899664 -3.4655410779194646 0 0 0 0 25.676298979378771 63.631008337424646 0 63.631008337424646 72.145418651314685 0 0 0 0 3.5347760404692963 -12.067321721016924 0 -12.067321721016924 8.8808147675786131 0 0 0 0 11.182720667128102 9.7257677820694113 0 9.7257677820694113 -8.2489158316970617 0 0 0 0 -4.0330121892620809 81.01758686285757 0 81.01758686285757 -4.7137863360767369 0 0 0 0 26.217003299308999 5.5022073813995576 0 5.5022073813995576 9.8138822880573571 0 0 0 0 5.4237865108445646 6.6505526676149955 0 6.6505526676149955 -2.5181244815757644 0 0 0 0 -59.031212285510264 -0.70187436111154966 0 -0.70187436111154966 56.490874658415123 0 0 0 0 -43.154024968755628 18.147196534948861 0 18.147196534948861 18.128458275737117 0 0 0 0 112.20095405200846 7.2134314471204561 0 7.2134314471204561 -154.80999722334673 0 0 0 0 -4.2706734653465901 34.076617717960971 0 34.076617717960971 23.524619558131235 0 0 0 0 -116.31063426123001 90.340890785635565 0 90.340890785635565 62.893192010487837 0 0 0 0 -21.772143440497473 24.935939681149335 0 24.935939681149335 -5.3869704629527071 0 0 0 0 -49.673674123283675 23.072872316214713 0 23.072872316214713 9.9245561651324437 0 0 0 0 -0.98963463821834807 1.8477699479424103 0 1.8477699479424103 3.832112482386119 0 0 0 0 6.8869846420511749 33.70123322904368 0 33.70123322904368 86.157306731171047 0 0 0 0 -125.29595478682313 80.58090686840751 0 80.58090686840751 -64.5928154763169 0 0 0 0 -12.729274737497136 12.73982365345698 0 12.73982365345698 26.600188548121416 0 0 0 0 -0.44163429363106843 21.097073089231344 0 21.097073089231344 19.818726746138054 0 0 0 0 -123.93036390864654 125.63249286776318 0 125.63249286776318 226.51409884124496 0 0 0 0 20.205507802951615 182.34106093147693 0 182.34106093147693 120.30636568957152 0 0 0 0 -132.88362520496594 14.096220027005984 0 14.096220027005984 100.18322161035712 0 0 0 0 -263.44755998522305 231.89992660197458 0 231.89992660197458 112.09970518154341 0 0 0 0 -2.1099966951249201 0.056569650581483444 0 0.056569650581483444 2.0000268403127244 0 0 0 0 -1.3908625224285061 618.54580311893733 0 618.54580311893733 92.268716709612818 0 0 0 0 -94.237990995912696 -18.264456253671597 0 -18.264456253671597 126.56195256173851 0 0 0 0 96.716320253461163 150.25665897041222 0 150.25665897041222 426.32418036598119 0 0 0 0 82.227707374382589 188.08008123765558 0 188.08008123765558 476.73673970099526 0 0 0 0 -3.7765689827010362 2.3314556769329604 0 2.3314556769329604 -1.2957915531642605 0 0 0 0 22.379497169240494 111.68059973069194 0 111.68059973069194 213.05204729067009 0 0 0 0 18.361453899366097 151.28926219215509 0 151.28926219215509 426.49787895462396 0 0 0 0 -3.0369343145435153 -0.42521995038297078 0 -0.42521995038297078 3.5002212880535808 0 0 0 0 16.70354185000906 92.369987723935083 0 92.369987723935083 157.62114271444443 0 0 0 0 -34.802736944300705 21.903269736390484 0 21.903269736390484 120.68736501849617 0 0 0 0 -75.31523213373859 19.877405533276203 0 19.877405533276203 9.2339579907021054 0 0 0 0 -28.185689783542074 9.9235607783120798 0 9.9235607783120798 -8.4985810044506103 0 0 0 0 -89.630705996707547 -78.182294295662359 0 -78.182294295662359 -30.23443573476834 0 0 0 0 -176.6509049393826 92.562979375194118 0 92.562979375194118 21.658155970410007 0 0 0 0 -54.935634246328846 73.472494804311282 0 73.472494804311282 174.45909914828007 0 0 0 0 -15.013465878015268 143.16327823488336 0 143.16327823488336 202.14266664999741 0 0 0 0 -13.695143657936242 1.7574386902321351 0 1.7574386902321351 5.8679878318438341 0 0 0 0 86.973545303582796 143.54615644424211 0 143.54615644424211 166.0724490768971 0 0 0 0 -32.964919755613664 92.675282798043554 0 92.675282798043554 180.4167459641867 0 0 0 0 -629.24878274531511 638.47693769581338 0 638.47693769581338 325.02291269950911 0 0 0 0 -56.060114026376155 38.590948481067642 0 38.590948481067642 4.6836848977299148 0 0 0 0 -178.573220221675 -230.83244569732824 0 -230.83244569732824 -65.657970020178254 0 0 0 0 -5.834619051573867 4.9398571324652778 0 4.9398571324652778 -2.728940414976762 0 0 0 0 -9.297912973077473 66.562461129391181 0 66.562461129391181 70.023828091557334 0 0 0 0 9.8908601235889364 7.921843096217799 0 7.921843096217799 23.896745424844994 0 0 0 0 19.120633818914939 6.6817867938451627 0 6.6817867938451627 19.066872487199362 0 0 0 0 9.7592671532620443 1.3848433719588229 0 1.3848433719588229 20.353934663806285 0 0 0 0 -0.86160632676910609 3.378094857229371 0 3.378094857229371 25.072385147126624 0 0 0 0 -14.599360532622086 74.437205383329456 0 74.437205383329456 -53.614582329010318 0 0 0 0 -139.23670452255465 76.550846739687586 0 76.550846739687586 22.610641919505724 0 0 0 0 -163.09128308553045 42.327740127589891 0 42.327740127589891 29.404268743663124 0 0 0 0 1.466703178525286 2.7119714250375324 0 2.7119714250375324 -0.946883333902651 0 0 0 0 28.347224552948319 20.012455529290719 0 20.012455529290719 -6.3837690379541527 0 0 0 0 -120.07705958017323 20.095272660686533 0 20.095272660686533 -4.0869676276506652 0 0 0 0 -9.5356617019861005 16.796704809372841 0 16.796704809372841 -8.6538184164319318 0 0 0 0 -64.909195912608482 15.2948916859853 0 15.2948916859853 5.8404938389293211 0 0 0 0 -11.775766638616915 71.190557953222196 0 71.190557953222196 20.774862972640221 0 0 0 0 -81.95018770997558 76.351635547256137 0 76.351635547256137 8.3152650455940602 0 0 0 0 -15.882584116950966 117.81955385480251 0 117.81955385480251 -0.77885670185787603 0 0 0 0 -39.916828684854408 74.26028436825618 0 74.26028436825618 -8.0893868533457862 0 0 0 0 -117.42049437050082 113.00855119808693 0 113.00855119808693 17.495142904121167 0 0 0 0 -29.549323404695315 134.83907561605884 0 134.83907561605884 56.379471653606743 0 0 0 0 -30.969924329030619 148.10660624643424 0 148.10660624643424 -65.027267665245745 0 0 0 0 55.103733144926082 166.49770344736316 0 166.49770344736316 -61.778406321216607 0 0 0 0 58.791753121571674 74.409717903803539 0 74.409717903803539 55.071605079636356 0 0 0 0 33.884491009353951 121.59184207001454 0 121.59184207001454 36.623862812532025 0 0 0 0 46.503755280653422 84.096615598617063 0 84.096615598617063 -0.71039638318688958 0 0 0 0 26.45605712781007 23.643550816919404 0 23.643550816919404 -22.813646124069159 0 0 0 0 -28.303355283846031 110.62462211183629 0 110.62462211183629 -30.536661921464656 0 0 0 0 4.243350366174127 94.099128862475482 0 94.099128862475482 60.347110563976457 0 0 0 0 17.616063366585877 82.498364143699291 0 82.498364143699291 8.5540051958641925 0 0 0 0 31.971669315513282 109.94060657444061 0 109.94060657444061 10.50413861616471 0 0 0 0 19.422847113220428 74.980881819291426 0 74.980881819291426 -22.787630007416737 0 0 0 0 3.7019665234387285 66.185492395239578 0 66.185492395239578 3.9766488474552659 0 0 0 0 66.296746886308696 89.735221669364435 0 89.735221669364435 -17.588756658608908 0 0 0 0 14.405882876269743 113.64260109059757 0 113.64260109059757 1.606657919745885 0 0 0 0 3.0672943265837302 114.82356796548419 0 114.82356796548419 1.308774271164552 0 0 0 0 -12.502911757253994 122.45588639440619 0 122.45588639440619 35.969158082119989 0 0 0 0 -139.29068674538576 144.39137765079386 0 144.39137765079386 76.505568972895844 0 0 0 0 -28.769990961485746 104.9373173680433 0 104.9373173680433 6.1038837769810925 0 0 0 0 -65.842142310735653 142.12759532337168 0 142.12759532337168 -36.871144033142627 0 0 0 0 -57.683135818743594 60.880024851390829 0 60.880024851390829 -5.5718409429814457 0 0 0 0 28.506622907632845 -194.61236964808745 0 -194.61236964808745 161.38116366277609 0 0 0 0 4.0188850073844833 8.7632100709480749 0 8.7632100709480749 -1.3593298785362098 0 0 0 0 46.540984061779454 70.985268513518349 0 70.985268513518349 30.172626947531171 0 0 0 0 20.220173947229341 64.059140796392967 0 64.059140796392967 30.775534444868754 0 0 0 0 -4.7443866625305589 23.600465997708866 0 23.600465997708866 27.285417322538414 0 0 0 0 -20.593447480168834 176.95141998790587 0 176.95141998790587 59.286341934915981 0 0 0 0 31.019949182402343 93.173496734606488 0 93.173496734606488 48.708370340259535 0 0 0 0 -10.510427609056933 81.172104314760873 0 81.172104314760873 46.75144319678293 0 0 0 0 7.506289631677646 185.58157495125795 0 185.58157495125795 49.864992285271001 0 0 0 0 -12.167044441404869 88.420248645795255 0 88.420248645795255 -96.048031683348199 0 0 0 0 38.846875536022708 23.315470134285533 0 23.315470134285533 -57.956377931379393 0 0 0 0 -25.945332603700081 106.71279012617742 0 106.71279012617742 -26.969936483455967 0 0 0 0 38.535216845994 65.235294178863114 0 65.235294178863114 -192.04239543986296 0 0 0 0 17.582820920644735 68.755619569702503 0 68.755619569702503 -82.523547153818072 0 0 0 0 27.369591036670258 53.843584505253872 0 53.843584505253872 -27.222720562089819 0 0 0 0 25.235091439419193 129.68144978136479 0 129.68144978136479 -132.20635586519893 0 0 0 0 -10.926999770133989 115.13825965848082 0 115.13825965848082 4.7410611247469205 0 0 0 0 -14.237953899151762 101.12789825534492 0 101.12789825534492 -53.283285906631136 0 0 0 0 -2030.7048464349355 399.25517118322387 0 399.25517118322387 -182.73692590274641 0 0 0 0 -42.26745543074361 24.875907246147715 0 24.875907246147715 -6.0369228474935781 0 0 0 0 -34.294710970447341 122.74847841620431 0 122.74847841620431 66.891494338618941 0 0 0 0 4.437846403918229 137.7653249037794 0 137.7653249037794 23.26197015804064 0 0 0 0 26.449099054865655 108.82181289740765 0 108.82181289740765 37.244599633590042 0 0 0 0 7.0103841110430949 193.04273048863706 0 193.04273048863706 382.60761147837184 0 0 0 0 78.50314530787 52.873058126724573 0 52.873058126724573 -56.443666787083203 0 0 0 0 10.763596924967715 102.50817361558188 0 102.50817361558188 60.192134367774997 0 0 0 0 100.1048309084581 125.48421891715407 0 125.48421891715407 -25.237100085571001 0 0 0 0 41.20339858205989 74.567279479655554 0 74.567279479655554 62.690844268740875 0 0 0 0 496.10289873699003 73.962994887732748 0 73.962994887732748 -454.36025027661526 0 0 0 0 -34.101679515600523 11.841666823184084 0 11.841666823184084 -4.3214821144260824 0 0 0 0 447.69437352657769 -203.25937871541646 0 -203.25937871541646 -411.03639391321485 0 0 0 0 1633.1610030482116 -907.40126954793959 0 -907.40126954793959 -389.34572928292619 0 0 0 0 -1024.6378496728867 242.92401745943062 0 242.92401745943062 81.576617035541858 0 0 0 0 -8.1529632906531333 480.84412949781654 0 480.84412949781654 -462.09107381758804 0 0 0 0 -704.49979279206309 479.79481924328866 0 479.79481924328866 -133.11748526239535 0 0 0 0 -0.14813488524846274 2.4137758714055479 0 2.4137758714055479 -10.953594838386422 0 0 0 0 -0.72586093356375159 41.200569678636413 0 41.200569678636413 0.41911284319506592 0 0 0 0 -79.317599186913867 98.950224112064461 0 98.950224112064461 29.127280722659634 0 0 0 0 225.94382452118407 -16.203509081145967 0 -16.203509081145967 -280.50742140930015 0 0 0 0 14.024674642772609 25.856264641581944 0 25.856264641581944 -11.11505463763072 0 0 0 0 -157.11725173348532 -30.505994056718919 0 -30.505994056718919 -36.099606522984686 0 0 0 0 -4.4731393371948798 149.28528792266479 0 149.28528792266479 -212.36896951536619 0 0 0 0 -46.530040962607018 167.0532746765748 0 167.0532746765748 -58.939215238866382 0 0 0 0 -19.589205662836321 144.9510272481275 0 144.9510272481275 -70.826660258961056 0 0 0 0 -56.356349002897332 98.004769481703079 0 98.004769481703079 49.973953726967011 0 0 0 0 39.014325495316484 50.36190753289398 0 50.36190753289398 -23.050159685332105 0 0 0 0 136.31623669575492 94.238912205022643 0 94.238912205022643 -146.46108401971287 0 0 0 0 -17.23778802844712 61.203091941747573 0 61.203091941747573 -49.661265418435264 0 0 0 0 2.8157158118879124 79.858424502142043 0 79.858424502142043 -51.153108339036407 0 0 0 0 75.714183911359214 -33.541950417646149 0 -33.541950417646149 -330.84984435552178 0 0 0 0 24.551972837773519 79.236512937557563 0 79.236512937557563 -20.632264663981914 0 0 0 0 -3.8908124706184903 58.223361561443255 0 58.223361561443255 -32.196027972443218 0 0 0 0 18.575866585564654 67.522125552412945 0 67.522125552412945 -42.659945972402056 0 0 0 0 -3.8828918094122855 58.162069398820677 0 58.162069398820677 -45.664099610091398 0 0 0 0 -3.9465934706422559 66.254419946946655 0 66.254419946946655 -11.656362428715511 0 0 0 0 -8.3145171533956272 52.735053813777995 0 52.735053813777995 -25.324574116209988 0 0 0 0 -12.545019381205748 38.789801684344638 0 38.789801684344638 -70.748485703734332 0 0 0 0 -3.2133864474317306 66.680693510610581 0 66.680693510610581 -42.46953727156415 0 0 0 0 7.1160651583722938 72.185062965523684 0 72.185062965523684 -41.279465477096892 0 0 0 0 7.1487453197908053 69.995739092132681 0 69.995739092132681 -59.380690679965483 0 0 0 0 -26.089534156180889 70.552752092728042 0 70.552752092728042 -78.17361454750062 0 0 0 0 27.28862573740102 11.18916413630452 0 11.18916413630452 -13.752421331023584 0 0 0 0 2.5164893759799085 40.364005141622684 0 40.364005141622684 0.98868747737170182 0 0 0 0 -5.1809724488248321 43.746978910367034 0 43.746978910367034 69.196791101370763 0 0 0 0 -19.171565307695346 36.960846587215201 0 36.960846587215201 -98.934578011867416 0 0 0 0 13.140883741602011 38.740902679583087 0 38.740902679583087 -171.87012462846906 0 0 0 0 -1.2519750230677857 0.095143497725246107 0 0.095143497725246107 9.5780208307188062 0 0 0 0 -12.057029621453694 57.865190239706862 0 57.865190239706862 -59.413127900284962 0 0 0 0 -3.5118219374853652 30.055685706662189 0 30.055685706662189 -62.350528849703551 0 0 0 0 -8.9506892700894127 37.830769948462532 0 37.830769948462532 -17.472460416059988 0 0 0 0 -0.14942189229733316 1.1969778927333721 0 1.1969778927333721 -11.957032282730717 0 0 0 0 17.696281524878941 63.83848134886648 0 63.83848134886648 -102.55519070270293 0 0 0 0 -2.0185930368761547 62.986366055811231 0 62.986366055811231 -63.38846549648224 0 0 0 0 -149.97168907025844 -65.475155442578398 0 -65.475155442578398 -305.39969431257487 0 0 0 0 32.875727807508206 13.473315218470958 0 13.473315218470958 6.0951822069743713 0 0 0 0 -135.84294528401369 145.1447237637276 0 145.1447237637276 -75.908786103733291 0 0 0 0 49.364818184745673 93.868357362342067 0 93.868357362342067 -57.384922169789206 0 0 0 0 194.11274437312386 195.0856945142441 0 195.0856945142441 -309.75567677534855 0 0 0 0 50.223810937190137 21.877126513516487 0 21.877126513516487 6.1904770051842206 0 0 0 0 99.14224611006648 -17.214752326190137 0 -17.214752326190137 -130.04702111046026 0 0 0 0 20.323604514393082 101.54008828263977 0 101.54008828263977 -63.745935513693439 0 0 0 0 -0.72566271913345837 -0.132348467632454 0 -0.132348467632454 -2.1439089385822854 0 0 0 0 -189.41446911849835 94.464369249000811 0 94.464369249000811 -11.918461900437251 0 0 0 0 -77.474343086127192 22.23665277305372 0 22.23665277305372 17.853299628837703 0 0 0 0 5.5289843692389695 58.768955393928991 0 58.768955393928991 30.819115972884902 0 0 0 0 24.259950346049834 28.586326609346493 0 28.586326609346493 -36.892400168334525 0 0 0 0 7.3424139238686443 11.655887312835922 0 11.655887312835922 -2.6403456584193918 0 0 0 0 73.536830888175245 46.74055534025274 0 46.74055534025274 -29.570818905216584 0 0 0 0 13.423586285161036 82.39906196238735 0 82.39906196238735 -54.460339353288873 0 0 0 0 14.879520991077698 76.100978947775729 0 76.100978947775729 -60.743447327438844 0 0 0 0 3.0839780190452224 57.391969589634748 0 57.391969589634748 -24.259433352986285 0 0 0 0 42.160723610852216 26.422574504236618 0 26.422574504236618 -6.3994088943348686 0 0 0 0 20.350782607810061 100.94534972452561 0 100.94534972452561 -52.023917549766338 0 0 0 0 107.06003425626841 85.769559321854103 0 85.769559321854103 -24.741114971294422 0 0 0 0 0.33467246852850963 52.284156199543375 0 52.284156199543375 -29.864898251523666 0 0 0 0 19.642407840456144 102.22975958684219 0 102.22975958684219 6.4725052838621195 0 0 0 0 32.918424354960734 73.368899088747639 0 73.368899088747639 -24.691465554431193 0 0 0 0 24.289595483947778 108.37814395965142 0 108.37814395965142 -13.132650938770894 0 0 0 0 18.744358450015 63.594795690775719 0 63.594795690775719 -4.0446573218624842 0 0 0 0 22.123327700949631 79.397372067976448 0 79.397372067976448 -5.2401368099290266 0 0 0 0 74.122239512500329 54.664878230194546 0 54.664878230194546 -34.193307535539176 0 0 0 0 241.75151753041428 165.37571638784539 0 165.37571638784539 -113.65143532025741 0 0 0 0 114.53549427411781 134.10801988486583 0 134.10801988486583 89.742519111123329 0 0 0 0 39.087358933318683 -56.597317078182186 0 -56.597317078182186 -135.16988059038704 0 0 0 0 3.1342006843769497 -0.15053738790022209 0 -0.15053738790022209 -16.868457096929838 0 0 0 0 198.74844257299264 150.35944981680495 0 150.35944981680495 9.0997506651146978 0 0 0 0 158.21550636016764 157.24241474326118 0 157.24241474326118 46.412889703395194 0 0 0 0 79.416614588000812 112.01170874901254 0 112.01170874901254 76.793655017064339 0 0 0 0 146.36608116434945 138.65985562695096 0 138.65985562695096 19.359620026482389 0 0 0 0 207.66085574002136 107.45018026914568 0 107.45018026914568 -7.6061253824809683 0 0 0 0 34.017686947539914 30.557858996766299 0 30.557858996766299 -20.786499731239019 0 0 0 0 19.048470512455836 18.277947589274643 0 18.277947589274643 -38.926293346749674 0 0 0 0 17.03077556410895 27.57235654906227 0 27.57235654906227 -3.8298999982230555 0 0 0 0 15.345137131778756 30.231475440305076 0 30.231475440305076 -5.8056327091253479 0 0 0 0 33.751954188440855 44.281803245022694 0 44.281803245022694 0.29462439317602218 0 0 0 0 10.018451694759278 11.344550046947461 0 11.344550046947461 -35.882621658298831 0 0 0 0 25.682205274206353 20.922374077264976 0 20.922374077264976 -30.228866270856997 0 0 0 0 13.727553887720987 26.043695806231561 0 26.043695806231561 -52.21571714196385 0 0 0 0 10.063539163858877 31.970293144429888 0 31.970293144429888 13.635782977798954 0 0 0 0 38.372482940601543 52.213534140098616 0 52.213534140098616 -12.874931092664113 0 0 0 0 12.111420048748386 18.899809350864409 0 18.899809350864409 -21.894276700403079 0 0 0 0 -8.3019617931804532 46.409892720479547 0 46.409892720479547 44.65885314129082 0 0 0 0 51.09150073408091 43.651424104748003 0 43.651424104748003 -16.41507313963848 0 0 0 0 37.417870511034096 48.859856694091945 0 48.859856694091945 -23.282471131574045 0 0 0 0 87.133630422955321 112.19033016159847 0 112.19033016159847 18.35519108913104 0 0 0 0 107.29295304154221 111.25144996012841 0 111.25144996012841 9.0730490747737349 0 0 0 0 98.501414202371961 119.00813205900158 0 119.00813205900158 22.977382825200038 0 0 0 0 -1.2879254617146216 49.706932535162196 0 49.706932535162196 29.983877550152101 0 0 0 0 90.247337173117558 25.2340262417747 0 25.2340262417747 -50.988974499983669 0 0 0 0 8.8884050804516477 11.129887979249531 0 11.129887979249531 -33.315849196512723 0 0 0 0 31.622813283433516 18.335081720416667 0 18.335081720416667 -26.276871016545556 0 0 0 0 7.5733457555288624 24.530613358290793 0 24.530613358290793 7.6685020587719919 0 0 0 0 3.3864475334776216 -18.706851331291546 0 -18.706851331291546 -112.09205762934016 0 0 0 0 90.220993947426905 49.677243163506319 0 49.677243163506319 -5.4627729425537837 0 0 0 0 1.9339979829559937 0.89761068359253215 0 0.89761068359253215 -27.914590510810648 0 0 0 0 267.07508125276945 16.056856584160414 0 16.056856584160414 -68.004546129275695 0 0 0 0 138.15874587725557 132.80523261767848 0 132.80523261767848 27.492932700541132 0 0 0 0 105.8103106155977 107.18592357853595 0 107.18592357853595 4.954610212942498 0 0 0 0 148.69990508954652 125.31487457021649 0 125.31487457021649 -3.0935021271234291 0 0 0 0 145.71565639090841 121.05353928568729 0 121.05353928568729 14.720067132024269 0 0 0 0 152.29250906175002 108.87527782394363 0 108.87527782394363 32.577351585619908 0 0 0 0 67.950816480064532 249.24166591939684 0 249.24166591939684 20.36460179025471 0 0 0 0 0.77458081468361684 0.11052707353725566 0 0.11052707353725566 -5.1589910304530164 0 0 0 0 185.23407146693353 117.9206762455924 0 117.9206762455924 -4.0553143774777709 0 0 0 0 34.225702137257031 43.487958949153835 0 43.487958949153835 -32.58937030359084 0 0 0 0 166.47922464650401 117.34711744979631 0 117.34711744979631 13.045154887311583 0 0 0 0 160.73018551294444 109.3661273763264 0 109.3661273763264 3.7909259817733982 0 0 0 0 -30.456996450233788 95.581674888428438 0 95.581674888428438 15.8362208266932 0 0 0 0 163.93572589722316 129.67365603208782 0 129.67365603208782 1.0323478027312376 0 0 0 0 143.25193439231953 124.74407126823735 0 124.74407126823735 17.775035688155185 0 0 0 0 155.54152518733463 130.34950097388537 0 130.34950097388537 0.97824419587914235 0 0 0 0 151.68162477196711 121.42223316698664 0 121.42223316698664 21.287993394660589 0 0 0 0 149.48761967727478 124.72260606740383 0 124.72260606740383 17.69569614826105 0 0 0 0 -8.6639565046061762 121.01361344503312 0 121.01361344503312 9.2123883376327171 0 0 0 0 3.3401647139580746 111.27606503562788 0 111.27606503562788 17.098966982704042 0 0 0 0 -13.827139256314695 110.02123334650059 0 110.02123334650059 18.274658958929194 0 0 0 0 -10.096722110814881 117.6543354969242 0 117.6543354969242 26.705391741819767 0 0 0 0 5.9545250956307427 91.763249933040697 0 91.763249933040697 29.958077016046445 0 0 0 0 62.376776051938819 55.855204284933883 0 55.855204284933883 37.469243130143212 0 0 0 0 -435.00397499509563 547.13201011418641 0 547.13201011418641 -157.76089607833296 0 0 0 0 -9.8851086319700698 121.23451544264572 0 121.23451544264572 -24.869213481661063 0 0 0 0 -30.390503218079076 102.95739018024885 0 102.95739018024885 18.688265581435864 0 0 0 0 47.291248225906855 56.718756869979728 0 56.718756869979728 17.836399233669486 0 0 0 0 -30.919097728629367 119.49795588712141 0 119.49795588712141 13.13191786243442 0 0 0 0 1128.9680525800941 268.43946747372593 0 268.43946747372593 -39.550501383226219 0 0 0 0 -151.5597903408925 330.65858255066996 0 330.65858255066996 358.66631356293692 0 0 0 0 -365.91588890981802 150.91480142311957 0 150.91480142311957 247.92500343539905 0 0 0 0 179.41949837175343 356.74952542371011 0 356.74952542371011 153.14540731220768 0 0 0 0 272.37074027853669 47.835233701652442 0 47.835233701652442 17.762674680565397 0 0 0 0 171.07497253485053 49.063969559320412 0 49.063969559320412 -906.80627572915 0 0 0 0 2.035101910412962 3.6516862559707732 0 3.6516862559707732 10.59576497715333 0 0 0 0 -599.72425977577223 185.26821786535766 0 185.26821786535766 323.90192131027379 0 0 0 0 -213.64816847913607 78.963587596287653 0 78.963587596287653 173.37995121361246 0 0 0 0 907.51612326788018 1544.8520981522597 0 1544.8520981522597 532.71703988842637 0 0 0 0 -15.223879867424444 5.0117188400593804 0 5.0117188400593804 15.735861233088608 0 0 0 0 39.760498038134571 59.921840668450571 0 59.921840668450571 51.404411187028515 0 0 0 0 9.2116987105564476 105.37371423278728 0 105.37371423278728 20.101809854443673 0 0 0 0 -88.327375549124554 135.69047544806017 0 135.69047544806017 -1005.8232044724846 0 0 0 0 433.52701085776789 1205.1074413857004 0 1205.1074413857004 774.63394554109982 0 0 0 0 -2184.5780435581692 147.35343130657475 0 147.35343130657475 1602.6136893261319 0 0 0 0 -319.44625828081917 107.85431753213743 0 107.85431753213743 284.51887536077811 0 0 0 0 -732.28804717425373 -761.63469451994524 0 -761.63469451994524 -595.90888759391601 0 0 0 0 -86.446626172091783 -200.93496357543518 0 -200.93496357543518 519.00923614113344 0 0 0 0 -8.9289920706141856 232.81213758364697 0 232.81213758364697 -42.977612157566114 0 0 0 0 5.9385778696624527 0.69376618122047518 0 0.69376618122047518 -2.5407665421756747 0 0 0 0 -4.6487187215425365 -147.16630086386613 0 -147.16630086386613 144.36696547738575 0 0 0 0 -19.143002777096626 101.96504277364738 0 101.96504277364738 21.087659600188999 0 0 0 0 -75.118271038591047 136.27826951198176 0 136.27826951198176 1.8938519556177198 0 0 0 0 -32.388716641344217 349.43510115725803 0 349.43510115725803 65.017921639231929 0 0 0 0 32.599872733848009 56.582025507322825 0 56.582025507322825 40.449622934447561 0 0 0 0 2.0781303939511417 305.91084001075063 0 305.91084001075063 34.780294294670263 0 0 0 0 -94.958452854145435 263.84781408075685 0 263.84781408075685 74.680723266374002 0 0 0 0 -178.15975681893178 353.09383866620601 0 353.09383866620601 130.38414253377459 0 0 0 0 -616.61188379484156 -130.22839002254818 0 -130.22839002254818 298.23816632045782 0 0 0 0 -94.388230846754595 197.42934335565019 0 197.42934335565019 417.76467166368366 0 0 0 0 -2.7312254824345601 3.974534073121589 0 3.974534073121589 -1.2008765730514188 0 0 0 0 258.08798104586458 205.5090027383776 0 205.5090027383776 199.00451860067369 0 0 0 0 154.28333408636536 169.33106807297435 0 169.33106807297435 259.53766114488366 0 0 0 0 135.5351362957299 215.95476022965443 0 215.95476022965443 368.76920471441576 0 0 0 0 69.82946763074051 110.20105147100045 0 110.20105147100045 249.03033570950811 0 0 0 0 186.26534597959653 86.884629214148873 0 86.884629214148873 32.462953401141931 0 0 0 0 178.21260326478659 134.60515949985165 0 134.60515949985165 148.75424644930035 0 0 0 0 165.56794362260553 65.94656563830938 0 65.94656563830938 61.988082942749315 0 0 0 0 123.77527947999261 50.428344489954611 0 50.428344489954611 52.839745708116425 0 0 0 0 126.02020036424074 57.154870566595946 0 57.154870566595946 72.086357801307713 0 0 0 0 133.92764483171777 48.738928405964543 0 48.738928405964543 52.951504027635622 0 0 0 0 176.39317692563782 71.056907920214599 0 71.056907920214599 28.001367714049138 0 0 0 0 151.10411005419883 39.90086857870574 0 39.90086857870574 3.0565815828613268 0 0 0 0 -137.42058588130749 9.0464774099564238 0 9.0464774099564238 94.199322586595372 0 0 0 0 -181.75853644009476 109.07616323849379 0 109.07616323849379 158.13974659443193 0 0 0 0 -98.81125438559684 213.22635598919624 0 213.22635598919624 212.24877768466081 0 0 0 0 -273.30462356218777 106.89590477388765 0 106.89590477388765 193.92877995763411 0 0 0 0 -174.94497578551818 90.299724466470252 0 90.299724466470252 75.366259559255923 0 0 0 0 -135.97570425426602 110.82981962333224 0 110.82981962333224 -59.318478513138871 0 0 0 0 -158.9890976273382 196.72911944709676 0 196.72911944709676 -377.10189393044857 0 0 0 0 -354.69030424274388 -121.33310168355911 0 -121.33310168355911 7.7622760000926974 0 0 0 0 -143.84367984751589 111.11422412821412 0 111.11422412821412 -47.232443043606509 0 0 0 0 -4.6758546975898412 8.4920617088305193 0 8.4920617088305193 -8.2934185965996043 0 0 0 0 -187.70608118486416 452.99833706497657 0 452.99833706497657 1218.2031788758077 0 0 0 0 206.6687076328235 377.8046818195287 0 377.8046818195287 -157.46967309956381 0 0 0 0 -36.418805840669052 19.868888881783178 0 19.868888881783178 -7.4618001267423351 0 0 0 0 167.37493213293783 475.51985334992492 0 475.51985334992492 341.34922514187713 0 0 0 0 -39.58380286794636 84.862645571040503 0 84.862645571040503 455.60553988294282 0 0 0 0 -2.3073759635408351 37.720433790348125 0 37.720433790348125 222.98591277890228 0 0 0 0 17.658532126763021 100.98809545244649 0 100.98809545244649 360.35482846818036 0 0 0 0 -24.194116783755561 15.678483221329003 0 15.678483221329003 -6.8119614296571891 0 0 0 0 68.003968788923885 101.87755485903961 0 101.87755485903961 220.5583271223777 0 0 0 0 49.553527367330389 53.855693469885409 0 53.855693469885409 192.96418163582052 0 0 0 0 96.881934511062354 2.7740739924756781 0 2.7740739924756781 -3.6839270535456308 0 0 0 0 64.709110757918097 72.087678986002174 0 72.087678986002174 0.9040771950440103 0 0 0 0 14.487847837994195 -21.501993991327936 0 -21.501993991327936 81.171335250194034 0 0 0 0 57.183897013670503 67.540057592728886 0 67.540057592728886 178.0952510547886 0 0 0 0 15.442559577538077 92.372725405657832 0 92.372725405657832 42.684273247516103 0 0 0 0 -3.3731839721840515 -37.708238252125057 0 -37.708238252125057 217.73940227062758 0 0 0 0 -68.107445819790883 30.445701381280287 0 30.445701381280287 -2.4203561350796008 0 0 0 0 -44.557468723163765 189.36577681368863 0 189.36577681368863 -285.62857009743402 0 0 0 0 -53.621077474896765 14.927506940870614 0 14.927506940870614 40.156226955296006 0 0 0 0 7.2517258043044421 108.49862645300345 0 108.49862645300345 87.843559040843502 0 0 0 0 -264.59731176391506 253.61409609803877 0 253.61409609803877 -12.508983492410152 0 0 0 0 -566.4753753962782 201.3306667129298 0 201.3306667129298 0.4307971651378466 0 0 0 0 -463.77796924048016 412.9446989660064 0 412.9446989660064 -138.50150967116406 0 0 0 0 -55.684397206961876 154.62197263117923 0 154.62197263117923 -139.77115183844126 0 0 0 0 -279.60878659074433 146.94576164878822 0 146.94576164878822 -44.77162850280547 0 0 0 0 -103.86814784519811 109.39543961194067 0 109.39543961194067 -105.17595490902568 0 0 0 0 48.95961708091636 86.470743842611228 0 86.470743842611228 -90.34355213103845 0 0 0 0 -124.46832736010401 87.804585433779721 0 87.804585433779721 -58.225924841643064 0 0 0 0 -38.03874902202142 26.686440666403485 0 26.686440666403485 -17.038270353367807 0 0 0 0 45.242582584515731 28.347290536109028 0 28.347290536109028 -14.861854919414327 0 0 0 0 8.0268194217871951 99.890040974967093 0 99.890040974967093 -20.025346088121296 0 0 0 0 11.865045442420524 153.37491231079426 0 153.37491231079426 -148.98678077883415 0 0 0 0 188.35083646032581 241.58907328472742 0 241.58907328472742 -260.78594819361251 0 0 0 0 101.61577004541323 17.93229772518589 0 17.93229772518589 -407.43326107710345 0 0 0 0 -27.088374085976739 74.559091031500998 0 74.559091031500998 -217.45242071864413 0 0 0 0 -29.542034528196382 107.5785585847816 0 107.5785585847816 -198.08721222895383 0 0 0 0 -251.37054361862829 107.31097610360848 0 107.31097610360848 -100.1730136995252 0 0 0 0 -360.40474378307772 12.11931515027436 0 12.11931515027436 -133.16383724469233 0 0 0 0 -242.62075333635585 -14.748654565455581 0 -14.748654565455581 -222.59247700814922 0 0 0 0 -276.61025232768407 68.460426902643576 0 68.460426902643576 -175.79380405643133 0 0 0 0 -652.34484256115684 106.41452630308777 0 106.41452630308777 -140.78016937280154 0 0 0 0 -481.93016379420442 -96.017208659374774 0 -96.017208659374774 -269.33081583275634 0 0 0 0 -644.72331884128653 130.07987516241246 0 130.07987516241246 -84.008786735972535 0 0 0 0 -687.46235229368904 80.430342227347865 0 80.430342227347865 -43.15455595554522 0 0 0 0 -459.76302191614377 175.85853150365892 0 175.85853150365892 -4.8506171098470077 0 0 0 0 -172.00634560033723 -368.61084142358959 0 -368.61084142358959 -493.01145003404963 0 0 0 0 -91.44892522416194 -88.834827460836095 0 -88.834827460836095 222.33411112711428 0 0 0 0 -80.110017969142064 -115.84486714634659 0 -115.84486714634659 -30.812546530144573 0 0 0 0 93.183125600240601 -80.504614301178663 0 -80.504614301178663 -203.67157230953671 0 0 0 0 103.29306343027565 47.54602203236027 0 47.54602203236027 -60.357254885257134 0 0 0 0 -81.086747240871773 91.297478866118581 0 91.297478866118581 111.96210660578254 0 0 0 0 -11.327474030309531 63.736760732592302 0 63.736760732592302 109.01205418907648 0 0 0 0 -145.64024374854853 110.71770387174183 0 110.71770387174183 129.78312111888954 0 0 0 0 7.1268807351389114 50.467065329572051 0 50.467065329572051 104.21311952740507 0 0 0 0 -81.288679219636833 95.346912137207255 0 95.346912137207255 190.71399790703595 0 0 0 0 179.79731940203419 403.85598804645497 0 403.85598804645497 321.46334688698698 0 0 0 0 226.53953097583872 35.154372123046414 0 35.154372123046414 -21.593429738430132 0 0 0 0 -5.1811618199339833 11.833117798584453 0 11.833117798584453 -17.957523323007969 0 0 0 0 165.81221545289736 54.035152813467903 0 54.035152813467903 -4.8805287312784458 0 0 0 0 160.6077047785584 37.054692622538823 0 37.054692622538823 -34.624010130702118 0 0 0 0 165.29233340982319 62.80946486175435 0 62.80946486175435 -81.69810628441428 0 0 0 0 152.33320333480515 83.375850660772812 0 83.375850660772812 25.775847500570308 0 0 0 0 -536.54703540580522 -199.29536635381919 0 -199.29536635381919 788.12426120470536 0 0 0 0 1052.5516693465652 568.28751002823719 0 568.28751002823719 -1198.6266177781617 0 0 0 0 -2.9410878767532651 9.8695979681717034 0 9.8695979681717034 -20.111466974444426 0 0 0 0 277.70315463562292 126.94611659185011 0 126.94611659185011 -73.317594531428767 0 0 0 0 161.31293095409637 22.04290441791909 0 22.04290441791909 -38.685324023168505 0 0 0 0 409.65627380248043 -240.36097194976173 0 -240.36097194976173 -69.028916323653903 0 0 0 0 -152.00636382084849 293.84201985075561 0 293.84201985075561 -35.385314309038336 0 0 0 0 -1.2269830384249758 3.7757028935903918 0 3.7757028935903918 -8.2387448126317793 0 0 0 0 -895.13418689940772 724.03397712623837 0 724.03397712623837 -1206.486292608548 0 0 0 0 -0.44851005339498951 4.8610990068438298 0 4.8610990068438298 -16.260485602065344 0 0 0 0 557.27291274595336 -45.433110258883971 0 -45.433110258883971 172.0232333123422 0 0 0 0 -36.305213219340658 120.29556218785183 0 120.29556218785183 -1172.5269732125762 0 0 0 0 -12.131441075651793 4.0982064729056411 0 4.0982064729056411 -1.4764846019675488 0 0 0 0 -899.23697634755649 498.83513712716797 0 498.83513712716797 416.71292039888795 0 0 0 0 -738.43824458870949 291.22649715681382 0 291.22649715681382 683.03717521400904 0 0 0 0 23.059731753259257 -62.653985960244427 0 -62.653985960244427 216.57069413390855 0 0 0 0 -295.54781918373919 492.81099861736766 0 492.81099861736766 -689.64297969232211 0 0 0 0 153.5744424265431 268.35392636060351 0 268.35392636060351 129.14821418489009 0 0 0 0 248.33015477158187 172.19400637885155 0 172.19400637885155 -151.35931025760237 0 0 0 0 -196.01707496881136 72.54851590888029 0 72.54851590888029 -241.89588450856718 0 0 0 0 143.01039965500968 183.9056057386988 0 183.9056057386988 -377.73879990050045 0 0 0 0 -258.3899243581327 175.19946189537586 0 175.19946189537586 6.8004856205134274 0 0 0 0 -22.275127897722996 146.04378491014722 0 146.04378491014722 -11.656472610386118 0 0 0 0 -264.11880879684975 6.1620603772861955 0 6.1620603772861955 -5.9732343211107946 0 0 0 0 -231.38533289808402 69.85153510076907 0 69.85153510076907 -181.91209078250995 0 0 0 0 -2339.2669346262119 1203.8719233852462 0 1203.8719233852462 1410.5901023264887 0 0 0 0 -0.5964613859917911 5.8623540430400283 0 5.8623540430400283 -33.780713812900039 0 0 0 0 -203.93751189748218 290.96111102206032 0 290.96111102206032 117.66829906079602 0 0 0 0 728.38754542589595 198.64186970175342 0 198.64186970175342 -554.36113191992627 0 0 0 0 2.9594283667396155 13.718141291740437 0 13.718141291740437 -32.161818635316678 0 0 0 0 122.43517874021586 179.39835678172068 0 179.39835678172068 134.96011302784063 0 0 0 0 93.610904130408016 3.8984731495766027 0 3.8984731495766027 7.22087182749965 0 0 0 0 36.095473187415166 24.686039003096603 0 24.686039003096603 -0.69693437295767069 0 0 0 0 -82.643822578629624 90.551123071563779 0 90.551123071563779 -43.52557958604848 0 0 0 0 -11.715951546055663 30.464109000984308 0 30.464109000984308 15.531212252976211 0 0 0 0 -78.612400407117093 109.64888990696454 0 109.64888990696454 -4.9912747109983684 0 0 0 0 8.791033709916519 91.476794991825955 0 91.476794991825955 -79.148627721209778 0 0 0 0 -148.6171637693551 117.99040884379065 0 117.99040884379065 30.198531011516025 0 0 0 0 -30.830186155302727 105.57175838804869 0 105.57175838804869 -8.9718447419618315 0 0 0 0 7.1802554981441062 164.34675580469866 0 164.34675580469866 12.924361182136636 0 0 0 0 -0.7471581870886439 103.68074138989232 0 103.68074138989232 14.816286417066294 0 0 0 0 -128.8465879489886 57.206369943332902 0 57.206369943332902 -3.2420493200291958 0 0 0 0 -111.59693314050037 66.51208972760719 0 66.51208972760719 -3.6844364256285189 0 0 0 0 -679.89146132194219 300.65741607888594 0 300.65741607888594 -464.68412984806855 0 0 0 0 -1350.0076066611739 299.67403477295534 0 299.67403477295534 -60.094693899864069 0 0 0 0 -1390.358327235459 983.09929764641129 0 983.09929764641129 -861.75345777648545 0 0 0 0 -1066.1922306024135 208.62933359685121 0 208.62933359685121 -397.18560185945171 0 0 0 0 -575.74936464906204 -64.846168668555038 0 -64.846168668555038 -439.51011409820603 0 0 0 0 -555.71644876434584 -5.5497723012576898 0 -5.5497723012576898 -269.59122252146943 0 0 0 0 -531.88923001067087 -240.33483829758552 0 -240.33483829758552 -228.57648637239254 0 0 0 0 -136.51398586967116 -91.481085689403699 0 -91.481085689403699 -459.97882251743795 0 0 0 0 -147.21421609548315 -33.005453097731674 0 -33.005453097731674 -401.40051325636887 0 0 0 0 -633.91716705461295 33.769842766288093 0 33.769842766288093 842.58116983098807 0 0 0 0 -139.08359280031755 -14.720093318414911 0 -14.720093318414911 543.05135248219813 0 0 0 0 687.62842002621255 -252.28579994296979 0 -252.28579994296979 -475.61399333325789 0 0 0 0 53.01835571360607 399.78963671374777 0 399.78963671374777 -429.35971595551018 0 0 0 0 555.74639406846836 445.83389803731734 0 445.83389803731734 -433.84421644606209 0 0 0 0 16.511257678820982 3.0542905928878241 0 3.0542905928878241 2.0512340925313168 0 0 0 0 285.57513649290922 -226.9367460769372 0 -226.9367460769372 113.97114722019523 0 0 0 0 41.342690060919267 30.55656368545533 0 30.55656368545533 -13.598878594444614 0 0 0 0 96.159735260003799 -10.083596645846228 0 -10.083596645846228 -69.270239472403773 0 0 0 0 263.8641705307964 270.47079551282513 0 270.47079551282513 -199.03899376692425 0 0 0 0 784.44606142974044 579.89703642628137 0 579.89703642628137 -190.28334250775333 0 0 0 0 -537.94430181323696 548.28800932719241 0 548.28800932719241 -90.774986369407998 0 0 0 0 -1554.2572998556054 651.33259202863474 0 651.33259202863474 52.252238413038867 0 0 0 0 -829.86940397134822 237.90672669574633 0 237.90672669574633 -82.699415562918148 0 0 0 0 -1893.9311332305115 -14.251494659722084 0 -14.251494659722084 132.17722393396616 0 0 0 0 -1058.8556395743387 412.50604217682815 0 412.50604217682815 -37.248757840468897 0 0 0 0 -640.16355466934328 446.49967032167297 0 446.49967032167297 -174.68182007478208 0 0 0 0 -447.85242518181258 281.80072298775303 0 281.80072298775303 -131.44735409755958 0 0 0 0 -663.65750434857182 412.0862053834062 0 412.0862053834062 -93.062428733164779 0 0 0 0 -64.29256031710247 204.78608599957261 0 204.78608599957261 -164.7771306926843 0 0 0 0 -478.31717767576629 250.66423149536058 0 250.66423149536058 -85.373315670094598 0 0 0 0 -413.69412568828011 340.57023980753456 0 340.57023980753456 -123.50213334569344 0 0 0 0 21.528735380328726 117.68948479540632 0 117.68948479540632 -70.537035199066992 0 0 0 0 72.601335588864458 101.9316714717279 0 101.9316714717279 -168.60072741554541 0 0 0 0 -63.533455189452127 71.609113361100484 0 71.609113361100484 -76.034106718187104 0 0 0 0 -124.14479427170227 116.50898957489972 0 116.50898957489972 -143.84456284136832 0 0 0 0 -111.88051707055274 149.06982703333506 0 149.06982703333506 -118.31560654283385 0 0 0 0 -32.679816470154037 239.86384301849284 0 239.86384301849284 119.36203529768682 0 0 0 0 -40.10341067018453 199.40495669243683 0 199.40495669243683 -92.044921889806574 0 0 0 0 -3.224260785675142 126.11468322220753 0 126.11468322220753 4.0354996250243858 0 0 0 0 -218.53611160114451 208.67668906115068 0 208.67668906115068 -275.41401801082247 0 0 0 0 -163.73790683439438 65.804431869913969 0 65.804431869913969 38.164998882304644 0 0 0 0 -571.22892251473968 359.46491082554712 0 359.46491082554712 52.16445049662434 0 0 0 0 -723.15522973614861 552.71682215407054 0 552.71682215407054 -609.99083523639274 0 0 0 0 -482.88588904740573 243.43031114459336 0 243.43031114459336 -80.271360149316024 0 0 0 0 -555.47914451989891 272.77772158654761 0 272.77772158654761 -169.00274708015058 0 0 0 0 -580.61190183487633 149.33192979052183 0 149.33192979052183 -45.597520242354221 0 0 0 0 -629.96330579067217 438.64509156880922 0 438.64509156880922 -99.088853363886301 0 0 0 0 -833.61501130925626 561.17343672217339 0 561.17343672217339 -171.8514422923472 0 0 0 0 -809.7325169046162 281.27789394308638 0 281.27789394308638 -55.826199391614864 0 0 0 0 -9.0453348149726764 -1.9589308383676496 0 -1.9589308383676496 -1.2337106324893705 0 0 0 0 -1299.7974548007551 149.48784154847817 0 149.48784154847817 -148.4995902339142 0 0 0 0 -947.19025922378205 866.82024645075398 0 866.82024645075398 -555.42723626968655 0 0 0 0 -297.74372584876983 440.49437704313459 0 440.49437704313459 -286.32599456916796 0 0 0 0 -123.07750508229219 39.069917851396895 0 39.069917851396895 117.70794282751694 0 0 0 0 -330.81574252701103 317.35099080146028 0 317.35099080146028 -214.1549136887661 0 0 0 0 -92.453525583317969 302.96609094491578 0 302.96609094491578 -984.55041261157749 0 0 0 0 -0.45241318268972464 -1.3666469786310458 0 -1.3666469786310458 2.8267314260875054 0 0 0 0 -35.428868288959166 75.471333737204077 0 75.471333737204077 46.989937982289121 0 0 0 0 10.48750183505399 35.16402563495194 0 35.16402563495194 1.1663194934371859 0 0 0 0 -20.752537293850779 33.780626793997918 0 33.780626793997918 14.542472338229686 0 0 0 0 21.310468226497875 19.741366548015662 0 19.741366548015662 -28.371995174862963 0 0 0 0 -138.80064383313584 82.605915751864814 0 82.605915751864814 -65.458742464958959 0 0 0 0 -320.85200453237985 261.83231566477912 0 261.83231566477912 -231.28758423442923 0 0 0 0 -563.85247262597841 246.31765583543165 0 246.31765583543165 -71.568257194929174 0 0 0 0 -27.193265781613263 56.310203496904705 0 56.310203496904705 -38.755568446395046 0 0 0 0 6.5754527470307949 67.539985569230339 0 67.539985569230339 -35.562922838107625 0 0 0 0 -18.41522597464882 89.760002571847508 0 89.760002571847508 -72.290601153312309 0 0 0 0 -25.984209524613107 72.723437267599365 0 72.723437267599365 -39.134640228670378 0 0 0 0 4.8673697967918486 26.194397145710724 0 26.194397145710724 27.5236047065831 0 0 0 0 -33.621351354842773 171.20626802611696 0 171.20626802611696 -113.71723805811234 0 0 0 0 -22.361554688344768 82.323917291811085 0 82.323917291811085 -72.949342571719171 0 0 0 0 1.8898537097756147 55.28226021308096 0 55.28226021308096 -46.790350722185238 0 0 0 0 194.76347768544656 -18.806883115237724 0 -18.806883115237724 -22.131417421365768 0 0 0 0 48.019320115783557 34.401430674375661 0 34.401430674375661 170.46403168571851 0 0 0 0 62.806532210292062 101.68973002794883 0 101.68973002794883 -95.30683828752808 0 0 0 0 99.943204676092137 249.78447294521357 0 249.78447294521357 -237.5798942918409 0 0 0 0 105.14977381253266 179.57169991562478 0 179.57169991562478 -65.848002574473867 0 0 0 0 153.58535571680659 184.88186102203235 0 184.88186102203235 -855.6085109563719 0 0 0 0 -3.6039440831033787 46.99745150531821 0 46.99745150531821 -29.974809497352311 0 0 0 0 -5.5232240470941179 259.81021415952637 0 259.81021415952637 23.531464937299461 0 0 0 0 -550.03464370794609 -212.95430700758334 0 -212.95430700758334 607.06079209408927 0 0 0 0 186.47565236289665 -14.059148751708562 0 -14.059148751708562 -80.43413451667584 0 0 0 0 -5.2900449866020836 5.6154741175270075 0 5.6154741175270075 1.0143173312981446 0 0 0 0 355.27958652563393 195.78131049474905 0 195.78131049474905 -234.20177967162294 0 0 0 0 -17.101927695205518 15.934850050255498 0 15.934850050255498 3.5123189470650118 0 0 0 0 417.92581616966345 291.31882253850927 0 291.31882253850927 -76.989902237750357 0 0 0 0 -155.97265262066503 65.469800402745022 0 65.469800402745022 33.366072112054098 0 0 0 0 234.27243659311353 327.17326340428554 0 327.17326340428554 26.612597332656151 0 0 0 0 -14.805432992121537 57.691977189446021 0 57.691977189446021 -5.430856384491932 0 0 0 0 14.410558975185268 68.93022068035134 0 68.93022068035134 8.0185221552856092 0 0 0 0 -53.142754906555638 37.319340218607977 0 37.319340218607977 -137.15643607727543 0 0 0 0 -41.207644762456766 123.93036134180147 0 123.93036134180147 110.11194781607628 0 0 0 0 1.0955035215183102 42.044621315508593 0 42.044621315508593 -27.534152435321126 0 0 0 0 -3.6477367418410722 45.992111810199276 0 45.992111810199276 -12.300657225685427 0 0 0 0 -5.984473213669844 69.611916913141613 0 69.611916913141613 -38.896446183105581 0 0 0 0 -2.546019402841921 75.495808385876444 0 75.495808385876444 -30.582921599685505 0 0 0 0 -11.308631358271668 77.579262665183705 0 77.579262665183705 -19.151023520702438 0 0 0 0 -18.304225044572377 53.14842633734952 0 53.14842633734952 105.68160997261657 0 0 0 0 -13.063264790259311 44.821703114363814 0 44.821703114363814 -28.068406335050923 0 0 0 0 44.470931961552196 42.364014287562895 0 42.364014287562895 20.673435826931382 0 0 0 0 60.343767405029212 120.24073907417187 0 120.24073907417187 89.754888478346402 0 0 0 0 -15.826096615371569 18.1852915267811 0 18.1852915267811 -2.3615991924527009 0 0 0 0 6.8201106310298201 83.552650776953669 0 83.552650776953669 96.444297551206546 0 0 0 0 -44.764399221894323 14.034304268899234 0 14.034304268899234 32.966438677977436 0 0 0 0 -23.06998239936641 32.386152229326598 0 32.386152229326598 -22.831279767799089 0 0 0 0 -83.378480021070573 96.881420793375582 0 96.881420793375582 227.04917018584092 0 0 0 0 62.593154884991236 154.59582964767469 0 154.59582964767469 143.2732129326323 0 0 0 0 -20.643000227441107 21.397151517817299 0 21.397151517817299 9.6098491332666924 0 0 0 0 32.272436859406298 79.736448370356811 0 79.736448370356811 58.945361966849305 0 0 0 0 -46.606901876239817 17.379626827253006 0 17.379626827253006 47.070499286350554 0 0 0 0 36.904814477435139 110.70905407226383 0 110.70905407226383 24.759928512714396 0 0 0 0 12.232876272857538 105.74682128497079 0 105.74682128497079 -41.210423929413082 0 0 0 0 -16.026930793956126 120.3509101286545 0 120.3509101286545 74.652826032659505 0 0 0 0 42.639759408099053 75.583556554382085 0 75.583556554382085 -13.9795652275061 0 0 0 0 63.374364734962001 91.89845563081326 0 91.89845563081326 79.012239116374985 0 0 0 0 -1.8527462305253266 5.3144459251878828 0 5.3144459251878828 -0.21475544982112638 0 0 0 0 16.514715565543156 91.262684330577031 0 91.262684330577031 -36.477134075830691 0 0 0 0 209.97244747129298 63.033075171249948 0 63.033075171249948 -11.582411279523512 0 0 0 0 -27.465199700252207 50.986398358473352 0 50.986398358473352 -43.829167910781877 0 0 0 0 6.2047839924343862 90.102508437950746 0 90.102508437950746 -13.245900734385941 0 0 0 0 2.5941501561048597 3.7879821152436648 0 3.7879821152436648 -2.6880339516736029 0 0 0 0 -319.80031709815376 -148.29287344624754 0 -148.29287344624754 65.682917612633901 0 0 0 0 -43.983567969280557 151.08202029853419 0 151.08202029853419 62.013967785038403 0 0 0 0 -45.628896625245119 50.095890618826999 0 50.095890618826999 -37.406853386528354 0 0 0 0 -320.64636236260412 390.43799916316493 0 390.43799916316493 174.80678720897413 0 0 0 0 545.36974510131404 424.79052311956184 0 424.79052311956184 -179.60639318244648 0 0 0 0 244.60251864667225 -66.35957323051116 0 -66.35957323051116 -375.26502014067955 0 0 0 0 -14.955034413866088 75.302238635358663 0 75.302238635358663 -40.36886664784106 0 0 0 0 -18.030238911043853 69.459785588995146 0 69.459785588995146 -24.925701685697277 0 0 0 0 41.152262485001046 25.146775549367192 0 25.146775549367192 -34.565528356542899 0 0 0 0 -2.6317664618106011 17.27663088727337 0 17.27663088727337 24.416626018502882 0 0 0 0 -2.3832560360771957 3.5847177114298177 0 3.5847177114298177 4.4256846130399907 0 0 0 0 -145.05259647843377 170.43461870182364 0 170.43461870182364 -159.36184877912092 0 0 0 0 -18.046030664887439 9.1651088323415024 0 9.1651088323415024 51.126497943041613 0 0 0 0 -56.955699132216978 167.51635751406138 0 167.51635751406138 -57.441489084805653 0 0 0 0 -170.31919085095706 122.36139886758428 0 122.36139886758428 -89.908510326917167 0 0 0 0 -23.378588030820538 78.877817581029376 0 78.877817581029376 -114.43021409528592 0 0 0 0 -26.684202380116403 83.375716440146789 0 83.375716440146789 -10.985010805346974 0 0 0 0 -13.463956766918272 146.36319989731419 0 146.36319989731419 -41.233831671510416 0 0 0 0 -33.826256516491412 57.801618420809973 0 57.801618420809973 -24.537958449742291 0 0 0 0 -55.841155679702297 68.447193733187305 0 68.447193733187305 59.903025376494043 0 0 0 0 53.978757115909502 163.84841447676263 0 163.84841447676263 16.999913762294455 0 0 0 0 -16.956325820525908 23.392052989197179 0 23.392052989197179 7.821644726820125 0 0 0 0 -41.150282546299422 131.69081007484783 0 131.69081007484783 19.453526135708671 0 0 0 0 -31.742075101819864 105.78362953187025 0 105.78362953187025 10.477455845393706 0 0 0 0 -31.451542580628292 59.905518246195584 0 59.905518246195584 -7.5568164732541163 0 0 0 0 951.31995754057425 -32.685160410997923 0 -32.685160410997923 -172.02603422536049 0 0 0 0 -9.2956460243731271 40.037507836677833 0 40.037507836677833 12.100168697303161 0 0 0 0 6.2381713674722974 52.888480388309503 0 52.888480388309503 -41.883474737912209 0 0 0 0 -16.111402228686039 51.563713554804991 0 51.563713554804991 -10.801053840641089 0 0 0 0 -22.045058539959498 34.667301293685284 0 34.667301293685284 26.260024672958806 0 0 0 0 -170.47648825369197 86.136653895733616 0 86.136653895733616 57.910669143690029 0 0 0 0 13.992095542201497 38.07582575640776 0 38.07582575640776 -9.8039323052009593 0 0 0 0 -31.204047129875107 66.565272933723463 0 66.565272933723463 -12.220861188601702 0 0 0 0 -52.463276076896364 49.746613959239767 0 49.746613959239767 -7.4848517875070684 0 0 0 0 -3.7518236060968775 57.731536527904609 0 57.731536527904609 -36.530295874341391 0 0 0 0 4.6985723834113742 65.454813579453912 0 65.454813579453912 -16.215967838743381 0 0 0 0 -6.6874857565464971 41.777634940135123 0 41.777634940135123 -25.103720194903531 0 0 0 0 -7.7706833056026881 40.168612301094981 0 40.168612301094981 -30.125153811037308 0 0 0 0 3.8079261635892685 4.6646435981084977 0 4.6646435981084977 5.6757696937839341 0 0 0 0 39.041419629793381 27.560226220928598 0 27.560226220928598 -0.49747610301710665 0 0 0 0 20.838309882154135 42.755174096473638 0 42.755174096473638 -28.35794210601307 0 0 0 0 -1.6588197048422444 53.455242781892593 0 53.455242781892593 -24.11840729576943 0 0 0 0 -24.308081537147096 40.619552917887589 0 40.619552917887589 -21.004460282255337 0 0 0 0 34.521682780814444 61.224751577967254 0 61.224751577967254 -13.242222491251596 0 0 0 0 -10.303338788938504 33.177777102315844 0 33.177777102315844 -27.612000937380003 0 0 0 0 -8.6575013886849774 51.614870355559106 0 51.614870355559106 -11.138813706478686 0 0 0 0 6.7954196488595304 33.286821635706538 0 33.286821635706538 -24.953656713665879 0 0 0 0 -3.1414500992177636 49.2524315839255 0 49.2524315839255 -27.976369186406373 0 0 0 0 8.0740342348776721 37.240500629752205 0 37.240500629752205 -18.131057520062313 0 0 0 0 -9.1555117295290529 45.450776713436426 0 45.450776713436426 -29.747824559395667 0 0 0 0 8.6757615382736617 38.875158525476934 0 38.875158525476934 16.699647019082377 0 0 0 0 -11.17434743623744 85.094260676723934 0 85.094260676723934 -54.882293368345927 0 0 0 0 2.9661788243975025 59.263198480679421 0 59.263198480679421 -44.717355285076337 0 0 0 0 -5.8078745562846841 19.549183996595701 0 19.549183996595701 -1.2287054918217279 0 0 0 0 -0.27672306126260082 33.783820335259406 0 33.783820335259406 -10.153591421549208 0 0 0 0 -17.861196754705418 47.933862127636971 0 47.933862127636971 -13.14341308802986 0 0 0 0 -22.649212289707165 50.165569724948 0 50.165569724948 -75.851770712682253 0 0 0 0 -2.2343819171503725 46.58152470375552 0 46.58152470375552 -29.225735725577636 0 0 0 0 -615.64061707036308 -228.3537401097783 0 -228.3537401097783 220.45459465420572 0 0 0 0 205.55648879321234 444.56372629624093 0 444.56372629624093 -4.6552020141098183 0 0 0 0 -6.8476444718264133 40.737987463623739 0 40.737987463623739 -32.493575711522823 0 0 0 0 -30.610901555162854 16.177596191322664 0 16.177596191322664 -33.615852100163465 0 0 0 0 -22.731902769622018 35.189756877218812 0 35.189756877218812 -26.311659067680267 0 0 0 0 -0.89316593906348185 12.940998614122933 0 12.940998614122933 -61.110531535814374 0 0 0 0 -38.502750875206402 26.363289235043339 0 26.363289235043339 -39.679272641209536 0 0 0 0 -46.593521370155941 24.887032001739499 0 24.887032001739499 -31.502972326408781 0 0 0 0 18.758147163081958 49.31234839156059 0 49.31234839156059 -47.343247156681173 0 0 0 0 67.368965332589141 85.873698318020615 0 85.873698318020615 -140.34299425316021 0 0 0 0 141.25283050027429 3.3007271600999957 0 3.3007271600999957 -46.71446949608071 0 0 0 0 43.679597822942014 132.92956042954756 0 132.92956042954756 -30.397541801867192 0 0 0 0 138.83152987260837 87.878466919122729 0 87.878466919122729 -25.482633690694911 0 0 0 0 155.64167583397648 117.22641744436169 0 117.22641744436169 -0.64705436654912774 0 0 0 0 322.82358725893573 -20.377729790692683 0 -20.377729790692683 25.61216683580642 0 0 0 0 -243.42174729346152 145.72057825559386 0 145.72057825559386 -83.915665200788908 0 0 0 0 -160.33847600774607 -30.852622395301296 0 -30.852622395301296 -56.158840932934254 0 0 0 0 -89.636710860453604 -65.63239395493656 0 -65.63239395493656 -96.156509016087512 0 0 0 0 0.88759158174642216 4.4893886475335592 0 4.4893886475335592 -47.219463186505493 0 0 0 0 -30.333056140356348 -17.76019560610257 0 -17.76019560610257 -90.201686609281751 0 0 0 0 274.04508086376154 64.355257898840136 0 64.355257898840136 -76.535769336736848 0 0 0 0 -62.343905809597345 18.983055445030914 0 18.983055445030914 -42.664594469722942 0 0 0 0 -87.645038926166308 31.017196215529111 0 31.017196215529111 -39.616909274352963 0 0 0 0 -11.742597067732659 40.889844105541599 0 40.889844105541599 -30.213628387139664 0 0 0 0 -54.741338494382944 48.518716209742706 0 48.518716209742706 -51.462683404046402 0 0 0 0 37.532348491135053 43.953450753502693 0 43.953450753502693 -26.088488966590376 0 0 0 0 -2.627107841646648 48.102444431100594 0 48.102444431100594 -41.863727392643341 0 0 0 0 21.402622453888661 23.899615132152697 0 23.899615132152697 -24.87545539981403 0 0 0 0 -15.747124979475775 38.911518342478772 0 38.911518342478772 -18.698082689034266 0 0 0 0 32.056751320283468 17.676268502389036 0 17.676268502389036 -17.109865719432548 0 0 0 0 -8.6279141083380182 45.36925717615668 0 45.36925717615668 -42.006117149954662 0 0 0 0 3.9663929383132199 58.422048511194589 0 58.422048511194589 -53.363872326248384 0 0 0 0 2.254745080798898 49.012890778465589 0 49.012890778465589 -40.803450890198292 0 0 0 0 34.319241047298483 46.014344936692865 0 46.014344936692865 -28.787702634981997 0 0 0 0 74.920546158558864 98.583215656399261 0 98.583215656399261 -85.868217975039443 0 0 0 0 12.694936114734336 22.812412387539254 0 22.812412387539254 -38.891683415661362 0 0 0 0 -7.5833721713079285 39.758691174894921 0 39.758691174894921 -19.175418857688783 0 0 0 0 -6.2058482609196446 83.639804315063799 0 83.639804315063799 -46.532635463934767 0 0 0 0 72.811026574025163 236.96225705528923 0 236.96225705528923 -374.99082403583452 0 0 0 0 74.923424972870635 -0.52631332166129141 0 -0.52631332166129141 -212.58520912306267 0 0 0 0 62.423832937873158 56.45909282809771 0 56.45909282809771 -115.34128947011777 0 0 0 0 -166.03916571348236 57.807040147596126 0 57.807040147596126 -204.00443722998534 0 0 0 0 -140.50509357492774 100.06591562141693 0 100.06591562141693 -219.03110305973678 0 0 0 0 -195.88262621577451 95.918348030656489 0 95.918348030656489 -47.792245096155966 0 0 0 0 -23.356407150727804 20.71873536002262 0 20.71873536002262 -7.4265536891247166 0 0 0 0 72.770087414915906 57.641547405160964 0 57.641547405160964 -5.8190459841425763 0 0 0 0 20.666532441726304 30.630321891956555 0 30.630321891956555 -0.85702530544949695 0 0 0 0 -70.681770109862512 82.291028348425712 0 82.291028348425712 -37.97005143857092 0 0 0 0 26.880322850450259 46.567240640182263 0 46.567240640182263 -32.989188985687093 0 0 0 0 -12.282113267580204 47.435412633201551 0 47.435412633201551 -12.5773899683129 0 0 0 0 -39.106959335054853 22.896651720599039 0 22.896651720599039 -5.7044820751907537 0 0 0 0 -242.27758069341144 131.87767000399072 0 131.87767000399072 -160.95020233462856 0 0 0 0 -84.463100887947803 138.90417032887126 0 138.90417032887126 -284.13071984438284 0 0 0 0 -27.925404218688925 93.553970662449828 0 93.553970662449828 -72.42949329293765 0 0 0 0 -133.77104192183469 240.46392545035997 0 240.46392545035997 -451.32141069826321 0 0 0 0 33.390947575819752 39.785962651291698 0 39.785962651291698 -37.21420643803674 0 0 0 0 -153.05134169208031 209.15469454613776 0 209.15469454613776 -221.36190570684266 0 0 0 0 -204.30405437119771 264.02597697694 0 264.02597697694 -253.4932430778681 0 0 0 0 -206.70182845352974 167.69295397517271 0 167.69295397517271 -141.83056228174246 0 0 0 0 -234.31316827156843 210.54584327252996 0 210.54584327252996 -168.71071001036034 0 0 0 0 63.719172592469477 237.50019020344916 0 237.50019020344916 -398.12342582448036 0 0 0 0 117.92624854524365 250.24124161318105 0 250.24124161318105 -375.35942946869181 0 0 0 0 -293.10495239105603 -986.53168569087029 0 -986.53168569087029 -102.10834250143671 0 0 0 0 -3.2144047922737933 6.075269906360802 0 6.075269906360802 -11.907641126142749 0 0 0 0 52.535605127930467 239.32616754324408 0 239.32616754324408 -358.01993264639168 0 0 0 0 70.457478339525551 270.41654333117185 0 270.41654333117185 -357.16013777401531 0 0 0 0 -79.810672312631141 93.039805168453313 0 93.039805168453313 -140.72496317629702 0 0 0 0 -174.19533372890874 352.14165587761818 0 352.14165587761818 -360.17183314319436 0 0 0 0 -14.385872720201558 19.476126880802106 0 19.476126880802106 -9.252641091263655 0 0 0 0 663.53113326596576 456.67300092270307 0 456.67300092270307 -1991.0598109871789 0 0 0 0 1755.7764734764351 -937.22092414121289 0 -937.22092414121289 -258.38937963401258 0 0 0 0 6.9148003183104265 76.349494721715018 0 76.349494721715018 -3.0286646107633715 0 0 0 0 -19.037867620925859 52.142350013048905 0 52.142350013048905 -28.748639043214737 0 0 0 0 -970.91963338026108 951.62058661593619 0 951.62058661593619 578.68161978101489 0 0 0 0 -11.960613992869897 71.612966084224297 0 71.612966084224297 -33.133373951106051 0 0 0 0 -46.228809334536024 75.585376750557046 0 75.585376750557046 1.4576987311344851 0 0 0 0 -10.380792944259156 66.586734226119006 0 66.586734226119006 -22.850617577445519 0 0 0 0 -28.26244052475797 99.237953915560183 0 99.237953915560183 -43.805055258106186 0 0 0 0 11.714329984763935 72.02535429409545 0 72.02535429409545 -6.2121266911562998 0 0 0 0 -201.06620271512656 227.65645338567992 0 227.65645338567992 -0.93551064537314232 0 0 0 0 -185.0540311125369 412.98636165666539 0 412.98636165666539 -103.22373515900108 0 0 0 0 185.86697886084585 276.67034934651019 0 276.67034934651019 -38.119151970822713 0 0 0 0 -155.16827258246485 187.91361615027563 0 187.91361615027563 117.39594307776133 0 0 0 0 -179.04175142735767 163.06529184001556 0 163.06529184001556 101.81930879347055 0 0 0 0 -73.717235063508269 332.01302691914316 0 332.01302691914316 77.837277623832051 0 0 0 0 -281.93888016154233 315.0687661716438 0 315.0687661716438 -27.881751296466973 0 0 0 0 -158.00357405057002 146.00454682703821 0 146.00454682703821 -133.03093103156425 0 0 0 0 -247.50410449043557 190.54757251758201 0 190.54757251758201 -79.74255681042996 0 0 0 0 -482.77985201466436 131.07812735905463 0 131.07812735905463 -93.821018369453668 0 0 0 0 300.4220312869802 93.828501309304556 0 93.828501309304556 160.30038335091012 0 0 0 0 260.29082521304736 -23.583109478404367 0 -23.583109478404367 -102.93599432033807 0 0 0 0 176.0812857297642 204.42604833778205 0 204.42604833778205 -79.554209383073612 0 0 0 0 0.60001719995093428 5.5554959475485504 0 5.5554959475485504 -31.170353419565544 0 0 0 0 -259.53970879555345 168.90579658619436 0 168.90579658619436 -116.12557904515415 0 0 0 0 505.11522514660419 25.44692875760029 0 25.44692875760029 -185.80811816812638 0 0 0 0 26.032842954200532 82.000045161214075 0 82.000045161214075 -152.07768189605122 0 0 0 0 -9.0819958011052222 86.22445326518573 0 86.22445326518573 -102.57517707187799 0 0 0 0 13.165126529366489 20.500867956334332 0 20.500867956334332 -46.429677406558767 0 0 0 0 -27.617110467962448 92.542934587243508 0 92.542934587243508 -94.258341870779986 0 0 0 0 26.283691095131871 47.756487160037068 0 47.756487160037068 -20.049213610716834 0 0 0 0 -8.4885964837631036 14.695823723101057 0 14.695823723101057 10.393492831506592 0 0 0 0 13.6518382929371 -36.04096586441301 0 -36.04096586441301 4.5184736802621046 0 0 0 0 -8.1328612179331685 53.291090185088251 0 53.291090185088251 122.73112759626747 0 0 0 0 50.355107119563399 9.2763719554477575 0 9.2763719554477575 -172.02626704877184 0 0 0 0 -20.682593830876918 40.896839514037822 0 40.896839514037822 -27.293458116504709 0 0 0 0 -2.7677858470779029 -102.31757050026499 0 -102.31757050026499 427.04851855465677 0 0 0 0 465.01405482441078 -238.26044962806191 0 -238.26044962806191 -921.24621473066509 0 0 0 0 -1693.4727932032329 1436.4282016027137 0 1436.4282016027137 277.48688085385947 0 0 0 0 -13.207098474947998 342.1334261082302 0 342.1334261082302 -384.78217153665173 0 0 0 0 -397.35393401727379 735.60621739348971 0 735.60621739348971 -764.46409685796243 0 0 0 0 -712.70473783969646 251.61587430119107 0 251.61587430119107 -29.278040609657182 0 0 0 0 45.483661878550265 165.81568062014776 0 165.81568062014776 -213.59389314513828 0 0 0 0 -17.759120939030254 137.61105436726939 0 137.61105436726939 -188.7934257085908 0 0 0 0 -97.103281621044516 249.19195053554904 0 249.19195053554904 -251.44859208267007 0 0 0 0 -172.83386717582471 258.87937561649596 0 258.87937561649596 -150.33408702995803 0 0 0 0 -41.828607596376969 142.14972804184436 0 142.14972804184436 -212.15332461387152 0 0 0 0 -29.689375800066045 19.420090311643435 0 19.420090311643435 -74.504978207605745 0 0 0 0 -312.60237632770804 22.97507448936085 0 22.97507448936085 67.114774009110988 0 0 0 0 -403.01375153554909 398.74040565545147 0 398.74040565545147 -144.90147936157155 0 0 0 0 -173.15160941016666 254.69733489242026 0 254.69733489242026 -63.517742740790709 0 0 0 0 33.862563373564626 -3.8782823952860781 0 -3.8782823952860781 -150.21329967891143 0 0 0 0 -63.471859587414656 202.58954640017328 0 202.58954640017328 -161.13637297907553 0 0 0 0 39.136156440789662 11.898914521800748 0 11.898914521800748 -7.6166530099388297 0 0 0 0 -129.26731938332523 252.34518244930223 0 252.34518244930223 -196.05824308413139 0 0 0 0 -62.082786974231567 209.60100936624076 0 209.60100936624076 -229.07212924129271 0 0 0 0 -117.62526585612159 142.990426779681 0 142.990426779681 -306.88080894714221 0 0 0 0 -210.43483397633463 206.61296147233952 0 206.61296147233952 -141.72808830584472 0 0 0 0 6.9528434150521861 2.320620744402639 0 2.320620744402639 -0.89694133408377752 0 0 0 0 -280.16029620271729 278.68131670453295 0 278.68131670453295 -231.09796659556378 0 0 0 0 -68.709315682919623 236.21096237677193 0 236.21096237677193 -224.59227333543822 0 0 0 0 -57.386025623655314 177.9185530747236 0 177.9185530747236 -162.68891498954326 0 0 0 0 -46.692205634604761 154.13957556837704 0 154.13957556837704 -158.68807955802913 0 0 0 0 -22.403657810911682 153.34691419430965 0 153.34691419430965 -194.66502760311414 0 0 0 0 -43.693981446333055 99.903846373628767 0 99.903846373628767 -79.964955156843644 0 0 0 0 -43.02627888040297 135.46079225203721 0 135.46079225203721 -135.02939993565087 0 0 0 0 -109.34421369866868 186.40609072049847 0 186.40609072049847 -94.414037086171447 0 0 0 0 -143.15652031438822 332.44148280573063 0 332.44148280573063 -172.46183444331837 0 0 0 0 -7.8429882044474653 294.49978293533786 0 294.49978293533786 -184.56707206512874 0 0 0 0 83.527374460605074 90.503971551761197 0 90.503971551761197 -30.949379146491992 0 0 0 0 84.0329753271958 101.07717473905433 0 101.07717473905433 -293.92913711504661 0 0 0 0 25.703393138254796 -47.603707860638679 0 -47.603707860638679 -158.91243680442858 0 0 0 0 27.393206396783853 40.861275954925077 0 40.861275954925077 -23.576233656385739 0 0 0 0 12.613556814271377 46.705548141502732 0 46.705548141502732 -25.678379100732855 0 0 0 0 -54.210597577185126 183.87967884692989 0 183.87967884692989 -195.70544433925534 0 0 0 0 -1.4877468063666228 2.9494215695488037 0 2.9494215695488037 -1.2327074057082967 0 0 0 0 5.2559752956949524 53.513480794983479 0 53.513480794983479 60.948660434147314 0 0 0 0 3.6213017875615661 25.654839953483709 0 25.654839953483709 -8.4707436953557931 0 0 0 0 13.335494465203283 44.96681244647516 0 44.96681244647516 -7.2821547801577253 0 0 0 0 17.454891988806423 34.876604240344022 0 34.876604240344022 -17.553249612243235 0 0 0 0 -5.7479359081909251 36.178408383304486 0 36.178408383304486 9.1337704935394868 0 0 0 0 67.427419550620471 23.563734444825968 0 23.563734444825968 -45.69482397500451 0 0 0 0 0.016191457057807224 27.558391719635463 0 27.558391719635463 -4.5077570705920209 0 0 0 0 81.226640722701632 46.2991821075193 0 46.2991821075193 -8.282279037826811 0 0 0 0 53.904647345960257 35.027334505146428 0 35.027334505146428 8.2744502138084499 0 0 0 0 33.056934283903331 27.130015492727779 0 27.130015492727779 9.7564034981408696 0 0 0 0 44.509018000909236 36.607621913482944 0 36.607621913482944 27.691520623891847 0 0 0 0 66.960366436665936 18.800783738915925 0 18.800783738915925 18.156518537849479 0 0 0 0 5.9040437753310941 35.912849485414256 0 35.912849485414256 14.658901069558055 0 0 0 0 8.9613741620414658 81.417606645423803 0 81.417606645423803 57.217914393986575 0 0 0 0 109.06494608093635 29.999796839954797 0 29.999796839954797 1.201959217491094 0 0 0 0 -9.1694546451801031 7.4237067922011022 0 7.4237067922011022 6.9983735616921194 0 0 0 0 3.6459207504725613 22.780900015821771 0 22.780900015821771 13.877164242216317 0 0 0 0 2.2349035392933274 32.782232804689556 0 32.782232804689556 6.7423751975111372 0 0 0 0 -7.397672734421576 26.950223606705549 0 26.950223606705549 7.079229120958189 0 0 0 0 0.21635674915518255 20.241564674594599 0 20.241564674594599 14.732181442256959 0 0 0 0 -9.4022997935948069 34.929321434935446 0 34.929321434935446 4.8938618960382883 0 0 0 0 -127.24450357978185 454.08146031030628 0 454.08146031030628 -91.583943148936669 0 0 0 0 -2.6378164037155365 1.7067832973545052 0 1.7067832973545052 -1.3267843924015779 0 0 0 0 447.25883499105657 145.54575538891004 0 145.54575538891004 -40.62870857775124 0 0 0 0 34.433198460729727 39.662413663485495 0 39.662413663485495 8.3695535505830776 0 0 0 0 44.114179585930287 38.348345755637638 0 38.348345755637638 20.11147044057725 0 0 0 0 2.1641046353341302 7.9405725733786738 0 7.9405725733786738 -2.2134918986791092 0 0 0 0 44.092618623473754 36.070691644810722 0 36.070691644810722 9.5612763677199837 0 0 0 0 185.64065074919654 -3.8766482205937791 0 -3.8766482205937791 -17.078975256517879 0 0 0 0 325.32932785245066 -185.17990596215532 0 -185.17990596215532 106.26948778941369 0 0 0 0 180.57761565607279 410.27269040084866 0 410.27269040084866 977.43315324248397 0 0 0 0 15.104749151338734 3.6931872105016339 0 3.6931872105016339 2.609572178537114 0 0 0 0 109.698170509061 126.0526073198414 0 126.0526073198414 436.32305897009792 0 0 0 0 10.497625909238707 -1.4489038939922239 0 -1.4489038939922239 14.982173904250885 0 0 0 0 114.51718371617829 238.56246296501354 0 238.56246296501354 602.23318788621691 0 0 0 0 200.39049284490375 445.3283556726019 0 445.3283556726019 845.05739916404855 0 0 0 0 235.41864578147351 406.74763104364865 0 406.74763104364865 406.58878840939724 0 0 0 0 209.12544885995442 515.93606206583627 0 515.93606206583627 744.66394594692974 0 0 0 0 189.19769898520644 272.6406863227603 0 272.6406863227603 495.81577674611617 0 0 0 0 429.05412080685346 497.4088770895105 0 497.4088770895105 706.29369054677954 0 0 0 0 118.94027523331715 67.152890158384253 0 67.152890158384253 257.88076392868243 0 0 0 0 240.40014726774007 280.23996238942345 0 280.23996238942345 446.77237955018791 0 0 0 0 134.14769207859445 199.8490123280535 0 199.8490123280535 510.14308882214391 0 0 0 0 51.225702779884159 58.998795893625356 0 58.998795893625356 316.29550647894939 0 0 0 0 253.61931905385586 99.448703741454665 0 99.448703741454665 -31.456057664785476 0 0 0 0 205.38704155604955 255.80924486141157 0 255.80924486141157 400.85319430414529 0 0 0 0 78.2138200508316 99.003516263845086 0 99.003516263845086 237.65595781800221 0 0 0 0 165.31216981564012 120.87231759975839 0 120.87231759975839 31.19191814417718 0 0 0 0 -2.0503455385287452 290.85284887074158 0 290.85284887074158 348.54273691434719 0 0 0 0 82.679296998408063 295.49884483671849 0 295.49884483671849 304.42187362514233 0 0 0 0 105.83530398700974 347.73028297935298 0 347.73028297935298 1162.867418506823 0 0 0 0 445.58036176215637 84.32609715891158 0 84.32609715891158 364.77644221332412 0 0 0 0 142.99066258649714 462.87684495767826 0 462.87684495767826 917.27218541066395 0 0 0 0 99.69677662553886 264.43667664158784 0 264.43667664158784 325.11392687058833 0 0 0 0 -97.857191330855585 35.822782857583661 0 35.822782857583661 588.9014161623345 0 0 0 0 -232.76306639619457 -112.03991788982239 0 -112.03991788982239 1105.7767666116197 0 0 0 0 -71.549218563612612 87.341948025627062 0 87.341948025627062 621.59334310553095 0 0 0 0 16.396883054761702 59.330695145770733 0 59.330695145770733 36.318177888257196 0 0 0 0 -154.13957932894505 -227.11785887181759 0 -227.11785887181759 287.84478927028249 0 0 0 0 3.1673205864985725 -3.0336587753211575 0 -3.0336587753211575 2.9564042090150053 0 0 0 0 575.37933097833775 815.33567008359387 0 815.33567008359387 895.01927502514809 0 0 0 0 -3.4903252269050427 91.292607070558006 0 91.292607070558006 -6.3216224123752909 0 0 0 0 7.2732365309333256 5.1366596045987336 0 5.1366596045987336 0.21386453904545988 0 0 0 0 -65.017456264404245 23.025997605334851 0 23.025997605334851 50.170498504827265 0 0 0 0 132.60826406049787 82.508205914507016 0 82.508205914507016 -9.6420009175490122 0 0 0 0 24.670974869030033 29.494413466396509 0 29.494413466396509 26.459805022626824 0 0 0 0 -10.896329573391085 134.69967740333232 0 134.69967740333232 19.904168727778597 0 0 0 0 -87.889118495787216 98.425588621453699 0 98.425588621453699 -34.956915174989263 0 0 0 0 72.982965797801171 129.23295280520688 0 129.23295280520688 -218.41763542688568 0 0 0 0 -21.561628674927761 308.374001725173 0 308.374001725173 27.325237030599965 0 0 0 0 53.129771449319378 219.04623078537406 0 219.04623078537406 56.465967987374825 0 0 0 0 53.542659012768468 -4.2896578877243883 0 -4.2896578877243883 -118.99000851190067 0 0 0 0 -74.046756566934164 121.83345721273508 0 121.83345721273508 -198.39858675778305 0 0 0 0 -182.66847658892675 172.6229147673439 0 172.6229147673439 -137.80660121951951 0 0 0 0 -0.072601702877958196 -0.2342256827946585 0 -0.2342256827946585 -1.117451644553455 0 0 0 0 0.81970338083647221 28.499510637724597 0 28.499510637724597 -132.26057637466693 0 0 0 0 -9.6065047285073888 20.668293610802721 0 20.668293610802721 -41.639038219611393 0 0 0 0 -119.99370765314842 160.77117824595143 0 160.77117824595143 1125.0763256001082 0 0 0 0 -106.75041010378709 111.94522501194206 0 111.94522501194206 -178.89153339470795 0 0 0 0 1.9948578420712941 5.4896011667638049 0 5.4896011667638049 0.3803342899300457 0 0 0 0 19.586636199016993 33.350476713185344 0 33.350476713185344 10.989366383175366 0 0 0 0 32.888922171914601 58.501798738172511 0 58.501798738172511 3.179039302689489 0 0 0 0 -19.256690312621714 11.543298664325341 0 11.543298664325341 11.864337289237255 0 0 0 0 23.033315411114017 53.910214785835706 0 53.910214785835706 14.657088371150166 0 0 0 0 17.679436026290205 28.175233294598002 0 28.175233294598002 -73.543031766919739 0 0 0 0 12.457831881762104 10.479295011384238 0 10.479295011384238 -35.747680821426911 0 0 0 0 32.972645557587384 57.877407012660115 0 57.877407012660115 -17.92661509939353 0 0 0 0 8.8633604069218563 19.327657243389694 0 19.327657243389694 -52.847582166687062 0 0 0 0 8.2191340358655935 8.4376589399133195 0 8.4376589399133195 0.27818089832486947 0 0 0 0 -128.40883544709141 149.4302104843664 0 149.4302104843664 935.7868074167136 0 0 0 0 18.447492946993776 12.052293270239517 0 12.052293270239517 -0.26832223529916632 0 0 0 0 34.907786546929856 25.437560820741055 0 25.437560820741055 -8.058216221848852 0 0 0 0 19.675814190668461 213.94701799103859 0 213.94701799103859 416.6850520201624 0 0 0 0 -55.579556839482393 328.21862718682678 0 328.21862718682678 361.65393230055429 0 0 0 0 88.654284100375662 202.22523578630717 0 202.22523578630717 363.82472804599092 0 0 0 0 38.297027034110215 383.0594258102501 0 383.0594258102501 154.36919025491807 0 0 0 0 -82.448648569450597 290.18462051167444 0 290.18462051167444 140.83964361716153 0 0 0 0 33.465353207613589 411.70964801880473 0 411.70964801880473 6.1002456972637447 0 0 0 0 -17.865194339305162 -52.970920776759158 0 -52.970920776759158 827.55784306395799 0 0 0 0 -240.8864889241886 253.53221932820452 0 253.53221932820452 747.45330879049652 0 0 0 0 -261.19635154181015 241.73969472608587 0 241.73969472608587 582.80049027185487 0 0 0 0 69.736091151249639 253.48159399360156 0 253.48159399360156 582.12731083476683 0 0 0 0 29.695989165530591 123.29376236204189 0 123.29376236204189 395.65293244218628 0 0 0 0 -188.15858326709895 387.48871360908379 0 387.48871360908379 275.04319016322552 0 0 0 0 32.148364064907469 192.98727878959107 0 192.98727878959107 -239.68849425413646 0 0 0 0 -42.482771848303287 249.28807693298404 0 249.28807693298404 -181.8907797565189 0 0 0 0 -382.95709746847751 71.148510189443186 0 71.148510189443186 -78.530746206153708 0 0 0 0 -2.6363652522832126 262.3403354813272 0 262.3403354813272 -671.10439702103758 0 0 0 0 -101.14175641947804 455.25210871063064 0 455.25210871063064 -496.59339470330451 0 0 0 0 -337.36293154692794 189.56334589973631 0 189.56334589973631 -1.3717073299485492 0 0 0 0 36.304123795938949 461.87125358699632 0 461.87125358699632 -494.88763773316168 0 0 0 0 31.975605614831693 413.62313893127248 0 413.62313893127248 -607.35820821394009 0 0 0 0 -0.23445008830458391 144.87409477263282 0 144.87409477263282 -94.400553178682458 0 0 0 0 70.948065598420726 150.40743997576283 0 150.40743997576283 -123.85790532116516 0 0 0 0 -157.50177369989387 571.60535419818098 0 571.60535419818098 -286.11183509109105 0 0 0 0 51.02304828241904 49.17285612897831 0 49.17285612897831 -615.50525948478389 0 0 0 0 11.11128441799103 44.026515210127968 0 44.026515210127968 16.177591358431101 0 0 0 0 -256.22703131898015 -4.5294472001842223 0 -4.5294472001842223 265.36590634374443 0 0 0 0 5.0969106994442015 12.532658450627039 0 12.532658450627039 5.6507884455370316 0 0 0 0 15.090665522657218 187.97760598750756 0 187.97760598750756 7.1420744259994535 0 0 0 0 49.152192568688832 29.618814190547653 0 29.618814190547653 3.0428371130409033 0 0 0 0 -38.104797723921479 40.378031192903805 0 40.378031192903805 -15.635764047149991 0 0 0 0 256.19707264356839 108.8655831073338 0 108.8655831073338 -285.8209509062217 0 0 0 0 62.080477353649258 206.57416954050586 0 206.57416954050586 -202.50485500808281 0 0 0 0 90.456165495767891 116.36811860927264 0 116.36811860927264 -16.5280791738478 0 0 0 0 -160.05947090447808 456.3910068029727 0 456.3910068029727 -329.43305222076015 0 0 0 0 169.7477583334321 299.41476266644531 0 299.41476266644531 -699.20513248912175 0 0 0 0 17.61095559764815 38.01326745562055 0 38.01326745562055 21.16911174381012 0 0 0 0 -231.91955960952237 -190.81349830976251 0 -190.81349830976251 327.12797502805188 0 0 0 0 14.797762745854925 174.72407558100167 0 174.72407558100167 -73.193116143229418 0 0 0 0 186.46880207327922 213.41646005499933 0 213.41646005499933 44.980945149040053 0 0 0 0 -516.86546098793951 -39.939781765795487 0 -39.939781765795487 -39.654310496240214 0 0 0 0 128.63802831175144 56.969583687357954 0 56.969583687357954 -688.8364932366967 0 0 0 0 124.23276534963225 -17.796442746799585 0 -17.796442746799585 -117.99871289019211 0 0 0 0 25.15425367628875 37.437488578004363 0 37.437488578004363 19.448341953057124 0 0 0 0 173.54774498597806 296.79151641383942 0 296.79151641383942 -858.3428238278575 0 0 0 0 20.389184613951329 -42.895249140347005 0 -42.895249140347005 148.57192518962256 0 0 0 0 65.729275596268053 54.377776289420581 0 54.377776289420581 -77.52358456922957 0 0 0 0 44.368128550411711 -8.8394840881228447 0 -8.8394840881228447 45.21749585019279 0 0 0 0 79.904451016573603 30.005712822132409 0 30.005712822132409 -17.917674897995312 0 0 0 0 106.40969311742703 99.348248650210735 0 99.348248650210735 -18.47965825672145 0 0 0 0 5.9056637637986436 14.140867661368743 0 14.140867661368743 -11.6407871966328 0 0 0 0 8.8507256425372454 12.995018968186205 0 12.995018968186205 -5.8787845424152181 0 0 0 0 -411.82891606961903 546.10773207211423 0 546.10773207211423 -514.32212004382745 0 0 0 0 -42.493484304696267 -307.6030828521416 0 -307.6030828521416 -1109.8209657275584 0 0 0 0 -393.95637913674727 292.70268707616924 0 292.70268707616924 -56.164351267929305 0 0 0 0 -34.67367072124398 470.79394006060465 0 470.79394006060465 -1277.7504485611862 0 0 0 0 32.216879561528444 38.761939472035721 0 38.761939472035721 14.092598564826162 0 0 0 0 -21.661089292937504 -113.30412904624973 0 -113.30412904624973 -520.44735252878309 0 0 0 0 164.20989352589004 171.56896141805919 0 171.56896141805919 -855.11901838961785 0 0 0 0 164.71846606728013 247.56650666812493 0 247.56650666812493 -691.7059047746443 0 0 0 0 44.866280314336109 408.46285590658954 0 408.46285590658954 -690.14794667885371 0 0 0 0 -217.26246714307183 -457.70334376471055 0 -457.70334376471055 -1092.231903351756 0 0 0 0 162.80058898587231 385.67752076333272 0 385.67752076333272 -1480.8810024717313 0 0 0 0 -401.83018774714765 700.8897711684549 0 700.8897711684549 -638.73450707324082 0 0 0 0 -77.356552298742827 155.42584826990787 0 155.42584826990787 -134.68607365978096 0 0 0 0 28.939307246560929 54.097621670553053 0 54.097621670553053 7.443739862923394 0 0 0 0 36.086665360144252 175.88937189558055 0 175.88937189558055 -143.07250555948121 0 0 0 0 79.252023865240517 186.43705653742654 0 186.43705653742654 -249.05622246778512 0 0 0 0 101.37304762053742 305.15566894096537 0 305.15566894096537 -162.30826051205804 0 0 0 0 43.262624637812564 349.05971240533836 0 349.05971240533836 -243.88509448911827 0 0 0 0 270.93513025875973 147.34722794102345 0 147.34722794102345 -224.85617743978219 0 0 0 0 -8.3943270106073555 164.00219634293762 0 164.00219634293762 -536.4707497718482 0 0 0 0 77.05246892862499 253.55577001384336 0 253.55577001384336 -629.80561003606999 0 0 0 0 210.71753743935398 247.38341226684497 0 247.38341226684497 -631.92893944191746 0 0 0 0 179.24842440981956 -44.126281339413254 0 -44.126281339413254 -21.125057508412283 0 0 0 0 41.097379780271851 -9.2772184139094804 0 -9.2772184139094804 0.0066859435204378315 0 0 0 0 33.999758171098165 -104.23074511837376 0 -104.23074511837376 -23.140733451335109 0 0 0 0 8.7467037632435538 51.215463162100299 0 51.215463162100299 -23.472645638835388 0 0 0 0 8.9952520657100763 -7.8172429262303211 0 -7.8172429262303211 5.2293901690640894 0 0 0 0 -72.378088507990469 -44.369068331085145 0 -44.369068331085145 327.85768667652155 0 0 0 0 50.681347987701884 11.396972676164296 0 11.396972676164296 -77.849183032361907 0 0 0 0 171.07084342845337 -284.28020983024908 0 -284.28020983024908 -396.7420742885879 0 0 0 0 -164.37601123235072 402.37450513780277 0 402.37450513780277 -686.46278744909796 0 0 0 0 59.242847982870444 53.13977606516346 0 53.13977606516346 -205.55866157769924 0 0 0 0 111.28880151382145 142.64506605652059 0 142.64506605652059 -52.39258541027084 0 0 0 0 351.36492468200231 73.911418749285076 0 73.911418749285076 -191.86228821945406 0 0 0 0 6.128081492290363 54.797959671460276 0 54.797959671460276 -3.0517014160482461 0 0 0 0 60.749613291081914 98.759432267805096 0 98.759432267805096 12.570544282272749 0 0 0 0 -46.094099719935912 275.07491096753074 0 275.07491096753074 -33.717271086599794 0 0 0 0 22.100530070553305 149.85603866708016 0 149.85603866708016 161.46952711846097 0 0 0 0 11.146552997541733 58.698663410137208 0 58.698663410137208 19.441285917719313 0 0 0 0 -7.9711275210782162 10.132822364118752 0 10.132822364118752 3.7936403316583807 0 0 0 0 38.575791087318066 69.008022985388379 0 69.008022985388379 -40.495771754569432 0 0 0 0 -993.17332823827746 670.79384186384959 0 670.79384186384959 17.259969183563953 0 0 0 0 -1096.7377863110742 281.76705475326526 0 281.76705475326526 388.34204682832933 0 0 0 0 -184.86507039235585 91.994612120652164 0 91.994612120652164 144.84724271226878 0 0 0 0 -593.54807122203056 261.92259132608888 0 261.92259132608888 91.309776245579997 0 0 0 0 -111.62188818777577 377.83688726129185 0 377.83688726129185 -322.49598111928208 0 0 0 0 -755.13331644837854 670.32405079596174 0 670.32405079596174 -215.07387038238812 0 0 0 0 -1163.6255957310204 415.53455089439376 0 415.53455089439376 242.08267446950777 0 0 0 0 -841.75596202326778 122.48766101113506 0 122.48766101113506 33.353848147002282 0 0 0 0 -2276.1141104141279 209.30362895346479 0 209.30362895346479 33.332892057580466 0 0 0 0 -844.5952926600221 472.17735600419473 0 472.17735600419473 211.56261389760766 0 0 0 0 -805.75050921989896 290.98865495772043 0 290.98865495772043 183.63011590467067 0 0 0 0 -603.43479677453433 291.75824920636478 0 291.75824920636478 -42.323425948328804 0 0 0 0 -986.76277808922168 653.9473190161807 0 653.9473190161807 58.884392890904564 0 0 0 0 277.86194713346777 15.295801100692188 0 15.295801100692188 85.977927423693473 0 0 0 0 -216.49594818259357 255.06580190183013 0 255.06580190183013 47.336827981416718 0 0 0 0 -41.602331236630562 13.043453414451506 0 13.043453414451506 215.69351934522274 0 0 0 0 519.68406957248226 414.6774419231806 0 414.6774419231806 457.14083067444153 0 0 0 0 105.32594004539715 225.03498281493376 0 225.03498281493376 -39.446096180967288 0 0 0 0 -124.14472318017215 75.071678986409097 0 75.071678986409097 121.01101077973726 0 0 0 0 -355.26849367919203 291.38193581205996 0 291.38193581205996 51.284742151554383 0 0 0 0 -388.4093440542274 239.14839954081981 0 239.14839954081981 20.707241588766919 0 0 0 0 -656.17178577498998 412.70699162052188 0 412.70699162052188 72.340373982900928 0 0 0 0 -381.83493212984467 252.73902878795343 0 252.73902878795343 14.259703349554911 0 0 0 0 -368.89023863256443 299.60301676313975 0 299.60301676313975 158.80207523028366 0 0 0 0 -309.34295218149055 164.96901683587566 0 164.96901683587566 166.77249542498612 0 0 0 0 350.40179852431174 35.249008870800026 0 35.249008870800026 -205.58246732805856 0 0 0 0 252.85808643408382 439.42764283341967 0 439.42764283341967 118.59466773814347 0 0 0 0 -22.991174336395773 36.25140097203905 0 36.25140097203905 -48.543965253472749 0 0 0 0 -382.82842437267391 194.12564688506609 0 194.12564688506609 42.266797441901872 0 0 0 0 -544.03594042869372 192.77540401511214 0 192.77540401511214 21.220059813560511 0 0 0 0 -405.32315346012183 326.08951930249168 0 326.08951930249168 36.433855558081632 0 0 0 0 119.42382516117505 647.2188261445117 0 647.2188261445117 -1263.3196025030047 0 0 0 0 -8.9298186940472277 12.687273867337062 0 12.687273867337062 -17.945825062347268 0 0 0 0 -2911.2176557250423 396.27563150389324 0 396.27563150389324 100.98527753796952 0 0 0 0 639.78011127967693 247.9939190346231 0 247.9939190346231 -1017.2263886795699 0 0 0 0 -411.00459200552723 480.68608385352127 0 480.68608385352127 -201.22909505361986 0 0 0 0 -601.51108228289377 875.21522175441351 0 875.21522175441351 -637.97365586318483 0 0 0 0 34.477572179464914 -351.79715658706846 0 -351.79715658706846 -15.89389036585635 0 0 0 0 629.73532553408586 786.41587019522558 0 786.41587019522558 -2411.5535308399267 0 0 0 0 -2324.6348372517095 1436.8857959677698 0 1436.8857959677698 -772.22510073568264 0 0 0 0 -111.15765010708856 -422.47668805374269 0 -422.47668805374269 429.98219188303483 0 0 0 0 -2448.1452521447427 -401.97898869209166 0 -401.97898869209166 1028.0090043803066 0 0 0 0 8.5567697567967116 220.29142812779173 0 220.29142812779173 317.91873688874693 0 0 0 0 -712.85941322494909 360.99315886585828 0 360.99315886585828 225.47854927294247 0 0 0 0 -1844.7589029888059 1308.4773929691473 0 1308.4773929691473 -355.61081911115616 0 0 0 0 -719.07742051394598 263.46142881766718 0 263.46142881766718 918.73638147270685 0 0 0 0 -171.28911315331425 -309.2440041801201 0 -309.2440041801201 -349.53313246910693 0 0 0 0 112.07916912756991 1105.3129082768464 0 1105.3129082768464 238.36225832346827 0 0 0 0 396.89018433674937 396.59740105072706 0 396.59740105072706 -793.18158201879123 0 0 0 0 -535.13855845526359 -103.04398863962342 0 -103.04398863962342 -60.120837913797004 0 0 0 0 103.54657052938273 -153.72829734341212 0 -153.72829734341212 -697.23936066914757 0 0 0 0 -3.4943491104519921 5.5638216863694154 0 5.5638216863694154 -8.1508066111223627 0 0 0 0 -224.82278048319858 485.05426991139393 0 485.05426991139393 -701.54727133082997 0 0 0 0 183.13067054221528 119.66578801641754 0 119.66578801641754 -982.8441850458039 0 0 0 0 20.462502303125802 455.96032096732233 0 455.96032096732233 208.52086903078498 0 0 0 0 -32.035335316362762 0.09325346438708948 0 0.09325346438708948 193.84947803922114 0 0 0 0 -286.78829815449717 242.10010782765312 0 242.10010782765312 275.60437546017056 0 0 0 0 -170.82830195240604 30.826436249160906 0 30.826436249160906 80.469096314103808 0 0 0 0 -57.717378692577768 111.61521400896891 0 111.61521400896891 195.04091230056656 0 0 0 0 121.40585719286173 173.79495031722035 0 173.79495031722035 211.47394672113296 0 0 0 0 -52.727632161523175 47.596667741420909 0 47.596667741420909 -21.740837469602326 0 0 0 0 4.5587564986824702 5.5548232894165182 0 5.5548232894165182 -7.6702585314328786 0 0 0 0 152.27104846015618 200.39927768184225 0 200.39927768184225 140.22981251603051 0 0 0 0 -9.1581856108110742 27.265641146244946 0 27.265641146244946 3.3557699175833022 0 0 0 0 -80.125699490381521 71.372260195668787 0 71.372260195668787 339.45135030447273 0 0 0 0 11.978443933825474 208.38565979075793 0 208.38565979075793 242.64468731719535 0 0 0 0 88.872786763298791 -24.939833705924684 0 -24.939833705924684 59.134707346078358 0 0 0 0 -113.49369962058699 62.735943325344124 0 62.735943325344124 275.40855097433086 0 0 0 0 -180.62706380205782 14.306390298297629 0 14.306390298297629 63.408309699589154 0 0 0 0 -154.68430970130794 -137.11600090629145 0 -137.11600090629145 -22.706994103093166 0 0 0 0 -33.943015358439879 62.863327451908845 0 62.863327451908845 -29.55648617449333 0 0 0 0 -136.98157771527622 200.43511642963131 0 200.43511642963131 8.7925117370541557 0 0 0 0 -190.83670440555579 44.882756438862998 0 44.882756438862998 1.9599610930399649 0 0 0 0 -80.016625014199235 80.643072790218866 0 80.643072790218866 844.98881876689848 0 0 0 0 54.713901470775454 -106.11943054454241 0 -106.11943054454241 -171.20327914881636 0 0 0 0 -18.116539696154163 22.461569829417392 0 22.461569829417392 -18.014790753087453 0 0 0 0 -115.29677538952092 -159.48239177765208 0 -159.48239177765208 -78.380201008258155 0 0 0 0 -13.655365455562873 15.92362557943359 0 15.92362557943359 -15.845189445084713 0 0 0 0 211.51590760717227 421.48180037987186 0 421.48180037987186 -258.10732953618572 0 0 0 0 -84.362238057787181 6.3121224633796373 0 6.3121224633796373 -126.07371815602528 0 0 0 0 -132.53255940681265 -12.541287979940535 0 -12.541287979940535 123.59292971626564 0 0 0 0 -69.90354716211732 70.622564264383982 0 70.622564264383982 30.397607101185713 0 0 0 0 -170.10750829262543 -29.777737916680053 0 -29.777737916680053 -24.956829252303578 0 0 0 0 -53.811093138610886 61.235871264303569 0 61.235871264303569 24.190743308296078 0 0 0 0 -4.697712339420832 117.397533875097 0 117.397533875097 89.507181218476035 0 0 0 0 -113.84549964898906 48.81424452594365 0 48.81424452594365 127.91704196258797 0 0 0 0 104.72950736214989 97.71907730482053 0 97.71907730482053 100.68147594190668 0 0 0 0 -6.2210050301814306 20.798704579450543 0 20.798704579450543 -15.329804372556623 0 0 0 0 -53.318814573067357 68.716042228741571 0 68.716042228741571 118.52819701909903 0 0 0 0 -40.272358317452017 1.6895146702981947 0 1.6895146702981947 31.43902625318151 0 0 0 0 56.70851228752872 132.72954927169485 0 132.72954927169485 120.02620694122743 0 0 0 0 -21.99018124627375 12.018063482778047 0 12.018063482778047 -2.9208053197037316 0 0 0 0 -2.6599654496384915 13.714839464709456 0 13.714839464709456 -17.880116174316868 0 0 0 0 26.614090363204014 150.48719084513141 0 150.48719084513141 161.20618708900292 0 0 0 0 -88.787438990417286 -83.446075875588576 0 -83.446075875588576 89.826218493748456 0 0 0 0 160.22105612351152 51.394093633338343 0 51.394093633338343 -116.89751194510609 0 0 0 0 -8.8488308260104986 8.2627486223623166 0 8.2627486223623166 6.4582315569373066 0 0 0 0 -0.87874063303262062 7.9639870185735333 0 7.9639870185735333 2.7088146383238687 0 0 0 0 -102.18917815097666 18.952881301622256 0 18.952881301622256 220.18025522599055 0 0 0 0 6.5737029856974516 1.0607319350944238 0 1.0607319350944238 -2.6579239836127329 0 0 0 0 166.37847873767168 188.96187280929371 0 188.96187280929371 106.60408123185334 0 0 0 0 44.015997768561647 419.06396426192077 0 419.06396426192077 139.82151403581156 0 0 0 0 76.874974678228682 384.45644682729835 0 384.45644682729835 175.65302679676824 0 0 0 0 250.83586939674569 159.54140979133808 0 159.54140979133808 -92.993713630377897 0 0 0 0 -43.269985280687251 246.28893061348936 0 246.28893061348936 -102.95701783826371 0 0 0 0 52.357138135561399 295.70719149261276 0 295.70719149261276 348.83807632245225 0 0 0 0 196.17506847299046 611.53165061666186 0 611.53165061666186 212.14089807301934 0 0 0 0 5.2094183828266978 342.16583994532266 0 342.16583994532266 171.78524694238331 0 0 0 0 7.4684031423184933 367.22856958380908 0 367.22856958380908 236.97751394776424 0 0 0 0 30.904325726149168 16.108648331110032 0 16.108648331110032 7.6534242449024248 0 0 0 0 -0.27249175383988344 164.86940068671512 0 164.86940068671512 388.13887085720489 0 0 0 0 16.386797212959209 183.19704993996129 0 183.19704993996129 -234.13687117685186 0 0 0 0 -54.417302627057325 56.81018328783648 0 56.81018328783648 -18.177546260310919 0 0 0 0 54.891737171798013 19.931824432249414 0 19.931824432249414 -28.400940866704332 0 0 0 0 67.808587167108271 -135.02340806519715 0 -135.02340806519715 -530.84578328674252 0 0 0 0 42.786438515066038 -105.68532152064836 0 -105.68532152064836 -485.78048797244264 0 0 0 0 -30.456691532184777 -341.32853406457434 0 -341.32853406457434 -734.19163397907687 0 0 0 0 -29.842591440000703 23.045999072933213 0 23.045999072933213 -19.601843885872114 0 0 0 0 51.460394835072293 134.3656138416718 0 134.3656138416718 -9.7690294960775645 0 0 0 0 -35.902459393037134 200.67495980678723 0 200.67495980678723 207.10584354268576 0 0 0 0 -265.22276802142005 -229.21531195651551 0 -229.21531195651551 45.370472863553005 0 0 0 0 -1215.3244552847209 -25.377809478304698 0 -25.377809478304698 170.32309699215512 0 0 0 0 -45.771973100647301 -155.5994696928683 0 -155.5994696928683 -2141.4595092277159 0 0 0 0 -532.2706498553307 -75.921909674085327 0 -75.921909674085327 -1794.8363726815442 0 0 0 0 -10.453923371331015 9.3849381358934494 0 9.3849381358934494 -8.7434333344977233 0 0 0 0 -1899.1880210183081 1181.5062115238397 0 1181.5062115238397 -242.38131783908102 0 0 0 0 -776.89009070820975 343.48895785252535 0 343.48895785252535 123.01013007505389 0 0 0 0 -505.93475351867164 550.5500706633793 0 550.5500706633793 17.314791344295372 0 0 0 0 -446.20820628585034 274.26554607515118 0 274.26554607515118 113.70279841014417 0 0 0 0 -399.08003798716345 639.95243569017748 0 639.95243569017748 366.46602828502364 0 0 0 0 -227.02950320288437 269.43293401962728 0 269.43293401962728 1773.7754481869051 0 0 0 0 8.9914439527210419 7.3966265500081079 0 7.3966265500081079 4.2019544809407989 0 0 0 0 -29.966482652871491 175.08204728147757 0 175.08204728147757 -325.02240847005305 0 0 0 0 141.36631415766897 552.57368319128727 0 552.57368319128727 245.46960574148034 0 0 0 0 -423.63279181778853 805.23432735993629 0 805.23432735993629 822.5140633705887 0 0 0 0 -625.63743720288039 312.42532083600963 0 312.42532083600963 592.84181505800507 0 0 0 0 -713.86693914555508 494.00337727494843 0 494.00337727494843 492.74884809664945 0 0 0 0 -1261.1113548127141 189.7207412336611 0 189.7207412336611 605.37932001634908 0 0 0 0 -314.24772619219948 365.79496113009009 0 365.79496113009009 217.25557744996513 0 0 0 0 -343.74445002466018 394.06531921111673 0 394.06531921111673 228.01359227854118 0 0 0 0 -385.52893218603276 542.89425370884419 0 542.89425370884419 -216.26538835569227 0 0 0 0 -549.40307561644295 610.77992087415623 0 610.77992087415623 -63.1161615873134 0 0 0 0 -466.64646016946062 386.56404542378732 0 386.56404542378732 87.626703743895632 0 0 0 0 -458.976558620996 761.73317280875381 0 761.73317280875381 -430.52528543119843 0 0 0 0 140.7714416231338 1187.1282980492761 0 1187.1282980492761 -2148.7567747836147 0 0 0 0 556.13512018002075 -110.29147723002097 0 -110.29147723002097 -227.82215456863196 0 0 0 0 -161.39703802830627 481.18145333978464 0 481.18145333978464 -652.82614428124361 0 0 0 0 0.3422834552975047 1.7056482287396975 0 1.7056482287396975 -3.5248317058273813 0 0 0 0 7.1346577283784427 -22.047087790527257 0 -22.047087790527257 -33.272113554136013 0 0 0 0 -196.45576629640527 532.68441048257773 0 532.68441048257773 7.4901477692619665 0 0 0 0 235.54565963304049 364.67292067335802 0 364.67292067335802 -281.70736500051862 0 0 0 0 268.52139949653247 505.65819567424569 0 505.65819567424569 -81.97454052286048 0 0 0 0 67.435031293338398 181.62628386720462 0 181.62628386720462 -196.27854618190395 0 0 0 0 70.513584172324045 245.86854578444036 0 245.86854578444036 193.22383031733625 0 0 0 0 -419.70102664678416 435.66892597007245 0 435.66892597007245 536.71768299065297 0 0 0 0 -191.99057044566143 197.51654413022334 0 197.51654413022334 696.80054991022917 0 0 0 0 -92.501904602206196 56.74336605022836 0 56.74336605022836 576.42347718251403 0 0 0 0 -164.60500324108216 361.75258822445994 0 361.75258822445994 286.45524371677311 0 0 0 0 -18.303498129200307 465.9929373946652 0 465.9929373946652 339.83127598478313 0 0 0 0 -16.536876190351904 454.77359807080938 0 454.77359807080938 -89.692969365278259 0 0 0 0 -155.44762034136511 497.598562242958 0 497.598562242958 478.02712518337648 0 0 0 0 87.827616197697353 807.78322059435595 0 807.78322059435595 232.98943807364412 0 0 0 0 80.539758450191584 1122.1650835144828 0 1122.1650835144828 -1041.1002694563795 0 0 0 0 0.096331305788178057 0.26721864198987078 0 0.26721864198987078 0.018118794912254543 0 0 0 0 1055.5989279957357 322.88264279192663 0 322.88264279192663 -239.13231280424952 0 0 0 0 -745.46459775642143 639.55384033530572 0 639.55384033530572 -406.62608800664748 0 0 0 0 181.87116041575064 644.177009059189 0 644.177009059189 -301.15751496946905 0 0 0 0 12.394387309024751 -7.6897563805323443 0 -7.6897563805323443 -147.28264637006623 0 0 0 0 234.58241343193367 198.34442246812978 0 198.34442246812978 116.37686617791041 0 0 0 0 240.38170244404319 264.00305199652212 0 264.00305199652212 91.403734382132825 0 0 0 0 110.90498365936219 154.54820717553957 0 154.54820717553957 227.3298686204289 0 0 0 0 -229.48258582996641 256.09760001418908 0 256.09760001418908 198.08205419364094 0 0 0 0 112.11773120370981 157.84049594228054 0 157.84049594228054 126.29559771971253 0 0 0 0 335.33451229100319 191.11897850164314 0 191.11897850164314 68.787008793005953 0 0 0 0 2.6501569868291206 4.2381264706948656 0 4.2381264706948656 2.3181869609165346 0 0 0 0 -1050.2397625687954 356.15466054409626 0 356.15466054409626 -62.727561332183541 0 0 0 0 -26.771321459425963 20.647354671324138 0 20.647354671324138 27.69801631111477 0 0 0 0 -179.8144085744425 183.33000256487139 0 183.33000256487139 -25.462278422559393 0 0 0 0 -7.5599325704488933 0.99692732429915054 0 0.99692732429915054 5.6644332923483773 0 0 0 0 -193.14753401140842 -83.550222001780639 0 -83.550222001780639 -61.273623307502021 0 0 0 0 -575.19371894668802 48.616885165898566 0 48.616885165898566 101.12617158598732 0 0 0 0 -165.1755054948444 26.841017141661723 0 26.841017141661723 49.002457984242938 0 0 0 0 -295.71960566037342 15.101629058925027 0 15.101629058925027 249.27007074667199 0 0 0 0 -210.57350192534795 44.87990826825262 0 44.87990826825262 62.361025294063438 0 0 0 0 -91.17856842900801 79.199324131375761 0 79.199324131375761 52.210771152138477 0 0 0 0 -180.66408679914457 17.253049731014471 0 17.253049731014471 73.927481690741843 0 0 0 0 4.7727058853819369 13.858303566893014 0 13.858303566893014 18.391448135859662 0 0 0 0 128.94322687894964 49.459630197990919 0 49.459630197990919 -62.479745400662068 0 0 0 0 -176.25280787862721 71.654292973660631 0 71.654292973660631 56.559386580862338 0 0 0 0 -13.892523821006762 65.15227878758742 0 65.15227878758742 30.801679722033441 0 0 0 0 -28.645009933418976 9.7181650205388621 0 9.7181650205388621 -0.060091583866508813 0 0 0 0 2.6214542389061535 46.989246397988609 0 46.989246397988609 24.762431497947546 0 0 0 0 -57.853355616778572 25.614532729443454 0 25.614532729443454 56.121217952881125 0 0 0 0 -7.2668441879770214 15.543042054053302 0 15.543042054053302 25.403726810517242 0 0 0 0 -124.13831311794638 26.537838953183382 0 26.537838953183382 56.481593246149714 0 0 0 0 -37.221866430307273 34.407524940324947 0 34.407524940324947 25.236742043023696 0 0 0 0 -0.30630233611736912 14.235687395230343 0 14.235687395230343 15.402521678537596 0 0 0 0 -22.21123871211833 18.921156853397868 0 18.921156853397868 19.571883479000235 0 0 0 0 -9.9863393960624194 19.77764606075867 0 19.77764606075867 10.038963232397705 0 0 0 0 110.47116899759203 -193.64932016386956 0 -193.64932016386956 302.42065721860854 0 0 0 0 52.50545936549679 -147.80513559223618 0 -147.80513559223618 286.88945221995527 0 0 0 0 -65.737691431000712 111.14502196929971 0 111.14502196929971 -224.20610279133689 0 0 0 0 -7.2347583755629188 5.1978995323553008 0 5.1978995323553008 -1.5590273292013705 0 0 0 0 -67.222804883269418 147.49379090245566 0 147.49379090245566 124.82812085060868 0 0 0 0 -120.10650894767605 -104.21806271400419 0 -104.21806271400419 883.65084001557989 0 0 0 0 23.143390960394754 4.4567149015638279 0 4.4567149015638279 -38.035329838821781 0 0 0 0 -34.014574213477317 -20.98233894896839 0 -20.98233894896839 50.475263315325719 0 0 0 0 -166.43478390970267 -58.976973990269471 0 -58.976973990269471 1.5300638904118387 0 0 0 0 -151.05045565243017 -134.8351161386272 0 -134.8351161386272 213.15127632497024 0 0 0 0 158.32816511099736 -180.65736889128675 0 -180.65736889128675 -270.70545002673316 0 0 0 0 -24.516923884235638 5.7290786455622111 0 5.7290786455622111 -2.1655016255352706 0 0 0 0 -121.4758534755747 63.059619960706186 0 63.059619960706186 74.899799764250929 0 0 0 0 -81.712682844892697 -229.39905091792025 0 -229.39905091792025 -627.57766489143251 0 0 0 0 -32.642696985501971 -53.651650366329704 0 -53.651650366329704 -29.719986732321559 0 0 0 0 -167.09850711997933 -437.30333092739602 0 -437.30333092739602 211.04361561282349 0 0 0 0 296.99958205061466 -144.08540026968058 0 -144.08540026968058 395.91305130418914 0 0 0 0 -4.5211580014438368 0.7152601934956806 0 0.7152601934956806 2.9777712015998077 0 0 0 0 71.243835374014452 -738.74993702353459 0 -738.74993702353459 992.18370823558507 0 0 0 0 -730.18121568318657 725.47236214487566 0 725.47236214487566 -448.55977033334784 0 0 0 0 -329.55599448134308 224.33365415061417 0 224.33365415061417 -295.75014351351638 0 0 0 0 -92.671218835221225 -547.82193608163288 0 -547.82193608163288 1000.7360889164156 0 0 0 0 -10.496275670894875 2.9913688226411068 0 2.9913688226411068 8.5266740564898669 0 0 0 0 102.10032823321308 -145.96281418654326 0 -145.96281418654326 410.94052851485685 0 0 0 0 -276.36645215642056 83.614985261468973 0 83.614985261468973 484.56058699365713 0 0 0 0 -462.06811898193337 251.39686805421297 0 251.39686805421297 427.81524110939063 0 0 0 0 -348.17015237362284 166.92189494901322 0 166.92189494901322 160.31079087492253 0 0 0 0 -79.15443110077922 -108.55032207905879 0 -108.55032207905879 55.502274226586451 0 0 0 0 -546.93876098843975 -49.841637526275008 0 -49.841637526275008 564.5590683023147 0 0 0 0 -651.26290005143528 -205.47279657757826 0 -205.47279657757826 -283.47091718572483 0 0 0 0 -690.26669564985787 -195.43917019791843 0 -195.43917019791843 55.700160448381212 0 0 0 0 -10.118874463503332 4.5368379506153644 0 4.5368379506153644 -3.0866927357211154 0 0 0 0 -2737.8032917804085 1188.5153301110258 0 1188.5153301110258 -1772.05901705836 0 0 0 0 -682.96036154596004 -457.51754310774413 0 -457.51754310774413 -711.13112849168829 0 0 0 0 -1736.8118448961832 -21.987129905362963 0 -21.987129905362963 -313.96591240019188 0 0 0 0 -1723.817022519434 1290.0516449402935 0 1290.0516449402935 -1388.0031029888778 0 0 0 0 -437.70916391001811 331.62462619134749 0 331.62462619134749 -695.50427809961548 0 0 0 0 -1207.0158088986882 556.93036398190088 0 556.93036398190088 -187.83871329567046 0 0 0 0 -501.04645037195587 87.216135574461077 0 87.216135574461077 121.76159966511113 0 0 0 0 -648.31317948561536 545.4054084500076 0 545.4054084500076 -95.335647377709392 0 0 0 0 -128.9451882505673 278.49666052183602 0 278.49666052183602 -443.37936555346823 0 0 0 0 -513.3268635413624 558.73827537591569 0 558.73827537591569 -635.6318712476932 0 0 0 0 92.044811048666816 201.62432281607107 0 201.62432281607107 -1266.2546051392128 0 0 0 0 248.08195486273326 74.333844029424654 0 74.333844029424654 -555.10319755915134 0 0 0 0 152.10676476940898 -12.638513686237275 0 -12.638513686237275 -567.42683367407881 0 0 0 0 36.679049807788033 422.01358629814058 0 422.01358629814058 -218.42846982336778 0 0 0 0 103.91078457767799 208.83579401919269 0 208.83579401919269 -197.32597463898128 0 0 0 0 -87.74111847535778 480.82058503091503 0 480.82058503091503 -565.77677238624892 0 0 0 0 236.86258015994463 182.44311477083829 0 182.44311477083829 68.277830021223053 0 0 0 0 53.409906843280623 392.72739181779252 0 392.72739181779252 110.87363268091576 0 0 0 0 -94.058566705793055 277.00751418646905 0 277.00751418646905 224.04111014513182 0 0 0 0 -236.65742122802476 262.15424697261915 0 262.15424697261915 81.402188014530111 0 0 0 0 -309.50412884325851 327.5061192410285 0 327.5061192410285 164.92471114426735 0 0 0 0 -293.17406161213148 341.47455617071682 0 341.47455617071682 144.57813572556915 0 0 0 0 -272.5884239466177 271.99838593495224 0 271.99838593495224 327.98231270254473 0 0 0 0 -132.91253087713267 328.36853624313517 0 328.36853624313517 164.61786967128364 0 0 0 0 -126.39833467904282 203.62133174587871 0 203.62133174587871 292.15123161218798 0 0 0 0 -177.67004812652158 230.16348079400632 0 230.16348079400632 306.87573938466812 0 0 0 0 24.254738793637443 231.7919014707586 0 231.7919014707586 205.30331522008055 0 0 0 0 4.6447517205961049 275.10361222945357 0 275.10361222945357 224.05308288979677 0 0 0 0 44.287247309563099 158.07561924701076 0 158.07561924701076 184.54503366597055 0 0 0 0 41.988546346987278 150.54937171044912 0 150.54937171044912 167.5973084862635 0 0 0 0 -45.766708616400138 155.97211752244039 0 155.97211752244039 273.85626894530105 0 0 0 0 -110.88207406378388 92.644848705440381 0 92.644848705440381 260.08922133789019 0 0 0 0 -20.35415696753671 42.391125366914366 0 42.391125366914366 274.83840574321948 0 0 0 0 -8.0925945873177199 13.599954257303239 0 13.599954257303239 12.387014890420843 0 0 0 0 -80.142835359642049 1.5830222087024595 0 1.5830222087024595 9.3051593374530057 0 0 0 0 -17.808776525650046 47.266780232433121 0 47.266780232433121 114.84290423837956 0 0 0 0 -13.384263667440884 18.11211503339922 0 18.11211503339922 -10.955368427030493 0 0 0 0 -27.843194944034622 93.288981438505289 0 93.288981438505289 4.476110396994045 0 0 0 0 -21.574558935059031 4.0834554084940464 0 4.0834554084940464 10.759590619745723 0 0 0 0 142.68645261525671 -104.75306809488393 0 -104.75306809488393 -98.31711088695738 0 0 0 0 -2.7550021993053377 13.145700944321888 0 13.145700944321888 5.1634036994990709 0 0 0 0 2.9221873083476098 1.5686592232388747 0 1.5686592232388747 -0.94737002681017657 0 0 0 0 -1.0566343716527626 -12.774274083531054 0 -12.774274083531054 -5.5297983820200898 0 0 0 0 21.917268714903912 0.82718017402658006 0 0.82718017402658006 -5.9187268075475004 0 0 0 0 -1.0036825421921094 -3.8110711531880952 0 -3.8110711531880952 0.089617268029542174 0 0 0 0 -70.066890337764562 -14.01878160348133 0 -14.01878160348133 17.066048835862603 0 0 0 0 2.3257428316413069 -0.36691122977796198 0 -0.36691122977796198 -2.6009718805512136 0 0 0 0 -8.145558188438585 8.5394963070515502 0 8.5394963070515502 -2.7296939764995045 0 0 0 0 -116.02207365344293 51.724854094944021 0 51.724854094944021 -1.4467269354790915 0 0 0 0 -13.880478141061303 30.008674725166202 0 30.008674725166202 32.131250179452763 0 0 0 0 -142.06699716050935 23.522277488133113 0 23.522277488133113 116.58398847462377 0 0 0 0 25.050103683815905 49.851861956045468 0 49.851861956045468 0.0021748981816926971 0 0 0 0 -780.83149667997714 -306.10143248293753 0 -306.10143248293753 -42.465087505173869 0 0 0 0 -2.4397807581804045 2.1801414259060152 0 2.1801414259060152 -3.5723487590684329 0 0 0 0 -941.88449482681244 145.02255650208099 0 145.02255650208099 564.40865357070288 0 0 0 0 -345.53582333240956 337.54825502887616 0 337.54825502887616 137.02363797143335 0 0 0 0 -436.46839890759838 216.17132561327162 0 216.17132561327162 -2.0228730555681977 0 0 0 0 -115.39405708052072 130.63048375158542 0 130.63048375158542 -77.92381105786626 0 0 0 0 -78.638266979298351 39.184847372547665 0 39.184847372547665 347.73003908325336 0 0 0 0 -168.22479417253453 -140.93002004980372 0 -140.93002004980372 686.84759109123843 0 0 0 0 -234.37106779032547 138.19253160808876 0 138.19253160808876 -56.777115708558995 0 0 0 0 -10.095372487169826 6.2867132865512758 0 6.2867132865512758 13.090837926970053 0 0 0 0 -273.84408706843533 434.71633887047938 0 434.71633887047938 0.007657649929404888 0 0 0 0 -400.92273512004613 232.89297887931752 0 232.89297887931752 98.08842447869938 0 0 0 0 -365.67764315404202 333.20962177664114 0 333.20962177664114 -229.66500958917459 0 0 0 0 -234.80799665642127 238.44245066242831 0 238.44245066242831 -188.67535186531313 0 0 0 0 -339.89187496262593 197.33522941393767 0 197.33522941393767 -98.136553708420251 0 0 0 0 2.9066828981287642 6.6692861620189205 0 6.6692861620189205 9.1569713802494732 0 0 0 0 -346.28155679395422 233.20634928104482 0 233.20634928104482 -139.90034255505452 0 0 0 0 -375.92763394867143 438.5765825805538 0 438.5765825805538 -196.78575668852136 0 0 0 0 -126.44796074999977 64.595653744949232 0 64.595653744949232 -17.323082687653368 0 0 0 0 -0.54968771903085667 2.6375113168114126 0 2.6375113168114126 4.2410681094361848 0 0 0 0 -516.14247633282048 358.12346541453599 0 358.12346541453599 -33.734774324984755 0 0 0 0 -331.07388322677434 420.18722296747364 0 420.18722296747364 -210.13913247799792 0 0 0 0 -549.9670350530323 230.56352205810981 0 230.56352205810981 -43.055180128673328 0 0 0 0 -224.1649832479452 152.10535749260816 0 152.10535749260816 -55.839304284319951 0 0 0 0 -276.98922089938787 353.84585147033795 0 353.84585147033795 -124.02919923124136 0 0 0 0 6.6923331061907021 12.483209371128737 0 12.483209371128737 14.784075663915218 0 0 0 0 2.29059385664128 1.1888261263686388 0 1.1888261263686388 -3.3086994517017843 0 0 0 0 21.384940398369508 34.684715683601098 0 34.684715683601098 -160.35103019712551 0 0 0 0 -159.07459276641566 240.01906159786813 0 240.01906159786813 -59.605242891397211 0 0 0 0 -169.9939882555426 312.91497082965998 0 312.91497082965998 -177.94225055247807 0 0 0 0 -216.52322750611893 411.63709678859595 0 411.63709678859595 -107.16795038506098 0 0 0 0 -406.62585089800132 304.13290191793567 0 304.13290191793567 -67.88000916979945 0 0 0 0 -299.6602500322806 176.18488282344333 0 176.18488282344333 -5.5580272077786503 0 0 0 0 29.824470240716579 77.712579961742449 0 77.712579961742449 87.906355703438749 0 0 0 0 421.08785814204293 169.64303881546948 0 169.64303881546948 -61.548699764280173 0 0 0 0 -27.928912844621436 19.992689625643834 0 19.992689625643834 40.748721293188282 0 0 0 0 -334.88204989801397 143.04633623442351 0 143.04633623442351 -31.327032388624502 0 0 0 0 -141.59015961214482 37.143646546843229 0 37.143646546843229 23.239617373415967 0 0 0 0 -1.0314491152667067 4.4112191202027073 0 4.4112191202027073 -9.3063119319613747 0 0 0 0 22.201277637373096 79.653713553212583 0 79.653713553212583 -73.509534090575471 0 0 0 0 168.04513080667621 108.4787118370632 0 108.4787118370632 -28.357582493074005 0 0 0 0 -1.6862269176813536 4.4390912558612463 0 4.4390912558612463 -13.114387829894724 0 0 0 0 -23.698522522029634 34.354373476046021 0 34.354373476046021 12.700682046277507 0 0 0 0 2.1097550276779202 114.42464813082188 0 114.42464813082188 -110.19180283603782 0 0 0 0 -6.79876347485515 78.738480117433937 0 78.738480117433937 -39.921715278283955 0 0 0 0 -182.07942424794021 220.37619401780103 0 220.37619401780103 -71.048762162754429 0 0 0 0 -24.02314567513622 237.94939385743419 0 237.94939385743419 -238.07196452184508 0 0 0 0 -387.50210002665517 606.09542832875013 0 606.09542832875013 -510.02042571903075 0 0 0 0 -33.151796837265465 252.36658489231922 0 252.36658489231922 -191.31886120838317 0 0 0 0 -853.50714120685643 427.72068249018412 0 427.72068249018412 -35.506197242742928 0 0 0 0 -374.9808810498198 223.74523317100102 0 223.74523317100102 34.495101220149081 0 0 0 0 -353.79692347799028 361.87711525717896 0 361.87711525717896 -158.29543186449882 0 0 0 0 298.64200028754021 -40.227935824157612 0 -40.227935824157612 -334.76480757167155 0 0 0 0 529.79329715190397 183.81449648820126 0 183.81449648820126 -688.00579754331011 0 0 0 0 778.51855766001063 -109.35342887092702 0 -109.35342887092702 -387.55132992349536 0 0 0 0 -0.3623937607385912 2.5401599325915498 0 2.5401599325915498 -9.9574465647019679 0 0 0 0 -2.4089774817021663 8.8516832858208438 0 8.8516832858208438 -21.443758017532787 0 0 0 0 269.04852151827436 329.33634948400868 0 329.33634948400868 -329.20570568862865 0 0 0 0 365.6318736845169 473.74352230294608 0 473.74352230294608 -40.386479641118058 0 0 0 0 189.42552033526226 209.71095030501601 0 209.71095030501601 92.214479283436958 0 0 0 0 162.4124577278817 310.3309965415101 0 310.3309965415101 139.10296558662958 0 0 0 0 192.68490939489129 395.39543027291074 0 395.39543027291074 139.0728417677019 0 0 0 0 788.45932832492326 266.51907557235245 0 266.51907557235245 -19.689888672961388 0 0 0 0 78.296023848135519 194.04331021790131 0 194.04331021790131 -106.98250002943678 0 0 0 0 6.1632993526509381 -54.22062077276496 0 -54.22062077276496 0.31740358473325614 0 0 0 0 -94.98078372317832 1.082832957014034 0 1.082832957014034 29.84587009549432 0 0 0 0 40.696223707047466 47.970808287893306 0 47.970808287893306 -54.521030606469139 0 0 0 0 167.66381143974286 -47.924603565617872 0 -47.924603565617872 -57.418508722214028 0 0 0 0 324.3538247819306 246.53265334089883 0 246.53265334089883 98.57149033267342 0 0 0 0 357.96099013292405 378.15832262918047 0 378.15832262918047 89.479023792460794 0 0 0 0 184.50513978558774 -7.0151840385533433 0 -7.0151840385533433 -42.06017760989198 0 0 0 0 -6.1202898774627421 12.334096044977187 0 12.334096044977187 -23.651734859338148 0 0 0 0 180.52252146862884 333.41519105989573 0 333.41519105989573 144.73976487648906 0 0 0 0 -94.082345537215588 -86.724242324853549 0 -86.724242324853549 -180.71522998929504 0 0 0 0 57.178810835386685 127.66762357411062 0 127.66762357411062 -314.42654958073399 0 0 0 0 0.96815398611114389 1.0452738354577491 0 1.0452738354577491 -3.7784436054841706 0 0 0 0 -108.5211813016499 238.51893022540207 0 238.51893022540207 197.41171205797582 0 0 0 0 -158.41335974744243 391.06980168575592 0 391.06980168575592 25.857768071960891 0 0 0 0 -146.38136288754868 363.4096889356988 0 363.4096889356988 -147.96495958015294 0 0 0 0 65.048443842976212 154.77843431996189 0 154.77843431996189 -20.834739808662562 0 0 0 0 -97.289929013504661 218.43490047570594 0 218.43490047570594 8.77767467205922 0 0 0 0 76.113775893322327 186.35430175976944 0 186.35430175976944 -5.5663737467402825 0 0 0 0 267.66179666062453 67.753907022350177 0 67.753907022350177 18.709243395529484 0 0 0 0 102.12862504641816 167.93209078145446 0 167.93209078145446 -16.749071186801302 0 0 0 0 220.93142584752786 125.62716606093454 0 125.62716606093454 -33.05188099859879 0 0 0 0 230.86289850104913 143.11852841129439 0 143.11852841129439 -44.7867997748981 0 0 0 0 245.33707129760478 140.84800865427678 0 140.84800865427678 -49.151531042181887 0 0 0 0 256.1945529815639 183.73457225108723 0 183.73457225108723 -41.175841667420173 0 0 0 0 104.56307696969264 198.33325419647235 0 198.33325419647235 -54.919128526889835 0 0 0 0 25.074082718387217 32.262047629643348 0 32.262047629643348 42.52720293366292 0 0 0 0 -8.947497244898706 14.907373846414089 0 14.907373846414089 -20.144090292775559 0 0 0 0 207.76656828325213 182.954817039099 0 182.954817039099 172.97342859101627 0 0 0 0 5.7086184954281123 -0.056929490469173061 0 -0.056929490469173061 -6.273320321295472 0 0 0 0 84.994261977242786 -73.355882900756114 0 -73.355882900756114 -41.078948958947421 0 0 0 0 0.95263378995387171 2.9223848330806845 0 2.9223848330806845 -8.5527640016600799 0 0 0 0 281.03556429116884 210.97397178795563 0 210.97397178795563 7.7856401078170165 0 0 0 0 218.79140789787198 122.79875434450878 0 122.79875434450878 42.813183161677443 0 0 0 0 157.61960959260432 69.761518934537889 0 69.761518934537889 -2.1558246919812518 0 0 0 0 301.70673801231897 117.45598707070167 0 117.45598707070167 -52.564759532451717 0 0 0 0 265.8381445320083 46.986511423252523 0 46.986511423252523 -57.475703627074836 0 0 0 0 -1.0503203409247952 0.073813250427075872 0 0.073813250427075872 -1.5812764307350164 0 0 0 0 0.80245066167309176 5.9461407055727662 0 5.9461407055727662 -10.153258875992265 0 0 0 0 -68.237335964332487 -3.0657599222686258 0 -3.0657599222686258 28.758609798853286 0 0 0 0 74.846724450044348 49.990993125906243 0 49.990993125906243 -21.530733202438569 0 0 0 0 143.4549355319632 -10.222016877640272 0 -10.222016877640272 11.744687143029296 0 0 0 0 -1.1806293563422514 107.56934742326848 0 107.56934742326848 -59.040861080196919 0 0 0 0 65.197282200795598 43.931965751304233 0 43.931965751304233 -10.370400792817236 0 0 0 0 2.6128484966116048 4.5892155018386092 0 4.5892155018386092 1.2735543292520788 0 0 0 0 21.381137033644336 25.082691137198708 0 25.082691137198708 -33.826302533663693 0 0 0 0 207.43197059849626 -125.00399424989882 0 -125.00399424989882 11.655729982765479 0 0 0 0 409.53125775855915 40.904416108511214 0 40.904416108511214 -57.815468469765619 0 0 0 0 360.72706662465316 76.858928078429017 0 76.858928078429017 -47.966399903860292 0 0 0 0 383.7889157622194 104.64099050858204 0 104.64099050858204 328.08475615264615 0 0 0 0 757.35146268830431 205.02596942743548 0 205.02596942743548 28.201663800298775 0 0 0 0 261.89073833188741 61.159245917657245 0 61.159245917657245 0.023479017123463564 0 0 0 0 680.61852876457942 153.53532452685977 0 153.53532452685977 -38.314493309182581 0 0 0 0 36.311703173538262 79.24890669863089 0 79.24890669863089 68.476856486522593 0 0 0 0 551.87787651795588 -176.56771459821903 0 -176.56771459821903 14.398413954560965 0 0 0 0 0.48544110207753022 1.7477187591211703 0 1.7477187591211703 2.0543306411366018 0 0 0 0 -33.166102873732598 -23.686737044703477 0 -23.686737044703477 19.418314420909155 0 0 0 0 56.858885290424951 83.491555420514487 0 83.491555420514487 88.441420242183085 0 0 0 0 107.00280672554345 234.69549744098094 0 234.69549744098094 17.606563111708965 0 0 0 0 -63.811962634760675 173.14909898636688 0 173.14909898636688 26.495020843729435 0 0 0 0 141.18536922459134 157.50537741571316 0 157.50537741571316 12.505842861908604 0 0 0 0 406.60196350621118 160.38836779090343 0 160.38836779090343 -57.208450775244273 0 0 0 0 252.44070440148789 249.75681900111886 0 249.75681900111886 44.67279111679818 0 0 0 0 195.96464768494661 231.43164424912175 0 231.43164424912175 0.15150467065541307 0 0 0 0 383.75891614152533 107.7192109384996 0 107.7192109384996 33.588797175533273 0 0 0 0 11.454282038979727 150.21750490794147 0 150.21750490794147 56.034167735320807 0 0 0 0 -39.751558708535413 262.871602177358 0 262.871602177358 0.029588366376158963 0 0 0 0 -181.47048681492595 318.0372475187105 0 318.0372475187105 85.092824276798638 0 0 0 0 -206.38551289346788 225.73058838461475 0 225.73058838461475 60.479938588694495 0 0 0 0 -65.502508155736905 246.15461858530034 0 246.15461858530034 -2.2897317533497699 0 0 0 0 -250.10266930571106 205.40961217498261 0 205.40961217498261 11.579485768575978 0 0 0 0 -220.40438955989202 289.93388409984891 0 289.93388409984891 -234.65828535134642 0 0 0 0 -490.72216633998482 510.01720042575289 0 510.01720042575289 -183.43073663413088 0 0 0 0 -90.326898632448319 276.74125910524526 0 276.74125910524526 -149.42097542472038 0 0 0 0 -293.87751282813497 268.38409802262504 0 268.38409802262504 -57.459642268186144 0 0 0 0 504.70107036778791 159.72427682468333 0 159.72427682468333 -55.670754675709759 0 0 0 0 -0.31743263213579898 0.51886958499035885 0 0.51886958499035885 -3.8932273801813153 0 0 0 0 -1067.9087074391737 224.14624913443549 0 224.14624913443549 14.517127227198216 0 0 0 0 -309.28590350236254 406.39585406528454 0 406.39585406528454 141.48943113360292 0 0 0 0 -318.93539612887344 209.00797774614693 0 209.00797774614693 14.284490623111196 0 0 0 0 -1.0265349637495547 381.10806387874982 0 381.10806387874982 -146.1338195290773 0 0 0 0 12.932425690887442 497.95459071977348 0 497.95459071977348 78.709549631363188 0 0 0 0 -154.24125651263125 331.07153004271822 0 331.07153004271822 0.1774511614930816 0 0 0 0 199.57131931352149 395.60533974887949 0 395.60533974887949 -88.300306591954723 0 0 0 0 137.14315590811029 370.94562419914291 0 370.94562419914291 -0.029642453434404505 0 0 0 0 253.93382101591124 320.67149655380126 0 320.67149655380126 -0.3540778657188639 0 0 0 0 498.3027346333397 9.6692363018919423 0 9.6692363018919423 55.691178144523292 0 0 0 0 757.79522263684339 523.90739535344619 0 523.90739535344619 -58.956024049743064 0 0 0 0 -173.76583031969039 89.230007693528023 0 89.230007693528023 -152.01696727171657 0 0 0 0 -610.21428733191988 225.92145022982004 0 225.92145022982004 0.12788550712139113 0 0 0 0 -168.57735365883946 52.117563443909603 0 52.117563443909603 -49.776686963174143 0 0 0 0 97.836103261492099 235.20281979106949 0 235.20281979106949 -48.199935178476153 0 0 0 0 -294.87480962602422 -14.363505132758291 0 -14.363505132758291 73.279233435590868 0 0 0 0 -1102.9716770396017 163.47710728554011 0 163.47710728554011 64.755784613327705 0 0 0 0 -669.72099947038078 37.683981088128348 0 37.683981088128348 13.627271437835589 0 0 0 0 -323.18257838746649 66.860775964763889 0 66.860775964763889 -122.0274378982067 0 0 0 0 -756.06927719606119 24.423985890851327 0 24.423985890851327 41.268250609922688 0 0 0 0 -699.24254581374271 234.97681418524189 0 234.97681418524189 -115.2263030163158 0 0 0 0 -544.96545534823417 221.3852218730317 0 221.3852218730317 -356.7014720030129 0 0 0 0 -1402.4438048508273 400.45237074184115 0 400.45237074184115 -22.011692869360559 0 0 0 0 -1320.1468652200419 -76.334843745746184 0 -76.334843745746184 -200.26875205920078 0 0 0 0 -816.17446941441085 -131.71450258249024 0 -131.71450258249024 -259.09826382712345 0 0 0 0 -0.84286681795673246 2.0873151622295438 0 2.0873151622295438 2.2179404368871722 0 0 0 0 -502.58925457433725 344.68911349383416 0 344.68911349383416 -148.95252729525964 0 0 0 0 76.994329500656818 198.85757655195175 0 198.85757655195175 556.38478571544692 0 0 0 0 -355.35190430360672 101.11951463807418 0 101.11951463807418 200.88802929506346 0 0 0 0 84.994496784182047 194.85110820506088 0 194.85110820506088 -105.50005900054384 0 0 0 0 298.27468848540775 825.95219295252537 0 825.95219295252537 585.16431637711753 0 0 0 0 249.35868960982498 488.69858845991257 0 488.69858845991257 85.733744549288531 0 0 0 0 -518.77533662849419 -3.8903430261198082 0 -3.8903430261198082 84.264280092342233 0 0 0 0 -2.6178911551629129 4.760427332649849 0 4.760427332649849 26.971175564372999 0 0 0 0 -722.25035942738896 439.98763818695079 0 439.98763818695079 243.94921603807597 0 0 0 0 2.341893883053956 473.9053070325308 0 473.9053070325308 451.46814601115329 0 0 0 0 1469.7466878251246 433.58731703875264 0 433.58731703875264 -148.75821233104216 0 0 0 0 1.1674338926847962 3.1864904394449383 0 3.1864904394449383 11.116227850815505 0 0 0 0 -501.58354414904352 111.88885369379204 0 111.88885369379204 197.19776411598286 0 0 0 0 27.708865235957802 27.527653631434418 0 27.527653631434418 -88.9102625111409 0 0 0 0 -278.65761282920198 200.73709384397807 0 200.73709384397807 64.308744258298248 0 0 0 0 129.96482310423607 290.20900871772392 0 290.20900871772392 307.6790807162397 0 0 0 0 1.2498471077233058 8.4006718188447458 0 8.4006718188447458 30.737807842282308 0 0 0 0 322.75406928480334 333.75141035761408 0 333.75141035761408 0.080662510910769925 0 0 0 0 0.70518734591082755 1.1445425713645108 0 1.1445425713645108 10.462601291820675 0 0 0 0 405.8034612160418 587.88096173063968 0 587.88096173063968 27.252096091485782 0 0 0 0 397.42169538438202 521.48895597174851 0 521.48895597174851 359.54131648047769 0 0 0 0 197.28454854819483 130.89125282254827 0 130.89125282254827 582.97889330928228 0 0 0 0 550.07400914934328 512.35266768840029 0 512.35266768840029 -80.120345782852382 0 0 0 0 603.16897127894163 46.050275906232855 0 46.050275906232855 118.15044598644454 0 0 0 0 193.81177057596142 235.83177489904119 0 235.83177489904119 95.901027383893961 0 0 0 0 2.0388191346821856 0.94379114537029807 0 0.94379114537029807 -0.89710923284590649 0 0 0 0 -64.559113602114053 -24.793323287115982 0 -24.793323287115982 32.453495175090211 0 0 0 0 34.025191547946633 -130.21412308859362 0 -130.21412308859362 137.79200968546866 0 0 0 0 -96.330215524612981 68.463746992390952 0 68.463746992390952 45.493865095559158 0 0 0 0 2.6063336693839245 12.776765337703672 0 12.776765337703672 43.875882819860436 0 0 0 0 -16.825828951882272 117.3004777288952 0 117.3004777288952 23.787104756163899 0 0 0 0 212.32852868466239 174.28103436966194 0 174.28103436966194 40.570564204484981 0 0 0 0 -227.75420850218507 177.45428951778013 0 177.45428951778013 -69.859061844130338 0 0 0 0 -248.38158542356541 106.17773596514962 0 106.17773596514962 -5.492859095116728 0 0 0 0 -1.1885740372277489 6.1508291873565284 0 6.1508291873565284 3.9385510336369123 0 0 0 0 159.41326985514479 202.73428456503279 0 202.73428456503279 236.1735240418493 0 0 0 0 -0.64499588841327693 3.6612904016788406 0 3.6612904016788406 0.82031503184356325 0 0 0 0 90.100875176829504 183.93614567056284 0 183.93614567056284 -143.88865099300529 0 0 0 0 1.8564290397684644 2.7882850031050737 0 2.7882850031050737 -5.7328177177659541 0 0 0 0 58.760952210885989 39.006758355182683 0 39.006758355182683 -233.43841822107788 0 0 0 0 -569.56031909486046 321.2592317555318 0 321.2592317555318 -43.761269642236584 0 0 0 0 -2.1905543879747711 50.275497257403913 0 50.275497257403913 67.849539737715531 0 0 0 0 7.780211670397307 13.217445958315935 0 13.217445958315935 6.6219264252759018 0 0 0 0 -99.229521186690363 533.64871218435292 0 533.64871218435292 -448.55207829350547 0 0 0 0 6.0696469951921479 9.4033025915878596 0 9.4033025915878596 5.9521062291672706 0 0 0 0 -240.88952454468563 49.034380506109301 0 49.034380506109301 -350.55464271796154 0 0 0 0 -228.12077474761827 177.10592737907427 0 177.10592737907427 20.055400212084351 0 0 0 0 -274.50029958166488 181.07251083658048 0 181.07251083658048 26.893221351132524 0 0 0 0 -276.872992309658 152.07510491144785 0 152.07510491144785 102.96537973784871 0 0 0 0 179.60420029234547 -200.06344371870819 0 -200.06344371870819 259.02297982040182 0 0 0 0 -282.94795449016328 220.77855368998644 0 220.77855368998644 597.61517968714907 0 0 0 0 -182.88603337167297 63.782828592135047 0 63.782828592135047 74.203994658477313 0 0 0 0 -184.96259220232241 -6.7941223106400912 0 -6.7941223106400912 -32.364088425783848 0 0 0 0 -1.717261024025353 3.0087853430781095 0 3.0087853430781095 1.9965918092452455 0 0 0 0 -521.97769535422503 -5.2530919851924409 0 -5.2530919851924409 157.29490628800704 0 0 0 0 227.66295910995359 59.247681902375916 0 59.247681902375916 -31.781128376620472 0 0 0 0 188.26018973965802 309.24146288890915 0 309.24146288890915 38.338756540229951 0 0 0 0 449.58555178736469 254.60893628956819 0 254.60893628956819 62.374073768798553 0 0 0 0 375.16269390574598 54.01230498609948 0 54.01230498609948 64.04512652706785 0 0 0 0 104.22030890504175 205.86607705386996 0 205.86607705386996 93.532244184199953 0 0 0 0 -0.06189167970264009 0.15135004415495956 0 0.15135004415495956 0.29149221507418588 0 0 0 0 817.21603010447689 379.64455900878238 0 379.64455900878238 2.1518453714961652 0 0 0 0 -945.6832945429187 -112.17140480580747 0 -112.17140480580747 178.15936282796611 0 0 0 0 -36.180787519982914 157.90819198142344 0 157.90819198142344 65.125712452252628 0 0 0 0 -1.0011134251471958 64.479337877593935 0 64.479337877593935 95.03487662997577 0 0 0 0 25.171895257622964 337.26199513710162 0 337.26199513710162 307.17402552156273 0 0 0 0 -5.572640963602467 23.71378596876292 0 23.71378596876292 1.4489071503792239 0 0 0 0 0.7870464255707077 6.8528880489904154 0 6.8528880489904154 -13.599956463038978 0 0 0 0 -10.567187908118413 18.899562301496545 0 18.899562301496545 -15.818784113401193 0 0 0 0 96.645559178268741 48.788026627647923 0 48.788026627647923 -34.110334817116382 0 0 0 0 237.50854327847446 -11.050381064107569 0 -11.050381064107569 -12.582583567855181 0 0 0 0 7.6956542709776841 49.22432013472644 0 49.22432013472644 -1.4827777510654414 0 0 0 0 53.097449186636368 17.83969785158115 0 17.83969785158115 -2.1685996074666036 0 0 0 0 142.09060217293336 -90.039267276504688 0 -90.039267276504688 16.70814705569137 0 0 0 0 -72.813055310478376 -79.169397237586963 0 -79.169397237586963 102.41076677033379 0 0 0 0 -512.13209611792627 -124.34576631987875 0 -124.34576631987875 -38.138908959125274 0 0 0 0 -177.83935364551689 -107.96638828519644 0 -107.96638828519644 25.354465779411839 0 0 0 0 -142.95277168503617 47.854861047082522 0 47.854861047082522 -37.112987567990785 0 0 0 0 -568.58540225052548 194.5404623510949 0 194.5404623510949 78.92943737830501 0 0 0 0 42.859965729820033 109.62540950897528 0 109.62540950897528 71.010796755348565 0 0 0 0 -145.92321541756837 -75.43424927754495 0 -75.43424927754495 213.29122109396121 0 0 0 0 -32.020843547214554 13.675813601821574 0 13.675813601821574 105.52767943591607 0 0 0 0 -7.3045221658884465 21.00974666806826 0 21.00974666806826 7.4384372275985946 0 0 0 0 17.942643894479261 34.138178234265069 0 34.138178234265069 -3.7226652058807304 0 0 0 0 0.1943537990450368 4.3377721535127112 0 4.3377721535127112 -3.3744961098995532 0 0 0 0 -1.6231073303642916 40.407435358043585 0 40.407435358043585 -2.3866133499686839 0 0 0 0 -76.847734941944509 48.187223907625594 0 48.187223907625594 13.863332756278396 0 0 0 0 0.79671933792292293 26.530962273242039 0 26.530962273242039 17.757082732146955 0 0 0 0 14.697076612754245 53.681081019807607 0 53.681081019807607 -0.0070579749590251595 0 0 0 0 30.19794656529848 27.305375981384714 0 27.305375981384714 -2.4045850347437039 0 0 0 0 -4.7937593071537776 78.001784773474355 0 78.001784773474355 -18.746436121291481 0 0 0 0 -57.817837756156223 13.508514184723026 0 13.508514184723026 -21.353498620504979 0 0 0 0 133.1588136633527 40.983655625859683 0 40.983655625859683 -30.135270403501636 0 0 0 0 -940.52055247921089 120.02501670238416 0 120.02501670238416 49.163752551467041 0 0 0 0 -1.5544609550262347 -1.4734185663250212 0 -1.4734185663250212 0.46953178515551031 0 0 0 0 8.0339972138501139 11.428900483405414 0 11.428900483405414 -6.8334688065515365 0 0 0 0 22.002701984798477 17.253776119370741 0 17.253776119370741 -20.261373087894754 0 0 0 0 9.9442541821799466 7.9641110220191678 0 7.9641110220191678 -2.0277065213604715 0 0 0 0 0.57593544037265332 4.8716754972815366 0 4.8716754972815366 0.1821312576877574 0 0 0 0 -46.378956410335377 11.971179262516671 0 11.971179262516671 26.116067610661048 0 0 0 0 -60.462179186702997 13.251757782782079 0 13.251757782782079 28.819583010874339 0 0 0 0 2.4058018352935946 2.5730831384957327 0 2.5730831384957327 1.3460296078151828 0 0 0 0 8.6099311788948398 24.885441601079947 0 24.885441601079947 -11.831188181677135 0 0 0 0 -68.828607685688894 35.545131204417885 0 35.545131204417885 -0.008996003438369371 0 0 0 0 -1.4896621007828799 27.82809575254214 0 27.82809575254214 -12.669594079765375 0 0 0 0 -9.621774672180436 14.677371282972672 0 14.677371282972672 -7.4043514673103346 0 0 0 0 -1.2070932503784135 0.46893084261182594 0 0.46893084261182594 3.4361680780953066 0 0 0 0 -12.945868575872737 14.847260736263706 0 14.847260736263706 -0.026568033737515435 0 0 0 0 430.35402778340722 67.807831866455672 0 67.807831866455672 -4.0467764975182945 0 0 0 0 11.3610958932004 21.485111473601137 0 21.485111473601137 -8.1708821053616703 0 0 0 0 139.56321416800347 189.93922559847124 0 189.93922559847124 198.03603467271205 0 0 0 0 1.9338744588398527 3.4009591344780432 0 3.4009591344780432 1.1137664002037759 0 0 0 0 -88.385106647105204 342.42604617412144 0 342.42604617412144 115.17112065752008 0 0 0 0 232.42201729836597 396.8978314035412 0 396.8978314035412 0.028128391342761461 0 0 0 0 -203.27574364092106 23.377766894964225 0 23.377766894964225 88.607953561324393 0 0 0 0 -1142.0069490152237 514.07886274031989 0 514.07886274031989 -0.66085963623481803 0 0 0 0 1105.8720320472512 -9.3370131325109469 0 -9.3370131325109469 -24.913703704878571 0 0 0 0 -0.43532016031684595 2.8293927913668497 0 2.8293927913668497 -2.747947463526998 0 0 0 0 -1840.4157628444918 491.12558838964469 0 491.12558838964469 579.40617909565481 0 0 0 0 -2039.0827107912737 -4.1970452055102214 0 -4.1970452055102214 446.80172314139782 0 0 0 0 -1563.3610333821343 94.658808313601185 0 94.658808313601185 -475.11090467123722 0 0 0 0 -1272.5773244670381 -202.17317138106228 0 -202.17317138106228 740.22285380566609 0 0 0 0 -1.3815564256433674 2.1657434426177247 0 2.1657434426177247 0.60097943795521047 0 0 0 0 -840.9579349470514 534.11773886009178 0 534.11773886009178 -414.92027027626864 0 0 0 0 -723.34960939961547 353.50846916715454 0 353.50846916715454 -41.066486480413005 0 0 0 0 -1307.4778115393183 537.18267952630413 0 537.18267952630413 -38.630135830208019 0 0 0 0 1.5759547015816073 11.333447279800936 0 11.333447279800936 -9.7435461162444028 0 0 0 0 1310.5225278109388 -298.19778141897314 0 -298.19778141897314 -311.02920691197505 0 0 0 0 -65.409554813952127 -574.70491123372631 0 -574.70491123372631 -15.216270712335245 0 0 0 0 -831.75591771607833 116.23351343917238 0 116.23351343917238 -118.83311270424747 0 0 0 0 -173.76523358104896 -15.086997838803654 0 -15.086997838803654 -5.8252773505373625 0 0 0 0 2.1953380338673014 3.1593651369166764 0 3.1593651369166764 64.629493681743043 0 0 0 0 -8.0802625129930234 9.9431979721701254 0 9.9431979721701254 -13.343732792236068 0 0 0 0 -78.469485829846235 174.22420709999642 0 174.22420709999642 -13.225486308485415 0 0 0 0 17.074419939895961 -47.66822119686276 0 -47.66822119686276 -75.889890652251779 0 0 0 0 57.46581048319058 -16.448396561405389 0 -16.448396561405389 -103.655095094844 0 0 0 0 94.191281863233598 13.85661037958198 0 13.85661037958198 -79.598440622998169 0 0 0 0 11.418054647953795 -21.988439053766342 0 -21.988439053766342 -36.659043008025037 0 0 0 0 118.61941517512969 151.68592939170048 0 151.68592939170048 -387.1648450449793 0 0 0 0 -120.77240919520409 7.9590835189374047 0 7.9590835189374047 7.5086798944012116 0 0 0 0 31.005624886402074 276.20194151939631 0 276.20194151939631 237.41290002319874 0 0 0 0 -60.091068951271154 351.68895508278183 0 351.68895508278183 213.62895027112972 0 0 0 0 1.8029558796217202 0.78213181998967229 0 0.78213181998967229 -2.5223061169853338 0 0 0 0 117.08986540224942 357.0555399040677 0 357.0555399040677 0.53420368131628493 0 0 0 0 64.426786115251161 229.07068771139166 0 229.07068771139166 82.700994133461791 0 0 0 0 180.80366470913941 310.25920251010393 0 310.25920251010393 137.24565635566114 0 0 0 0 345.06583811360179 164.11165774150504 0 164.11165774150504 145.82193420562544 0 0 0 0 545.91656091930781 235.62331457620166 0 235.62331457620166 0.11573056028653898 0 0 0 0 432.35003391612918 -57.849450695059204 0 -57.849450695059204 206.88192683338275 0 0 0 0 199.90906238772732 14.680284895861405 0 14.680284895861405 -140.037927506899 0 0 0 0 321.12062589227935 197.2838312783897 0 197.2838312783897 105.1355202777122 0 0 0 0 -145.0157695777491 553.88990167676161 0 553.88990167676161 -393.09582525063888 0 0 0 0 -9.9067456596511505 1.5033321043449348 0 1.5033321043449348 -2.7951906799033281 0 0 0 0 207.5435329421307 9.8805833405567682 0 9.8805833405567682 -985.3931098292087 0 0 0 0 -61.850928979960372 346.73541137744905 0 346.73541137744905 51.016820461554744 0 0 0 0 100.70832543467986 205.05205147265224 0 205.05205147265224 -206.96608677580662 0 0 0 0 78.020608800325135 87.15488266545799 0 87.15488266545799 -270.36444364013732 0 0 0 0 -124.5636072065754 99.01892876324564 0 99.01892876324564 -173.78690553411252 0 0 0 0 203.27808357019239 214.06570627668407 0 214.06570627668407 -103.12243083716749 0 0 0 0 -40.158640936853772 177.05591504101176 0 177.05591504101176 -44.274367307974899 0 0 0 0 224.69011919688637 183.11721447440141 0 183.11721447440141 66.485715866070677 0 0 0 0 203.66862450977351 271.88774637517054 0 271.88774637517054 -76.841515830150456 0 0 0 0 37.145275871049307 240.52165587640047 0 240.52165587640047 49.26445494114887 0 0 0 0 62.822316759007464 81.965172799793038 0 81.965172799793038 76.014930978846763 0 0 0 0 -32.014193567150869 250.42696141634178 0 250.42696141634178 61.0186600826637 0 0 0 0 -4.3944041844297317 154.37675704433877 0 154.37675704433877 13.072595801422722 0 0 0 0 13.641447099918636 9.7352319724385481 0 9.7352319724385481 -16.164294703187437 0 0 0 0 294.15173716911522 151.93109195270517 0 151.93109195270517 4.5640846671885811 0 0 0 0 -23.305181037356007 21.386989291055784 0 21.386989291055784 8.6885748623170684 0 0 0 0 -44.142757626126695 121.55842057435802 0 121.55842057435802 104.34072383402599 0 0 0 0 -64.052116465417839 83.330294205044083 0 83.330294205044083 123.70660608207254 0 0 0 0 -78.707356085582433 137.78167465983279 0 137.78167465983279 122.76380078996226 0 0 0 0 83.156175070969766 105.97008879656278 0 105.97008879656278 44.999430059731822 0 0 0 0 32.591128637664951 62.871704222612607 0 62.871704222612607 116.12658465079403 0 0 0 0 49.007308092752282 122.34485678533747 0 122.34485678533747 248.84225040581805 0 0 0 0 112.70246402661724 104.10602815186394 0 104.10602815186394 139.94704026218096 0 0 0 0 90.026945786053147 134.64137185669642 0 134.64137185669642 146.6476105192778 0 0 0 0 -25.727691958953073 137.84115254578137 0 137.84115254578137 30.68480369637291 0 0 0 0 135.9092850720981 101.2376188223825 0 101.2376188223825 0.07904968703223858 0 0 0 0 54.319633128020726 63.993920076480705 0 63.993920076480705 62.625988941836397 0 0 0 0 -80.599796069967852 152.00220826034274 0 152.00220826034274 77.901219329036394 0 0 0 0 57.481316797739318 69.758799264313552 0 69.758799264313552 75.551879035654537 0 0 0 0 -121.04096175218001 135.39185578138677 0 135.39185578138677 104.06202473048324 0 0 0 0 -38.126049307727953 76.664389524845319 0 76.664389524845319 89.66901453076207 0 0 0 0 -8.3092051696003182 123.77189291449031 0 123.77189291449031 71.064997723402485 0 0 0 0 12.710093701040023 67.15325458209918 0 67.15325458209918 31.027192883363568 0 0 0 0 75.144489960868668 139.34774027775711 0 139.34774027775711 92.063087136091781 0 0 0 0 50.010088673479913 53.636078239604103 0 53.636078239604103 97.114221338037169 0 0 0 0 -924.4052825358076 234.70539076839668 0 234.70539076839668 108.54765911167488 0 0 0 0 -267.00218783751188 533.92277187761647 0 533.92277187761647 -310.58009242271368 0 0 0 0 99.593807267116063 164.52206576680692 0 164.52206576680692 55.04122081695823 0 0 0 0 -966.81502682383962 131.42699845008065 0 131.42699845008065 89.838409073025105 0 0 0 0 75.28410114988219 47.757262138533406 0 47.757262138533406 -305.21567415454291 0 0 0 0 -3.4269076198892918 3.7654045149456294 0 3.7654045149456294 -4.6145409920129055 0 0 0 0 -784.75205723874296 460.33495285715708 0 460.33495285715708 -133.41524308182852 0 0 0 0 -626.92063065646653 303.80822467661346 0 303.80822467661346 7.1430046579116606 0 0 0 0 935.22883320020992 545.11774282591796 0 545.11774282591796 -341.76695158857001 0 0 0 0 2.8863756516453227 18.534521952318542 0 18.534521952318542 -11.101687659948908 0 0 0 0 -546.31106710512177 -191.69280490664096 0 -191.69280490664096 -287.86862066991307 0 0 0 0 -212.97947527470387 65.604017789519276 0 65.604017789519276 -116.45177682970098 0 0 0 0 -572.79141951247038 86.445031861494499 0 86.445031861494499 80.313431387912715 0 0 0 0 361.64427135360893 107.42411615309175 0 107.42411615309175 21.895329579732788 0 0 0 0 3.2218989858281777 21.817518953494215 0 21.817518953494215 -1.2573353476212219 0 0 0 0 109.84638225418894 76.51033396206185 0 76.51033396206185 36.671179613513232 0 0 0 0 222.76807019608532 63.338767221310263 0 63.338767221310263 -9.4595317702805914 0 0 0 0 3.5841912341628595 24.606371788690659 0 24.606371788690659 13.858693042284671 0 0 0 0 -270.72923510034525 86.949234931827959 0 86.949234931827959 44.204512048367178 0 0 0 0 -233.74356747493221 122.17964221833972 0 122.17964221833972 75.201178785908269 0 0 0 0 -132.86311122086045 296.24476790989138 0 296.24476790989138 -127.71147227928304 0 0 0 0 -228.22817926197513 143.62595317684827 0 143.62595317684827 9.9807942823535996 0 0 0 0 -373.32989185725091 353.22762906796197 0 353.22762906796197 76.125974785682047 0 0 0 0 -336.45676209062549 299.23923039448709 0 299.23923039448709 114.8676059376885 0 0 0 0 124.63110436180796 166.17266317904068 0 166.17266317904068 -4.0889530729473336 0 0 0 0 -278.17885173083414 467.43246534002537 0 467.43246534002537 176.254383806634 0 0 0 0 -89.091687078667746 536.57887278719136 0 536.57887278719136 38.467234373740212 0 0 0 0 -182.64992389849431 436.57421713474469 0 436.57421713474469 -38.158572549036762 0 0 0 0 106.21324564269298 177.45531141529955 0 177.45531141529955 -80.963358401015284 0 0 0 0 60.416549949778073 530.39252158863292 0 530.39252158863292 -352.03358881750319 0 0 0 0 -120.61876847717576 159.20029595673259 0 159.20029595673259 -17.219555336603662 0 0 0 0 -133.55269553152175 180.61018012397108 0 180.61018012397108 -58.632103636948159 0 0 0 0 -119.73640053443341 155.12611402030961 0 155.12611402030961 -14.309895821614191 0 0 0 0 -90.464383818831266 108.79469137289561 0 108.79469137289561 -18.770311377018515 0 0 0 0 -90.59219186957489 129.24181922713615 0 129.24181922713615 -109.09276058881369 0 0 0 0 -106.09769633097312 125.41579239147541 0 125.41579239147541 -11.242111208674032 0 0 0 0 -107.33242230555697 149.55544021168316 0 149.55544021168316 -45.809877427658648 0 0 0 0 -99.40844099183505 130.51260711343457 0 130.51260711343457 -9.5873850434436463 0 0 0 0 -123.30481361211059 152.22323381747265 0 152.22323381747265 -3.4997924795843574 0 0 0 0 -138.95484169838164 155.29321903255914 0 155.29321903255914 7.373363801263622 0 0 0 0 -168.98173564959507 82.165320125044673 0 82.165320125044673 -4.2636034322713385 0 0 0 0 123.35101475103147 41.72044330897188 0 41.72044330897188 27.869277351011988 0 0 0 0 52.354246492319362 83.72606554214326 0 83.72606554214326 26.823680644316482 0 0 0 0 122.51393178022954 35.992696336408244 0 35.992696336408244 19.791537118522683 0 0 0 0 -77.954725852421689 103.36798354559869 0 103.36798354559869 -1.070249223310384 0 0 0 0 2.0917425365728874 25.329458409991219 0 25.329458409991219 30.42788355091335 0 0 0 0 -96.064443303397638 79.681565275957837 0 79.681565275957837 35.754194992623525 0 0 0 0 -97.01205336923158 86.273525662443717 0 86.273525662443717 41.499867490274482 0 0 0 0 -80.970668629419379 61.520214740172378 0 61.520214740172378 45.971677253757662 0 0 0 0 -14.099201292799989 32.865343195720925 0 32.865343195720925 19.840076990469242 0 0 0 0 26.661149162827652 20.665890142425823 0 20.665890142425823 18.805685929051322 0 0 0 0 -72.532359223696403 82.173349381890148 0 82.173349381890148 24.66946653159539 0 0 0 0 11.998732448264375 6.7435832226528944 0 6.7435832226528944 2.6273051911254584 0 0 0 0 41.369125049083394 50.186471819802875 0 50.186471819802875 39.876799069180294 0 0 0 0 59.953024211314187 62.530000091755937 0 62.530000091755937 36.963757989675287 0 0 0 0 112.04477898474943 -5.408608488543905 0 -5.408608488543905 33.899182123343053 0 0 0 0 -22.187966269506433 75.4989948348084 0 75.4989948348084 46.699093845360039 0 0 0 0 9.4101148140198347 26.875518412000019 0 26.875518412000019 32.463962229376193 0 0 0 0 14.893554566688181 51.181516376476793 0 51.181516376476793 14.893185798166087 0 0 0 0 8.2096325258661089 24.982723444544018 0 24.982723444544018 36.196096929750894 0 0 0 0 -4.3963160759209643 22.857567844891729 0 22.857567844891729 27.857976904274693 0 0 0 0 -71.966195462307951 57.812439956731396 0 57.812439956731396 46.51442923907598 0 0 0 0 -70.422382240627485 54.642268788993533 0 54.642268788993533 3.0043822894949699 0 0 0 0 -96.104231043562322 55.978079789827461 0 55.978079789827461 36.414199643770189 0 0 0 0 -99.719609310668602 32.174227550975047 0 32.174227550975047 41.969310306047191 0 0 0 0 -101.15036804122656 40.158554312295564 0 40.158554312295564 17.882375906876405 0 0 0 0 -107.12732500638958 44.664490438761277 0 44.664490438761277 20.194422188666067 0 0 0 0 -96.550384367730658 50.140046659516884 0 50.140046659516884 -17.07578168969485 0 0 0 0 -100.1771478522096 89.176022278981691 0 89.176022278981691 -28.802492608389002 0 0 0 0 -100.82966773879343 75.120601032456761 0 75.120601032456761 -56.555890596588142 0 0 0 0 -85.325545848825641 107.03273000671834 0 107.03273000671834 -24.817251189779199 0 0 0 0 -64.600154339757864 74.279672756099899 0 74.279672756099899 16.379238279292622 0 0 0 0 -97.667379221300735 69.662002033150202 0 69.662002033150202 13.386318117612973 0 0 0 0 10.539319370538578 81.356633179153505 0 81.356633179153505 73.636659821760986 0 0 0 0 42.746622291109816 116.36202659153787 0 116.36202659153787 104.57572570228513 0 0 0 0 -56.156848301760874 102.7660046067233 0 102.7660046067233 117.84859184973902 0 0 0 0 -12.814410807244712 78.132182402892795 0 78.132182402892795 30.491868821234675 0 0 0 0 -30.080506797774433 64.123594696775399 0 64.123594696775399 109.2163409929417 0 0 0 0 -68.502482258378222 50.741249336982492 0 50.741249336982492 105.94192289627244 0 0 0 0 31.110599771927809 -17.713559916071972 0 -17.713559916071972 82.982800051562663 0 0 0 0 51.067117289439707 56.694396507837709 0 56.694396507837709 50.278619482611163 0 0 0 0 63.347394469681603 70.951095803452517 0 70.951095803452517 4.7591270674020052 0 0 0 0 -53.404334011254832 7.6244562992033025 0 7.6244562992033025 39.22642453766457 0 0 0 0 -52.934397605684353 10.752765255820123 0 10.752765255820123 -24.286458050286456 0 0 0 0 -245.33222574293904 6.7544604706108657 0 6.7544604706108657 86.58179283672871 0 0 0 0 -0.097612956362031156 0.046203284996039429 0 0.046203284996039429 -0.86461105149547279 0 0 0 0 38.366882305568652 66.536482591531694 0 66.536482591531694 81.396853674807062 0 0 0 0 17.363012550442363 31.316248114584596 0 31.316248114584596 23.725494463308678 0 0 0 0 2.6858035321856732 -11.507138943215978 0 -11.507138943215978 15.406070800072484 0 0 0 0 -4.7501952801540028 44.191254839774047 0 44.191254839774047 103.77770591912849 0 0 0 0 1.2375446725272923 13.266360349076422 0 13.266360349076422 -15.864978725570836 0 0 0 0 4.3682052910226048 6.8078282944552484 0 6.8078282944552484 -13.624999301675416 0 0 0 0 -12.941343361322652 4.2670917869181721 0 4.2670917869181721 0.83758936356525737 0 0 0 0 -0.82132655752357664 1.8085861011230548 0 1.8085861011230548 0.37907401729421508 0 0 0 0 -6.0088514722673949 5.7533820309220118 0 5.7533820309220118 -2.1567730817786952 0 0 0 0 -16.107254278991604 24.418203684399487 0 24.418203684399487 0.38830639675143175 0 0 0 0 -9.3456985610391712 2.2600616271156468 0 2.2600616271156468 12.743686710768088 0 0 0 0 -2.1256227090089794 0.57406908940009771 0 0.57406908940009771 2.7139100631322464 0 0 0 0 -8.0328946234367322 2.3748574060446117 0 2.3748574060446117 -2.6488702889037086 0 0 0 0 -0.58453440200537443 1.8759886046609608 0 1.8759886046609608 -0.95052433460659813 0 0 0 0 -3.9344761102227324 2.6039480187100352 0 2.6039480187100352 -0.93046495565768339 0 0 0 0 -7.9367972117252066 -0.67019639083810034 0 -0.67019639083810034 -6.9104843967070337 0 0 0 0 -1.8847966895429806 2.6012012762055434 0 2.6012012762055434 -2.365364211524394 0 0 0 0 17.174943992165936 3.6839866764275939 0 3.6839866764275939 -16.041031037282664 0 0 0 0 -0.63032371911477725 1.1706355066086047 0 1.1706355066086047 -3.1470351499725098 0 0 0 0 -111.34880919811258 38.979861468866147 0 38.979861468866147 -17.026020737561339 0 0 0 0 -6.7631498224363895 1.7277971792791504 0 1.7277971792791504 -2.9751440480395104 0 0 0 0 -109.66495061497335 46.18264624940457 0 46.18264624940457 11.122869438106136 0 0 0 0 -94.387067656032741 -58.374179392732913 0 -58.374179392732913 -38.032127705024322 0 0 0 0 -149.73376160121552 10.365699369423965 0 10.365699369423965 -11.610209001621115 0 0 0 0 0.19961983658151894 0.40356702522026922 0 0.40356702522026922 -1.28155150633782 0 0 0 0 -60.012666013004491 -38.423222550511127 0 -38.423222550511127 -29.441446408585762 0 0 0 0 -12.654679804807529 1.0943621956903371 0 1.0943621956903371 -13.632520907063736 0 0 0 0 -1.5021899838278259 1.9442775521154232 0 1.9442775521154232 -1.3608608398064064 0 0 0 0 -112.82751251192531 -25.433306006350904 0 -25.433306006350904 5.1929244162020041 0 0 0 0 -0.45402514623486923 0.23043106158335291 0 0.23043106158335291 -0.029924552582372144 0 0 0 0 -77.849988281552214 -62.614476719394588 0 -62.614476719394588 -42.032777102838736 0 0 0 0 -14.922950849926565 21.292578282991599 0 21.292578282991599 -13.284656189352972 0 0 0 0 -75.868985999841243 -20.345372679308639 0 -20.345372679308639 -21.391295904690196 0 0 0 0 -70.117196750245057 -44.206719391411752 0 -44.206719391411752 -20.103576666864683 0 0 0 0 -40.492344403814059 86.922092980632442 0 86.922092980632442 -36.139083510519413 0 0 0 0 43.193945460821851 73.129058589242049 0 73.129058589242049 -52.778479608219641 0 0 0 0 -31.908510804081743 37.922725320237078 0 37.922725320237078 -21.795308088199818 0 0 0 0 -34.341479969880311 3.7061564182513393 0 3.7061564182513393 -47.385572275792583 0 0 0 0 21.026790594754857 76.128843444188533 0 76.128843444188533 -3.9801147943799151 0 0 0 0 53.976801788405282 30.175776209307514 0 30.175776209307514 25.704876498315571 0 0 0 0 70.413892905806279 113.31620694967933 0 113.31620694967933 15.669052310353436 0 0 0 0 30.358114910603035 85.89568133105422 0 85.89568133105422 14.851700276500196 0 0 0 0 -304.15056880045449 148.71166615519178 0 148.71166615519178 125.68811785486469 0 0 0 0 59.851370471675182 126.85618355338556 0 126.85618355338556 60.157848569659109 0 0 0 0 61.483437455237436 133.82535536220712 0 133.82535536220712 -8.8639440120387007 0 0 0 0 -106.40508811195468 -25.641765723903518 0 -25.641765723903518 20.145780086764717 0 0 0 0 -11.508434288724089 3.723122279714083 0 3.723122279714083 12.479715367691512 0 0 0 0 -469.70768267120002 294.8980698458472 0 294.8980698458472 -131.62602608348243 0 0 0 0 2.370914613578222 6.0529906799256423 0 6.0529906799256423 2.5809041667541806 0 0 0 0 -751.58278319027158 124.94762285091929 0 124.94762285091929 123.26328050660959 0 0 0 0 331.53990230927593 515.38671918559703 0 515.38671918559703 45.809193766574026 0 0 0 0 53.089609341623145 487.71698312259105 0 487.71698312259105 123.74675918466528 0 0 0 0 148.13132982645402 170.5125907716847 0 170.5125907716847 9.1439475849620067 0 0 0 0 469.73190272105421 -84.767065984991859 0 -84.767065984991859 150.94887914828723 0 0 0 0 154.07651902032376 78.7375937139077 0 78.7375937139077 70.151250860504661 0 0 0 0 664.88413754856447 228.38297760772548 0 228.38297760772548 -31.003204949774954 0 0 0 0 168.92640764791577 68.038278663931123 0 68.038278663931123 379.87180106732558 0 0 0 0 190.68423137248101 37.543894127374188 0 37.543894127374188 109.1972317641048 0 0 0 0 28.897271529611317 23.136417328350944 0 23.136417328350944 160.99772727516392 0 0 0 0 171.91602390614571 -39.084150310735822 0 -39.084150310735822 52.314217810329865 0 0 0 0 39.199104601473664 9.1583821947933757 0 9.1583821947933757 10.869325582112651 0 0 0 0 78.81431726628216 27.911949870569515 0 27.911949870569515 8.6051408053617706 0 0 0 0 78.039465843350627 137.92831507221854 0 137.92831507221854 -27.043329288604582 0 0 0 0 319.55560039868578 132.39838454647543 0 132.39838454647543 -40.45189632151596 0 0 0 0 43.498113382753218 57.015386606624816 0 57.015386606624816 -17.260717745666625 0 0 0 0 138.62371868528862 43.866198771334894 0 43.866198771334894 -28.472721287820605 0 0 0 0 -98.678682850139012 -58.217342534480849 0 -58.217342534480849 18.807700423334609 0 0 0 0 -108.06829879745055 -39.43326870119563 0 -39.43326870119563 -15.323579193136538 0 0 0 0 25.178681130695622 22.207646456976363 0 22.207646456976363 2.073972940321255 0 0 0 0 -10.610224773365189 -11.470969902962679 0 -11.470969902962679 -7.9876650756486924 0 0 0 0 -31.977098289702553 5.029413269876386 0 5.029413269876386 -17.286834913005805 0 0 0 0 -43.41745145645109 -28.162309176521376 0 -28.162309176521376 -49.372368398759136 0 0 0 0 -69.96878209298302 -5.9916836446936941 0 -5.9916836446936941 0.87473297819087747 0 0 0 0 -27.784475687796657 -43.989519275283783 0 -43.989519275283783 -24.127061376580968 0 0 0 0 -13.389510353095829 2.604622642385948 0 2.604622642385948 30.705273937746824 0 0 0 0 -21.195046318825916 -43.012717923716991 0 -43.012717923716991 6.2821891155472258 0 0 0 0 26.142295341276622 -44.077771771764674 0 -44.077771771764674 81.730064336734358 0 0 0 0 30.205417223405675 43.944833558191021 0 43.944833558191021 62.422792425602893 0 0 0 0 63.4645001651661 122.72573250753339 0 122.72573250753339 188.31263926298561 0 0 0 0 -79.072525288938778 35.87693516240688 0 35.87693516240688 99.411640538455686 0 0 0 0 -20.413385597057641 102.26735959184589 0 102.26735959184589 27.590213693139958 0 0 0 0 -13.68849332506943 -12.781008094159915 0 -12.781008094159915 81.881443488440709 0 0 0 0 -89.609651853636024 44.114049782961956 0 44.114049782961956 43.745746421271178 0 0 0 0 -72.006976242257224 8.8305514759194921 0 8.8305514759194921 13.760931831910057 0 0 0 0 -0.077211987906164126 -0.002837953942972149 0 -0.002837953942972149 0.61937547582584784 0 0 0 0 41.492914256217773 -105.12964557319356 0 -105.12964557319356 -146.30006983334897 0 0 0 0 -118.1971042916266 11.808726316672619 0 11.808726316672619 64.290956183991511 0 0 0 0 -77.395396993567374 20.634799120334719 0 20.634799120334719 -16.328364574001171 0 0 0 0 -40.631701763006276 18.297616576764995 0 18.297616576764995 9.504624758643331 0 0 0 0 -1.0274858976776144 0.023122203166849431 0 0.023122203166849431 1.4705729468910533 0 0 0 0 -11.554835677070514 -2.9439345677728852 0 -2.9439345677728852 9.3241094386321492 0 0 0 0 -26.712565812405956 -1.4141621950293484 0 -1.4141621950293484 15.930749935374479 0 0 0 0 -11.007158596476074 -1.9260777430245071 0 -1.9260777430245071 10.62131795300229 0 0 0 0 -4.1985109495290089 10.259018190863571 0 10.259018190863571 11.083852480747737 0 0 0 0 -10.440130072427564 -1.8412105676325154 0 -1.8412105676325154 9.3814248343551299 0 0 0 0 -68.544840402020782 54.47772449185868 0 54.47772449185868 43.108994696791342 0 0 0 0 -151.89489161877646 46.311797358946933 0 46.311797358946933 64.42974768987915 0 0 0 0 -128.84156944267306 25.101442085782764 0 25.101442085782764 60.68449089137539 0 0 0 0 -119.52945016299486 24.957727946097293 0 24.957727946097293 51.959317638917128 0 0 0 0 -114.67034824752409 21.171182109421352 0 21.171182109421352 46.973273351613898 0 0 0 0 -117.87151251562523 36.231447678313089 0 36.231447678313089 59.67110584861075 0 0 0 0 -74.725941303366426 40.610195198423298 0 40.610195198423298 75.643144991670852 0 0 0 0 -74.926567843700468 44.2461742256055 0 44.2461742256055 43.788961053971434 0 0 0 0 8.9182621447511323 27.867020470666763 0 27.867020470666763 50.113284832926524 0 0 0 0 37.309382378760347 40.576386943419493 0 40.576386943419493 41.849003472576442 0 0 0 0 14.519226237874063 29.237546111720825 0 29.237546111720825 9.3616660177154074 0 0 0 0 -52.140779749692683 19.586510264549361 0 19.586510264549361 52.21801822494308 0 0 0 0 148.189212195859 76.635151128106372 0 76.635151128106372 11.656846230293013 0 0 0 0 52.146461231837748 37.877021718755714 0 37.877021718755714 31.444835567446717 0 0 0 0 4.7312984451668783 23.224306164686141 0 23.224306164686141 28.518018928659245 0 0 0 0 -11.614432616498085 18.363530798485314 0 18.363530798485314 28.266342010963342 0 0 0 0 100.9936329625416 104.68810886872234 0 104.68810886872234 7.7769780427624937 0 0 0 0 73.836285583733115 39.032932034071564 0 39.032932034071564 4.8169609552060138 0 0 0 0 5.6644881834836269 135.42751346185105 0 135.42751346185105 -33.96323155958089 0 0 0 0 27.623237204774341 27.024111722308589 0 27.024111722308589 33.357914523512591 0 0 0 0 132.13661936765857 -29.588492362523539 0 -29.588492362523539 -28.513842156283204 0 0 0 0 0.85271560119167056 21.87187699979269 0 21.87187699979269 23.60308067908278 0 0 0 0 39.300268928280275 15.17688639492917 0 15.17688639492917 38.085696524223749 0 0 0 0 56.393597541937197 30.432543626870029 0 30.432543626870029 22.833544749417342 0 0 0 0 32.291378289926797 15.343879403502797 0 15.343879403502797 29.654246637168399 0 0 0 0 36.547547706955811 31.525618109277275 0 31.525618109277275 34.106845372174575 0 0 0 0 -6.9388178031346399 18.90318102585357 0 18.90318102585357 30.279022042857491 0 0 0 0 -5.8781832449967624 -36.666002632176969 0 -36.666002632176969 10.57401074719678 0 0 0 0 -166.54689400636744 83.959971243053587 0 83.959971243053587 36.468538954822179 0 0 0 0 12.604348200021775 21.779582108625156 0 21.779582108625156 38.387426894609007 0 0 0 0 -49.809409127816252 162.13635747124863 0 162.13635747124863 3.9789374753963784 0 0 0 0 -160.50487294789832 37.235689321589234 0 37.235689321589234 55.136839679704281 0 0 0 0 -242.25850272658681 182.08667998267265 0 182.08667998267265 43.969616581209266 0 0 0 0 -136.497610628845 79.551630531044793 0 79.551630531044793 -18.253257076619775 0 0 0 0 -100.27704864438419 88.674421616056861 0 88.674421616056861 244.0444675591134 0 0 0 0 -113.80203455169794 41.091555485152639 0 41.091555485152639 88.193876391484082 0 0 0 0 -84.289277365801354 -19.292307488649385 0 -19.292307488649385 161.28101018928282 0 0 0 0 -160.12401743375631 89.817188292614446 0 89.817188292614446 93.063713375639054 0 0 0 0 -152.40239468685832 11.253786691944697 0 11.253786691944697 102.24113002690865 0 0 0 0 -109.37214910236071 8.1104509660290205 0 8.1104509660290205 72.339594391960418 0 0 0 0 -130.97405106170481 10.984880031865032 0 10.984880031865032 74.463298239868891 0 0 0 0 -60.66615745785748 -31.030075273425609 0 -31.030075273425609 60.295463941194612 0 0 0 0 -105.34783603316464 18.947264007112608 0 18.947264007112608 93.088108124473365 0 0 0 0 -86.90976056497675 9.8492383633565623 0 9.8492383633565623 17.169601898310702 0 0 0 0 -89.703378232083196 6.0901563994557364 0 6.0901563994557364 17.036604834604077 0 0 0 0 -114.64154559516101 23.102887770917732 0 23.102887770917732 27.343617839542276 0 0 0 0 -95.845033691822209 -4.8683238765079295 0 -4.8683238765079295 52.448811125330394 0 0 0 0 -54.479761865532055 63.593024834277458 0 63.593024834277458 -57.3369463764393 0 0 0 0 -30.17553914256132 3.8975309773486515 0 3.8975309773486515 72.392458763730247 0 0 0 0 84.187209949834141 11.650818481077295 0 11.650818481077295 -46.975834020238835 0 0 0 0 17.384007615892187 -14.468188894825289 0 -14.468188894825289 -20.502268582296438 0 0 0 0 -32.896691192268918 -4.8048561242612777 0 -4.8048561242612777 -20.844499652459263 0 0 0 0 -63.583062395492561 -11.199830047161868 0 -11.199830047161868 76.097554398074863 0 0 0 0 -5.1657313350588083 -18.106346125299751 0 -18.106346125299751 76.093252115704672 0 0 0 0 -15.032877667266803 5.707933023761143 0 5.707933023761143 158.80577797301521 0 0 0 0 53.455640380721889 13.253796968594543 0 13.253796968594543 179.34633304175804 0 0 0 0 103.95037633483662 21.435088212689152 0 21.435088212689152 70.560315154900309 0 0 0 0 142.80092900139334 118.24343895914899 0 118.24343895914899 221.8279620247049 0 0 0 0 117.06525056798205 -11.877354645898777 0 -11.877354645898777 154.31404922931688 0 0 0 0 -12.777960041392362 45.822976285024197 0 45.822976285024197 294.89643864881509 0 0 0 0 -14.633678188594786 27.525593974911317 0 27.525593974911317 134.42645765321868 0 0 0 0 -47.232944374838553 166.51920156710548 0 166.51920156710548 153.64868453516101 0 0 0 0 258.64394407200962 45.037171513111389 0 45.037171513111389 200.49213595403489 0 0 0 0 316.25188265299039 240.1761355828603 0 240.1761355828603 388.6692975721453 0 0 0 0 439.76518630476494 166.206425240729 0 166.206425240729 260.20878562398138 0 0 0 0 762.54059234145825 458.48617378852214 0 458.48617378852214 355.29523208069077 0 0 0 0 -0.67342500622012835 2.1203842850790053 0 2.1203842850790053 2.1037936249729796 0 0 0 0 1216.5694652603524 927.14498923841165 0 927.14498923841165 426.24457770205299 0 0 0 0 798.43500750776911 450.85283200140839 0 450.85283200140839 190.05274383851793 0 0 0 0 190.09983057077079 574.25344756981212 0 574.25344756981212 629.47061807991486 0 0 0 0 -107.02438540472576 292.45736623890843 0 292.45736623890843 394.8473479913373 0 0 0 0 265.86378219807011 259.70105708474148 0 259.70105708474148 475.96400733257542 0 0 0 0 332.51758594414423 76.552846376151138 0 76.552846376151138 186.54098537321261 0 0 0 0 344.32469253220233 249.56631025189563 0 249.56631025189563 241.90202285636042 0 0 0 0 -955.34841417329335 -199.10242285882123 0 -199.10242285882123 1049.2306313874724 0 0 0 0 -1283.6310446457055 333.65031021158939 0 333.65031021158939 -46.966827652766369 0 0 0 0 -1251.3342462971614 602.40809076096775 0 602.40809076096775 806.48771895980099 0 0 0 0 -261.55695472690559 226.34471435565683 0 226.34471435565683 530.28794101343374 0 0 0 0 -137.37422885409251 370.05871377295989 0 370.05871377295989 677.66495667468007 0 0 0 0 614.87343467019309 190.83269743097298 0 190.83269743097298 431.23700998644927 0 0 0 0 95.119539214327233 -361.02569026943092 0 -361.02569026943092 707.69065086252522 0 0 0 0 41.51568654429957 140.88034304568646 0 140.88034304568646 237.43422192926664 0 0 0 0 77.375885594094143 56.244716376466386 0 56.244716376466386 424.55095513639299 0 0 0 0 -53.417466646773391 167.78881895458471 0 167.78881895458471 522.34586866240716 0 0 0 0 29.79585078490436 184.77629330903073 0 184.77629330903073 -70.089703794925299 0 0 0 0 117.98741382209619 54.69511948073341 0 54.69511948073341 11.291961655399064 0 0 0 0 8.8993852417079324 20.214805116622301 0 20.214805116622301 210.55262670177581 0 0 0 0 192.59617983470162 117.6276430279031 0 117.6276430279031 89.545775808990584 0 0 0 0 41.864833802632347 158.48876761593419 0 158.48876761593419 276.24409794397798 0 0 0 0 -29.198918513867284 132.19695584602687 0 132.19695584602687 189.44089403895487 0 0 0 0 97.632365280049271 313.13079393544467 0 313.13079393544467 389.63415642895961 0 0 0 0 21.937839009833624 191.33734879960684 0 191.33734879960684 140.64957166206659 0 0 0 0 -68.231015318910067 36.044294954976067 0 36.044294954976067 -1.5210083647616557 0 0 0 0 12.509285205351262 82.528258051432204 0 82.528258051432204 89.419620979776596 0 0 0 0 62.935395315444566 38.710806344458433 0 38.710806344458433 -70.887787902771379 0 0 0 0 21.23045955174166 -9.8318806000133918 0 -9.8318806000133918 -172.0348262188345 0 0 0 0 -27.682441808519798 76.255580407312664 0 76.255580407312664 -77.290736919218034 0 0 0 0 30.04853199714853 -26.805291066702921 0 -26.805291066702921 -44.974659891435294 0 0 0 0 50.441255787746741 105.62269708567328 0 105.62269708567328 -263.8001234563344 0 0 0 0 -0.83347611900207141 -1.0092753815998492 0 -1.0092753815998492 -1.0831741942079844 0 0 0 0 117.66124611536725 -106.38992069385131 0 -106.38992069385131 -672.062273103802 0 0 0 0 15.158728912626657 4.1832879198073698 0 4.1832879198073698 -1.3735267060824938 0 0 0 0 123.7450156624318 -18.089501555499737 0 -18.089501555499737 -788.54358440104988 0 0 0 0 -87.286917368188369 111.08408392209094 0 111.08408392209094 -493.84231077793811 0 0 0 0 111.205712660264 61.538462823209557 0 61.538462823209557 6.8732164273387752 0 0 0 0 96.641279447688248 25.395897167405565 0 25.395897167405565 -26.195066141794086 0 0 0 0 -1.4912307398326661 1.2250609235608607 0 1.2250609235608607 1.124365791223255 0 0 0 0 -32.070930863204921 -31.943594144140661 0 -31.943594144140661 57.989738076954382 0 0 0 0 56.384333430152765 -59.043102478855872 0 -59.043102478855872 -856.99578580624075 0 0 0 0 -2.5075367277695477 33.785697385625099 0 33.785697385625099 -647.3668405340286 0 0 0 0 -0.87719706882853643 -48.021231704777165 0 -48.021231704777165 -775.06987963413121 0 0 0 0 5.6497612993352426 1.656742029441304 0 1.656742029441304 -0.89468989075030336 0 0 0 0 -66.397140970824694 -111.18718749929394 0 -111.18718749929394 -757.86724366828821 0 0 0 0 86.090400572054932 32.242029942921363 0 32.242029942921363 -846.72436934643883 0 0 0 0 5.1000353566123522 259.03697299121995 0 259.03697299121995 -672.03386614228657 0 0 0 0 140.86965798930396 74.678214785177261 0 74.678214785177261 -1479.693106423023 0 0 0 0 -24.46751017499264 272.08577529509785 0 272.08577529509785 -674.95246275563113 0 0 0 0 61.652706532777302 189.43749717554601 0 189.43749717554601 -759.72617353656096 0 0 0 0 72.120964276387895 283.38372999665444 0 283.38372999665444 -987.03359115048079 0 0 0 0 81.293878763481189 3.3272220776489121 0 3.3272220776489121 -914.76179091617814 0 0 0 0 55.332329497923411 221.16348113219465 0 221.16348113219465 -593.64494453408406 0 0 0 0 -19.24142647867302 241.27558723534457 0 241.27558723534457 -580.06443030128139 0 0 0 0 -14.569234405400493 324.12867576380086 0 324.12867576380086 -536.20722053135978 0 0 0 0 45.312866783211575 203.53754096240664 0 203.53754096240664 -394.92889763013227 0 0 0 0 2.3664355868640996 331.66531242177007 0 331.66531242177007 -374.16709014296066 0 0 0 0 -23.33740328364911 235.47900468322769 0 235.47900468322769 -412.30106340015482 0 0 0 0 -21.215853692074234 137.17057316760474 0 137.17057316760474 -601.50044625767623 0 0 0 0 16.280951473032474 18.389861608462525 0 18.389861608462525 -694.87737346188806 0 0 0 0 56.779845784189092 159.67857590173662 0 159.67857590173662 -727.8167665561341 0 0 0 0 -22.081588465745767 137.02397259278223 0 137.02397259278223 -466.58799559979525 0 0 0 0 -53.227169275334745 96.572479812391975 0 96.572479812391975 -414.83986400863068 0 0 0 0 0.7458024305422768 4.179861664995542 0 4.179861664995542 10.089963131145396 0 0 0 0 -90.702686971357252 259.49066191834572 0 259.49066191834572 -418.20592937872061 0 0 0 0 -107.15328131814795 202.43475500574277 0 202.43475500574277 -304.67930533949402 0 0 0 0 -223.2339076286753 267.90069962085545 0 267.90069962085545 -333.14062246958565 0 0 0 0 -124.57766061794609 242.95445553735772 0 242.95445553735772 -385.9049040718819 0 0 0 0 -65.863557041018794 299.93273378844606 0 299.93273378844606 -333.08087246850482 0 0 0 0 -146.77620886157092 33.871264626010088 0 33.871264626010088 31.485098949116946 0 0 0 0 22.129326067347005 32.792587317589764 0 32.792587317589764 16.612322118047103 0 0 0 0 43.047317665286755 54.309087606889079 0 54.309087606889079 9.7153520168794785 0 0 0 0 256.24952021389163 336.03643774083321 0 336.03643774083321 -217.40773329744115 0 0 0 0 -65.485837409665692 172.51995652087498 0 172.51995652087498 -368.1555943396379 0 0 0 0 143.63413342694912 334.97496280584892 0 334.97496280584892 -374.56899533911201 0 0 0 0 167.98016766853425 209.08036951234862 0 209.08036951234862 -395.82468348543625 0 0 0 0 4.2697101678829235 11.246259823312675 0 11.246259823312675 -2.1952294864043154 0 0 0 0 -162.81591630251205 129.36097660809173 0 129.36097660809173 -169.97272041201904 0 0 0 0 -97.042436397554411 326.43327609359403 0 326.43327609359403 -176.15139584674034 0 0 0 0 124.37923312990279 84.025922154891305 0 84.025922154891305 -128.01443633649615 0 0 0 0 294.99512667519957 263.16920032766939 0 263.16920032766939 -442.42772080231225 0 0 0 0 37.982711365242722 40.54787047712307 0 40.54787047712307 -544.66784897945035 0 0 0 0 226.44357758940566 -99.380942639141722 0 -99.380942639141722 -452.56409855940728 0 0 0 0 57.881240535725738 6.8075109445635462 0 6.8075109445635462 -635.4661881879656 0 0 0 0 -53.185109630529041 59.802339730289532 0 59.802339730289532 -309.44385885308293 0 0 0 0 320.82043229895862 -32.659435164758179 0 -32.659435164758179 -300.00165095760894 0 0 0 0 398.27348195885861 519.96139098423737 0 519.96139098423737 -682.44449291284764 0 0 0 0 -153.10156079845478 58.172393024518897 0 58.172393024518897 -195.78617021208629 0 0 0 0 2.368735316837224 4.0322556098931273 0 4.0322556098931273 2.2626730545559326 0 0 0 0 497.16669729895511 807.34435355897585 0 807.34435355897585 -887.35318459638438 0 0 0 0 -134.72597807923376 26.395005250815302 0 26.395005250815302 799.60721454226587 0 0 0 0 543.14792192495247 662.80705552671407 0 662.80705552671407 307.76528658684401 0 0 0 0 -30.714663625416051 214.0410116666535 0 214.0410116666535 -113.13265482656425 0 0 0 0 14.451155584551998 22.041690350954013 0 22.041690350954013 345.4041028025531 0 0 0 0 223.77836341402599 300.7820150013722 0 300.7820150013722 -335.1355852852721 0 0 0 0 -18.127243154936878 55.40884217677376 0 55.40884217677376 -495.39211102403351 0 0 0 0 -218.33651232303055 211.04164311705972 0 211.04164311705972 -46.285891445353627 0 0 0 0 8.597473046030963 6.220660360523425 0 6.220660360523425 2.7658467625108614 0 0 0 0 -54.087667813594635 390.41633184190505 0 390.41633184190505 -377.02897770577692 0 0 0 0 -60.966375948868517 57.214894160530093 0 57.214894160530093 198.36351263024335 0 0 0 0 36.489192071869184 179.13804128993434 0 179.13804128993434 -175.41184126808366 0 0 0 0 -2.8933558627586535 142.5093963763793 0 142.5093963763793 -203.79191730065213 0 0 0 0 11.849433891622539 246.21016761639476 0 246.21016761639476 -288.77020229400478 0 0 0 0 -683.26456348584543 13.886692053129082 0 13.886692053129082 183.94075354640518 0 0 0 0 -80.081540548069825 204.54736446045172 0 204.54736446045172 -252.57828767486353 0 0 0 0 2.0372393657793921 2.7957732175162562 0 2.7957732175162562 1.5747273276788292 0 0 0 0 -61.427195559412212 78.20443603934109 0 78.20443603934109 -180.21810251080024 0 0 0 0 -72.706105990967075 87.011498176249688 0 87.011498176249688 -129.6330741980637 0 0 0 0 -33.510699082693463 54.72704200809676 0 54.72704200809676 -114.44750772676707 0 0 0 0 -72.939627423057146 65.749435451723059 0 65.749435451723059 -125.60713506607863 0 0 0 0 -109.70447195394627 108.61895066022043 0 108.61895066022043 -98.276287647488061 0 0 0 0 -94.040501891373424 85.037315453708288 0 85.037315453708288 -98.767255937673326 0 0 0 0 -94.198873239693057 58.300774493101926 0 58.300774493101926 -39.819348438861198 0 0 0 0 -100.57440231966939 45.641918922487093 0 45.641918922487093 -12.063091759031522 0 0 0 0 -87.363160267221247 14.082186369960255 0 14.082186369960255 -0.85081545169668971 0 0 0 0 -99.183613816319848 54.743473460286623 0 54.743473460286623 -41.344019484935416 0 0 0 0 -65.612603288547689 41.983627982328471 0 41.983627982328471 -61.579557632612705 0 0 0 0 -34.911940823291957 5.156726446274206 0 5.156726446274206 -43.630673375504557 0 0 0 0 -68.914194534045237 56.106920954225643 0 56.106920954225643 -82.855221698016976 0 0 0 0 -33.749261860091622 29.594002750259506 0 29.594002750259506 -90.703404076615698 0 0 0 0 -6.5811268920406292 22.596055259084096 0 22.596055259084096 -98.317610199883347 0 0 0 0 0.92321839774012915 29.497871165774995 0 29.497871165774995 -192.32281686193892 0 0 0 0 20.165591926444904 12.483051821676781 0 12.483051821676781 -119.14540505278273 0 0 0 0 3.7848698865855113 92.437739188120759 0 92.437739188120759 -324.90172287629684 0 0 0 0 -34.188567162469553 6.0191655336384429 0 6.0191655336384429 -118.63879470143365 0 0 0 0 120.98366496754898 327.48790731433473 0 327.48790731433473 -736.89294012102619 0 0 0 0 -0.34789354485980084 2.9687127223970151 0 2.9687127223970151 -0.3946233462043196 0 0 0 0 -49.470984497085738 68.289329287792498 0 68.289329287792498 -35.438362813618369 0 0 0 0 15.333003696094075 5.9386537083096869 0 5.9386537083096869 0.90000638773022956 0 0 0 0 -33.65684982475068 99.997856276433595 0 99.997856276433595 -169.27568818208238 0 0 0 0 2.7195578007740551 72.746441131035681 0 72.746441131035681 -155.31724408931041 0 0 0 0 -36.648006302527392 70.305155526731141 0 70.305155526731141 -141.91010544505843 0 0 0 0 6.4989287157113722 76.656439321803191 0 76.656439321803191 -185.20885558490409 0 0 0 0 -152.83184052251772 128.23571885310048 0 128.23571885310048 1306.0067899773494 0 0 0 0 -232.93505859373545 265.07391264800026 0 265.07391264800026 1356.031673950305 0 0 0 0 -74.231311319177621 -752.45234497277852 0 -752.45234497277852 4042.134112217751 0 0 0 0 0.86449471115338383 1726.6450736031111 0 1726.6450736031111 1649.5906494113005 0 0 0 0 -0.64839447082340484 359.87364968969814 0 359.87364968969814 -715.4269259624125 0 0 0 0 3.2363392533398496 5.8400253457331814 0 5.8400253457331814 10.024643198893187 0 0 0 0 16.244865868020582 20.78671289738443 0 20.78671289738443 9.0703810981770658 0 0 0 0 -24.151535528289969 -64.266198870231165 0 -64.266198870231165 1501.5860808294601 0 0 0 0 -132.07096451850521 178.36717194876474 0 178.36717194876474 1191.0289347185535 0 0 0 0 30.375992544683413 32.860817132241607 0 32.860817132241607 -13.728002973591117 0 0 0 0 99.675364433463983 228.21622628079604 0 228.21622628079604 1065.4866013927858 0 0 0 0 -40.362660099046479 338.93568797082662 0 338.93568797082662 529.71813086963812 0 0 0 0 -125.66886473655541 210.18353444176682 0 210.18353444176682 1080.5917444119405 0 0 0 0 11.473727761310158 10.966363320147707 0 10.966363320147707 -1.9451100355897495 0 0 0 0 -947.65735805407894 28.945213165116002 0 28.945213165116002 632.36230996184895 0 0 0 0 1120.2937365721882 -97.325132054706046 0 -97.325132054706046 -301.43823925984543 0 0 0 0 -357.66819899200345 101.12263747732868 0 101.12263747732868 160.11864489973959 0 0 0 0 423.40055122783815 63.081563037311753 0 63.081563037311753 64.027184149454115 0 0 0 0 -29.236326043296657 11.333376322931628 0 11.333376322931628 -4.6926723302117779 0 0 0 0 5.8948583828459959 317.01451947160967 0 317.01451947160967 283.99204820534942 0 0 0 0 1.0775012715894263 738.54813596008535 0 738.54813596008535 921.77058364453114 0 0 0 0 647.38816793860315 706.6966718278818 0 706.6966718278818 731.68475805351045 0 0 0 0 -8.173179612458199 4.4298557636229958 0 4.4298557636229958 -0.66947191444054965 0 0 0 0 605.90195409895387 310.61012443298569 0 310.61012443298569 -592.94672947766958 0 0 0 0 257.94278087644489 555.48507989257632 0 555.48507989257632 811.5162414389215 0 0 0 0 154.05241435235439 872.35857991894227 0 872.35857991894227 772.56199265404575 0 0 0 0 1448.057101612867 1861.50050270666 0 1861.50050270666 -0.28888545045629144 0 0 0 0 925.98388071134104 286.29068199312405 0 286.29068199312405 -509.60115455086634 0 0 0 0 1153.0319762082781 1994.7148097988936 0 1994.7148097988936 1958.5417227317885 0 0 0 0 1301.5311728268789 981.18785411119825 0 981.18785411119825 1672.4768004986599 0 0 0 0 -0.7155636897281934 1874.9986354148125 0 1874.9986354148125 1084.2717665615201 0 0 0 0 1474.226942741735 2132.3739164616286 0 2132.3739164616286 830.40577292512899 0 0 0 0 1400.1660586438702 1473.0920170026438 0 1473.0920170026438 338.6691631936028 0 0 0 0 1972.3719438075568 1119.9932996649222 0 1119.9932996649222 428.4517307920878 0 0 0 0 6.4808283293042876 7.6810402684321275 0 7.6810402684321275 17.945219700554048 0 0 0 0 270.74872936493193 443.64216633893011 0 443.64216633893011 361.89284057694249 0 0 0 0 381.9874676523832 378.5834982063534 0 378.5834982063534 385.66943221032852 0 0 0 0 11.136246194646162 6.027816632123546 0 6.027816632123546 3.726882165744513 0 0 0 0 164.95293332709844 1226.4897195009289 0 1226.4897195009289 2923.6687148036217 0 0 0 0 -112.71851525227248 118.23882179057546 0 118.23882179057546 155.78176628555957 0 0 0 0 -85.539633819917981 320.26513944816998 0 320.26513944816998 -147.06003464786045 0 0 0 0 70.780737133136427 33.569749054136082 0 33.569749054136082 -55.787461665138835 0 0 0 0 25.428270187385579 16.759433998504711 0 16.759433998504711 11.744430701287939 0 0 0 0 12.457784605365305 43.646124066915945 0 43.646124066915945 33.216537543979939 0 0 0 0 1.6379737366514746 92.427654387647635 0 92.427654387647635 -10.501840137665567 0 0 0 0 42.871805523240198 36.849762785345206 0 36.849762785345206 22.684312366599826 0 0 0 0 3.1643699296255363 69.101810002161073 0 69.101810002161073 -39.648058435050189 0 0 0 0 5.5545122965413611 79.269618637095846 0 79.269618637095846 3.5885130255919648 0 0 0 0 1.5290651993855136 123.45837946279062 0 123.45837946279062 -28.057962085993495 0 0 0 0 -3.5324886783419061 110.32117577247845 0 110.32117577247845 26.831546287474339 0 0 0 0 -43.505522503779503 95.235550859091745 0 95.235550859091745 33.476037165299203 0 0 0 0 -21.861122300993884 72.556581582641229 0 72.556581582641229 18.722369164039264 0 0 0 0 -34.114769682186306 65.958508238708419 0 65.958508238708419 22.974465828738175 0 0 0 0 -97.179786357890407 33.173514934875129 0 33.173514934875129 10.642607446035981 0 0 0 0 26.992775501894357 123.72406339273221 0 123.72406339273221 18.263460359346936 0 0 0 0 -84.094139662550333 130.00856294894629 0 130.00856294894629 43.221894137823256 0 0 0 0 -105.13218076291378 113.32816019269376 0 113.32816019269376 -0.1732482080187765 0 0 0 0 -50.075316035152355 92.472855228166736 0 92.472855228166736 -6.1227846901019802 0 0 0 0 -252.5369327409644 72.188895658080583 0 72.188895658080583 47.072840852575609 0 0 0 0 0.53773522126778772 1.056954323873498 0 1.056954323873498 6.5980976656240102 0 0 0 0 -473.33878371313403 243.4449198698203 0 243.4449198698203 -202.82650962282787 0 0 0 0 -486.38898790023086 186.97290742948826 0 186.97290742948826 -0.054079990819445811 0 0 0 0 -21.903452077349357 257.1318140542644 0 257.1318140542644 -90.18259757765918 0 0 0 0 429.38331052730791 127.55716554225 0 127.55716554225 -69.592555563162023 0 0 0 0 -773.30270111362188 475.01372645749507 0 475.01372645749507 -129.23942082445137 0 0 0 0 -1555.863348014394 89.178871242896093 0 89.178871242896093 45.277966732610366 0 0 0 0 -0.80700040150718166 0.70512636323782374 0 0.70512636323782374 -2.0278681934479437 0 0 0 0 -773.59022136854037 234.23840690815268 0 234.23840690815268 -247.92266790205031 0 0 0 0 273.99016338517686 24.345958001591498 0 24.345958001591498 -41.397053970111301 0 0 0 0 -1626.561957024016 36.792087301389984 0 36.792087301389984 221.09371824681148 0 0 0 0 -0.91336871542479514 4.2207178047578537 0 4.2207178047578537 -8.0588003024168415 0 0 0 0 100.27764307042526 124.92257219400199 0 124.92257219400199 31.876035799934471 0 0 0 0 40.073874074770174 82.47903687975122 0 82.47903687975122 58.659008065638773 0 0 0 0 45.281039247005538 84.922427408739168 0 84.922427408739168 -187.71156961670204 0 0 0 0 -14.455101687526621 98.714663503902557 0 98.714663503902557 36.375892556563485 0 0 0 0 13.837083577353042 178.00703063235414 0 178.00703063235414 -70.920672733336687 0 0 0 0 -818.47851194613759 -391.91726967235445 0 -391.91726967235445 -236.57509749960445 0 0 0 0 -68.180363258128637 -42.881401059659765 0 -42.881401059659765 101.23601719719591 0 0 0 0 -541.71424121205928 455.12807835113199 0 455.12807835113199 -416.52724336355459 0 0 0 0 0.51591159394615893 14.227957668359124 0 14.227957668359124 -21.939258871085343 0 0 0 0 131.22896012065758 93.568172318013239 0 93.568172318013239 -88.391528292384464 0 0 0 0 -1487.1536107971187 436.61364069470437 0 436.61364069470437 734.07433963316726 0 0 0 0 74.40305617210106 185.46410752258089 0 185.46410752258089 -201.3415171775996 0 0 0 0 -15.168934607934517 30.98425797227474 0 30.98425797227474 31.423881716215647 0 0 0 0 26.130771143005404 37.377324676730495 0 37.377324676730495 49.992634621739853 0 0 0 0 -847.13612602154899 -41.419404741027392 0 -41.419404741027392 325.31649191284669 0 0 0 0 2199.4809098477272 2154.619722545176 0 2154.619722545176 2049.8157589510884 0 0 0 0 -5.5987667077735743 12.061957281496234 0 12.061957281496234 14.785629467069981 0 0 0 0 206.357110455574 1311.5689067809581 0 1311.5689067809581 -1557.409216971384 0 0 0 0 -3.9630478808958003 5.0810860816209527 0 5.0810860816209527 -0.13126559630762813 0 0 0 0 444.68208194542149 -1379.6001539441404 0 -1379.6001539441404 2114.4904010212922 0 0 0 0 -311.95341719106364 664.03444662534457 0 664.03444662534457 3639.5646355224817 0 0 0 0 1174.4995768090666 -300.35900010915066 0 -300.35900010915066 3733.4054975613835 0 0 0 0 202.05991755724244 2745.388155659617 0 2745.388155659617 2997.1021771565138 0 0 0 0 -328.14639920236368 281.64874095371488 0 281.64874095371488 1642.4807305140712 0 0 0 0 -442.05542329259333 193.02733286654984 0 193.02733286654984 1993.8778957105824 0 0 0 0 175.64923970970267 -20.453913574245234 0 -20.453913574245234 683.71189744194999 0 0 0 0 -100.22979169492828 -362.12081816539285 0 -362.12081816539285 1231.0273012681282 0 0 0 0 -27.904727234446909 58.224841594710597 0 58.224841594710597 361.17791460100125 0 0 0 0 -31.932773446875217 41.265031160211947 0 41.265031160211947 122.10387289326172 0 0 0 0 0.56420390706938406 7.8150555254695178 0 7.8150555254695178 16.676959841550243 0 0 0 0 -56.472570366735454 92.334047939632001 0 92.334047939632001 16.010702332074288 0 0 0 0 -10.039499491060013 40.852459283379908 0 40.852459283379908 29.765491782540565 0 0 0 0 -122.37545239101746 47.799916500884137 0 47.799916500884137 903.78714070505521 0 0 0 0 42.257446147506357 43.767984775488735 0 43.767984775488735 21.247021626482052 0 0 0 0 -46.377635296754306 185.24181679051253 0 185.24181679051253 248.4608346879686 0 0 0 0 -46.750932931740095 22.063850520790851 0 22.063850520790851 7.5918818002601682 0 0 0 0 51.535884426397388 33.877225088792329 0 33.877225088792329 444.89762209832043 0 0 0 0 7.4959889019155526 328.6571363554358 0 328.6571363554358 720.93587253399528 0 0 0 0 -128.84088334125408 255.94714615518205 0 255.94714615518205 1152.6601380891661 0 0 0 0 -54.519643537132652 246.50928300209489 0 246.50928300209489 882.56667085185018 0 0 0 0 -307.54597768357053 270.22845078946921 0 270.22845078946921 1231.8470598401618 0 0 0 0 30.026741011929516 569.46285874076057 0 569.46285874076057 1350.0338937604829 0 0 0 0 92.722207863655058 291.69808025288512 0 291.69808025288512 1126.1537167066035 0 0 0 0 92.840083463626797 -139.57130880716795 0 -139.57130880716795 -388.53332187815795 0 0 0 0 37.034227795411141 34.562186905225218 0 34.562186905225218 -19.646737102596902 0 0 0 0 -58.778302666840318 335.14657010488008 0 335.14657010488008 1424.8856426055645 0 0 0 0 47.374122436789406 37.029401228238527 0 37.029401228238527 -21.104140352712882 0 0 0 0 56.083880895799666 228.03165958912723 0 228.03165958912723 -310.24461696474282 0 0 0 0 28.862487031467026 -2.0909631009089935 0 -2.0909631009089935 -190.47233208952457 0 0 0 0 -38.298802847217303 149.51748455698907 0 149.51748455698907 65.4779494854738 0 0 0 0 1845.4699518854686 -25.142888327951368 0 -25.142888327951368 39.152875973843038 0 0 0 0 50.962203061927056 36.410744010994151 0 36.410744010994151 -21.581214041887002 0 0 0 0 142.84317228366854 -28.529287386598298 0 -28.529287386598298 1210.1289804498374 0 0 0 0 3075.5730074377716 1265.3286296951883 0 1265.3286296951883 1456.7435178177548 0 0 0 0 -108.55778005806496 751.13597910892713 0 751.13597910892713 1114.0446523768624 0 0 0 0 -287.46266314870445 959.20754117932665 0 959.20754117932665 1837.2126087866254 0 0 0 0 -4.4120516292605316 33.720041896318435 0 33.720041896318435 93.120104235866165 0 0 0 0 40.705244968477189 35.918456977158485 0 35.918456977158485 -24.00448680300844 0 0 0 0 -629.89621423731035 -79.834124448742386 0 -79.834124448742386 -144.10738000815036 0 0 0 0 -591.12814964252175 715.88711522752419 0 715.88711522752419 1212.3362882778674 0 0 0 0 54.300967906787264 -17.723939035139665 0 -17.723939035139665 -62.723039771197364 0 0 0 0 9.6086257513379678 31.197560207365314 0 31.197560207365314 -22.497133453960487 0 0 0 0 0.90336310491264271 2.5050274477125285 0 2.5050274477125285 7.1924371078274874 0 0 0 0 82.360775665321853 4.3984817343480245 0 4.3984817343480245 -6.4138688475395611 0 0 0 0 123.91816629444656 39.992337829491589 0 39.992337829491589 11.139345945328387 0 0 0 0 9.6772109789126262 22.986222268604251 0 22.986222268604251 -7.3948861070530256 0 0 0 0 32.117029271968931 2.4814154558625887 0 2.4814154558625887 -56.086997916623659 0 0 0 0 43.108388761960668 -4.7214377596719714 0 -4.7214377596719714 -12.327952903436199 0 0 0 0 8.610527236608533 11.216344914439588 0 11.216344914439588 -1.4698268848022309 0 0 0 0 21.799607126842602 38.706530161205592 0 38.706530161205592 -25.127059573838778 0 0 0 0 22.780520855062065 28.66074741175369 0 28.66074741175369 -15.218455184945185 0 0 0 0 32.935458838524937 29.382669664122659 0 29.382669664122659 -30.83653936976043 0 0 0 0 10.882977674944129 20.707677166715257 0 20.707677166715257 -0.053427505063424974 0 0 0 0 22.693743795575443 35.695027218844672 0 35.695027218844672 -0.01780544130045314 0 0 0 0 19.731328931200551 49.844249212670547 0 49.844249212670547 115.02528246236943 0 0 0 0 26.91435754680424 21.385260463262966 0 21.385260463262966 -46.129906514412141 0 0 0 0 27.302686110011564 27.972189991500272 0 27.972189991500272 -73.133855933134328 0 0 0 0 102.00839841811103 512.78847551637591 0 512.78847551637591 1101.4753479392966 0 0 0 0 0.50819502444477394 1.9762883718903481 0 1.9762883718903481 9.2180545704235755 0 0 0 0 218.69452917325543 361.89979051122646 0 361.89979051122646 927.00434946058158 0 0 0 0 80.883991439528472 464.45049531303084 0 464.45049531303084 1357.4308953254076 0 0 0 0 84.937607141404442 573.52287926164718 0 573.52287926164718 2014.2748809451878 0 0 0 0 340.20445555383048 841.7738013521448 0 841.7738013521448 950.00314170610363 0 0 0 0 338.32731053768657 859.35817479541583 0 859.35817479541583 1444.5193503102382 0 0 0 0 781.20412469248549 958.12763974756308 0 958.12763974756308 610.48081926950545 0 0 0 0 1206.9210650935129 650.48072437323572 0 650.48072437323572 524.77500531442638 0 0 0 0 640.21393123823509 997.02635224045662 0 997.02635224045662 1257.7914526512959 0 0 0 0 1165.1333577814512 971.82872706869966 0 971.82872706869966 1258.6098415368469 0 0 0 0 1298.2372142579698 1520.6459116899932 0 1520.6459116899932 2016.2104052320065 0 0 0 0 1126.6396113383125 663.86288087005596 0 663.86288087005596 2230.6098150903126 0 0 0 0 1713.9626074111729 1117.7977462396666 0 1117.7977462396666 2115.291451214347 0 0 0 0 687.38365852672723 845.73422148410464 0 845.73422148410464 3455.2799725979567 0 0 0 0 794.88263986562379 1223.2450438766391 0 1223.2450438766391 4543.5135571779392 0 0 0 0 1825.5020329308754 862.30229587077338 0 862.30229587077338 2085.2769220598857 0 0 0 0 3030.9319704262161 2185.9964813499391 0 2185.9964813499391 2924.644431235909 0 0 0 0 2192.9277938111336 2020.7318994932866 0 2020.7318994932866 3047.6167079824372 0 0 0 0 275.58347714820411 830.52735622416367 0 830.52735622416367 1436.003018404539 0 0 0 0 327.45319007380749 1077.9523152331385 0 1077.9523152331385 2505.7437140171824 0 0 0 0 616.81766770817921 1113.1734504322812 0 1113.1734504322812 2463.5215995976469 0 0 0 0 2.0056120300287148 -11.516270549735054 0 -11.516270549735054 -140.19385980730567 0 0 0 0 174.49120134004625 369.41859202641353 0 369.41859202641353 1784.3454266117915 0 0 0 0 5.3126976811030886 9.6868799302960014 0 9.6868799302960014 3.1538814783592422 0 0 0 0 3.8822580801497679 10.865927155522513 0 10.865927155522513 7.9323201062707085 0 0 0 0 -6.8122291431574808 2.7300840663546353 0 2.7300840663546353 -0.39887534854278783 0 0 0 0 648.50613377030822 359.89909419570176 0 359.89909419570176 477.62713062197145 0 0 0 0 9.7812299256501518 14.903346411158324 0 14.903346411158324 -9.2031476619154375 0 0 0 0 -825.37332415784476 -518.69152342202142 0 -518.69152342202142 4054.4618140822568 0 0 0 0 331.75865721781156 1420.269868385818 0 1420.269868385818 6083.8909827554016 0 0 0 0 1009.3939638826414 177.57638013429823 0 177.57638013429823 -965.04068811668185 0 0 0 0 7.0054056402567539 3.7766922267412184 0 3.7766922267412184 -0.57065719351421507 0 0 0 0 253.03825196254184 558.46395188866882 0 558.46395188866882 509.15936959272949 0 0 0 0 2.3721226667987452 1.9017607704061064 0 1.9017607704061064 -2.3941984548946209 0 0 0 0 989.79758893867256 2473.4729053412157 0 2473.4729053412157 5562.0557997438882 0 0 0 0 2386.7314510468277 1121.5218096530298 0 1121.5218096530298 -334.10136264917674 0 0 0 0 -715.98411215601664 166.59751400061941 0 166.59751400061941 359.32301610398281 0 0 0 0 15.646332221724833 10.8005554260221 0 10.8005554260221 -44.233601901769532 0 0 0 0 82.07013178197667 1638.5624867472798 0 1638.5624867472798 796.91632517457037 0 0 0 0 -1038.4717529876798 1428.9048396926883 0 1428.9048396926883 2599.102481212205 0 0 0 0 -753.74648180975055 641.67681124618321 0 641.67681124618321 1592.8182867612923 0 0 0 0 580.98536822537426 1342.3612476790731 0 1342.3612476790731 1453.7109901472504 0 0 0 0 1294.8619809184529 2265.8161822862312 0 2265.8161822862312 2648.2354555685015 0 0 0 0 1177.6992465526273 566.3510922871501 0 566.3510922871501 2974.285055176475 0 0 0 0 36.425569496641401 1267.9626820600679 0 1267.9626820600679 2325.3195514148356 0 0 0 0 -161.07343551133818 1940.2322401159327 0 1940.2322401159327 2152.4419303227623 0 0 0 0 -214.27433023788035 1845.8284262196539 0 1845.8284262196539 1990.0811916057137 0 0 0 0 -265.33983745530713 1976.8283994453159 0 1976.8283994453159 1733.6208382754703 0 0 0 0 56.131263126662816 1769.5717401644069 0 1769.5717401644069 1822.0865171372352 0 0 0 0 -675.63661136681549 695.09130485035712 0 695.09130485035712 923.87807246937882 0 0 0 0 30.158401267704903 1484.0207431767922 0 1484.0207431767922 1063.4542977764504 0 0 0 0 226.8492402946431 786.93173358256172 0 786.93173358256172 949.78233156740316 0 0 0 0 -260.54014126470429 302.89643506685388 0 302.89643506685388 1005.2085348272685 0 0 0 0 487.47897649736842 1458.0861583665392 0 1458.0861583665392 1970.324708524422 0 0 0 0 419.45335473542218 354.51184195591486 0 354.51184195591486 1904.1327579076815 0 0 0 0 1314.1723038855853 856.16253384738229 0 856.16253384738229 1134.1201579954359 0 0 0 0 536.35122099061846 425.50202559622994 0 425.50202559622994 1128.6989963887775 0 0 0 0 571.7261473803519 577.96650212990789 0 577.96650212990789 518.68503138434608 0 0 0 0 -1.6401302980084438 160.28790627719718 0 160.28790627719718 893.38429692248064 0 0 0 0 -37.232989351119613 312.70150961095351 0 312.70150961095351 331.7404196679272 0 0 0 0 124.8315337916647 533.80609168826049 0 533.80609168826049 101.95239432295784 0 0 0 0 -470.86013559841376 178.86831460287794 0 178.86831460287794 643.22165076283272 0 0 0 0 608.62450291513233 160.68018608179409 0 160.68018608179409 385.86685594863229 0 0 0 0 -93.800279848568607 30.563899657354341 0 30.563899657354341 4.8569290590166929 0 0 0 0 488.38428790548642 431.88026780288055 0 431.88026780288055 -48.162502447492443 0 0 0 0 -528.73350197172476 233.51970548213285 0 233.51970548213285 48.256085731321946 0 0 0 0 439.69548751341063 683.7870001821866 0 683.7870001821866 607.0211356375512 0 0 0 0 441.23288351584051 396.95856593700591 0 396.95856593700591 288.53429261557176 0 0 0 0 461.55740398022499 776.69277787938518 0 776.69277787938518 542.57425634059473 0 0 0 0 668.06472334097634 675.10688262338044 0 675.10688262338044 -24.086555273170234 0 0 0 0 151.492221382563 439.03844610205124 0 439.03844610205124 118.80162589269821 0 0 0 0 400.09159208590427 522.89732861085213 0 522.89732861085213 -150.16038542082242 0 0 0 0 -697.62267599540792 19.147137656473205 0 19.147137656473205 -44.05405562404485 0 0 0 0 174.10038848609111 198.08931963350187 0 198.08931963350187 -270.76660526594787 0 0 0 0 -238.94016434678269 386.45258947374532 0 386.45258947374532 -148.60974763921695 0 0 0 0 -148.37010447861394 81.871438587986631 0 81.871438587986631 -223.53491735745047 0 0 0 0 -163.19625039365201 210.48370541412442 0 210.48370541412442 18.804228012741078 0 0 0 0 -533.86722593016748 43.407278884900734 0 43.407278884900734 -132.10419076814378 0 0 0 0 374.22714017854014 338.26487406930391 0 338.26487406930391 -228.19375058422156 0 0 0 0 -19.077724521030177 271.38507737346936 0 271.38507737346936 -16.68545452762919 0 0 0 0 -12.84863223375396 276.87454228899333 0 276.87454228899333 -230.75543009098328 0 0 0 0 -461.30347145823907 319.33726675529761 0 319.33726675529761 0.024432224291551369 0 0 0 0 339.93966829911005 400.20086253081172 0 400.20086253081172 -35.903557992998685 0 0 0 0 237.2979200670743 445.59706070154061 0 445.59706070154061 -0.25993461816507457 0 0 0 0 306.16293540843617 408.85283769776288 0 408.85283769776288 -18.349270996404812 0 0 0 0 413.72478244137892 535.43676149650855 0 535.43676149650855 0.35737591243923816 0 0 0 0 356.86610090835484 491.86079217060114 0 491.86079217060114 178.22780255778343 0 0 0 0 345.246746406483 660.8002937732781 0 660.8002937732781 499.80675849309773 0 0 0 0 368.71503537481476 508.48803336147103 0 508.48803336147103 178.22412268058676 0 0 0 0 430.09138983052981 551.88301806257368 0 551.88301806257368 165.21495076206338 0 0 0 0 356.41823547923195 607.37538419475823 0 607.37538419475823 126.3285984909744 0 0 0 0 507.20712393430586 818.23742251966905 0 818.23742251966905 410.14459701217856 0 0 0 0 303.08480110075834 704.59811232884022 0 704.59811232884022 874.48591089274851 0 0 0 0 327.155191013484 653.46463351371131 0 653.46463351371131 499.73767591790238 0 0 0 0 235.36933989437239 504.25211742492684 0 504.25211742492684 873.38246459361108 0 0 0 0 229.09100131280684 556.35243787365744 0 556.35243787365744 658.86929979533306 0 0 0 0 243.25648799415649 431.45714911769755 0 431.45714911769755 430.15088080555142 0 0 0 0 194.10449886441347 288.75302573625231 0 288.75302573625231 401.33041420424706 0 0 0 0 175.91317234165035 413.54551326368164 0 413.54551326368164 691.80710119724972 0 0 0 0 267.86199952831521 452.13311616805368 0 452.13311616805368 171.26361127640848 0 0 0 0 332.11639811295754 529.26864577640663 0 529.26864577640663 254.84098991038627 0 0 0 0 368.85372601350969 580.20712023232875 0 580.20712023232875 369.59671045573486 0 0 0 0 328.81228765527339 452.92476727297617 0 452.92476727297617 196.69603231798101 0 0 0 0 363.81747262390036 545.81092725806957 0 545.81092725806957 174.26531760160287 0 0 0 0 350.61823337715032 477.94631254724663 0 477.94631254724663 63.019116142611892 0 0 0 0 203.53818683213467 460.31279922839167 0 460.31279922839167 105.99620845695608 0 0 0 0 321.96736265501204 517.80677009982355 0 517.80677009982355 129.68930075515527 0 0 0 0 332.3773469266423 448.00153277823597 0 448.00153277823597 99.492001999329659 0 0 0 0 383.61712456861278 467.41084279349525 0 467.41084279349525 0.061187687053461559 0 0 0 0 331.62448175868485 461.03681156153107 0 461.03681156153107 63.724616365574775 0 0 0 0 378.84075917857263 274.00489319428743 0 274.00489319428743 0.41090343646753874 0 0 0 0 304.20041227697948 382.0743006724224 0 382.0743006724224 0.0353870041508344 0 0 0 0 349.46708902086175 290.10558263843996 0 290.10558263843996 152.61639004890458 0 0 0 0 224.78980311713804 375.58930025719974 0 375.58930025719974 206.2096740299603 0 0 0 0 45.141633907376672 415.09139943230548 0 415.09139943230548 199.46672226482406 0 0 0 0 300.85107367759883 422.97251011075059 0 422.97251011075059 70.123844206260401 0 0 0 0 335.61237968628484 289.8044645524169 0 289.8044645524169 4.8163571099721594 0 0 0 0 1.7572104738561194 0.75770537602289778 0 0.75770537602289778 -2.5274707973913735 0 0 0 0 94.826024047957617 350.17113368972787 0 350.17113368972787 89.117620935694504 0 0 0 0 185.25966511678416 243.03704969605315 0 243.03704969605315 10.018450519452017 0 0 0 0 245.2325950162849 496.51254878991676 0 496.51254878991676 91.143277228897205 0 0 0 0 61.653888477012515 363.24003072437699 0 363.24003072437699 150.2699519637099 0 0 0 0 193.02734759891382 270.96068777773371 0 270.96068777773371 170.60570668429136 0 0 0 0 16.33439133570937 181.2824545634212 0 181.2824545634212 266.40538946648303 0 0 0 0 0.72135205666958768 2.3579106717287175 0 2.3579106717287175 -1.0451590037227732 0 0 0 0 210.44415606302209 234.85496786994918 0 234.85496786994918 -44.188807695900323 0 0 0 0 193.29270003903366 234.11377224713942 0 234.11377224713942 -38.314869766341872 0 0 0 0 32.444819121041292 218.1544766827501 0 218.1544766827501 130.72397137738881 0 0 0 0 65.724085435824236 251.78726454592834 0 251.78726454592834 -5.6425092782010324 0 0 0 0 113.513471965809 93.088029055950756 0 93.088029055950756 -14.3826613312267 0 0 0 0 239.74577869815403 164.69642212912004 0 164.69642212912004 -316.10631390619892 0 0 0 0 76.231991630066759 57.948233479697393 0 57.948233479697393 -20.869413719785406 0 0 0 0 53.112659604208602 124.15678643505089 0 124.15678643505089 164.89214737288421 0 0 0 0 325.65047676437825 364.73998924597981 0 364.73998924597981 -105.2565049332552 0 0 0 0 44.182767456411966 299.88930516875917 0 299.88930516875917 326.08225635612325 0 0 0 0 298.32156850902538 259.96409291100463 0 259.96409291100463 158.19694787537446 0 0 0 0 100.12668643015786 215.60715394809813 0 215.60715394809813 299.70943957079544 0 0 0 0 4.2795433996955126 1.7875208876752708 0 1.7875208876752708 1.754109817158632 0 0 0 0 99.818783305508987 -164.0274874495617 0 -164.0274874495617 -126.78841883099085 0 0 0 0 70.31990662208409 16.125412688568758 0 16.125412688568758 -344.79813847673358 0 0 0 0 -18.442016243025137 94.36178898707476 0 94.36178898707476 175.7270463744062 0 0 0 0 60.765793878883869 50.851143579961601 0 50.851143579961601 -31.921322680980253 0 0 0 0 69.904616238618473 102.15295556162164 0 102.15295556162164 106.66242256445548 0 0 0 0 53.58832601987524 67.663159779905982 0 67.663159779905982 210.12481343623222 0 0 0 0 77.32753558443801 102.19022957083507 0 102.19022957083507 116.27080085602938 0 0 0 0 47.737116049196629 106.01395118941946 0 106.01395118941946 159.59670667303726 0 0 0 0 178.78169781360339 455.192950124052 0 455.192950124052 704.93266576100905 0 0 0 0 38.327725408904371 75.87460882520827 0 75.87460882520827 150.80565950657547 0 0 0 0 -0.57251041166966843 1.7661673418186865 0 1.7661673418186865 -1.0979425829253415 0 0 0 0 245.42301877043792 375.01093982792372 0 375.01093982792372 758.89261942866142 0 0 0 0 65.554127875802806 10.656186289117613 0 10.656186289117613 -95.099186841536721 0 0 0 0 24.90403776008668 31.292948458337833 0 31.292948458337833 -8.7840546950077325 0 0 0 0 48.335708799200802 47.21290444132319 0 47.21290444132319 63.728793819289422 0 0 0 0 30.533488177820118 31.455375288815816 0 31.455375288815816 -23.30455594521095 0 0 0 0 49.236027652270678 60.207785055034748 0 60.207785055034748 -21.953401496562698 0 0 0 0 26.522091761551565 -75.993076169259439 0 -75.993076169259439 -251.70980848790896 0 0 0 0 72.973881075304234 53.140175507702224 0 53.140175507702224 -105.96791830781513 0 0 0 0 65.613829949044884 72.033665769457002 0 72.033665769457002 96.318726406607311 0 0 0 0 13.628679135666488 -2.11593010549268 0 -2.11593010549268 -22.505845517436519 0 0 0 0 57.859529891749844 79.977993055559637 0 79.977993055559637 -63.072034996759612 0 0 0 0 30.37603022698022 16.907133009306563 0 16.907133009306563 -49.477978130111296 0 0 0 0 25.59351491923735 47.521783850581414 0 47.521783850581414 23.785015295638004 0 0 0 0 96.383905027774745 131.11842776614503 0 131.11842776614503 48.292608970787114 0 0 0 0 22.807811764658254 43.892484897931354 0 43.892484897931354 -6.5565068403157056 0 0 0 0 91.010110637827893 46.544678207035759 0 46.544678207035759 -24.731404872534767 0 0 0 0 84.154613676387612 84.441464903952294 0 84.441464903952294 30.937017381707847 0 0 0 0 205.7349980844665 68.846953170796041 0 68.846953170796041 1.9080796378184459 0 0 0 0 216.43951052496413 208.73980667729847 0 208.73980667729847 64.54421523558085 0 0 0 0 95.746729249302007 136.58827997400294 0 136.58827997400294 37.455505092082603 0 0 0 0 119.48365895506868 179.40332079381187 0 179.40332079381187 73.830257453022568 0 0 0 0 177.78722317710344 185.15725983878656 0 185.15725983878656 74.352042574108964 0 0 0 0 154.57391084374103 134.48973832414413 0 134.48973832414413 84.538436816259036 0 0 0 0 136.53888695219939 155.60912902707059 0 155.60912902707059 68.215220882782887 0 0 0 0 288.90624873385241 167.36129685502601 0 167.36129685502601 64.902479867072543 0 0 0 0 204.17773490164836 -2.8430218049725227 0 -2.8430218049725227 208.60714531673329 0 0 0 0 352.44458013008261 198.78795965758763 0 198.78795965758763 78.607031663705129 0 0 0 0 148.31820273649646 204.50003756511433 0 204.50003756511433 138.06088086308591 0 0 0 0 121.18536279247201 207.69951480523014 0 207.69951480523014 93.807061873274506 0 0 0 0 148.15386057367141 201.18986381018476 0 201.18986381018476 82.054509922963916 0 0 0 0 44.968492739048088 148.47682887461269 0 148.47682887461269 208.27897189369833 0 0 0 0 105.61599071101955 188.80673009242673 0 188.80673009242673 154.51086339885296 0 0 0 0 15.48706665221107 107.4529989456787 0 107.4529989456787 153.03942228999222 0 0 0 0 18.967337139198207 104.84442857350405 0 104.84442857350405 138.57080465378385 0 0 0 0 103.52036848304124 166.74527622525784 0 166.74527622525784 114.75967310708074 0 0 0 0 85.690162191196578 156.74610043418215 0 156.74610043418215 109.56793929070409 0 0 0 0 54.501862804187112 105.63474417887483 0 105.63474417887483 80.963772902100118 0 0 0 0 143.30246079276912 216.62765652109738 0 216.62765652109738 131.14817542949095 0 0 0 0 107.7590348228041 189.00433666020672 0 189.00433666020672 139.50675787418004 0 0 0 0 122.78734761138185 40.341526636137132 0 40.341526636137132 11.825801499675435 0 0 0 0 579.31209852163374 119.57082599677778 0 119.57082599677778 5.999950933171931 0 0 0 0 209.31073060338167 312.34037233737581 0 312.34037233737581 289.27665854759107 0 0 0 0 157.60058635493624 17.728323170742442 0 17.728323170742442 -16.037999280950316 0 0 0 0 -108.10427708507632 95.744922505495197 0 95.744922505495197 418.39012073099002 0 0 0 0 337.20568423125223 296.84880097608038 0 296.84880097608038 359.4891044208016 0 0 0 0 77.941063829355699 127.58844859812962 0 127.58844859812962 320.15291104431617 0 0 0 0 -0.46386797971416627 0.5568211906903926 0 0.5568211906903926 1.2523506342040207 0 0 0 0 -16.43219992788363 32.443269013216195 0 32.443269013216195 289.15307700281846 0 0 0 0 12.80487625272508 74.889651361827418 0 74.889651361827418 168.45217456843966 0 0 0 0 75.232332219187811 151.65234659730777 0 151.65234659730777 239.60179118507222 0 0 0 0 16.825097189874214 81.384042079102073 0 81.384042079102073 155.78130279983816 0 0 0 0 5.1334554094573832 -20.510566551227384 0 -20.510566551227384 53.009697774283268 0 0 0 0 -0.020114967128591843 0.89995164501438296 0 0.89995164501438296 1.6241303225657902 0 0 0 0 -7.7291323962999741 28.55797390117732 0 28.55797390117732 31.011028401522708 0 0 0 0 36.888079900314551 6.1101796265220401 0 6.1101796265220401 -19.125723341865523 0 0 0 0 29.099515873022028 -9.4200847415922908 0 -9.4200847415922908 -2.333517473169195 0 0 0 0 28.374104255832208 13.923370393962614 0 13.923370393962614 -25.233524935218156 0 0 0 0 5.8484890528688993 25.207123614099601 0 25.207123614099601 -23.752073723670037 0 0 0 0 3.8692404516732495 6.8772286667572189 0 6.8772286667572189 -9.7720217093738029 0 0 0 0 9.1460389201529324 1.5050084371978301 0 1.5050084371978301 -6.1714394529008132 0 0 0 0 10.277961741478066 12.070507836073375 0 12.070507836073375 -6.8615596514609933 0 0 0 0 5.8008876927342499 12.623630254471209 0 12.623630254471209 10.589596603196696 0 0 0 0 3.4254747813279209 6.7284072644614241 0 6.7284072644614241 -2.4725833421027943 0 0 0 0 -5.3010240293995707 6.3821297121431542 0 6.3821297121431542 3.2446908394308167 0 0 0 0 -29.274146393941919 35.948415301718342 0 35.948415301718342 2.7746761729649734 0 0 0 0 -13.8981909681861 29.444413503317264 0 29.444413503317264 5.495737319739419 0 0 0 0 2.9228403213964214 10.854085833288316 0 10.854085833288316 1.9897239259855297 0 0 0 0 -106.66068690734392 -7.729405565198249 0 -7.729405565198249 8.6304986437662592 0 0 0 0 7.7861485531322217 9.8744753142175909 0 9.8744753142175909 9.2257662446555457 0 0 0 0 3.8372964737791335 36.544898990508955 0 36.544898990508955 -35.109490348742838 0 0 0 0 8.4040365850487433 20.148656798310185 0 20.148656798310185 10.394195079570636 0 0 0 0 0.62426098122716667 2.161742856495394 0 2.161742856495394 1.888627451320616 0 0 0 0 -1.8137545841310896 6.0132697267488027 0 6.0132697267488027 -2.7243610815921642 0 0 0 0 14.997494643526807 35.548785743022108 0 35.548785743022108 7.7845874797931174 0 0 0 0 -11.200648521160474 -0.44068399103707634 0 -0.44068399103707634 -4.1768455609926605 0 0 0 0 9.3204439916969477 10.912261511655185 0 10.912261511655185 8.2880370009435893 0 0 0 0 -49.167919295403408 34.785227232321631 0 34.785227232321631 3.6503685142051836 0 0 0 0 4.056926992489025 -2.3123367699445225 0 -2.3123367699445225 5.6625944167753914 0 0 0 0 20.888340779401915 12.207412836404728 0 12.207412836404728 0.23143236883333884 0 0 0 0 -246.94124400393775 82.111370791331865 0 82.111370791331865 7.2923357801992097 0 0 0 0 -351.03170463127026 9.4833287253204617 0 9.4833287253204617 20.851730545029568 0 0 0 0 -226.03822599659907 54.506090457285609 0 54.506090457285609 31.718628519780395 0 0 0 0 -250.58540093874763 -59.333281758870726 0 -59.333281758870726 27.033672596502583 0 0 0 0 -122.73098787201161 81.983910504186497 0 81.983910504186497 40.929979184942567 0 0 0 0 -167.88644491335435 -17.080882855138043 0 -17.080882855138043 7.2799927270243643 0 0 0 0 -215.05501455387639 64.777092177553641 0 64.777092177553641 37.723402099640225 0 0 0 0 -189.63707161261357 128.45635111879145 0 128.45635111879145 56.81635153125535 0 0 0 0 -0.88990126599310315 44.980791886592669 0 44.980791886592669 -19.447194999502244 0 0 0 0 -188.86694324363634 157.51463728130148 0 157.51463728130148 -28.974713815816358 0 0 0 0 5.5289522585275392 6.9932291158285658 0 6.9932291158285658 7.942383433581881 0 0 0 0 232.40407507859345 286.8048691845579 0 286.8048691845579 -209.15354757519162 0 0 0 0 167.0373343339088 606.3180172356806 0 606.3180172356806 163.55067240598146 0 0 0 0 -75.058321655662439 462.76864154682335 0 462.76864154682335 139.86344652662228 0 0 0 0 -65.551421538380964 226.15602327658962 0 226.15602327658962 178.97057562234113 0 0 0 0 -249.37433471307668 105.52608297340294 0 105.52608297340294 101.00741535362613 0 0 0 0 -121.01709672427387 156.69092026164617 0 156.69092026164617 55.609747626076569 0 0 0 0 -127.68678658553836 115.70234235585303 0 115.70234235585303 107.24572518420609 0 0 0 0 -107.1104218141154 254.36708193273262 0 254.36708193273262 169.41643746513 0 0 0 0 -237.40148192748893 61.98965984752067 0 61.98965984752067 42.555782278544939 0 0 0 0 -182.69433969121746 162.58279058330299 0 162.58279058330299 70.112973866795073 0 0 0 0 -11.353371114520996 252.56687286048691 0 252.56687286048691 172.20908223398146 0 0 0 0 -18.096558109420585 148.76088650034944 0 148.76088650034944 70.772931033745408 0 0 0 0 -89.214114216341841 219.73923884526539 0 219.73923884526539 198.66922141139366 0 0 0 0 22.103154757904122 203.46548850581894 0 203.46548850581894 181.68964224417869 0 0 0 0 48.395482411353441 311.1997283952669 0 311.1997283952669 360.41473146528006 0 0 0 0 107.12557878758525 179.23105133721401 0 179.23105133721401 213.76631535446722 0 0 0 0 280.38260400301806 370.62992218432009 0 370.62992218432009 258.03278195164603 0 0 0 0 -26.94357748960465 340.00939851959811 0 340.00939851959811 447.44547250909454 0 0 0 0 151.2892394535229 247.45091153563408 0 247.45091153563408 288.55673447549634 0 0 0 0 -31.834777449665125 312.55876824786174 0 312.55876824786174 304.18750632250158 0 0 0 0 -1.9063412437202487 3.4899602932444225 0 3.4899602932444225 -3.8687047456367196 0 0 0 0 86.208315349205805 67.753680623647597 0 67.753680623647597 -211.77274419538298 0 0 0 0 -177.72211063887517 268.83642199388669 0 268.83642199388669 -245.00998651321061 0 0 0 0 -326.64021845392563 498.87989033890699 0 498.87989033890699 413.6351825391057 0 0 0 0 -19.178237478179653 663.14970804630138 0 663.14970804630138 184.05577117724533 0 0 0 0 2.138287311718102 2.9828378372611226 0 2.9828378372611226 3.3230039148928654 0 0 0 0 330.84504302606365 371.41330271603329 0 371.41330271603329 162.14990521725485 0 0 0 0 19.231107456973405 5.7748956755858671 0 5.7748956755858671 12.934407401486169 0 0 0 0 1.215607082033884 1.4198286737583743 0 1.4198286737583743 1.8853823179194364 0 0 0 0 -69.709370280936128 52.16156815757131 0 52.16156815757131 134.68167195904857 0 0 0 0 31.333871674061811 72.343643276493822 0 72.343643276493822 -34.758377206657315 0 0 0 0 13.336873099608056 31.538882994926098 0 31.538882994926098 -42.214531817822717 0 0 0 0 30.707034695888069 63.793147384297299 0 63.793147384297299 -111.75307646336296 0 0 0 0 -194.45936385374807 318.48747826747604 0 318.48747826747604 -167.94560870925488 0 0 0 0 8.1080934368292219 9.7373837283266766 0 9.7373837283266766 -68.062687627509149 0 0 0 0 -260.58828003004601 155.24067495127201 0 155.24067495127201 90.628255364761571 0 0 0 0 -26.102599305573676 111.83901755885745 0 111.83901755885745 -147.99218865165312 0 0 0 0 -45.904338519329031 115.23047104630677 0 115.23047104630677 -120.41960699842093 0 0 0 0 -227.05193989801774 345.74097030518897 0 345.74097030518897 -186.99775342090288 0 0 0 0 1142.0653422337127 217.78671309022047 0 217.78671309022047 -540.26123521468253 0 0 0 0 -0.14628999942571852 1.9172001639491896 0 1.9172001639491896 -3.2671107238147385 0 0 0 0 -308.67560008527653 205.1845027635427 0 205.1845027635427 -77.816498439447059 0 0 0 0 -697.7458966402337 361.1012195078074 0 361.1012195078074 -97.328693963034311 0 0 0 0 -133.242092400822 362.71197800809568 0 362.71197800809568 -434.28516409517033 0 0 0 0 486.07958027574932 279.42503408588891 0 279.42503408588891 -386.60354777517932 0 0 0 0 129.20736808149013 -183.04326634838253 0 -183.04326634838253 -420.39777233155473 0 0 0 0 225.14731342278719 167.91053823928405 0 167.91053823928405 -902.94736466132599 0 0 0 0 549.08200350383777 -46.160248926651548 0 -46.160248926651548 30.759426203836483 0 0 0 0 239.64022540756559 265.29164280471377 0 265.29164280471377 -259.31188608701541 0 0 0 0 189.37085002361346 199.94081203936548 0 199.94081203936548 88.398027988983813 0 0 0 0 772.87501943024108 490.37342764657296 0 490.37342764657296 -81.521887840226555 0 0 0 0 -29.96852722291078 515.46615210663731 0 515.46615210663731 -211.64314174705214 0 0 0 0 -132.53164320385076 423.37817738610102 0 423.37817738610102 153.93156830689986 0 0 0 0 -152.46445785410469 380.61336122134526 0 380.61336122134526 191.25633230016138 0 0 0 0 -27.936106973036658 -12.374575476522296 0 -12.374575476522296 -22.046735846013689 0 0 0 0 -1.9369294061372102 6.2924315276138714 0 6.2924315276138714 -3.9314451720491377 0 0 0 0 -102.69478763245934 42.967418788553914 0 42.967418788553914 -49.48135419980099 0 0 0 0 -14.189820605410205 91.244980500014208 0 91.244980500014208 -95.739220271095292 0 0 0 0 -86.445758319467132 25.142376275904098 0 25.142376275904098 74.971125808289798 0 0 0 0 250.00221592170419 456.37718460482392 0 456.37718460482392 518.96819246312953 0 0 0 0 -4.4875254229916095 8.1355334377510928 0 8.1355334377510928 -9.8293149503648181 0 0 0 0 12.256259404653974 94.166487706574117 0 94.166487706574117 65.861106707034196 0 0 0 0 -56.321815877920017 -3.4544949544415431 0 -3.4544949544415431 36.888205402399763 0 0 0 0 28.950825035432899 -11.11220691388985 0 -11.11220691388985 -4.5705213774854201 0 0 0 0 208.61460455895576 266.1432302860303 0 266.1432302860303 341.28992046719213 0 0 0 0 439.35527027427452 339.74026030492314 0 339.74026030492314 291.36258659327723 0 0 0 0 -1.8704809458804164 10.407682512133221 0 10.407682512133221 -13.432412926164744 0 0 0 0 480.6451470801785 543.18971057838553 0 543.18971057838553 371.58677240956604 0 0 0 0 230.9889419937972 419.59485024069727 0 419.59485024069727 517.92882689298131 0 0 0 0 309.65928906074259 419.39817965204202 0 419.39817965204202 307.60296996938268 0 0 0 0 266.48523832651335 264.33599553797103 0 264.33599553797103 222.14881240150135 0 0 0 0 321.63973601537873 309.05336924766743 0 309.05336924766743 347.32896799445734 0 0 0 0 288.93863908154708 375.16070296549151 0 375.16070296549151 284.11634536752535 0 0 0 0 290.01304972321668 340.71478883022792 0 340.71478883022792 37.028105600445997 0 0 0 0 279.70390751803643 267.63345902939182 0 267.63345902939182 216.91565716038167 0 0 0 0 196.33698752424971 300.96481391202542 0 300.96481391202542 203.72016771603012 0 0 0 0 232.0344867255626 284.15060615161565 0 284.15060615161565 75.919199040377862 0 0 0 0 117.76910820958437 199.19181399729132 0 199.19181399729132 173.16186153098897 0 0 0 0 180.72322126923973 326.92425252575504 0 326.92425252575504 223.25823908474558 0 0 0 0 316.35262608574703 385.74438201321755 0 385.74438201321755 428.27213774551637 0 0 0 0 -4.8509526708390354 6.5817520524728366 0 6.5817520524728366 -0.73008747142976915 0 0 0 0 -1085.7082529165054 -76.872211209651141 0 -76.872211209651141 45.575327304766688 0 0 0 0 404.3373247202835 680.70714701677934 0 680.70714701677934 -140.77456582171362 0 0 0 0 140.5279408620554 978.97241768881941 0 978.97241768881941 -308.29762060671783 0 0 0 0 248.83180386017193 545.47297042720311 0 545.47297042720311 -86.479200307265273 0 0 0 0 449.7293769918906 597.5243432789357 0 597.5243432789357 -112.45749329196042 0 0 0 0 381.39394762897064 305.15693672686575 0 305.15693672686575 179.18002256774344 0 0 0 0 401.01617249261471 357.38254303542271 0 357.38254303542271 8.9394136540067848 0 0 0 0 315.03439318321762 362.12399950819236 0 362.12399950819236 520.10942289698869 0 0 0 0 467.93950061034411 233.64145453152014 0 233.64145453152014 434.84090303030098 0 0 0 0 515.91549610788934 276.85317262231547 0 276.85317262231547 182.12474654326252 0 0 0 0 338.00499961445166 259.01694885778124 0 259.01694885778124 708.84437942919612 0 0 0 0 561.49627895184676 267.6305531509206 0 267.6305531509206 413.57833860145183 0 0 0 0 687.75819676296669 256.29576228493534 0 256.29576228493534 243.71683235300588 0 0 0 0 680.61679911479587 376.18429881037446 0 376.18429881037446 4.7368779772878042 0 0 0 0 537.95029026287375 145.69110902527609 0 145.69110902527609 927.9113686188357 0 0 0 0 1137.4461809124332 1052.5784559645399 0 1052.5784559645399 1185.5384646157108 0 0 0 0 367.51927216268086 577.29027848211263 0 577.29027848211263 591.25653576142213 0 0 0 0 -4.8251397870917572 128.7993269229828 0 128.7993269229828 22.781944811664289 0 0 0 0 -5.6722132671730918 7.1675028082649419 0 7.1675028082649419 10.344583623953156 0 0 0 0 -2.0616226319141333 3.0667315428479469 0 3.0667315428479469 2.0149270286505612 0 0 0 0 516.1952523078071 418.31573719310109 0 418.31573719310109 590.39329784900474 0 0 0 0 -168.20354994731315 -92.252532172133215 0 -92.252532172133215 -55.14844620344229 0 0 0 0 -289.43432893033605 -81.623528451527818 0 -81.623528451527818 31.70000493975931 0 0 0 0 -431.30028582554951 158.51981865136622 0 158.51981865136622 180.99074589216616 0 0 0 0 -791.14374402091198 -25.690526921633136 0 -25.690526921633136 177.38397445840747 0 0 0 0 -620.25582739738456 223.59586691674485 0 223.59586691674485 297.51376301410346 0 0 0 0 -291.13675332829007 134.12663257561508 0 134.12663257561508 163.80019704627193 0 0 0 0 -283.07090533569135 149.97878484825378 0 149.97878484825378 194.70043308800814 0 0 0 0 -18.480706925554841 44.486227461395174 0 44.486227461395174 41.965976711122494 0 0 0 0 318.26732180545332 349.1030770434254 0 349.1030770434254 128.31906951082055 0 0 0 0 -2.8077575635434897 7.0683881250177194 0 7.0683881250177194 1.7262306964156835 0 0 0 0 -220.48027060908498 129.84302819827644 0 129.84302819827644 191.75023579787558 0 0 0 0 -251.70037869684893 372.40240416204028 0 372.40240416204028 350.74480729068455 0 0 0 0 -510.93984922177333 462.14199739883043 0 462.14199739883043 433.02966924631528 0 0 0 0 -484.39664172291668 472.83578886677424 0 472.83578886677424 309.28127017104998 0 0 0 0 -544.17511064482824 295.62440349353164 0 295.62440349353164 -163.54515257695311 0 0 0 0 -657.77757155956351 219.59327815543293 0 219.59327815543293 301.14794624612477 0 0 0 0 -549.38100791728357 374.82746139484243 0 374.82746139484243 461.13313378246676 0 0 0 0 -619.27972124920052 379.31721136981923 0 379.31721136981923 -62.760320307679649 0 0 0 0 -666.01366469298955 353.06745632706588 0 353.06745632706588 -75.348971830415394 0 0 0 0 -982.61798136985453 268.8331422315805 0 268.8331422315805 256.49956979008857 0 0 0 0 -775.44971319663455 477.70027969906005 0 477.70027969906005 13.039529506229883 0 0 0 0 -0.37785199361726995 5.1605717630851444 0 5.1605717630851444 11.028383650298764 0 0 0 0 -200.44674962171121 -101.42625912378207 0 -101.42625912378207 33.034179869950094 0 0 0 0 -997.33283134001522 627.71167140673401 0 627.71167140673401 -258.81011849380593 0 0 0 0 368.65173183176375 -434.86157503928007 0 -434.86157503928007 120.46593488152212 0 0 0 0 107.81926473685598 145.96969092850395 0 145.96969092850395 304.75161762650532 0 0 0 0 0.93853076129300916 2.3954565278698539 0 2.3954565278698539 10.45955706564547 0 0 0 0 0.22453772972221486 118.90130453683196 0 118.90130453683196 422.24430727012077 0 0 0 0 138.57794653604651 63.681181013194873 0 63.681181013194873 -78.009078757473617 0 0 0 0 -156.92597726502936 -35.168588226128122 0 -35.168588226128122 127.83786421502009 0 0 0 0 -156.93282484343581 -34.771367950632794 0 -34.771367950632794 138.15356650292233 0 0 0 0 -163.50208599636971 180.82781186047941 0 180.82781186047941 1297.1363911657827 0 0 0 0 -244.53923329915415 -189.33075458073472 0 -189.33075458073472 -339.01718458670075 0 0 0 0 35.398036092101393 313.23882605072777 0 313.23882605072777 1228.9076064834662 0 0 0 0 -139.2134368828265 990.65046391509168 0 990.65046391509168 554.1763642226033 0 0 0 0 0.52027962769352598 651.99524296620802 0 651.99524296620802 595.9576667401052 0 0 0 0 646.23739326107898 30.71430381097889 0 30.71430381097889 1105.7324930833674 0 0 0 0 498.46034517358748 882.66571591647198 0 882.66571591647198 67.186517220150563 0 0 0 0 -565.33738824434113 58.944738508873343 0 58.944738508873343 687.02066961471428 0 0 0 0 0.59118208981641374 3.7029400595498601 0 3.7029400595498601 5.8287214499602271 0 0 0 0 -153.74067879530776 1301.1987395869182 0 1301.1987395869182 26.211654614215149 0 0 0 0 -370.80103156041878 881.31290339265797 0 881.31290339265797 980.10341307347062 0 0 0 0 29.328193713445216 755.67343643387903 0 755.67343643387903 881.7732995106926 0 0 0 0 -50.183556041200063 369.24569158951272 0 369.24569158951272 743.35232844139864 0 0 0 0 -0.50227552337310044 645.76450904358899 0 645.76450904358899 121.73125347025052 0 0 0 0 197.68939683381905 645.56044237737842 0 645.56044237737842 -270.1014333327912 0 0 0 0 -297.95459423046123 388.29019332741154 0 388.29019332741154 -389.39398850194812 0 0 0 0 -86.034902865321783 533.79721924914702 0 533.79721924914702 -800.9020453981866 0 0 0 0 75.961868252357817 364.23748660786987 0 364.23748660786987 52.767761434297427 0 0 0 0 -531.40348352974979 525.7704422016086 0 525.7704422016086 240.29450868093409 0 0 0 0 -536.80999363132287 533.08490372879169 0 533.08490372879169 244.07695957635224 0 0 0 0 -487.78322280524299 516.33892366814325 0 516.33892366814325 129.61613123329698 0 0 0 0 -451.80793411981722 445.78459398742234 0 445.78459398742234 -119.0958413735425 0 0 0 0 -358.54480426938972 730.9362843664494 0 730.9362843664494 -315.91866527048478 0 0 0 0 -427.13079533653217 747.68752938417674 0 747.68752938417674 5.0716539608183666 0 0 0 0 -94.447808221899322 572.43813688011505 0 572.43813688011505 -1612.8145563880171 0 0 0 0 -470.64870433982287 94.014463770319708 0 94.014463770319708 -784.42243799186326 0 0 0 0 -436.70207872361789 476.17193033373769 0 476.17193033373769 -180.27106126292438 0 0 0 0 -35.733508838187845 -313.56631141689286 0 -313.56631141689286 -592.55098675137197 0 0 0 0 -121.9776228276769 -64.808963570626929 0 -64.808963570626929 -77.324763914544747 0 0 0 0 -160.71404007694218 688.54054242994243 0 688.54054242994243 -1601.9425654902734 0 0 0 0 -2.25017796993356 -3.6863855090199529 0 -3.6863855090199529 -11.7850822373005 0 0 0 0 -2.9379228756511111 3.718830958193351 0 3.718830958193351 0.67855255301292772 0 0 0 0 -383.94725329623543 816.63639807853133 0 816.63639807853133 -1387.1751211888695 0 0 0 0 -133.52645321009913 488.36131571871738 0 488.36131571871738 -2044.0206445543699 0 0 0 0 -314.87000752821041 88.025007487354742 0 88.025007487354742 -5.8509072828746866 0 0 0 0 -256.57201542292023 312.45801688000938 0 312.45801688000938 -1227.720038359972 0 0 0 0 -94.125257697018242 731.78951249933925 0 731.78951249933925 -1465.9961490987116 0 0 0 0 0.41285779754980467 548.882798896655 0 548.882798896655 -1010.6454134038649 0 0 0 0 -296.9887032944971 344.44893598651834 0 344.44893598651834 -891.30561784853853 0 0 0 0 20.5313797674753 7.0656077654493856 0 7.0656077654493856 40.937226298770838 0 0 0 0 1.5882928057108074 11.149539537127566 0 11.149539537127566 46.805165947884234 0 0 0 0 0.36483863572357222 -52.659487083022213 0 -52.659487083022213 30.02435936571419 0 0 0 0 -29.126519746947451 -23.680608156091694 0 -23.680608156091694 3.3454592440466513 0 0 0 0 -7.9204690476087762 3.0006469541822298 0 3.0006469541822298 32.18438909666952 0 0 0 0 0.061681927070793563 -1.5425827713495224 0 -1.5425827713495224 5.4321090097999516 0 0 0 0 13.853865444543771 14.941086722217733 0 14.941086722217733 44.575088205063366 0 0 0 0 24.799497047300974 21.455340956736109 0 21.455340956736109 36.611871408560546 0 0 0 0 6.4241283067385666 22.782045324689534 0 22.782045324689534 33.113298642616428 0 0 0 0 11.756496599962702 10.13419747808075 0 10.13419747808075 38.935491852652376 0 0 0 0 -4.1823895067936974 23.879305460639443 0 23.879305460639443 37.914597352413693 0 0 0 0 5.5415452669026166 15.389753601816182 0 15.389753601816182 20.225520378151344 0 0 0 0 9.5027798220689874 15.96568315361219 0 15.96568315361219 23.914675122852714 0 0 0 0 3.4928569267431158 25.283264195317315 0 25.283264195317315 30.080139507776039 0 0 0 0 3.9022115418119938 33.271413659133032 0 33.271413659133032 19.712896187906154 0 0 0 0 7.1554191156028537 28.033312044641207 0 28.033312044641207 -0.20528528314207506 0 0 0 0 -4.3526546911760988 16.977945590390448 0 16.977945590390448 -2.3087473407513457 0 0 0 0 -1.4050505675762537 14.29832349572132 0 14.29832349572132 8.1743649204233293 0 0 0 0 2.6001700651286228 16.102756667361064 0 16.102756667361064 13.60338189342292 0 0 0 0 0.48943433024385286 17.015180155512894 0 17.015180155512894 9.7666469116580501 0 0 0 0 0.38058711586199934 13.670675278723138 0 13.670675278723138 45.453179134638049 0 0 0 0 -15.362493910768535 34.057388351211557 0 34.057388351211557 19.480423082102789 0 0 0 0 0.37904597088842706 2.7399986404111019 0 2.7399986404111019 5.238996853803533 0 0 0 0 -3.0606282775406726 30.914408835127688 0 30.914408835127688 52.636574429329812 0 0 0 0 -0.033311562853043597 11.041914185167457 0 11.041914185167457 46.301857886102823 0 0 0 0 -16.340613869688241 45.190516045367985 0 45.190516045367985 60.849202269862872 0 0 0 0 -3.5843312548240647 13.270679458375525 0 13.270679458375525 34.822730876375317 0 0 0 0 88.072199681857455 111.84212423000463 0 111.84212423000463 18.378755581565201 0 0 0 0 -0.68261906018428675 3.4432036803735855 0 3.4432036803735855 2.272995483602898 0 0 0 0 -82.045239598461194 57.265192422490145 0 57.265192422490145 -7.8859416152990889 0 0 0 0 -53.720179734678823 131.08795402373653 0 131.08795402373653 42.74504796202018 0 0 0 0 13.876847712155723 129.00249149778392 0 129.00249149778392 2.0863387573044747 0 0 0 0 -37.965727320821316 92.152232957789238 0 92.152232957789238 45.757646103389561 0 0 0 0 -0.91862276404935983 12.346808014044143 0 12.346808014044143 12.159423818880555 0 0 0 0 -131.28504874069768 34.528616708132176 0 34.528616708132176 68.054369251920434 0 0 0 0 -57.347049267962575 111.54594804868975 0 111.54594804868975 28.850604839331936 0 0 0 0 -86.161101018689806 59.422896906876304 0 59.422896906876304 98.377519830966776 0 0 0 0 -111.98109530040529 50.455259211950761 0 50.455259211950761 34.273270616744412 0 0 0 0 -32.720635228382889 107.79164617657443 0 107.79164617657443 65.540674853604287 0 0 0 0 3.0013366760538531 20.449354499588594 0 20.449354499588594 68.892536622871276 0 0 0 0 -51.528038221731549 52.675774210696545 0 52.675774210696545 27.765628932174877 0 0 0 0 -37.043394002204877 21.274496993521097 0 21.274496993521097 43.959631749770779 0 0 0 0 -25.075643607829988 39.109863098650749 0 39.109863098650749 92.988310250679206 0 0 0 0 -6.3689764605151993 7.5603186640142326 0 7.5603186640142326 40.722827244930187 0 0 0 0 2.0265232655510772 29.14066116057802 0 29.14066116057802 33.554174424723897 0 0 0 0 -89.808475299694692 -33.327417561655238 0 -33.327417561655238 100.73109379550442 0 0 0 0 -38.947977972013177 64.000405492039135 0 64.000405492039135 78.082895385716256 0 0 0 0 65.144120719924103 124.2601311207618 0 124.2601311207618 139.25919021582558 0 0 0 0 -63.010794956728205 37.852741405659344 0 37.852741405659344 191.81836299508723 0 0 0 0 -1.3660880032185077 2.2959134388557345 0 2.2959134388557345 2.5225347519967585 0 0 0 0 173.8913400208985 107.61029580692775 0 107.61029580692775 50.675157180870883 0 0 0 0 0.012110807278077118 1.9249351965008827 0 1.9249351965008827 2.3539025502832374 0 0 0 0 17.20273152081063 77.071747242836864 0 77.071747242836864 71.87418899925251 0 0 0 0 22.889381139626494 37.501359061912808 0 37.501359061912808 26.736834156161422 0 0 0 0 63.259591623864253 19.729427314221539 0 19.729427314221539 32.561970607042895 0 0 0 0 -1.0317356684877552 2.0453005506847433 0 2.0453005506847433 4.5994967913527773 0 0 0 0 29.384548857153277 40.01745904224299 0 40.01745904224299 14.420761919966026 0 0 0 0 2.2298519822725211 6.6418913380930462 0 6.6418913380930462 11.412108676981006 0 0 0 0 2.9121849499760515 10.314698872661211 0 10.314698872661211 29.481426733210441 0 0 0 0 -179.22072195898363 79.413671805823469 0 79.413671805823469 38.928689668187872 0 0 0 0 -27.535018456270336 17.440315150975948 0 17.440315150975948 16.770326904312242 0 0 0 0 3.1335115842207131 6.2752975498474939 0 6.2752975498474939 23.583626381656956 0 0 0 0 -12.33751304334146 17.39226108472576 0 17.39226108472576 22.247761821046879 0 0 0 0 -29.144478933951177 10.326215128792683 0 10.326215128792683 26.679947318625636 0 0 0 0 -157.33471268489666 52.938458077278483 0 52.938458077278483 41.391887446530745 0 0 0 0 -3.7671744116080248 -2.9923307122499807 0 -2.9923307122499807 37.693486918675646 0 0 0 0 28.126530147870653 36.27076172782381 0 36.27076172782381 9.9218484929078841 0 0 0 0 20.866114932363416 28.94002823587698 0 28.94002823587698 7.9055650071313721 0 0 0 0 -152.79141771963623 77.711784848414027 0 77.711784848414027 5.9709615787141956 0 0 0 0 -0.43084240889619707 1.9474624217395302 0 1.9474624217395302 24.440842849184776 0 0 0 0 -249.03110127774562 56.384671744337538 0 56.384671744337538 45.797192038669891 0 0 0 0 -23.961366419942351 10.995166305347084 0 10.995166305347084 21.796619792992715 0 0 0 0 -190.28327685434488 39.536052443618246 0 39.536052443618246 4.8139284169510574 0 0 0 0 -0.42707158146468771 6.4595164664342519 0 6.4595164664342519 28.35757747484277 0 0 0 0 0.070731268366216682 10.531502156126407 0 10.531502156126407 34.262186678508442 0 0 0 0 5.7885934100486338 16.303245312607032 0 16.303245312607032 39.097256423596264 0 0 0 0 -0.025986229404225014 4.6927848479717795 0 4.6927848479717795 17.372808503732813 0 0 0 0 -0.53815898449798283 5.9367958651266122 0 5.9367958651266122 8.5604412025972465 0 0 0 0 -31.843752563538146 -4.7409601277140609 0 -4.7409601277140609 46.969323275220631 0 0 0 0 0.90629780050325337 4.06900715830173 0 4.06900715830173 2.4774163871875032 0 0 0 0 -309.07187854133372 -73.724146913096774 0 -73.724146913096774 103.6777448596913 0 0 0 0 -223.34046977576509 25.254854770231759 0 25.254854770231759 -11.339624997315696 0 0 0 0 -7.6587348459834175 14.84954920106793 0 14.84954920106793 167.46962409566913 0 0 0 0 -302.46934110518487 -46.762604112387635 0 -46.762604112387635 197.61360131937545 0 0 0 0 -304.62331333642942 -71.778174045597552 0 -71.778174045597552 174.22631862619164 0 0 0 0 -157.14189054097278 -46.447465283500264 0 -46.447465283500264 123.29916812715965 0 0 0 0 -157.14206953001303 -46.631798771627132 0 -46.631798771627132 143.46149195534235 0 0 0 0 0.41946613504426011 3.9758857157059992 0 3.9758857157059992 31.644000831970715 0 0 0 0 -47.241229153249151 -28.851945185532713 0 -28.851945185532713 10.94061526110454 0 0 0 0 0.027974092411094879 -22.67677756817336 0 -22.67677756817336 -9.7819214293849654 0 0 0 0 -18.861984245217172 -54.669809726103267 0 -54.669809726103267 -63.848238286236665 0 0 0 0 -0.97300189561298112 1.723143672376068 0 1.723143672376068 4.865609551013776 0 0 0 0 -660.57954081597563 343.15283901140356 0 343.15283901140356 -533.60112295687213 0 0 0 0 -323.21942808070889 -142.47385181089703 0 -142.47385181089703 260.83091147006053 0 0 0 0 -318.9094370474777 -43.162340498653066 0 -43.162340498653066 358.87763575934514 0 0 0 0 -310.44480982212553 -36.239794921135399 0 -36.239794921135399 229.21825702223578 0 0 0 0 -315.39512660151377 -63.840291532329502 0 -63.840291532329502 208.16592582149315 0 0 0 0 -271.65008994727395 21.910101704637782 0 21.910101704637782 130.88439331278641 0 0 0 0 -205.18991626182105 91.314115669047169 0 91.314115669047169 139.81385672889519 0 0 0 0 -222.88475219606676 51.011847384493137 0 51.011847384493137 85.584377863466216 0 0 0 0 -265.25184750527842 92.407368086220231 0 92.407368086220231 336.08658395737257 0 0 0 0 -212.5580520501826 97.686783999437466 0 97.686783999437466 164.79149287035034 0 0 0 0 -261.38441710932238 162.984484640343 0 162.984484640343 222.32499140039727 0 0 0 0 -285.07451211869557 212.21252675960932 0 212.21252675960932 224.28088814394141 0 0 0 0 -176.39772279721365 188.57389200662874 0 188.57389200662874 95.074064399319468 0 0 0 0 -98.954413445273531 214.31709690139178 0 214.31709690139178 73.117684422089951 0 0 0 0 -156.6126921579089 153.85717773276701 0 153.85717773276701 100.40331798382977 0 0 0 0 -107.80575525535096 147.00200572974427 0 147.00200572974427 36.518232766127767 0 0 0 0 -111.69217262085385 177.63837299529951 0 177.63837299529951 24.386394153843867 0 0 0 0 -154.68054933595704 108.75892054403084 0 108.75892054403084 48.483767232788523 0 0 0 0 -160.91722854893305 119.53970716869662 0 119.53970716869662 70.910931490259827 0 0 0 0 -111.78155398240779 105.77739854818356 0 105.77739854818356 15.443021161700017 0 0 0 0 -182.13287338349255 92.464696149844713 0 92.464696149844713 38.829995812367997 0 0 0 0 -42.038902349406271 123.20169217888542 0 123.20169217888542 11.166609665859141 0 0 0 0 -127.17750498174428 124.2664650626848 0 124.2664650626848 17.359413034952013 0 0 0 0 -157.0760214158654 85.008861532980518 0 85.008861532980518 29.570106353421579 0 0 0 0 -110.01040449555148 93.670903110702056 0 93.670903110702056 24.428128019306314 0 0 0 0 -113.62143541988917 97.328666622423043 0 97.328666622423043 26.673607683544105 0 0 0 0 -72.757166787323513 166.88365285342115 0 166.88365285342115 -12.711597681707644 0 0 0 0 -65.691098192968639 192.48104876214347 0 192.48104876214347 11.521643962769303 0 0 0 0 -52.56092021225777 255.16937993768443 0 255.16937993768443 -82.75818932806942 0 0 0 0 -22.877630931019667 187.93334033058636 0 187.93334033058636 -59.300561262714837 0 0 0 0 -43.060599392563745 222.88130041122713 0 222.88130041122713 7.0475293432973558 0 0 0 0 -32.671770670091064 296.43736206870381 0 296.43736206870381 -20.884798235871131 0 0 0 0 -25.60488407783123 288.03762817320239 0 288.03762817320239 -130.10484121483751 0 0 0 0 -107.67703776762937 328.5790478707022 0 328.5790478707022 -34.631033617999492 0 0 0 0 -109.96305921212479 250.24576606580376 0 250.24576606580376 -2.8977498710955842 0 0 0 0 -101.92292094662844 298.36550502425962 0 298.36550502425962 82.791384310745343 0 0 0 0 -183.96355372194921 294.47797087429694 0 294.47797087429694 105.61352172291663 0 0 0 0 -180.52532310130482 250.80051468444435 0 250.80051468444435 177.98932877514017 0 0 0 0 -311.44760489008331 374.03043701214847 0 374.03043701214847 217.89284498494089 0 0 0 0 -15.352072090739966 419.37809575158826 0 419.37809575158826 41.124370103956608 0 0 0 0 -24.844589916301629 387.83096081889926 0 387.83096081889926 -61.296819684808725 0 0 0 0 128.66387967808259 428.57420962913966 0 428.57420962913966 -51.251238003947947 0 0 0 0 -238.80992667228566 501.02676618396072 0 501.02676618396072 46.553133339810302 0 0 0 0 -152.70827030758664 668.97812588395755 0 668.97812588395755 21.081712255450839 0 0 0 0 3.0771256358311803 586.49658813652786 0 586.49658813652786 63.412032140113297 0 0 0 0 -20.080753058464325 530.16983057410835 0 530.16983057410835 -38.06679141461791 0 0 0 0 269.48509752117388 506.51676945672989 0 506.51676945672989 -67.168475324346218 0 0 0 0 172.82705250430445 451.72002286885254 0 451.72002286885254 12.643243633167003 0 0 0 0 143.25159506829368 716.79623127921514 0 716.79623127921514 -185.3227831977274 0 0 0 0 -468.32892532875121 1123.3470339739724 0 1123.3470339739724 -100.27225654324866 0 0 0 0 -1183.38035290892 553.38296566543795 0 553.38296566543795 482.93669218763534 0 0 0 0 -305.57194663526752 279.35032980163669 0 279.35032980163669 446.54597732765251 0 0 0 0 137.81891858342715 227.94483705268613 0 227.94483705268613 -6.7867887249012711 0 0 0 0 48.061899038919364 269.63942242712073 0 269.63942242712073 103.88921378455416 0 0 0 0 89.460068317530386 255.10384351382163 0 255.10384351382163 76.333562252664706 0 0 0 0 208.63203166105086 366.51893487895723 0 366.51893487895723 -42.403572611789059 0 0 0 0 252.06958442572795 305.47876535649266 0 305.47876535649266 19.831971651401545 0 0 0 0 55.940640835746308 345.24511128876475 0 345.24511128876475 -44.407687867515051 0 0 0 0 77.714217690430814 357.47518938861685 0 357.47518938861685 -78.5372260414224 0 0 0 0 11.395334608139819 311.96916849759145 0 311.96916849759145 -103.59601472294162 0 0 0 0 -0.79853692870528903 270.52446986303403 0 270.52446986303403 -19.858669961395208 0 0 0 0 76.397298586119064 242.76843123944317 0 242.76843123944317 -81.321301449948805 0 0 0 0 -35.016002992910217 284.11891592015672 0 284.11891592015672 -96.012585507367476 0 0 0 0 5.8596579841250787 253.51160277664167 0 253.51160277664167 -159.61542918453051 0 0 0 0 -72.546967157963081 283.08798506891253 0 283.08798506891253 -167.36510792886838 0 0 0 0 33.13782232804806 358.20835543459543 0 358.20835543459543 -80.493418930316693 0 0 0 0 -13.43979627576482 315.01707047312811 0 315.01707047312811 -82.028523942166657 0 0 0 0 0.98342774796219601 318.88022169175724 0 318.88022169175724 -108.1705878872599 0 0 0 0 8.0145072717277799 293.13637967416071 0 293.13637967416071 -172.04347610451805 0 0 0 0 -0.43170284864027053 209.2008845453347 0 209.2008845453347 -253.70681465226517 0 0 0 0 -26.458566583758511 259.40727414574576 0 259.40727414574576 -190.22006385296118 0 0 0 0 -19.622890180660761 278.58600432137609 0 278.58600432137609 -119.95424480074144 0 0 0 0 -26.99769209146325 250.03667229621351 0 250.03667229621351 -167.60226582938549 0 0 0 0 -19.346922304277541 202.01925738708815 0 202.01925738708815 -156.09193076484917 0 0 0 0 -77.503646086275694 280.71118236019538 0 280.71118236019538 -327.86512464775296 0 0 0 0 -34.384278374462156 218.59282544604139 0 218.59282544604139 -241.84616590584847 0 0 0 0 -47.718309386200417 126.64119342395315 0 126.64119342395315 -384.22477466834971 0 0 0 0 -23.525339787112898 169.03733031092634 0 169.03733031092634 -311.61929451388278 0 0 0 0 -19.931823727829681 3.8215421059152561 0 3.8215421059152561 -1.2467171586925847 0 0 0 0 -27.449773767897568 93.02328058709827 0 93.02328058709827 -460.24980456031335 0 0 0 0 -14.159424113240675 46.031102605620617 0 46.031102605620617 -322.45660044995748 0 0 0 0 -29.498888776916203 9.3562431073791714 0 9.3562431073791714 3.7141406265679837 0 0 0 0 -22.406491260484472 64.726855099786917 0 64.726855099786917 -200.84587699553231 0 0 0 0 -48.518105229391949 86.646200625160418 0 86.646200625160418 -183.16727554566751 0 0 0 0 -20.20727813574922 143.57275265731369 0 143.57275265731369 -213.1576697225828 0 0 0 0 -28.881524648495542 113.77531772821385 0 113.77531772821385 -253.22424883687199 0 0 0 0 -27.530433611114859 125.30675906902616 0 125.30675906902616 -120.36192953727732 0 0 0 0 -36.338794028168195 131.40118131073905 0 131.40118131073905 -123.54634845997498 0 0 0 0 -16.861013665809878 206.35340426949733 0 206.35340426949733 -148.92227744695992 0 0 0 0 3.543165909286472 118.48448141249537 0 118.48448141249537 -134.59984304778482 0 0 0 0 -17.490153041668236 89.373045136184373 0 89.373045136184373 -33.892430209271197 0 0 0 0 -40.508658131788252 181.80808684250405 0 181.80808684250405 -37.508919860454625 0 0 0 0 -27.97362755452923 13.176297722267918 0 13.176297722267918 27.958772845442581 0 0 0 0 -6.6945076258271001 102.09219447389842 0 102.09219447389842 -77.833507457624364 0 0 0 0 12.838066620432073 53.833553923301224 0 53.833553923301224 -81.068488229670947 0 0 0 0 -13.622534282752895 47.825732196768513 0 47.825732196768513 -29.809994651855959 0 0 0 0 4.8539215740786972 19.152419845811608 0 19.152419845811608 -2.4009979744271739 0 0 0 0 -18.267188303449075 140.07978029432343 0 140.07978029432343 -154.31524091053871 0 0 0 0 32.80229384888662 -5.749638561392203 0 -5.749638561392203 -180.09779067395721 0 0 0 0 -4.8752025132518355 7.587313382334429 0 7.587313382334429 2.4440205794095675 0 0 0 0 -24.830805079764104 34.456184684940126 0 34.456184684940126 33.080882885267783 0 0 0 0 5.8830548610494589 31.858127535397216 0 31.858127535397216 21.577017981523113 0 0 0 0 -10.637650636343515 22.128258455374976 0 22.128258455374976 21.160171099679161 0 0 0 0 2.1479793822945794 28.710942678157153 0 28.710942678157153 20.533135412817501 0 0 0 0 3.7987867444826406 32.914727619412588 0 32.914727619412588 22.552617308145273 0 0 0 0 -15.102309949012124 38.763138153062755 0 38.763138153062755 21.076258053646598 0 0 0 0 -5.8350373156717978 33.204614364505687 0 33.204614364505687 19.79313764395647 0 0 0 0 -17.816103320248658 32.620638115931797 0 32.620638115931797 20.033489297195047 0 0 0 0 -82.154833218635758 5.5284772963404976 0 5.5284772963404976 30.141629706689855 0 0 0 0 -40.935565594641957 40.628442042139795 0 40.628442042139795 28.843462413122325 0 0 0 0 -16.756207884694049 17.005529295188353 0 17.005529295188353 24.544716066746332 0 0 0 0 -9.6948619846407382 47.273501585547365 0 47.273501585547365 28.684913557757682 0 0 0 0 -23.298531950553297 46.271647095374647 0 46.271647095374647 56.127155850565032 0 0 0 0 -9.2896317328995792 -12.958317033615458 0 -12.958317033615458 -24.819844626652412 0 0 0 0 -56.713027430821967 56.283417639453546 0 56.283417639453546 125.30186899310502 0 0 0 0 -253.59171870097634 -101.19537973412298 0 -101.19537973412298 7.4867896299056156 0 0 0 0 -91.071631198734394 15.470701840924448 0 15.470701840924448 37.300238328345586 0 0 0 0 -292.010521155069 29.73837166240628 0 29.73837166240628 102.95043468167933 0 0 0 0 -362.02967671368606 64.056811368919625 0 64.056811368919625 88.627524647759856 0 0 0 0 -537.98851045877382 193.59642723517027 0 193.59642723517027 93.366318733937533 0 0 0 0 -291.2847696365352 148.02579724595853 0 148.02579724595853 97.204856242917231 0 0 0 0 -203.7352789755314 189.45893351149607 0 189.45893351149607 5.9887880079550087 0 0 0 0 -191.65606965705229 259.0199332321572 0 259.0199332321572 28.40581465039395 0 0 0 0 -328.72091112300404 154.18982381218848 0 154.18982381218848 171.66693406991544 0 0 0 0 -271.65698427686584 134.36664714077779 0 134.36664714077779 -211.59635510653544 0 0 0 0 -262.15582422450825 303.62606376545409 0 303.62606376545409 -210.52385965852591 0 0 0 0 -907.32107873196946 254.98601006901299 0 254.98601006901299 15.586865693294385 0 0 0 0 -378.75690245042642 44.741362857812419 0 44.741362857812419 66.574175812995236 0 0 0 0 -303.37253811914707 299.19173318141475 0 299.19173318141475 -719.27807634770579 0 0 0 0 -302.04791688221303 39.386850297189085 0 39.386850297189085 -334.3621283875691 0 0 0 0 -302.20121792498526 24.008834056063847 0 24.008834056063847 -196.79553250834579 0 0 0 0 -582.95087471186707 -125.01887614851148 0 -125.01887614851148 -409.24149400028 0 0 0 0 -803.23733099021047 296.73955916030627 0 296.73955916030627 -367.15805434062349 0 0 0 0 -419.90839697823685 333.26945808456367 0 333.26945808456367 -339.98172488901764 0 0 0 0 -412.58957725846267 90.361436339549982 0 90.361436339549982 -258.24414655565488 0 0 0 0 -320.01363768001465 457.58132510536598 0 457.58132510536598 -1021.2719224169705 0 0 0 0 -7.280747028647113 1.7312767783690646 0 1.7312767783690646 -0.81189146280241431 0 0 0 0 -402.40818107177984 -202.65159602503809 0 -202.65159602503809 47.463939373075846 0 0 0 0 -76.724557864959934 138.14799439591297 0 138.14799439591297 -603.90382232620323 0 0 0 0 -82.859528248285642 131.10164144252121 0 131.10164144252121 -362.96936154841387 0 0 0 0 -155.39973315632233 180.59786376443299 0 180.59786376443299 -258.69909451785861 0 0 0 0 -174.72678135511524 233.0259586300981 0 233.0259586300981 -215.07155108780717 0 0 0 0 -236.04702559368161 76.125417838627982 0 76.125417838627982 -185.70163339231658 0 0 0 0 -299.12712977910269 212.02782232167556 0 212.02782232167556 -153.1414732077028 0 0 0 0 -154.78775034224964 142.46895872976529 0 142.46895872976529 -126.07779745729931 0 0 0 0 -70.49017699222145 215.1431057720738 0 215.1431057720738 -218.04231474915287 0 0 0 0 -130.64689328767417 254.82492909989742 0 254.82492909989742 -141.91706593499839 0 0 0 0 -17.731408010165978 203.66604470602533 0 203.66604470602533 -119.93858366980567 0 0 0 0 33.429435090554762 178.51878202808803 0 178.51878202808803 -49.808266108519092 0 0 0 0 -118.04131264355965 200.76886582651059 0 200.76886582651059 -51.696674435417663 0 0 0 0 -192.30627558370179 164.46764922079456 0 164.46764922079456 -20.29642640241218 0 0 0 0 -80.353300929105899 183.74981271880097 0 183.74981271880097 -117.97485044965288 0 0 0 0 -155.36571556433046 149.53685954540924 0 149.53685954540924 87.250611665102042 0 0 0 0 -52.215996094609181 129.13374156372038 0 129.13374156372038 -22.144032482763578 0 0 0 0 55.979799591441406 168.43444969832854 0 168.43444969832854 49.601236696304113 0 0 0 0 -63.858515187447665 211.05032030192069 0 211.05032030192069 36.99116557767411 0 0 0 0 -249.16705064156849 125.16828644641828 0 125.16828644641828 -139.71515897097561 0 0 0 0 -134.67196552107634 147.49123909197624 0 147.49123909197624 -22.818469905752863 0 0 0 0 -235.24927449984534 60.669519998202304 0 60.669519998202304 13.277735535528336 0 0 0 0 -216.90561354245438 85.551000763822231 0 85.551000763822231 -115.1841365727887 0 0 0 0 -190.78629803522267 50.614615938493046 0 50.614615938493046 -74.447700156546489 0 0 0 0 -279.94500577785948 -22.034063708236317 0 -22.034063708236317 -201.75155931795598 0 0 0 0 -310.07598599119774 -29.500185567578001 0 -29.500185567578001 -156.3422307091314 0 0 0 0 -348.27814248629147 10.288113028240332 0 10.288113028240332 -136.1002823428571 0 0 0 0 -442.7941612996292 116.65256612219673 0 116.65256612219673 -191.84363018153817 0 0 0 0 -419.37379924287052 -42.904219344187595 0 -42.904219344187595 -201.00925138672028 0 0 0 0 -303.56002596198232 12.411509540805127 0 12.411509540805127 -174.58912042692828 0 0 0 0 -230.47404587482742 3.7548113728153112 0 3.7548113728153112 -218.6427756957346 0 0 0 0 -218.69254017882486 82.299401441094233 0 82.299401441094233 -138.99189248888433 0 0 0 0 -114.23188982807187 69.578343299253902 0 69.578343299253902 -165.29443522337897 0 0 0 0 -356.88556143528695 94.807437158859102 0 94.807437158859102 -131.33847431742106 0 0 0 0 -334.81373659544624 -42.022376175526006 0 -42.022376175526006 -162.24143995388476 0 0 0 0 22.028356300317682 -5.0546831032515911 0 -5.0546831032515911 -180.27175179304686 0 0 0 0 -109.09840051796346 132.75656989293566 0 132.75656989293566 -214.0361756392449 0 0 0 0 -1.9936744473996271 1.3028812120225837 0 1.3028812120225837 -2.1474643289052295 0 0 0 0 -424.76490817969352 -49.518594118899728 0 -49.518594118899728 28.934988593369781 0 0 0 0 -416.27456036202784 99.826408842764067 0 99.826408842764067 7.0716242651469656 0 0 0 0 2.2226816699777601 11.052129256086616 0 11.052129256086616 -28.339294145524036 0 0 0 0 16.4392605999019 12.309517674082599 0 12.309517674082599 -56.153121813211328 0 0 0 0 1.6223268869471212 10.471168698466499 0 10.471168698466499 -20.477504052629229 0 0 0 0 -0.37246189532015705 7.1141907680539589 0 7.1141907680539589 -9.0858933616837021 0 0 0 0 2.2806647502293345 -7.4737210267048795 0 -7.4737210267048795 -39.305694352799037 0 0 0 0 -32.102266205984051 -18.667651600724639 0 -18.667651600724639 -9.024406136948528 0 0 0 0 1.015563478365948 32.552836669296539 0 32.552836669296539 13.647854049988382 0 0 0 0 -32.415635330922669 5.2208772398880683 0 5.2208772398880683 16.658576928992261 0 0 0 0 -20.869848892180016 -33.268364285777352 0 -33.268364285777352 -52.742405687989958 0 0 0 0 22.125263609752437 19.064055165327773 0 19.064055165327773 -88.760680930739909 0 0 0 0 16.699703993654111 31.425247201092134 0 31.425247201092134 -115.51058660369677 0 0 0 0 18.047234686979209 -15.757655355104362 0 -15.757655355104362 -112.80930274996354 0 0 0 0 -99.736714351092814 118.07140106157021 0 118.07140106157021 -140.3048080405506 0 0 0 0 19.714623923093313 17.96124676854015 0 17.96124676854015 -165.75133282380193 0 0 0 0 13.349821063617128 79.63144392391041 0 79.63144392391041 -146.71537187953436 0 0 0 0 20.722466766175785 110.64492446698205 0 110.64492446698205 -43.522745042973838 0 0 0 0 10.331722858034482 301.62594454162536 0 301.62594454162536 -14.009427890045686 0 0 0 0 -0.42879290588462027 170.69825202072025 0 170.69825202072025 -12.617842149018543 0 0 0 0 -84.205718527438876 130.81177574751564 0 130.81177574751564 -72.78301883948734 0 0 0 0 8.8214480710375938 199.50294785291044 0 199.50294785291044 -116.79113245684857 0 0 0 0 -124.08949590963311 152.65427589982573 0 152.65427589982573 -139.69914287250504 0 0 0 0 -79.793765027916379 96.071633429426356 0 96.071633429426356 -195.08695779048867 0 0 0 0 -152.80516160174011 42.449869856474834 0 42.449869856474834 -312.13988389348015 0 0 0 0 -175.77784565854745 246.17842429958455 0 246.17842429958455 -267.87872073995823 0 0 0 0 -75.144121729019389 136.24671891385697 0 136.24671891385697 -142.34219632228996 0 0 0 0 -44.497069987439318 270.70201917778468 0 270.70201917778468 -120.98715166996863 0 0 0 0 36.662745591136627 329.40214610090152 0 329.40214610090152 -61.967877719063836 0 0 0 0 -114.36038172429107 152.71033437481856 0 152.71033437481856 -136.40911320222949 0 0 0 0 -72.991707421933825 291.27360903336375 0 291.27360903336375 -136.96830646091504 0 0 0 0 -54.850813430115522 231.36293013105933 0 231.36293013105933 -8.4389895105123287 0 0 0 0 69.168860229779966 272.53063794322952 0 272.53063794322952 -16.715672610370348 0 0 0 0 159.32355620736053 344.80361462950896 0 344.80361462950896 -0.17104027087680151 0 0 0 0 20.484205691274838 313.07973131383551 0 313.07973131383551 -3.5044820760376751 0 0 0 0 21.478310564009007 368.99016841103003 0 368.99016841103003 35.734533426686539 0 0 0 0 11.731012392498087 237.62482415355407 0 237.62482415355407 -103.33730974586797 0 0 0 0 -11.356473965970508 295.30406843371566 0 295.30406843371566 3.3893496020682505 0 0 0 0 64.693249864139943 364.33445864734676 0 364.33445864734676 -6.9792830814039917 0 0 0 0 150.17967843753831 197.110399569734 0 197.110399569734 387.9617495808634 0 0 0 0 239.47352272573335 459.19319816426287 0 459.19319816426287 217.31944361908063 0 0 0 0 35.308449215807741 336.39804986702643 0 336.39804986702643 146.25606851033081 0 0 0 0 77.455602069479937 417.90332030994614 0 417.90332030994614 76.057920719118556 0 0 0 0 55.04514454123273 244.50712441241012 0 244.50712441241012 83.798797085502883 0 0 0 0 78.205340901346062 314.03128504641063 0 314.03128504641063 136.80588834128139 0 0 0 0 -101.28727562476524 168.91986870377218 0 168.91986870377218 118.22564916730335 0 0 0 0 -96.079058330418775 258.14709516363655 0 258.14709516363655 84.433666947676102 0 0 0 0 106.68252055118501 200.30017845704788 0 200.30017845704788 100.9306322568591 0 0 0 0 -76.222263090327033 170.36802388412798 0 170.36802388412798 220.60660727360664 0 0 0 0 -103.11559893663798 219.00094400413036 0 219.00094400413036 137.53903976563015 0 0 0 0 165.89543392286578 169.63972139558973 0 169.63972139558973 216.80101710857707 0 0 0 0 -164.77085288976377 95.789088182013074 0 95.789088182013074 325.8675305723591 0 0 0 0 183.53215329437808 240.2319937519278 0 240.2319937519278 171.92178150328982 0 0 0 0 67.718682727328996 300.33007875373187 0 300.33007875373187 368.5464575954029 0 0 0 0 144.98355247429572 292.36979035689728 0 292.36979035689728 368.57715618961447 0 0 0 0 106.10447229238343 358.37901976203284 0 358.37901976203284 476.56498276986531 0 0 0 0 192.62610172800487 -26.857856304053712 0 -26.857856304053712 -207.02421916835738 0 0 0 0 88.703808460959408 330.47225571077433 0 330.47225571077433 619.30595955803074 0 0 0 0 17.357525641432375 3.0937765252193721 0 3.0937765252193721 0.25327533401170399 0 0 0 0 254.82871905580396 437.43749351943916 0 437.43749351943916 509.84564412525651 0 0 0 0 -747.64812320184137 -520.83624035331013 0 -520.83624035331013 857.78004060694366 0 0 0 0 574.5280523585825 52.15745296827663 0 52.15745296827663 290.71688940890817 0 0 0 0 730.34527043208072 327.81194537122428 0 327.81194537122428 -494.67063134114142 0 0 0 0 486.9348169619916 24.321103553720604 0 24.321103553720604 -324.08547065779567 0 0 0 0 317.67609666628414 1505.9704069908548 0 1505.9704069908548 -453.53547432038613 0 0 0 0 -1030.9639117142506 1044.6254347724753 0 1044.6254347724753 5.9353642180212773 0 0 0 0 96.452968985438929 518.11070612284675 0 518.11070612284675 -527.77945804114916 0 0 0 0 -363.0723932730325 303.65640254339451 0 303.65640254339451 -212.0516449127681 0 0 0 0 35.794387198133336 25.903087865368434 0 25.903087865368434 -210.41490027189866 0 0 0 0 32.224052102807036 162.46597371496318 0 162.46597371496318 -328.27605242692516 0 0 0 0 102.91191326692933 91.257295205141418 0 91.257295205141418 -262.63178670384514 0 0 0 0 14.808629960360122 204.94694836241251 0 204.94694836241251 14.743567657606036 0 0 0 0 8.1627371857175604 9.6433082086514332 0 9.6433082086514332 -147.28832571041858 0 0 0 0 238.08101879455717 -80.487518757339785 0 -80.487518757339785 -6.5510526934231166 0 0 0 0 105.16008881753078 307.63410336947709 0 307.63410336947709 523.00524860814767 0 0 0 0 -0.26023538920472333 1.0667481548172475 0 1.0667481548172475 3.0522731863509875 0 0 0 0 -84.776922407931124 111.48240036077186 0 111.48240036077186 304.96481389960991 0 0 0 0 -5.3749614051594108 72.933208668593579 0 72.933208668593579 -45.126982862115256 0 0 0 0 1.6114804953132307 -0.48268556224824266 0 -0.48268556224824266 0.5344064396818542 0 0 0 0 -27.677557671500836 17.198535447845643 0 17.198535447845643 91.020633284111682 0 0 0 0 43.100452609343137 15.291151579661303 0 15.291151579661303 5.1509015952276798 0 0 0 0 14.490956019312691 3.2632715435648976 0 3.2632715435648976 -0.59831684821878639 0 0 0 0 20.844028369305306 54.673894960986217 0 54.673894960986217 -55.048920318995442 0 0 0 0 94.15389259497897 19.301316932254849 0 19.301316932254849 -65.17075691885475 0 0 0 0 -10.076999206925393 69.717471578100231 0 69.717471578100231 -141.55530749423633 0 0 0 0 14.315361275323085 102.26306970622318 0 102.26306970622318 -202.08467064725119 0 0 0 0 -56.080313818194554 190.48574858485335 0 190.48574858485335 -133.59630769016803 0 0 0 0 35.333490905461076 195.46034140657321 0 195.46034140657321 -133.42500378916884 0 0 0 0 7.1466811538557522 144.49717724358197 0 144.49717724358197 -143.85640200989292 0 0 0 0 -31.224985717664822 121.16062034057904 0 121.16062034057904 -134.14049854339828 0 0 0 0 -10.298274985674652 148.48531999292936 0 148.48531999292936 -98.635025910549302 0 0 0 0 -66.306106219097273 162.08326474536807 0 162.08326474536807 -89.241703237234105 0 0 0 0 -34.705253613312379 114.48176779908317 0 114.48176779908317 -77.785914575824791 0 0 0 0 -31.908852963300887 118.04418134973639 0 118.04418134973639 -82.212447122034064 0 0 0 0 -61.190798531497421 144.60797823556368 0 144.60797823556368 -48.586866863372052 0 0 0 0 -55.817734807216766 135.63610413902711 0 135.63610413902711 -43.579384370943444 0 0 0 0 -80.09988241190149 149.74545397315251 0 149.74545397315251 -42.793627870261844 0 0 0 0 -58.702814129541366 147.34179516401991 0 147.34179516401991 -72.707401459563698 0 0 0 0 -68.440645418493659 142.51607814618274 0 142.51607814618274 -36.628626229901784 0 0 0 0 -71.641882061332581 147.07291251695096 0 147.07291251695096 -42.668428723882244 0 0 0 0 -36.565166783635505 103.64626349087484 0 103.64626349087484 -41.182587383803366 0 0 0 0 -115.70226035526503 118.27866097413107 0 118.27866097413107 -5.3437817321973853 0 0 0 0 -92.656685752677731 133.79910379359535 0 133.79910379359535 -26.610131594254199 0 0 0 0 -108.19778024339757 131.6084101165161 0 131.6084101165161 -26.718307259322216 0 0 0 0 -109.65746078306984 149.6573770456871 0 149.6573770456871 -17.169099291822931 0 0 0 0 -100.40489257071749 138.29900517416263 0 138.29900517416263 -25.943736226032343 0 0 0 0 -94.397175398909894 166.16752066979825 0 166.16752066979825 -61.560882301870151 0 0 0 0 -128.40521533976062 116.06656955330891 0 116.06656955330891 -19.977034702744277 0 0 0 0 -155.75882693746462 185.28604104524447 0 185.28604104524447 -42.89381613286605 0 0 0 0 -288.31359630760562 134.61803006269838 0 134.61803006269838 -20.422448173549583 0 0 0 0 -98.370872622428578 189.88719365602083 0 189.88719365602083 -85.84716195025976 0 0 0 0 -97.31725283004198 180.36803598207916 0 180.36803598207916 -70.559269662982842 0 0 0 0 -66.817337987453357 164.46473092265569 0 164.46473092265569 -65.415331097778108 0 0 0 0 -74.408898546316777 251.48888017791614 0 251.48888017791614 -235.73237825750675 0 0 0 0 -53.084436888006167 170.06479482659051 0 170.06479482659051 -37.571966591103774 0 0 0 0 -198.5216042908869 195.06895836952754 0 195.06895836952754 -112.79791632172055 0 0 0 0 -191.51243379087828 241.69192402443878 0 241.69192402443878 -106.58230858499155 0 0 0 0 -412.59887024172349 409.86115650782449 0 409.86115650782449 -208.55597244870251 0 0 0 0 -550.05866328102093 -45.722510230075841 0 -45.722510230075841 -98.33904629186145 0 0 0 0 719.48226354338112 -428.59757883918064 0 -428.59757883918064 -291.46987064279529 0 0 0 0 -179.1459272664797 36.548243645518596 0 36.548243645518596 -80.102700270064815 0 0 0 0 -232.8799249597796 -20.140585740758979 0 -20.140585740758979 -295.53126982847971 0 0 0 0 -6.7754385269761599 -1.1966188086882852 0 -1.1966188086882852 0.76012146186893403 0 0 0 0 -408.83867410591483 444.48735844034309 0 444.48735844034309 426.93966682579776 0 0 0 0 -40.346586711770215 -56.609591256341446 0 -56.609591256341446 14.406775315859704 0 0 0 0 68.198753738673986 16.842479025295688 0 16.842479025295688 37.92845131379363 0 0 0 0 457.65212157479255 364.44501649011545 0 364.44501649011545 53.633887842199329 0 0 0 0 -11.283393633267131 20.403050221663605 0 20.403050221663605 -27.938193031486861 0 0 0 0 -121.54419459493511 100.96778530157826 0 100.96778530157826 -43.89134739588917 0 0 0 0 -166.37441606249558 82.959271464363155 0 82.959271464363155 8.1919035795435775 0 0 0 0 41.369038822524999 86.167740144632603 0 86.167740144632603 -39.599018384404189 0 0 0 0 -31.008473625639454 56.271023084755143 0 56.271023084755143 -3.1718940620999092 0 0 0 0 63.334865871171132 162.38526717423156 0 162.38526717423156 11.701444492842711 0 0 0 0 2.1951654719403209 31.293767364687483 0 31.293767364687483 -36.165371225977026 0 0 0 0 24.897805156342741 35.262742659308884 0 35.262742659308884 24.99687268152762 0 0 0 0 -22.472732585694757 72.348083857069241 0 72.348083857069241 -27.88768332703512 0 0 0 0 43.706882312268135 99.783208981749794 0 99.783208981749794 -30.257383200107142 0 0 0 0 108.18197514912026 41.080809772182874 0 41.080809772182874 3.7227446910255821 0 0 0 0 60.654583338670164 99.021141122504389 0 99.021141122504389 1.6771677977032518 0 0 0 0 46.734058816454962 62.789879340668108 0 62.789879340668108 -25.392471052561135 0 0 0 0 15.425283571893317 33.27660151311877 0 33.27660151311877 11.9495330547487 0 0 0 0 -8.7455053237208631 56.881158500114907 0 56.881158500114907 -23.797973879205529 0 0 0 0 30.06267724049394 91.356054419607972 0 91.356054419607972 -25.23189427905163 0 0 0 0 -29.900952602358302 83.315829727485834 0 83.315829727485834 -16.694525138997051 0 0 0 0 -123.34871576465957 424.88678973234562 0 424.88678973234562 -491.16364655824555 0 0 0 0 -193.20583801178873 413.59615412244727 0 413.59615412244727 -300.16137091658175 0 0 0 0 11.095817329129204 65.582486924748082 0 65.582486924748082 -39.476642180648014 0 0 0 0 -288.52059684207779 237.12632649429497 0 237.12632649429497 -73.219794833931701 0 0 0 0 12.961837358997457 40.546286658928778 0 40.546286658928778 30.261184961160975 0 0 0 0 -9.7105477973382222 57.498681094730273 0 57.498681094730273 38.908067635882617 0 0 0 0 20.782697408023523 81.596995887141929 0 81.596995887141929 -32.206641588778439 0 0 0 0 22.620493690551797 37.966584168947932 0 37.966584168947932 33.393116563776232 0 0 0 0 30.654338635868044 36.200971117672452 0 36.200971117672452 19.089508244802346 0 0 0 0 15.968570210423422 72.900495024279962 0 72.900495024279962 71.04269657682562 0 0 0 0 26.933756540378639 40.22231752735847 0 40.22231752735847 41.321691268838563 0 0 0 0 -98.467685691106681 94.228678834141306 0 94.228678834141306 73.387749660301779 0 0 0 0 -97.305238580760488 73.437687865374755 0 73.437687865374755 135.37822931879055 0 0 0 0 -16.141655563060141 11.651277428533788 0 11.651277428533788 9.8828881367094894 0 0 0 0 -55.405606810489189 32.510091648632169 0 32.510091648632169 2.8513331496724277 0 0 0 0 713.52267343984568 -464.13722642398352 0 -464.13722642398352 -451.65919908853903 0 0 0 0 -45.673306146883988 -6.4472724319675763 0 -6.4472724319675763 124.27734177240745 0 0 0 0 -363.48216771437728 143.10851451810595 0 143.10851451810595 540.40291314772912 0 0 0 0 -312.98389634437262 -12.176351189558773 0 -12.176351189558773 1349.7913459146585 0 0 0 0 247.47622468366899 252.97947196298992 0 252.97947196298992 123.03131983237836 0 0 0 0 3.3862353473498814 5.4758502000468638 0 5.4758502000468638 -3.3296664180385989 0 0 0 0 321.96118561981712 -219.98751059354981 0 -219.98751059354981 1044.0099080325163 0 0 0 0 113.34292990792892 179.92112052955599 0 179.92112052955599 -179.51823317311937 0 0 0 0 5.907665666948958 5.203728130946379 0 5.203728130946379 4.3870931446624724 0 0 0 0 229.73065407856484 317.58455307080658 0 317.58455307080658 -31.423413108364912 0 0 0 0 38.781207686377456 165.39850804204252 0 165.39850804204252 -90.067448695917847 0 0 0 0 -29.43919464427745 35.827838200097176 0 35.827838200097176 -148.62258848473721 0 0 0 0 5.9913412255991716 89.091568719770294 0 89.091568719770294 -89.943559779218049 0 0 0 0 -80.691379920506733 59.142358131633955 0 59.142358131633955 -5.7210766531570698 0 0 0 0 -95.079389838494535 95.406047869455506 0 95.406047869455506 33.236830797977746 0 0 0 0 30.367966871323006 152.98526413577383 0 152.98526413577383 -15.463446374109481 0 0 0 0 -68.665286348579684 97.673992783216818 0 97.673992783216818 3.3390931115081912 0 0 0 0 -88.378052989210119 58.579128162098641 0 58.579128162098641 30.86842375247943 0 0 0 0 -67.689659660485177 68.520268081806648 0 68.520268081806648 0.74344978653243743 0 0 0 0 -102.34293110766885 153.24797236322047 0 153.24797236322047 82.784817314437532 0 0 0 0 -119.51219881314319 242.25516126946786 0 242.25516126946786 131.36048457342986 0 0 0 0 -95.628958377506933 197.48708171265753 0 197.48708171265753 16.676450554994517 0 0 0 0 83.189272545845597 259.56983026115631 0 259.56983026115631 34.953862649937946 0 0 0 0 -139.26078682951629 277.88348960535222 0 277.88348960535222 124.78673279637587 0 0 0 0 -169.04857501093647 353.77807292983198 0 353.77807292983198 143.17120189854904 0 0 0 0 -61.695942566511803 379.47864210465195 0 379.47864210465195 119.17450058642135 0 0 0 0 124.41454610689107 580.05624772198371 0 580.05624772198371 303.63573226378503 0 0 0 0 -237.84994625756372 249.4278869026748 0 249.4278869026748 111.05718597900704 0 0 0 0 -181.90306850356865 338.48875121813035 0 338.48875121813035 -25.751867275608674 0 0 0 0 -547.21392599560932 11.102802183513631 0 11.102802183513631 68.382460574466677 0 0 0 0 297.60648482272518 125.54800990402873 0 125.54800990402873 65.022371501148882 0 0 0 0 -222.77192418685445 237.69936489868451 0 237.69936489868451 178.40114971989533 0 0 0 0 -113.66896178471507 147.04955184372375 0 147.04955184372375 113.86563056420709 0 0 0 0 -187.76607355935266 299.572338805443 0 299.572338805443 136.50058559175159 0 0 0 0 -1427.1070674349703 215.51645900509629 0 215.51645900509629 164.13054129538796 0 0 0 0 -4.7145796956929331 10.245850081088292 0 10.245850081088292 -10.188160428393246 0 0 0 0 1216.4772115300802 329.96394710669301 0 329.96394710669301 -443.97928048117319 0 0 0 0 489.30318131429522 385.77105490243775 0 385.77105490243775 -33.596849550362094 0 0 0 0 317.3988590293884 751.43828373723954 0 751.43828373723954 95.741880700239562 0 0 0 0 -353.17442485294305 848.34433426441683 0 848.34433426441683 105.69371145794867 0 0 0 0 -60.768463479267666 448.74322903603388 0 448.74322903603388 140.43494781739719 0 0 0 0 71.702307380117418 501.81701890778822 0 501.81701890778822 74.73652518511517 0 0 0 0 148.61144342155967 236.61700756854043 0 236.61700756854043 81.034473176521715 0 0 0 0 -184.05581468637683 323.03285290002896 0 323.03285290002896 177.02841220458504 0 0 0 0 -238.4761901095917 490.81768752684002 0 490.81768752684002 143.55389063172333 0 0 0 0 -998.75001143144618 612.82283239144454 0 612.82283239144454 444.80824457378185 0 0 0 0 -542.28548944533395 362.21773963225496 0 362.21773963225496 515.60729567619273 0 0 0 0 -104.95326856024622 239.68738557305187 0 239.68738557305187 153.15459585245117 0 0 0 0 -114.31069423341251 306.40117511250719 0 306.40117511250719 110.91755248260597 0 0 0 0 -189.63541272639122 260.07382431133374 0 260.07382431133374 167.62672558276972 0 0 0 0 -169.18147798314021 221.14415069198003 0 221.14415069198003 135.75432748511957 0 0 0 0 -180.48375214844418 289.46587396858013 0 289.46587396858013 233.00694687641226 0 0 0 0 -233.96667700645048 208.40553679333971 0 208.40553679333971 218.97565212046175 0 0 0 0 -234.09312905506482 161.4023128098053 0 161.4023128098053 148.77035393867118 0 0 0 0 -267.15740666375495 224.5926472174433 0 224.5926472174433 286.02645602538541 0 0 0 0 -171.76470007377065 119.53947602340213 0 119.53947602340213 389.90006584832736 0 0 0 0 -266.92095542096649 219.30435583824146 0 219.30435583824146 231.83030655152243 0 0 0 0 -217.00838160686544 131.60497110086726 0 131.60497110086726 265.03522052897551 0 0 0 0 -257.0780719028262 193.29399648012986 0 193.29399648012986 174.43816874793993 0 0 0 0 -258.68531467407593 139.53484187905269 0 139.53484187905269 175.83910936717439 0 0 0 0 -260.25723580046179 128.32470934921366 0 128.32470934921366 155.22892797467648 0 0 0 0 -300.98552562644181 151.84098458824155 0 151.84098458824155 204.32881584745337 0 0 0 0 -365.55732825167797 123.87289741015775 0 123.87289741015775 157.95459534340625 0 0 0 0 -240.29613380100636 75.321191072711372 0 75.321191072711372 112.77457186804895 0 0 0 0 -226.92153146856435 47.345622134541372 0 47.345622134541372 95.641801052901428 0 0 0 0 -220.16741316310072 65.127943738323665 0 65.127943738323665 117.9258766155981 0 0 0 0 -161.55909806941054 -7.2617343983183673 0 -7.2617343983183673 42.456186134791096 0 0 0 0 -94.102157651912421 34.502550335240812 0 34.502550335240812 51.706727056844102 0 0 0 0 -155.43918793630291 63.389565191613656 0 63.389565191613656 68.019184731761925 0 0 0 0 -165.47603429459559 59.543388170015533 0 59.543388170015533 93.121184088578048 0 0 0 0 -128.45017830144934 31.799512104036694 0 31.799512104036694 53.630852856542333 0 0 0 0 -96.658874198270496 44.568760282101721 0 44.568760282101721 50.491698420286411 0 0 0 0 -114.05630942710377 57.81967129954046 0 57.81967129954046 40.399134468607372 0 0 0 0 -109.92662556000141 80.013996576440604 0 80.013996576440604 73.988672432213207 0 0 0 0 -167.3940776855452 132.66030939510892 0 132.66030939510892 94.407980698415486 0 0 0 0 -185.66525877767708 189.25705205998383 0 189.25705205998383 163.1813151051465 0 0 0 0 -195.75296879387679 102.84088762306055 0 102.84088762306055 119.83615996419394 0 0 0 0 -31.696340912298183 35.59586801907335 0 35.59586801907335 33.01196618071117 0 0 0 0 19.736758770552115 23.259138316061581 0 23.259138316061581 40.014033996172657 0 0 0 0 -25.05113069874642 51.77187905378014 0 51.77187905378014 23.687065428370261 0 0 0 0 -74.026851100526983 63.373830455810094 0 63.373830455810094 17.244282060099067 0 0 0 0 -74.796116744022584 42.682843163307552 0 42.682843163307552 31.839392642497842 0 0 0 0 -96.35927965711744 47.634063347257324 0 47.634063347257324 45.659364363840723 0 0 0 0 -62.543467823925312 52.360999281729164 0 52.360999281729164 47.665133424277883 0 0 0 0 -46.965272415225627 31.480336443972192 0 31.480336443972192 24.288571181015868 0 0 0 0 -68.37983544945746 37.106428710751061 0 37.106428710751061 43.725122377261869 0 0 0 0 -94.049226523537072 37.125034485587094 0 37.125034485587094 49.899018066353165 0 0 0 0 26.715060983919102 47.350619082239064 0 47.350619082239064 19.219547678119852 0 0 0 0 -24.045198854873888 58.505593972487986 0 58.505593972487986 38.745965481823077 0 0 0 0 -27.722074512945255 41.984062666935642 0 41.984062666935642 30.238545012871327 0 0 0 0 -20.95662564819213 62.234065036369429 0 62.234065036369429 60.073607886200989 0 0 0 0 14.80162645812743 29.631844818355603 0 29.631844818355603 18.718431557565054 0 0 0 0 -7.9571861061881748 20.788241184333131 0 20.788241184333131 20.941923817970888 0 0 0 0 -11.833495086611947 25.833882238788647 0 25.833882238788647 35.29793978849375 0 0 0 0 2.3674199727902305 35.56592835407173 0 35.56592835407173 41.925077519194019 0 0 0 0 0.18390138297775138 13.09800721665566 0 13.09800721665566 12.96666214022439 0 0 0 0 1.1042978917675157 9.9244160105527257 0 9.9244160105527257 15.875402030313666 0 0 0 0 0.45826449123978819 12.140731678803149 0 12.140731678803149 44.352309273628634 0 0 0 0 21.834177510160544 67.816689510153878 0 67.816689510153878 69.463426581882231 0 0 0 0 1.8396189388783739 9.4873522626227782 0 9.4873522626227782 6.3131260386969945 0 0 0 0 -0.0071327396611451377 14.19326950558721 0 14.19326950558721 25.902881404914893 0 0 0 0 18.90833602710336 35.242751195793971 0 35.242751195793971 22.041718941094587 0 0 0 0 51.900718730745211 72.543452083611555 0 72.543452083611555 151.14598701479918 0 0 0 0 15.218970784699195 48.295845246964745 0 48.295845246964745 11.513099392299409 0 0 0 0 27.730121539197626 21.092854008145913 0 21.092854008145913 13.690888232650877 0 0 0 0 -30.453607799528982 -10.352255144567607 0 -10.352255144567607 52.116498957224394 0 0 0 0 7.6108407052677336 3.0217208067582817 0 3.0217208067582817 2.3319093701984457 0 0 0 0 84.00051065137086 -43.342336508247627 0 -43.342336508247627 46.002027305985393 0 0 0 0 -89.257820168619219 116.25640066142751 0 116.25640066142751 149.34185293277915 0 0 0 0 -97.556304199257283 49.256380049088875 0 49.256380049088875 146.16811787595179 0 0 0 0 6.7645459570644704 30.523837656656028 0 30.523837656656028 84.967562446111032 0 0 0 0 -2.9988417659733386 195.85648489648611 0 195.85648489648611 221.87181924686593 0 0 0 0 -9.960473186460149 -12.278067364208255 0 -12.278067364208255 203.69166598139418 0 0 0 0 -37.490581937367097 39.650550041129463 0 39.650550041129463 121.33004248519683 0 0 0 0 88.913750868934585 -38.620240166148051 0 -38.620240166148051 111.13135833381966 0 0 0 0 21.107730856427224 -41.26223078255498 0 -41.26223078255498 220.70571121482863 0 0 0 0 -30.026544468986685 48.098598143733398 0 48.098598143733398 207.60980968023978 0 0 0 0 -0.066172360704513267 25.923538644507062 0 25.923538644507062 6.223409487391109 0 0 0 0 -11.203502673415642 43.363760437001474 0 43.363760437001474 -14.996393589593936 0 0 0 0 -80.634532340831356 90.705053474899614 0 90.705053474899614 -43.834884220120102 0 0 0 0 -53.191121538708103 80.014296454843134 0 80.014296454843134 -44.362129455003014 0 0 0 0 -88.450360009692304 57.531388324332056 0 57.531388324332056 17.64885369221156 0 0 0 0 -78.362012482262799 46.191331353336864 0 46.191331353336864 4.5710654192589573 0 0 0 0 -75.580665813889937 70.37213679616616 0 70.37213679616616 -27.715242749458412 0 0 0 0 -23.241676805511815 -69.582838976708445 0 -69.582838976708445 279.51778566348366 0 0 0 0 18.447282732161796 13.062242204318828 0 13.062242204318828 8.7928369905935924 0 0 0 0 -111.60367471970676 42.545951193606015 0 42.545951193606015 -43.011915122275241 0 0 0 0 -86.92634496759274 -142.46163676697324 0 -142.46163676697324 335.02170602069236 0 0 0 0 -64.36789346759906 78.487238504931156 0 78.487238504931156 444.58646395413598 0 0 0 0 62.18950335442787 299.8888727442245 0 299.8888727442245 726.73002715951225 0 0 0 0 -121.39425901880895 -266.97653843204171 0 -266.97653843204171 1172.6725458926885 0 0 0 0 20.928320985486096 32.572614846761581 0 32.572614846761581 -10.972987106215744 0 0 0 0 198.81357288370782 28.996479006204027 0 28.996479006204027 -63.663901235293451 0 0 0 0 7.7309896691003814 117.79870675966231 0 117.79870675966231 237.06491954597004 0 0 0 0 -40.428897010089713 62.820823738169565 0 62.820823738169565 223.76736373799486 0 0 0 0 2.1344895259244367 111.17738431990074 0 111.17738431990074 102.05219405676326 0 0 0 0 6.5305549202166731 93.50875045509747 0 93.50875045509747 141.43406311362924 0 0 0 0 -25.688849464713712 36.271628100414091 0 36.271628100414091 231.47471678395232 0 0 0 0 -52.949607978254789 141.93771571780235 0 141.93771571780235 204.94350380286232 0 0 0 0 31.131357255602779 82.127129702460479 0 82.127129702460479 -0.11845315596747241 0 0 0 0 5.8214882772571173 37.471637736316936 0 37.471637736316936 -1.0252859859108057 0 0 0 0 -7.3797274724929594 48.689804461922904 0 48.689804461922904 54.168318330441252 0 0 0 0 17.692436821074807 90.236088303794531 0 90.236088303794531 92.151687444320487 0 0 0 0 1.9418509635579539 36.013653332593094 0 36.013653332593094 31.014347573080158 0 0 0 0 -48.441703440170386 386.97723276444617 0 386.97723276444617 -649.892990286143 0 0 0 0 45.647112161881523 337.6686377761647 0 337.6686377761647 -855.90554933911199 0 0 0 0 26.334127467261368 40.692740171851412 0 40.692740171851412 30.439548723739243 0 0 0 0 26.867337778341607 315.55639809089666 0 315.55639809089666 -610.00415250223864 0 0 0 0 -112.11647914194327 486.82472586878021 0 486.82472586878021 -374.18611927723714 0 0 0 0 -65.509841384671745 406.36584283147488 0 406.36584283147488 -432.10871600708515 0 0 0 0 -129.42435001420381 461.12211796618749 0 461.12211796618749 -359.38186541470805 0 0 0 0 -137.64475631641835 373.96455121112967 0 373.96455121112967 -401.10614652406684 0 0 0 0 -540.13155614940479 551.47358862854696 0 551.47358862854696 -368.64504795398807 0 0 0 0 -296.32181239424972 116.94267177829465 0 116.94267177829465 149.92415122676721 0 0 0 0 -328.77023275246029 458.31108302955568 0 458.31108302955568 -411.29851873513604 0 0 0 0 -205.11647116854147 500.24080367307874 0 500.24080367307874 -404.4509722178899 0 0 0 0 -124.92489174596267 599.63902891946236 0 599.63902891946236 -848.0660426947577 0 0 0 0 -110.54601667753013 541.59644254621094 0 541.59644254621094 -614.34570594820798 0 0 0 0 35.423867194214836 376.18081548963539 0 376.18081548963539 -995.46069881126277 0 0 0 0 -244.38893362120871 573.88373518396941 0 573.88373518396941 -1082.0019479308955 0 0 0 0 -125.36650696293509 353.91592956407237 0 353.91592956407237 -1142.2320124511753 0 0 0 0 6.3388753890882157 10.291723618585294 0 10.291723618585294 -13.262700155065691 0 0 0 0 -381.55603512129164 556.15122629785935 0 556.15122629785935 -605.41846580054062 0 0 0 0 86.572429065392498 -14.070780964045269 0 -14.070780964045269 -180.57441408256295 0 0 0 0 108.31705740684993 38.751866270163418 0 38.751866270163418 -521.57178578002208 0 0 0 0 34.531958281663861 42.620361814449033 0 42.620361814449033 2.8107879107751081 0 0 0 0 20.261967956413002 69.391397587546493 0 69.391397587546493 78.000385411472379 0 0 0 0 6.4982715474907309 71.401518443199166 0 71.401518443199166 133.40615500378044 0 0 0 0 17.899278391239932 82.805030347000866 0 82.805030347000866 114.37364761249773 0 0 0 0 14.179092761769425 86.337300813225738 0 86.337300813225738 114.58220646480549 0 0 0 0 -7.2064960803836584 85.844895050327978 0 85.844895050327978 127.86541146259697 0 0 0 0 8.8317103315348504 95.8103139084742 0 95.8103139084742 99.410392549063545 0 0 0 0 19.473915816939552 46.095290008204756 0 46.095290008204756 71.568048217370233 0 0 0 0 19.859580376694794 35.471099710892304 0 35.471099710892304 153.12980623251497 0 0 0 0 -1.828709304703807 34.469540916706137 0 34.469540916706137 18.209982300366391 0 0 0 0 0.49179555690966481 25.605164232776211 0 25.605164232776211 25.611808328904306 0 0 0 0 -135.91748865776754 -67.68584513744986 0 -67.68584513744986 65.686663860649105 0 0 0 0 5.0078643634313806 42.330551478123823 0 42.330551478123823 63.213108505104906 0 0 0 0 35.736484777473379 22.134005234722281 0 22.134005234722281 -106.51633330740879 0 0 0 0 1.9498430950158934 7.9968084395478911 0 7.9968084395478911 27.56844675979157 0 0 0 0 10.640917523836833 58.969836499330995 0 58.969836499330995 168.33441385425976 0 0 0 0 -16.343350641214357 11.375715589100004 0 11.375715589100004 57.489000090477511 0 0 0 0 -12.021978373857564 19.773563766757434 0 19.773563766757434 53.521887397840146 0 0 0 0 -10.4926762914547 41.071837928655441 0 41.071837928655441 56.482897031159609 0 0 0 0 -13.107742991080102 9.9945465178259454 0 9.9945465178259454 2.2652326770079436 0 0 0 0 -44.678251120174536 -10.775545485468683 0 -10.775545485468683 174.79533474911113 0 0 0 0 0.90316062441416989 3.0225832370467103 0 3.0225832370467103 2.9406349911854139 0 0 0 0 89.970453819623799 39.381889171508192 0 39.381889171508192 -30.489921757191041 0 0 0 0 53.587555600730411 135.62173354221525 0 135.62173354221525 -819.73703798681822 0 0 0 0 38.29420071617642 214.81006670778493 0 214.81006670778493 -738.53203489857344 0 0 0 0 -89.009628022493416 250.21028855326881 0 250.21028855326881 -596.80437167105174 0 0 0 0 -115.83357886191379 518.94665251056551 0 518.94665251056551 -726.95075395858771 0 0 0 0 943.52386814779311 235.57664936028863 0 235.57664936028863 -916.7544078900944 0 0 0 0 267.86060148244724 510.7950658227752 0 510.7950658227752 -1020.5766530982935 0 0 0 0 391.10648245849006 163.79793222507112 0 163.79793222507112 -944.90839760192296 0 0 0 0 141.54704429577396 245.40746286137068 0 245.40746286137068 -691.95842342059427 0 0 0 0 102.9066689148458 329.42709040419231 0 329.42709040419231 44.459114628419684 0 0 0 0 498.04160964545008 -65.504550870550958 0 -65.504550870550958 -471.76162375918022 0 0 0 0 -0.33030191471360126 3.6043749222800017 0 3.6043749222800017 -4.1639916339582062 0 0 0 0 -0.19460730206628796 362.52355580144496 0 362.52355580144496 -487.07305322636637 0 0 0 0 77.760705572793086 213.09524918753061 0 213.09524918753061 -462.72287156620467 0 0 0 0 -21.381254528663703 291.4187890606504 0 291.4187890606504 -510.81523870444289 0 0 0 0 200.76550728423899 221.45045992694725 0 221.45045992694725 -1108.8003342038064 0 0 0 0 52.90275338344145 209.20936064304624 0 209.20936064304624 -1058.9606127765155 0 0 0 0 -164.86982767867448 316.78232786570243 0 316.78232786570243 -979.3518695292405 0 0 0 0 -42.998163256677799 117.43073558172773 0 117.43073558172773 -834.22404851462397 0 0 0 0 -0.059874505321204197 43.687931916887464 0 43.687931916887464 -1425.8634727405315 0 0 0 0 -63.125493052444654 402.88552025470972 0 402.88552025470972 -1147.1547937391235 0 0 0 0 -28.696373267397576 342.17677748563119 0 342.17677748563119 -37.86398808148806 0 0 0 0 -4.2355517146332318 2.0684911140897455 0 2.0684911140897455 -3.1403841038266012 0 0 0 0 -52.263912905058532 -130.79211391092502 0 -130.79211391092502 -975.69792261377961 0 0 0 0 220.95110219714843 -54.100711576041704 0 -54.100711576041704 -1885.3926690219128 0 0 0 0 -12.846136610955 221.57597567416633 0 221.57597567416633 196.72577562038896 0 0 0 0 82.032605486725515 92.015830568353067 0 92.015830568353067 151.38932167036 0 0 0 0 43.301497818858479 84.162094441711815 0 84.162094441711815 164.86165375620112 0 0 0 0 40.230116731516318 118.24280948334399 0 118.24280948334399 -45.703126393877028 0 0 0 0 -0.12518179920152761 27.600978327249322 0 27.600978327249322 93.766278783958114 0 0 0 0 8.2955149784247624 37.812729082662372 0 37.812729082662372 105.78875065567081 0 0 0 0 9.6268104370537912 -3.0212048132816562 0 -3.0212048132816562 102.94986177142891 0 0 0 0 0.073790326983726118 35.183622229099456 0 35.183622229099456 46.727805715938302 0 0 0 0 -9.1610192162625026 28.671389490340516 0 28.671389490340516 25.843509976822133 0 0 0 0 49.976026339172677 36.233196768062953 0 36.233196768062953 26.798490535846213 0 0 0 0 4.068112829070742 34.336696148405963 0 34.336696148405963 214.42943063073471 0 0 0 0 97.488338684255723 -33.181355323993557 0 -33.181355323993557 100.79566930640522 0 0 0 0 82.837290033261525 148.05494911183723 0 148.05494911183723 157.4750207519146 0 0 0 0 2.9082711772963421 -0.82018151869986156 0 -0.82018151869986156 -1.4228941082491513 0 0 0 0 -7.8330436349642696 -37.188100331885835 0 -37.188100331885835 399.56139640448328 0 0 0 0 -6.0201273888815194 19.578741635164988 0 19.578741635164988 138.14467879882523 0 0 0 0 -69.86569488303212 -9.6627483852325895 0 -9.6627483852325895 143.85671309464669 0 0 0 0 -23.343054422934074 92.543970647858259 0 92.543970647858259 51.609017843285983 0 0 0 0 51.586505113198655 106.21851470654019 0 106.21851470654019 34.402175694865946 0 0 0 0 48.836878168428939 62.020801126027436 0 62.020801126027436 30.473568157092814 0 0 0 0 68.039163234367152 71.04690957735329 0 71.04690957735329 22.73687074170175 0 0 0 0 -25.484705065657181 9.824399157874268 0 9.824399157874268 6.4028940358875843 0 0 0 0 0.66342022556001723 4.9251002459596975 0 4.9251002459596975 1.9697088217101921 0 0 0 0 24.790173260771553 35.855943607644804 0 35.855943607644804 35.528193424474011 0 0 0 0 -0.90667766996193677 9.5508917431106966 0 9.5508917431106966 40.592140521427609 0 0 0 0 11.719458247644354 18.455544447994583 0 18.455544447994583 23.434645442768741 0 0 0 0 3.1705956116335301 11.533240170741024 0 11.533240170741024 28.341613712048002 0 0 0 0 15.975292239083501 -3.1793789309549538 0 -3.1793789309549538 50.686308457974519 0 0 0 0 11.83324841895049 25.298549642750743 0 25.298549642750743 59.232082692598688 0 0 0 0 1.8908185104093889 6.9109200805207074 0 6.9109200805207074 18.535379738285975 0 0 0 0 21.487549460354785 27.011801080065197 0 27.011801080065197 28.931625840279594 0 0 0 0 10.888045433238176 18.784766470490055 0 18.784766470490055 26.635902743180807 0 0 0 0 6.7736213695388869 16.350053819138338 0 16.350053819138338 24.015741114479169 0 0 0 0 1.4769842002424411 16.696339085725413 0 16.696339085725413 16.830905366346997 0 0 0 0 12.089871434908588 13.412501043960411 0 13.412501043960411 14.431937746773947 0 0 0 0 2.2997243701247498 29.128901209922333 0 29.128901209922333 44.490047538509316 0 0 0 0 6.8501004508683536 14.787060859564576 0 14.787060859564576 13.954539478716612 0 0 0 0 0.11489587069809204 9.7141626235787726 0 9.7141626235787726 30.304738213511882 0 0 0 0 14.779609305291444 15.563044845751733 0 15.563044845751733 14.048455477530339 0 0 0 0 29.027499805117259 35.758696982635229 0 35.758696982635229 -4.2524575193729106 0 0 0 0 -0.2119243431833695 3.9364331858171795 0 3.9364331858171795 3.5071288919107673 0 0 0 0 14.215211210870621 15.746802886236765 0 15.746802886236765 18.131474186731793 0 0 0 0 0.0079280682111857459 7.7729179221041704 0 7.7729179221041704 15.546836735862598 0 0 0 0 57.434722670230258 14.472884550505569 0 14.472884550505569 4.8442856597248465 0 0 0 0 30.761264002292592 36.38904409789393 0 36.38904409789393 18.690329313474649 0 0 0 0 15.873329758294858 21.502412992833342 0 21.502412992833342 -28.40133658024024 0 0 0 0 0.040120848537071652 -1.0782019161081138 0 -1.0782019161081138 3.582087174408418 0 0 0 0 42.996352734102402 48.250910707583444 0 48.250910707583444 -8.1536488400015514 0 0 0 0 24.597538664427702 53.19029284485805 0 53.19029284485805 53.530659935735457 0 0 0 0 -9.9857500773650827 31.344575998025903 0 31.344575998025903 85.999376761408712 0 0 0 0 1.1369740303889238 2.5863062920161024 0 2.5863062920161024 6.1020878131173788 0 0 0 0 -233.40424257056657 56.642278964337493 0 56.642278964337493 477.15412970249599 0 0 0 0 1360.8332225109134 451.74607790043228 0 451.74607790043228 40.538137524061312 0 0 0 0 346.94941014108554 521.04731474800064 0 521.04731474800064 885.05952273960429 0 0 0 0 333.36347698470854 266.18478893312567 0 266.18478893312567 -28.863225848377624 0 0 0 0 -38.320889138598432 335.47418140934315 0 335.47418140934315 306.19266760825121 0 0 0 0 300.94847541538002 493.71207230185246 0 493.71207230185246 178.37861127982615 0 0 0 0 224.31837155987159 449.01709970939555 0 449.01709970939555 154.9175061300266 0 0 0 0 465.11147069509934 353.81416181895111 0 353.81416181895111 105.97831448986835 0 0 0 0 320.13443353441653 215.61075861160134 0 215.61075861160134 128.99946902415104 0 0 0 0 -1.5951905790088485 11.356837235551694 0 11.356837235551694 15.909646333125693 0 0 0 0 393.32460860580886 225.06373182147945 0 225.06373182147945 31.148945678942255 0 0 0 0 -70.910822457122777 79.472400995553471 0 79.472400995553471 -23.040779576411296 0 0 0 0 9.0875169966930116 96.435818111713161 0 96.435818111713161 -25.397479118873889 0 0 0 0 74.814140572841097 45.113672057297663 0 45.113672057297663 -63.220373069380003 0 0 0 0 -33.840816525615082 19.93605577055132 0 19.93605577055132 65.094316203972994 0 0 0 0 -22.699002071078212 9.8259069503510545 0 9.8259069503510545 129.61691971142864 0 0 0 0 80.925127117276134 53.703398729208857 0 53.703398729208857 59.88817131495307 0 0 0 0 40.64435898114607 -9.0095535033251508 0 -9.0095535033251508 25.171291728023789 0 0 0 0 170.93092873109708 251.35755498085928 0 251.35755498085928 251.16008408189009 0 0 0 0 187.86106307088994 579.34235495182656 0 579.34235495182656 722.11801507987911 0 0 0 0 1.4388679489484275 106.36179960644586 0 106.36179960644586 376.02932445447368 0 0 0 0 518.0428297698636 290.81836902148643 0 290.81836902148643 232.60685385230317 0 0 0 0 165.80250223092344 133.12262434007243 0 133.12262434007243 162.79175511608628 0 0 0 0 98.077531262822959 222.09679598387447 0 222.09679598387447 254.41348262098472 0 0 0 0 151.29427413148733 170.18023832218751 0 170.18023832218751 204.4775753938593 0 0 0 0 186.31493361529829 91.953713482696912 0 91.953713482696912 373.58456519099127 0 0 0 0 355.90195737159956 362.63342568080407 0 362.63342568080407 373.93262053172037 0 0 0 0 155.55346980590184 170.88301059903097 0 170.88301059903097 263.11479613868869 0 0 0 0 318.89089979788423 442.41493324960175 0 442.41493324960175 216.74348943991208 0 0 0 0 5.4176439136154784 -0.91494492059736388 0 -0.91494492059736388 1.0498635959132159 0 0 0 0 105.73976605663483 1.7183202074011206 0 1.7183202074011206 -31.341541446030533 0 0 0 0 147.54401322771491 -163.10764349098599 0 -163.10764349098599 46.470493401298882 0 0 0 0 818.54620412120494 409.80772826974498 0 409.80772826974498 215.8103385867289 0 0 0 0 68.424254584615483 294.02110310973512 0 294.02110310973512 216.02947027073242 0 0 0 0 389.03670891732327 -111.91229422065226 0 -111.91229422065226 444.57270986490767 0 0 0 0 -91.737779952609344 7.5111992198544613 0 7.5111992198544613 468.91843907583825 0 0 0 0 234.51952530116978 107.6135585168704 0 107.6135585168704 132.74300750073598 0 0 0 0 12.720414304448056 2.9947035087107707 0 2.9947035087107707 -10.790486725161784 0 0 0 0 52.550920249666888 18.873561924534442 0 18.873561924534442 -201.69037669264799 0 0 0 0 -3.7689520207324207 17.807410092584611 0 17.807410092584611 -18.587320499362846 0 0 0 0 9.6044126633751148 36.485770742845489 0 36.485770742845489 -26.438630710468715 0 0 0 0 9.7946868542712764 35.285005791993171 0 35.285005791993171 -27.277598812241877 0 0 0 0 9.352905732108411 35.850252567510324 0 35.850252567510324 -25.644970884251961 0 0 0 0 9.8094406559976051 36.631515339828184 0 36.631515339828184 -27.323867511608114 0 0 0 0 20.816244780419684 20.276023725363579 0 20.276023725363579 8.2796882059152068 0 0 0 0 77.857362833499792 62.349434207622835 0 62.349434207622835 -8.8638101028982419 0 0 0 0 -85.805878543382278 -76.013014015503359 0 -76.013014015503359 91.44244245646405 0 0 0 0 -112.44557171654583 138.9228772464653 0 138.9228772464653 -73.512887546668935 0 0 0 0 -3.2536823130012635 9.6776574440009426 0 9.6776574440009426 -8.6423419069651572 0 0 0 0 37.307238681860326 15.721403666095284 0 15.721403666095284 -7.7480617209857883 0 0 0 0 8.3850486915689544 45.365958634331037 0 45.365958634331037 -67.851525748556014 0 0 0 0 25.628612865167526 16.560405604783995 0 16.560405604783995 -1.3883985137733958 0 0 0 0 19.922992563775097 13.035167717278455 0 13.035167717278455 -18.432909061222745 0 0 0 0 10.391472236906338 21.365815254648624 0 21.365815254648624 15.739403123880038 0 0 0 0 76.168753482749707 69.211180889047682 0 69.211180889047682 15.04692702802663 0 0 0 0 -4.3177045944748897 46.469381624036032 0 46.469381624036032 -5.1812794277248031 0 0 0 0 4.6719877753821493 40.439174163373536 0 40.439174163373536 -52.794087636400945 0 0 0 0 -68.252111962900017 105.99012715622666 0 105.99012715622666 -37.660112958155878 0 0 0 0 19.36529949703754 14.874938968212518 0 14.874938968212518 -6.4967694386723451 0 0 0 0 48.272793256019213 57.754318718798459 0 57.754318718798459 -26.873151612540823 0 0 0 0 77.29086232681675 10.659568238552311 0 10.659568238552311 -11.904327070398722 0 0 0 0 -37.833063646069604 46.822135198333854 0 46.822135198333854 -15.106052384464419 0 0 0 0 28.226506949176837 23.685672521904053 0 23.685672521904053 -19.506388753390638 0 0 0 0 -5.2560517420970427 44.630385021686379 0 44.630385021686379 -22.887047631869791 0 0 0 0 52.371509098315073 55.393476742887287 0 55.393476742887287 -34.315698983224138 0 0 0 0 -12.869980644127281 89.66863734315848 0 89.66863734315848 -71.129817686967726 0 0 0 0 -6.9378818679560936 73.299099640396889 0 73.299099640396889 -6.7683726947871037 0 0 0 0 -47.207150174174785 111.44866913217265 0 111.44866913217265 -70.224810699844966 0 0 0 0 -164.99808756537641 132.35892814529507 0 132.35892814529507 -28.278497494044132 0 0 0 0 -5.7087769416736904 3.1193191627421584 0 3.1193191627421584 -2.8952037874789482 0 0 0 0 -12.324259196042476 98.916872313311615 0 98.916872313311615 -24.506814170541475 0 0 0 0 -40.919923937923159 17.7513907160901 0 17.7513907160901 169.74323044945049 0 0 0 0 108.49251196535988 203.87901592379785 0 203.87901592379785 -35.216041617226438 0 0 0 0 155.01043856664683 9.0883205951213313 0 9.0883205951213313 -28.221631666412577 0 0 0 0 -12.120521394966399 28.711257041030862 0 28.711257041030862 -0.98078130176227774 0 0 0 0 -51.375300432016047 17.345378588364838 0 17.345378588364838 -15.352999586072656 0 0 0 0 -5.6012064858968351 2.9940489385312343 0 2.9940489385312343 -0.39969493448853655 0 0 0 0 74.598139005727717 13.786299496379797 0 13.786299496379797 13.479504246744909 0 0 0 0 78.33792718561017 20.360267209325684 0 20.360267209325684 3.8854671916251391 0 0 0 0 74.573108285544549 5.9427692889294121 0 5.9427692889294121 -9.8494095173082314 0 0 0 0 0.3280806371321443 31.626197330701501 0 31.626197330701501 -5.2400188909436167 0 0 0 0 6.6563818635462013 0.29669386677800702 0 0.29669386677800702 -0.82136728554365845 0 0 0 0 47.03590515597898 45.304278816096485 0 45.304278816096485 1.6362508880629321 0 0 0 0 130.10021241033883 41.812960921015474 0 41.812960921015474 4.880167803785298 0 0 0 0 68.7118214279526 13.811738555086777 0 13.811738555086777 3.598508290713653 0 0 0 0 47.493044879338413 46.595924566456233 0 46.595924566456233 -7.9298850661798497 0 0 0 0 88.184543443700932 17.148926269266667 0 17.148926269266667 -18.356299160222989 0 0 0 0 9.145753604656953 5.3120670472683713 0 5.3120670472683713 0.75594772396124199 0 0 0 0 60.221708593330732 28.6549047520366 0 28.6549047520366 40.467614022549242 0 0 0 0 17.000046747413307 277.55706338451182 0 277.55706338451182 148.54430381435668 0 0 0 0 252.13610650838382 230.39407447077974 0 230.39407447077974 125.57061312257429 0 0 0 0 5.96650091450174 6.0731664316296161 0 6.0731664316296161 3.1350128240346748 0 0 0 0 541.61817032971885 299.57750236667562 0 299.57750236667562 -77.33330733684852 0 0 0 0 91.448985707271277 40.148338770835835 0 40.148338770835835 -11.481152654072503 0 0 0 0 645.4308055919355 146.3809790692103 0 146.3809790692103 77.552087266791204 0 0 0 0 0.81969465166707245 25.717666506538983 0 25.717666506538983 18.035855936509677 0 0 0 0 2.776839297934945 18.673504560426878 0 18.673504560426878 -22.976911814643529 0 0 0 0 84.489346369026862 75.628527748425768 0 75.628527748425768 -45.562767738680122 0 0 0 0 61.405878668171681 78.439329427405028 0 78.439329427405028 -47.307476143054373 0 0 0 0 40.610078651132426 47.491971990813909 0 47.491971990813909 -5.1706274901662255 0 0 0 0 42.117352067921274 50.564709217502241 0 50.564709217502241 -48.700440791013534 0 0 0 0 -37.38664402388531 4.2067898148306995 0 4.2067898148306995 140.89481214324769 0 0 0 0 -6.9931141749500654 11.086453569224346 0 11.086453569224346 -16.311836523432049 0 0 0 0 2.0537178567070775 10.425026028968624 0 10.425026028968624 1.6973755905134453 0 0 0 0 1102.7427155884625 39.258168630392902 0 39.258168630392902 -189.7741476372903 0 0 0 0 1.4909102916914385 7.9671704826586893 0 7.9671704826586893 14.777792895882527 0 0 0 0 39.351823463071014 56.647212369360204 0 56.647212369360204 -20.085740440874361 0 0 0 0 688.6604683822552 184.44752767018872 0 184.44752767018872 124.52509149868274 0 0 0 0 -104.37586868020844 184.49689540789041 0 184.49689540789041 -95.163182330914424 0 0 0 0 -324.18480260420438 201.5847733343835 0 201.5847733343835 -72.774327920873475 0 0 0 0 -45.708587593706397 107.56502250034828 0 107.56502250034828 -100.83914758756873 0 0 0 0 -103.28176630605503 66.47812502931265 0 66.47812502931265 -62.506885642505949 0 0 0 0 36.585043050626382 68.802548586495504 0 68.802548586495504 -60.943452593739494 0 0 0 0 -49.384074131299712 77.833221738335851 0 77.833221738335851 -38.704886225197697 0 0 0 0 -76.354070041750674 77.382992610822839 0 77.382992610822839 7.1958403145108605 0 0 0 0 -267.50055445966882 165.97975402496377 0 165.97975402496377 -22.392249506836379 0 0 0 0 -157.09940377228122 166.43036555017898 0 166.43036555017898 -44.68066806535353 0 0 0 0 -225.72611259155019 334.8514363975919 0 334.8514363975919 -132.49999139541615 0 0 0 0 -125.5712062693965 148.58925252226254 0 148.58925252226254 -214.71520044704084 0 0 0 0 -198.79977420781097 249.47740354773123 0 249.47740354773123 74.608540813242143 0 0 0 0 -1184.6889655865907 189.32583566050016 0 189.32583566050016 75.904878755054938 0 0 0 0 265.35928975782554 355.28974435234704 0 355.28974435234704 -115.71104411641136 0 0 0 0 -2.9439581944450346 4.5813370877828135 0 4.5813370877828135 -5.7429717703446386 0 0 0 0 990.95762028207582 581.11954008872999 0 581.11954008872999 -309.35754627262213 0 0 0 0 -397.16949313298483 718.92093151056179 0 718.92093151056179 -187.70137958363193 0 0 0 0 -80.92740619774122 7.1933523137413431 0 7.1933523137413431 90.062335326278117 0 0 0 0 1979.7800961009607 125.90487220078467 0 125.90487220078467 -40.289343495853245 0 0 0 0 2.0087367021032421 2.7477736612583659 0 2.7477736612583659 4.5796486156181118 0 0 0 0 732.08831384784935 579.99783201701212 0 579.99783201701212 602.23589230838843 0 0 0 0 169.60122231919559 242.06929084569856 0 242.06929084569856 -119.15442529159191 0 0 0 0 -2.744404556288524 4.8796744355634658 0 4.8796744355634658 3.7453126753598553 0 0 0 0 284.21147001682039 389.9378084165146 0 389.9378084165146 489.1024025339284 0 0 0 0 -243.07030965863123 -91.874275207213941 0 -91.874275207213941 241.4585961240773 0 0 0 0 916.19371068815963 443.10849923647766 0 443.10849923647766 170.92257888609311 0 0 0 0 981.42222050861778 116.53957759949753 0 116.53957759949753 240.38938362715999 0 0 0 0 131.24999635553104 240.29183839630423 0 240.29183839630423 285.13687380574629 0 0 0 0 415.18203557870856 -24.663543270969967 0 -24.663543270969967 346.83115080511197 0 0 0 0 475.29995404947476 171.83364869878278 0 171.83364869878278 672.32132278665085 0 0 0 0 -24.401236421002977 1.9604514043167001 0 1.9604514043167001 356.62179937742621 0 0 0 0 -363.94646856170721 486.1472266116516 0 486.1472266116516 36.751254104950931 0 0 0 0 -100.06204409835118 498.01040769651445 0 498.01040769651445 124.87451636546393 0 0 0 0 -394.05151589778507 129.76977964573962 0 129.76977964573962 -168.28459414864483 0 0 0 0 -256.71711652213526 41.136215021130738 0 41.136215021130738 337.12986274562718 0 0 0 0 76.348537236919583 164.88481889386821 0 164.88481889386821 300.74512779090583 0 0 0 0 704.18041984860974 383.5956619717108 0 383.5956619717108 200.65980590814797 0 0 0 0 605.2888566297288 35.713945451036125 0 35.713945451036125 -100.85675673367223 0 0 0 0 224.70813246098987 579.88289537965466 0 579.88289537965466 -85.815631307148578 0 0 0 0 14.736170059884898 267.07426557126746 0 267.07426557126746 -551.74415084018256 0 0 0 0 -259.06936418707483 332.08214400130601 0 332.08214400130601 -119.63856518203102 0 0 0 0 -3.0753462657617305 2.457881023360784 0 2.457881023360784 0.72901807592653256 0 0 0 0 232.65999346224453 266.08078798065253 0 266.08078798065253 243.33806599552918 0 0 0 0 140.79700001444508 367.11010668464587 0 367.11010668464587 140.03757258615587 0 0 0 0 159.51509957461531 563.70540062771761 0 563.70540062771761 21.190705541455827 0 0 0 0 587.40975914977525 468.48487717762328 0 468.48487717762328 -442.95817032022751 0 0 0 0 -75.0434923531393 214.38731750867009 0 214.38731750867009 -144.48133141489234 0 0 0 0 -51.243808102363801 118.13131131986847 0 118.13131131986847 210.88958457528497 0 0 0 0 231.42106496874476 32.496947908097354 0 32.496947908097354 -109.24645679146488 0 0 0 0 11.538412993020756 44.005148300529981 0 44.005148300529981 -59.43044802370423 0 0 0 0 -7.7954504819411881 20.457065419947867 0 20.457065419947867 -12.563804213214283 0 0 0 0 -252.82141793760275 65.598930322659726 0 65.598930322659726 114.67476261672709 0 0 0 0 288.0161167245351 -476.77374484373286 0 -476.77374484373286 486.18569069667137 0 0 0 0 1.0969468043672297 5.1345409633457013 0 5.1345409633457013 -8.450128636409886 0 0 0 0 415.59252559442393 407.91988709389261 0 407.91988709389261 -74.876432777025911 0 0 0 0 -504.47856245651928 506.80742989299324 0 506.80742989299324 807.07621896652563 0 0 0 0 842.68474257226262 296.34783933124709 0 296.34783933124709 -179.8093311500561 0 0 0 0 -64.903275707172725 20.262454766925657 0 20.262454766925657 280.55242904731858 0 0 0 0 -20.168827261818365 4.171617291445358 0 4.171617291445358 25.023171301167636 0 0 0 0 -481.86984497553203 18.62690232731984 0 18.62690232731984 162.83323194438708 0 0 0 0 -379.91435722865936 491.47349268465405 0 491.47349268465405 -123.61154698501923 0 0 0 0 -215.7597649098534 -103.90087317249709 0 -103.90087317249709 335.56087743777607 0 0 0 0 396.58362019862852 375.26457712719821 0 375.26457712719821 -38.469891884131357 0 0 0 0 429.57768367775452 369.7758642953886 0 369.7758642953886 -58.585736084351083 0 0 0 0 -160.86438710588845 35.758423878058238 0 35.758423878058238 158.55041253348463 0 0 0 0 1.7302483599392389 4.8406194349062304 0 4.8406194349062304 11.009575796208026 0 0 0 0 -0.3438057809775783 1.0442246232767545 0 1.0442246232767545 -0.6998710888116193 0 0 0 0 -1063.1028402593001 400.12555018403509 0 400.12555018403509 348.12178828104516 0 0 0 0 369.15925030770086 400.74342377178982 0 400.74342377178982 -43.564203434434603 0 0 0 0 -78.486986433952552 199.05175030091777 0 199.05175030091777 110.12629183230365 0 0 0 0 -76.388830086365488 183.4130336563976 0 183.4130336563976 211.57759606416221 0 0 0 0 -141.36720253271778 106.89832994134485 0 106.89832994134485 -19.694801422250748 0 0 0 0 6.6650414679176464 14.511539518760991 0 14.511539518760991 27.396037263451319 0 0 0 0 -6.9197700239164988 38.374082959689986 0 38.374082959689986 -38.420745232142508 0 0 0 0 -161.57359034614637 200.15437182872847 0 200.15437182872847 35.120633042344707 0 0 0 0 -51.416093737308984 -2.6252097369870171 0 -2.6252097369870171 157.86744048050241 0 0 0 0 -150.73834237483607 10.081416195418569 0 10.081416195418569 129.68857122384361 0 0 0 0 77.376630027745321 69.557490314937681 0 69.557490314937681 51.648494222041577 0 0 0 0 82.035314878979989 160.0870550294203 0 160.0870550294203 99.177880419010762 0 0 0 0 196.41016378896165 110.76549815988983 0 110.76549815988983 -21.140741206982057 0 0 0 0 73.834063363744818 58.598886484904767 0 58.598886484904767 45.895495846336374 0 0 0 0 57.531594099113136 133.14784302587213 0 133.14784302587213 98.324240151750928 0 0 0 0 80.433867858730537 -63.450234756222699 0 -63.450234756222699 101.08870788609784 0 0 0 0 24.594398341807391 22.001302515473981 0 22.001302515473981 25.594252544498886 0 0 0 0 172.39204609315857 58.806853357269574 0 58.806853357269574 24.946332318482746 0 0 0 0 16.905411698066573 29.662306367396177 0 29.662306367396177 36.986988460070052 0 0 0 0 25.720175658506605 24.504652758874045 0 24.504652758874045 25.787906298583195 0 0 0 0 -64.733578097831924 123.73321108419987 0 123.73321108419987 -33.802328453282826 0 0 0 0 -30.013935200331616 6.8718182145930768 0 6.8718182145930768 56.095485113964969 0 0 0 0 14.10857632214902 54.666654910920442 0 54.666654910920442 -47.419488328268926 0 0 0 0 -273.69902854328393 137.32086840328702 0 137.32086840328702 60.572435800459061 0 0 0 0 31.202819199995844 25.997707808853576 0 25.997707808853576 17.793289195357701 0 0 0 0 17.507961424426533 8.3664293068781461 0 8.3664293068781461 0.29464677209085721 0 0 0 0 48.116865664989746 41.731694712201715 0 41.731694712201715 -20.219916768703115 0 0 0 0 -135.18069667281088 91.065247476923105 0 91.065247476923105 117.75804412943398 0 0 0 0 17.045819188962923 188.55844619337586 0 188.55844619337586 41.623419562658455 0 0 0 0 -166.80194069055688 -9.2878666758178952 0 -9.2878666758178952 21.418775943748187 0 0 0 0 -31.746477322440114 82.400263424756304 0 82.400263424756304 -61.992785831018409 0 0 0 0 -216.91176322803949 176.77039626850819 0 176.77039626850819 61.578705751966481 0 0 0 0 120.53791023147642 172.77579111895466 0 172.77579111895466 7.6457382170337951 0 0 0 0 137.73803280732318 85.568041552038267 0 85.568041552038267 26.670331123765209 0 0 0 0 69.515855652600294 100.84953970933566 0 100.84953970933566 119.27097770169075 0 0 0 0 62.50535303549259 100.22351082797468 0 100.22351082797468 119.38468280351344 0 0 0 0 -53.402541904593718 33.600547294006319 0 33.600547294006319 89.867443395659137 0 0 0 0 -29.427345959345985 117.20346842423169 0 117.20346842423169 111.10674932341499 0 0 0 0 36.865881556281238 122.92171182033417 0 122.92171182033417 97.960497781263257 0 0 0 0 78.342310219606588 97.982603036358341 0 97.982603036358341 93.90367825669091 0 0 0 0 49.585445598400838 132.39263885578475 0 132.39263885578475 76.524331656408322 0 0 0 0 -52.747799547007162 35.042442037403816 0 35.042442037403816 188.58264519199292 0 0 0 0 -35.414553399148623 36.819572812918423 0 36.819572812918423 82.680253079966064 0 0 0 0 4.4103756832188452 12.758662188215439 0 12.758662188215439 10.807784431962261 0 0 0 0 46.548658094186976 76.01177105620809 0 76.01177105620809 106.39466045843437 0 0 0 0 117.66235280803448 72.456215898240771 0 72.456215898240771 97.683064130374987 0 0 0 0 24.713252353147254 20.389733412896021 0 20.389733412896021 -88.092080915888801 0 0 0 0 29.449743940122062 33.630420540691375 0 33.630420540691375 -91.130011870191083 0 0 0 0 17.636660882548313 9.5834783732570941 0 9.5834783732570941 -73.827393112245772 0 0 0 0 37.018467271773261 213.14338024765675 0 213.14338024765675 -47.096067749413123 0 0 0 0 4.6174917445350729 46.838846517469392 0 46.838846517469392 -79.359677549735352 0 0 0 0 9.356170793005731 33.637536537797132 0 33.637536537797132 -50.809876262974285 0 0 0 0 -12.325437101419084 14.241018942761002 0 14.241018942761002 14.93731736594782 0 0 0 0 4.9125859315390699 17.582358816231135 0 17.582358816231135 -41.740725957250106 0 0 0 0 -0.47830355961923487 35.428712710570835 0 35.428712710570835 -30.131919799969182 0 0 0 0 -2.9929074208193924 29.421172639602446 0 29.421172639602446 -2.0450887202168815 0 0 0 0 8.9192154046695578 7.3841856736990898 0 7.3841856736990898 6.0190335000532826 0 0 0 0 -56.822777618246619 182.31607173087468 0 182.31607173087468 3.0896428097767057 0 0 0 0 -43.64749599978677 52.940787176354206 0 52.940787176354206 -44.412961881367664 0 0 0 0 21.530793347468716 47.828787380545691 0 47.828787380545691 87.119898156757699 0 0 0 0 -69.868519606650807 167.09829613747206 0 167.09829613747206 85.987002378101664 0 0 0 0 12.876774184540409 26.605961833387482 0 26.605961833387482 56.121111292755813 0 0 0 0 5.3727518240921199 30.368851750510657 0 30.368851750510657 -73.589723678211158 0 0 0 0 418.27560322534555 -42.581829231516167 0 -42.581829231516167 -146.96976289251688 0 0 0 0 476.62842394407198 -76.398507679892646 0 -76.398507679892646 -152.73298982883898 0 0 0 0 3.8884173654261645 2.9142582883796422 0 2.9142582883796422 2.050057765179929 0 0 0 0 745.24095400794977 106.58498588154362 0 106.58498588154362 -141.55217145583447 0 0 0 0 306.52247728907969 85.627776239874947 0 85.627776239874947 30.212877792306244 0 0 0 0 374.72363282070728 268.87011673563393 0 268.87011673563393 220.91949019515596 0 0 0 0 0.98902089732846576 2.7609304725414461 0 2.7609304725414461 6.0505294586681089 0 0 0 0 -430.33721176406834 95.981000043790118 0 95.981000043790118 53.889604360128942 0 0 0 0 -361.5703437303855 6.056383897741398 0 6.056383897741398 54.496318491961574 0 0 0 0 -361.11320009361953 146.67523253874606 0 146.67523253874606 29.000922351506233 0 0 0 0 -189.10377615831021 14.742298900293463 0 14.742298900293463 -31.559460419623065 0 0 0 0 1.584781872242722 6.6964780747099724 0 6.6964780747099724 15.883794070155119 0 0 0 0 -37.091730954587547 340.69269346731016 0 340.69269346731016 403.77472460374702 0 0 0 0 16.910076531283266 1.3653818790116929 0 1.3653818790116929 -125.08570327397319 0 0 0 0 1.2106600511571131 6.9085237133327979 0 6.9085237133327979 19.139156775520433 0 0 0 0 215.41974218871474 8.1290023539950198 0 8.1290023539950198 -268.836541666431 0 0 0 0 282.25362369049071 153.73905854656186 0 153.73905854656186 -91.147072348809161 0 0 0 0 228.3606717357834 299.87773661272877 0 299.87773661272877 37.216402880643727 0 0 0 0 577.71697728875733 178.15196811752685 0 178.15196811752685 -296.11905759410183 0 0 0 0 -22.236410956786131 164.39642776800611 0 164.39642776800611 100.49869971521548 0 0 0 0 105.13900356657541 193.03877901597298 0 193.03877901597298 -50.428820495679247 0 0 0 0 134.87765718474475 103.59728437550439 0 103.59728437550439 -54.975924261801993 0 0 0 0 36.952897665352793 90.069721479874715 0 90.069721479874715 -17.47764040934635 0 0 0 0 29.614556416963751 76.969430628711052 0 76.969430628711052 -7.1404461394849932 0 0 0 0 54.314030426459794 52.837497547632665 0 52.837497547632665 -125.05820951000351 0 0 0 0 31.069561055031954 221.80641010536056 0 221.80641010536056 54.823528920202079 0 0 0 0 10.849173935825092 203.37714907337886 0 203.37714907337886 81.097936577505607 0 0 0 0 77.289257030330191 129.75117420320385 0 129.75117420320385 -32.759237887621566 0 0 0 0 268.3610378838639 46.148484012599511 0 46.148484012599511 -108.26676991224713 0 0 0 0 112.88396964862113 40.629613516737663 0 40.629613516737663 190.05001200667903 0 0 0 0 24.743952479324435 211.57652644774817 0 211.57652644774817 190.46396608745272 0 0 0 0 44.557814712723484 175.44833462621682 0 175.44833462621682 242.63425414993981 0 0 0 0 26.14038106323278 230.34889911025311 0 230.34889911025311 853.3440607489938 0 0 0 0 389.78305268078475 404.99791987988192 0 404.99791987988192 229.35154300474096 0 0 0 0 224.7551519241606 95.729974729863898 0 95.729974729863898 -113.8519006972856 0 0 0 0 607.048729316346 -399.61407029518159 0 -399.61407029518159 241.85644207353107 0 0 0 0 589.71395840787977 250.00667998641541 0 250.00667998641541 -372.84008591040765 0 0 0 0 -366.90679059714603 553.82110149321852 0 553.82110149321852 -184.70128920576826 0 0 0 0 -898.92843189977066 -98.239102980527605 0 -98.239102980527605 1112.5578756975556 0 0 0 0 6.4564314593248469 5.6429273572122192 0 5.6429273572122192 6.4590227792547381 0 0 0 0 -596.72149173068465 -207.93945751032152 0 -207.93945751032152 754.82291181889013 0 0 0 0 253.72642694654132 115.88245925983756 0 115.88245925983756 27.019035418270505 0 0 0 0 191.63184045802336 169.60096666469326 0 169.60096666469326 94.340095228224527 0 0 0 0 71.256532267929288 -52.027200547505345 0 -52.027200547505345 -39.709685853245901 0 0 0 0 -6.4109975152241532 -30.076057297752413 0 -30.076057297752413 104.8846920083015 0 0 0 0 124.07164240774 -12.033879800983414 0 -12.033879800983414 -13.324671463153209 0 0 0 0 -73.601193019698258 -33.417906816051982 0 -33.417906816051982 159.09212457224203 0 0 0 0 -48.690932800054725 -27.384891137196973 0 -27.384891137196973 112.00060914715868 0 0 0 0 -129.24613001238322 -6.8077270538924495 0 -6.8077270538924495 170.81789397441025 0 0 0 0 -101.86781479533965 16.8203855788488 0 16.8203855788488 173.86191533462261 0 0 0 0 -143.13551299943356 58.22776794913807 0 58.22776794913807 141.37657695735834 0 0 0 0 -76.90210051133181 168.22584369334072 0 168.22584369334072 104.28713745577261 0 0 0 0 -13.520617497015337 98.522586241582758 0 98.522586241582758 72.02333485167037 0 0 0 0 11.075007241088315 60.158048587265512 0 60.158048587265512 129.85409748331585 0 0 0 0 -1.90734127064934 271.34874268987187 0 271.34874268987187 89.410971638040792 0 0 0 0 60.078739207528997 163.07304717841907 0 163.07304717841907 95.117177318181348 0 0 0 0 -157.05601786083207 170.07868293049341 0 170.07868293049341 128.97366614566272 0 0 0 0 -92.44639470599941 317.92189693229375 0 317.92189693229375 65.928488267476496 0 0 0 0 -24.628968465905928 274.49227036860611 0 274.49227036860611 118.35947276432853 0 0 0 0 85.498654850918683 189.06199733522953 0 189.06199733522953 132.69400115045573 0 0 0 0 187.4395486924841 272.73723505843373 0 272.73723505843373 114.04269413447764 0 0 0 0 17.171158260360244 379.284742551612 0 379.284742551612 271.68795308898871 0 0 0 0 9.7647421853835112 322.30702492575074 0 322.30702492575074 151.24507856089622 0 0 0 0 -22.817118482562364 397.49833593171206 0 397.49833593171206 93.221481812259299 0 0 0 0 21.907445271204551 376.84077834641005 0 376.84077834641005 74.772336535708746 0 0 0 0 6.901390390816232 288.80709804033813 0 288.80709804033813 128.72456382356177 0 0 0 0 0.42315281312767183 360.10348759053159 0 360.10348759053159 62.003930339968065 0 0 0 0 -160.81974710146733 -11.444165801354757 0 -11.444165801354757 99.110489166596381 0 0 0 0 -63.203788824891454 54.668894429352278 0 54.668894429352278 46.924468513867311 0 0 0 0 21.470881743218342 195.57461993649122 0 195.57461993649122 -45.407086176284793 0 0 0 0 -40.467919814843299 71.116435058698698 0 71.116435058698698 19.355358748442086 0 0 0 0 -10.304866408919658 40.68344584697526 0 40.68344584697526 1.9615635751344058 0 0 0 0 2.0223230662713831 -17.006324848181976 0 -17.006324848181976 -54.789485153021815 0 0 0 0 87.657331635266019 146.01249615146662 0 146.01249615146662 201.68812982365489 0 0 0 0 10.506716229563693 20.520546145293693 0 20.520546145293693 15.257017746455283 0 0 0 0 85.966501733935729 260.02091813152947 0 260.02091813152947 137.34323526588196 0 0 0 0 41.141888540398213 242.45657726433637 0 242.45657726433637 277.03364859299836 0 0 0 0 34.141250518645393 86.209148369805462 0 86.209148369805462 -52.944652234902605 0 0 0 0 308.38151533940982 196.74719000604091 0 196.74719000604091 -18.733710647920816 0 0 0 0 -0.059610147445340544 1.9723092863845864 0 1.9723092863845864 9.7572396892649351 0 0 0 0 410.82750187759666 282.80680035603655 0 282.80680035603655 38.772947721241508 0 0 0 0 77.016090028439066 235.85846860991296 0 235.85846860991296 135.32297719438793 0 0 0 0 298.88842927129008 418.53485680751328 0 418.53485680751328 271.13139439364022 0 0 0 0 61.860515497277447 287.67068173887947 0 287.67068173887947 134.71017917451536 0 0 0 0 -143.17832511286542 -75.186410392855578 0 -75.186410392855578 236.25009376256639 0 0 0 0 -42.462977589005831 63.361853396318622 0 63.361853396318622 40.805183474401758 0 0 0 0 25.720036654661271 98.508192011740448 0 98.508192011740448 61.612948528862034 0 0 0 0 16.958451488797436 232.48846125899945 0 232.48846125899945 -5.5205862897607858 0 0 0 0 1346.294940921769 -805.38386768111377 0 -805.38386768111377 59.281815077622014 0 0 0 0 -20.400166072096908 240.89610831638129 0 240.89610831638129 663.50826431410678 0 0 0 0 -62.104227304458618 -93.7240327745385 0 -93.7240327745385 44.340703729656525 0 0 0 0 -86.818461446469883 -55.957499695770821 0 -55.957499695770821 128.65467607803294 0 0 0 0 0.18604987447497479 16.141648101986718 0 16.141648101986718 20.945280527005792 0 0 0 0 -32.904134407595848 18.702221644603924 0 18.702221644603924 96.952457755673095 0 0 0 0 -71.924211964651477 -31.649630899686599 0 -31.649630899686599 156.551845048205 0 0 0 0 260.06331362243509 -79.631010898694512 0 -79.631010898694512 46.91064712127627 0 0 0 0 -26.34506714004965 -125.94100867673114 0 -125.94100867673114 343.92210831277771 0 0 0 0 -81.81453199837415 -63.567264976783918 0 -63.567264976783918 238.37687241523236 0 0 0 0 -42.142251805751584 -51.796868383840774 0 -51.796868383840774 166.05079079869756 0 0 0 0 -102.47096042461453 233.86408705963913 0 233.86408705963913 38.489211108508243 0 0 0 0 -116.20697211422885 118.40764433148433 0 118.40764433148433 78.807530181178663 0 0 0 0 21.01043605847471 12.506202622827232 0 12.506202622827232 8.273222617295005 0 0 0 0 -113.05738915997063 182.68201728864369 0 182.68201728864369 71.61865165126801 0 0 0 0 -101.98099529377214 141.51148323515008 0 141.51148323515008 148.7572132829082 0 0 0 0 -38.362386566219357 56.183541616053844 0 56.183541616053844 48.494642385310726 0 0 0 0 -100.05501669671321 115.27583167479315 0 115.27583167479315 96.52972422678431 0 0 0 0 -116.09029431914132 122.41638815171973 0 122.41638815171973 149.01473071122018 0 0 0 0 -27.695132668455699 66.389779531589738 0 66.389779531589738 246.33090096863452 0 0 0 0 -31.94141692066114 32.900958085814636 0 32.900958085814636 105.71376737601531 0 0 0 0 -89.648516599076174 78.356285074030893 0 78.356285074030893 227.22672085034719 0 0 0 0 -38.815020002448364 107.64012781551719 0 107.64012781551719 283.62812376650982 0 0 0 0 -53.222222588523437 172.1122835217684 0 172.1122835217684 163.9431627858321 0 0 0 0 112.36701973052186 261.98902330253622 0 261.98902330253622 175.84912432201963 0 0 0 0 169.12860279194138 195.61484580151591 0 195.61484580151591 3.144319288272527 0 0 0 0 -105.87870668148025 235.03505759079417 0 235.03505759079417 256.85721953579196 0 0 0 0 -547.95914905071186 395.6223990445651 0 395.6223990445651 141.4121323905274 0 0 0 0 -71.578320113742848 347.03270502376199 0 347.03270502376199 -48.18152357841609 0 0 0 0 -72.530623733740867 331.42308298371063 0 331.42308298371063 65.936243099917192 0 0 0 0 -149.48228703294171 158.15813511815941 0 158.15813511815941 -147.66009772152756 0 0 0 0 -119.27724400805528 399.99696803816187 0 399.99696803816187 -247.30069774482399 0 0 0 0 25.674590826453183 40.101939968636074 0 40.101939968636074 31.914200755318717 0 0 0 0 341.33497297234135 -238.13439162099166 0 -238.13439162099166 149.1782225683346 0 0 0 0 296.60750484492746 -99.879516072920524 0 -99.879516072920524 176.400600883484 0 0 0 0 106.91415656508667 86.855685229359267 0 86.855685229359267 39.514670676091313 0 0 0 0 486.22061134643809 137.4954777454841 0 137.4954777454841 -180.12304968867102 0 0 0 0 30.426086821558822 7.3203841838606767 0 7.3203841838606767 -5.7698523206160814 0 0 0 0 -102.91595871120285 238.94003804487738 0 238.94003804487738 202.12535305283382 0 0 0 0 146.95076612233242 -131.09745182048573 0 -131.09745182048573 282.33985337808554 0 0 0 0 100.77679135954818 87.86403614160966 0 87.86403614160966 43.540220633785992 0 0 0 0 158.99135195097188 -63.196547519295564 0 -63.196547519295564 468.65728697759914 0 0 0 0 260.60105398484302 -67.533730400140485 0 -67.533730400140485 200.47256408820977 0 0 0 0 -24.354595892553334 41.291830529575236 0 41.291830529575236 189.02350611815018 0 0 0 0 236.90033986729395 -24.864549133835681 0 -24.864549133835681 272.72518883061912 0 0 0 0 -178.668427563156 26.205003106646473 0 26.205003106646473 281.35897795988058 0 0 0 0 -56.735129803040763 20.055456118170696 0 20.055456118170696 178.01455229092971 0 0 0 0 -23.917425500156241 106.18405480441288 0 106.18405480441288 403.01730484159998 0 0 0 0 -230.92640736651083 78.092273176043818 0 78.092273176043818 219.41571375205785 0 0 0 0 -229.59715631125437 157.64741596285603 0 157.64741596285603 -84.617454874023679 0 0 0 0 1.5947244432245498 15.758008239612536 0 15.758008239612536 24.572014104101982 0 0 0 0 -249.70824647886911 193.69679356775305 0 193.69679356775305 -2.5782501300491276 0 0 0 0 148.52927766317589 -149.84254695901473 0 -149.84254695901473 96.022023865305528 0 0 0 0 -0.10937507608468877 -16.215813312710452 0 -16.215813312710452 -24.641730894996726 0 0 0 0 -50.997385088703595 -5.9197905737455585 0 -5.9197905737455585 143.72712372931346 0 0 0 0 213.49073873992893 -206.26423573314241 0 -206.26423573314241 57.896229432633845 0 0 0 0 158.26237663526263 -31.035241966725152 0 -31.035241966725152 32.950934478889394 0 0 0 0 -367.0266577762377 138.67814077997537 0 138.67814077997537 44.91449323631241 0 0 0 0 -199.96082277940468 133.74525792280019 0 133.74525792280019 -123.90539464833273 0 0 0 0 119.35061797198432 47.287930577338557 0 47.287930577338557 -262.12518617456226 0 0 0 0 -208.61948175439602 -175.53656195697283 0 -175.53656195697283 71.835886835411657 0 0 0 0 -271.1903735458327 375.80050835741349 0 375.80050835741349 -384.81742390945146 0 0 0 0 -287.48301629036723 497.11209042065821 0 497.11209042065821 -294.78106665423184 0 0 0 0 -163.06023742943944 619.29984544210674 0 619.29984544210674 -711.16645897735361 0 0 0 0 -707.24997226447886 779.2638236308776 0 779.2638236308776 -468.90107426447867 0 0 0 0 208.82055526592012 191.83358721350305 0 191.83358721350305 -852.11272306259343 0 0 0 0 -456.6142202204137 -209.25040201144657 0 -209.25040201144657 -359.36735224020231 0 0 0 0 -992.77134906797437 205.2494664945807 0 205.2494664945807 -61.229870691051474 0 0 0 0 247.84537996302242 353.37624516139476 0 353.37624516139476 -207.43309919020595 0 0 0 0 423.2096815284749 5.6099434158677468 0 5.6099434158677468 -202.75519453901245 0 0 0 0 553.7097938756051 282.13692139839986 0 282.13692139839986 369.82002980915422 0 0 0 0 620.06265126272046 -21.86950629356943 0 -21.86950629356943 -309.10594744656555 0 0 0 0 -7.8484914573007103 45.181267393795736 0 45.181267393795736 15.148491196241345 0 0 0 0 645.00143312216824 -40.43950367943944 0 -40.43950367943944 -241.40832806039907 0 0 0 0 -47.417352013648269 106.16243987664484 0 106.16243987664484 -34.578215899578936 0 0 0 0 38.770496750467629 64.910506174838588 0 64.910506174838588 -54.555672060343511 0 0 0 0 549.2259886834654 30.594582726127555 0 30.594582726127555 9.2334113539836835 0 0 0 0 1326.1719262633123 -494.69015462954121 0 -494.69015462954121 351.35069403550006 0 0 0 0 -11.780008472568937 38.006946345495706 0 38.006946345495706 0.58120554381094891 0 0 0 0 53.552913204695841 66.793675615918204 0 66.793675615918204 6.1859509982762972 0 0 0 0 -12.423999136124621 91.965816411178821 0 91.965816411178821 -0.10357264185586246 0 0 0 0 29.35954364281497 67.292974082785804 0 67.292974082785804 -29.599494711088482 0 0 0 0 588.42696326738223 -12.152845849526784 0 -12.152845849526784 2.8774462137516821 0 0 0 0 1258.4669803799479 187.23430961347185 0 187.23430961347185 -95.58528986145393 0 0 0 0 634.12451958867314 -98.254351553028755 0 -98.254351553028755 17.439987934441888 0 0 0 0 254.66466931405012 -258.68775942436332 0 -258.68775942436332 55.764640198241977 0 0 0 0 399.4330554959306 -99.449658806530351 0 -99.449658806530351 -30.866289305686223 0 0 0 0 110.93433591225767 -43.345630407168755 0 -43.345630407168755 230.3146531899838 0 0 0 0 532.29190048125747 -363.40147265377527 0 -363.40147265377527 477.8627033711964 0 0 0 0 0.25435890803055372 263.56369793940394 0 263.56369793940394 90.349989690621442 0 0 0 0 -21.965528855900629 396.23630104295444 0 396.23630104295444 68.026228914946842 0 0 0 0 34.318347323142916 352.06639176544491 0 352.06639176544491 -11.456384648416133 0 0 0 0 -30.525090640707276 346.80563415676352 0 346.80563415676352 33.539962341114006 0 0 0 0 -83.010151982074603 416.67565380996894 0 416.67565380996894 -56.182228522018704 0 0 0 0 -87.903916126444528 305.97355693304416 0 305.97355693304416 -93.603793950428553 0 0 0 0 -3.3615182421854115 302.98483718952593 0 302.98483718952593 -261.96343596559018 0 0 0 0 -290.01138172882202 567.94661545483177 0 567.94661545483177 -424.22776384957251 0 0 0 0 -611.07251218361489 213.14975406377562 0 213.14975406377562 -121.743456285516 0 0 0 0 -240.60451415879652 296.64697792941661 0 296.64697792941661 69.9949522940733 0 0 0 0 -190.32304847642445 229.82961076856009 0 229.82961076856009 21.120342649905069 0 0 0 0 -262.56062907041633 240.5326273134051 0 240.5326273134051 87.786944271982065 0 0 0 0 -239.81500359297206 67.488730527984444 0 67.488730527984444 168.16518333250497 0 0 0 0 -162.02647461518427 86.165891283550991 0 86.165891283550991 156.02962754759938 0 0 0 0 -201.86562896868054 179.27957012932529 0 179.27957012932529 45.243975680386939 0 0 0 0 -268.31883810184081 324.52484723853149 0 324.52484723853149 -237.74276516666578 0 0 0 0 -383.2834281509422 56.25688837220514 0 56.25688837220514 -37.87802311075211 0 0 0 0 -358.99274662484822 353.19063957726394 0 353.19063957726394 -44.598796442296589 0 0 0 0 -346.58825195943791 631.8819621753828 0 631.8819621753828 -654.53047731106926 0 0 0 0 -284.24632948390354 127.12347266767028 0 127.12347266767028 -691.52506990978873 0 0 0 0 -255.58517501152164 545.61739408030553 0 545.61739408030553 -580.56374799986952 0 0 0 0 -235.2469010501809 593.14846592805043 0 593.14846592805043 -550.96255729893892 0 0 0 0 -736.44587004705681 525.3721053690133 0 525.3721053690133 -354.6067128093564 0 0 0 0 -26.496566187546705 266.85271442835074 0 266.85271442835074 -194.99961868774699 0 0 0 0 0.71239523384758741 3.8990365087731362 0 3.8990365087731362 -0.94163652398379583 0 0 0 0 -320.60367746277916 147.5577823121771 0 147.5577823121771 -103.5109997340187 0 0 0 0 3.4435754025412084 2.7938437104356524 0 2.7938437104356524 -7.4999665555379806 0 0 0 0 13.045931643653603 -69.954889219756296 0 -69.954889219756296 -187.26476032678329 0 0 0 0 17.836562885381539 13.66146897313665 0 13.66146897313665 -1.3275442629742686 0 0 0 0 -69.683708482218208 10.431292790610314 0 10.431292790610314 79.740662081276241 0 0 0 0 108.39737198565126 95.994289154878061 0 95.994289154878061 -737.54865663813689 0 0 0 0 8.1833883945000707 120.82210495089748 0 120.82210495089748 -177.80892634481279 0 0 0 0 50.317979659412231 74.282632868660585 0 74.282632868660585 -195.24996045060834 0 0 0 0 21.660655387138831 29.486975732084829 0 29.486975732084829 11.814475074024813 0 0 0 0 19.403554983926654 16.126392234313954 0 16.126392234313954 5.4987120950982771 0 0 0 0 77.800835435642512 -2.3652579745285038 0 -2.3652579745285038 -231.28376001989818 0 0 0 0 41.157634200048051 -7.8402562801693421 0 -7.8402562801693421 -33.959295258828206 0 0 0 0 64.348615820155828 21.095909838786611 0 21.095909838786611 -131.33919784762838 0 0 0 0 44.175016876193695 40.027981764142169 0 40.027981764142169 -42.675575609537191 0 0 0 0 53.40411845521885 27.245238675088331 0 27.245238675088331 -42.316382982840878 0 0 0 0 3.0493543071320346 30.298128490106834 0 30.298128490106834 13.554544774809164 0 0 0 0 17.814708238700405 32.469218198952149 0 32.469218198952149 -46.668818730075145 0 0 0 0 28.379273913692657 21.32784626394313 0 21.32784626394313 1.8879969369981353 0 0 0 0 28.965133244113531 15.583563485910418 0 15.583563485910418 6.8001486317880335 0 0 0 0 56.61000381698031 15.548303582611091 0 15.548303582611091 -16.581770324452648 0 0 0 0 49.110604717337992 50.196308055266854 0 50.196308055266854 -87.159353302366071 0 0 0 0 20.786221652151653 54.638346962946343 0 54.638346962946343 -28.084280979383038 0 0 0 0 51.477646048791939 76.743354249661934 0 76.743354249661934 -76.85804177368118 0 0 0 0 15.214333181302209 103.81096806132064 0 103.81096806132064 -96.577725698058202 0 0 0 0 49.18760717715486 97.076936996338191 0 97.076936996338191 -146.4907491049089 0 0 0 0 -38.060307312291116 109.93664090448146 0 109.93664090448146 -54.787086466829123 0 0 0 0 13.276101049719728 43.261922376028451 0 43.261922376028451 -26.084684950604696 0 0 0 0 -6.6709668817893544 52.391889157177047 0 52.391889157177047 -62.44838842138779 0 0 0 0 32.529989174821281 21.358742036894974 0 21.358742036894974 -4.5447135391274429 0 0 0 0 18.194427250127774 15.16558770431584 0 15.16558770431584 -18.066475770528996 0 0 0 0 20.276426754396255 10.861630496402391 0 10.861630496402391 0.47307302407283203 0 0 0 0 6.5244322867802111 35.316127801983384 0 35.316127801983384 -5.7978489265879034 0 0 0 0 20.928286153633962 30.131123247145297 0 30.131123247145297 -9.1974967933638254 0 0 0 0 41.11649890925824 29.94558009043908 0 29.94558009043908 10.247433450092785 0 0 0 0 -1.8464906693989178 64.114832419709273 0 64.114832419709273 6.8387145181332016 0 0 0 0 -36.657920613943134 101.79557102695071 0 101.79557102695071 -32.836541344291618 0 0 0 0 50.093629900497035 32.109051892059142 0 32.109051892059142 10.418513106294995 0 0 0 0 11.12567683045927 49.410122957000567 0 49.410122957000567 39.984390562418412 0 0 0 0 17.5568288212271 32.339418571039459 0 32.339418571039459 30.610249601653777 0 0 0 0 18.346439603570616 17.253491584167932 0 17.253491584167932 0.80696478477921119 0 0 0 0 24.588984590230808 20.377592968822654 0 20.377592968822654 10.803031974040536 0 0 0 0 17.375178077607416 21.190123693988426 0 21.190123693988426 -2.3842525172403839 0 0 0 0 10.24628434749803 15.916283889404198 0 15.916283889404198 6.8170828379728619 0 0 0 0 -7.651181842942492 8.9747723971677331 0 8.9747723971677331 10.632490101577908 0 0 0 0 -13.721664849188528 -16.184042835484433 0 -16.184042835484433 80.715075196480029 0 0 0 0 79.268908520876721 -107.28107935610024 0 -107.28107935610024 -13.458351506458712 0 0 0 0 61.135809104831424 33.180439858097543 0 33.180439858097543 -65.907518895881367 0 0 0 0 -45.939488661228097 63.602382629193016 0 63.602382629193016 99.775362002813381 0 0 0 0 -99.791644859982625 224.85433849071705 0 224.85433849071705 -208.33127278923348 0 0 0 0 0.70278340998629574 -3.1260703787847888 0 -3.1260703787847888 -148.56942172475101 0 0 0 0 -102.13808385518587 23.884443829856991 0 23.884443829856991 165.88171302298724 0 0 0 0 -98.944507654485278 5.5379098034354683 0 5.5379098034354683 260.59458795652608 0 0 0 0 5.8531578998209817 29.439638644020121 0 29.439638644020121 31.250680163225724 0 0 0 0 39.118563251860905 171.92996159730865 0 171.92996159730865 150.81460359743505 0 0 0 0 -87.168441932546557 -18.686652896241867 0 -18.686652896241867 -14.635714741158154 0 0 0 0 -8.1001670589802046 24.986943124048551 0 24.986943124048551 -19.903504885147143 0 0 0 0 -7.5541274747956777 76.054797562670501 0 76.054797562670501 -19.074716700313729 0 0 0 0 -15.839732545660809 33.618135783388425 0 33.618135783388425 5.298938358137093 0 0 0 0 -7.0999302362440915 34.529083330752854 0 34.529083330752854 31.979440642638366 0 0 0 0 95.986427024632576 92.368372873927001 0 92.368372873927001 -23.184514125667192 0 0 0 0 -2.2344406094636042 35.688595433945608 0 35.688595433945608 6.9561923295061234 0 0 0 0 23.71720248847123 38.76205186936204 0 38.76205186936204 -3.630528032719667 0 0 0 0 -0.60199241174268536 42.235005674858257 0 42.235005674858257 8.5105308713573322 0 0 0 0 -21.948296865823067 39.063212019316552 0 39.063212019316552 17.100291096649016 0 0 0 0 21.431295420312779 49.306737308122322 0 49.306737308122322 8.2840479145795598 0 0 0 0 -26.233800981836964 36.980739203736505 0 36.980739203736505 21.474448549727683 0 0 0 0 23.990294215802351 58.699042833556632 0 58.699042833556632 -1.0484260832745349 0 0 0 0 34.075335486531742 46.608220455810965 0 46.608220455810965 21.418562093024235 0 0 0 0 2.4247945890638221 76.377162526623579 0 76.377162526623579 4.560591398847464 0 0 0 0 -5.9414098547422327 51.061578205066326 0 51.061578205066326 19.327062487107469 0 0 0 0 13.338927659024193 43.044364015262545 0 43.044364015262545 -4.3102959838506649 0 0 0 0 -56.595743494581257 120.09466301506973 0 120.09466301506973 -33.012436667942893 0 0 0 0 -45.191375599359162 94.351139632101876 0 94.351139632101876 22.190916377810936 0 0 0 0 -77.455673639982706 111.25942805422414 0 111.25942805422414 19.863132107075501 0 0 0 0 -58.244325668194506 131.02291353771852 0 131.02291353771852 1.3546339044823981 0 0 0 0 -81.075990776778781 142.67651009430301 0 142.67651009430301 -2.9093397483716217 0 0 0 0 32.907262182543491 265.65700096412274 0 265.65700096412274 -115.8478857775408 0 0 0 0 -35.584183565137209 368.57709220385368 0 368.57709220385368 -110.04811515053734 0 0 0 0 -319.54707012987637 481.55718556851571 0 481.55718556851571 -148.70567390624637 0 0 0 0 49.808692095226434 289.74980611984211 0 289.74980611984211 -113.35764023705178 0 0 0 0 540.9715822256403 -94.950113992112165 0 -94.950113992112165 -200.12568145377736 0 0 0 0 257.68584650882985 49.042602472662111 0 49.042602472662111 -3.1187047694802459 0 0 0 0 98.488123249968339 288.22254479766161 0 288.22254479766161 -177.073901007534 0 0 0 0 512.27323549189168 181.1881328393049 0 181.1881328393049 -473.82487732934533 0 0 0 0 143.60420188824355 330.51130969857331 0 330.51130969857331 -333.16298858138907 0 0 0 0 -947.22711922114104 529.68082328378659 0 529.68082328378659 -94.44137328134093 0 0 0 0 -357.05856545454299 746.67447007446026 0 746.67447007446026 -594.72263127404403 0 0 0 0 -9.6280735368596027 7.4832656746259261 0 7.4832656746259261 -7.1288949117768823 0 0 0 0 145.86617857784586 198.3628495309531 0 198.3628495309531 -399.50225714688349 0 0 0 0 -909.99167637686332 -31.694820362918108 0 -31.694820362918108 10.264757727083634 0 0 0 0 -20.995425595239794 1.4501733463966957 0 1.4501733463966957 -60.26388454863627 0 0 0 0 -229.00890302043263 -82.094250398868098 0 -82.094250398868098 11.460666931474407 0 0 0 0 -434.68139644197072 77.522898434768649 0 77.522898434768649 66.186247758363606 0 0 0 0 -317.67863806978858 286.79615699705028 0 286.79615699705028 -33.508478883555654 0 0 0 0 -371.08753460277512 295.11675061967253 0 295.11675061967253 -11.192276690759172 0 0 0 0 -213.61189846906927 214.01168685145603 0 214.01168685145603 16.689455214011105 0 0 0 0 -245.06615353396046 316.492293346309 0 316.492293346309 -30.445068936925963 0 0 0 0 -220.70530171501241 205.24576396137559 0 205.24576396137559 6.2400541883325786 0 0 0 0 -216.49923096216844 118.76163780881404 0 118.76163780881404 29.890762500275741 0 0 0 0 -156.51839907058456 143.97529352773927 0 143.97529352773927 14.324351133596792 0 0 0 0 -126.56470773537876 178.43507187178329 0 178.43507187178329 12.885359617223003 0 0 0 0 -119.92803614686272 237.69368204644252 0 237.69368204644252 -35.089576283688075 0 0 0 0 -147.0885922941452 200.42614409487942 0 200.42614409487942 -1.797761566893314 0 0 0 0 -159.20557199401082 84.892418333514797 0 84.892418333514797 43.798071954832267 0 0 0 0 -156.82181633514119 84.360288122779821 0 84.360288122779821 15.150653328964836 0 0 0 0 -117.96791395659966 129.55600118375878 0 129.55600118375878 12.052012185355125 0 0 0 0 -120.95027253832359 76.187702923922416 0 76.187702923922416 17.011240351690503 0 0 0 0 -45.979843866763986 85.432963170438597 0 85.432963170438597 -0.84318702685050084 0 0 0 0 -55.216378670927952 68.670061541570249 0 68.670061541570249 5.0680258773063542 0 0 0 0 -98.953957306744996 106.88282494906161 0 106.88282494906161 9.5410495685282513 0 0 0 0 -25.809104236031999 97.503365063699675 0 97.503365063699675 6.8933148448049906 0 0 0 0 -68.398835472471546 119.50687001139886 0 119.50687001139886 8.4532592704563285 0 0 0 0 -8.0323985823051771 113.34701893843521 0 113.34701893843521 4.2099909477992696 0 0 0 0 -32.311433481234417 94.02309405775668 0 94.02309405775668 11.793654970279022 0 0 0 0 12.913559793421882 54.305232666381926 0 54.305232666381926 4.1494871456327473 0 0 0 0 -96.469683066970902 183.03218932681193 0 183.03218932681193 -8.4480230451736134 0 0 0 0 -89.883723617036594 180.1558303049751 0 180.1558303049751 -9.4530492457870423 0 0 0 0 -73.978435614786576 135.24148668461567 0 135.24148668461567 4.9697629897873412 0 0 0 0 -108.12426696052717 150.87951127445922 0 150.87951127445922 4.5923630996767315 0 0 0 0 -50.146919097198406 143.31825731797289 0 143.31825731797289 -3.2882933913588204 0 0 0 0 -76.559119582030689 153.67235081908802 0 153.67235081908802 0.43254531623824732 0 0 0 0 -63.030550767893146 170.66127104500265 0 170.66127104500265 -20.770267913467251 0 0 0 0 -72.139413488883292 166.0793873236471 0 166.0793873236471 -5.6159900292041129 0 0 0 0 -83.690443406696431 196.10181464915877 0 196.10181464915877 -25.206525482903089 0 0 0 0 -71.401481388747925 181.92524344626509 0 181.92524344626509 -38.241169268458179 0 0 0 0 -82.523027680203086 203.28942837804425 0 203.28942837804425 -66.556283138503204 0 0 0 0 -84.325154753125389 190.23820794603671 0 190.23820794603671 -91.275874029037368 0 0 0 0 -84.864573740778724 190.29523656683523 0 190.29523656683523 -42.930252734258829 0 0 0 0 -92.05661584243353 223.90514464533408 0 223.90514464533408 -28.505299697881128 0 0 0 0 -90.824150198386633 208.14307297327787 0 208.14307297327787 -41.468731952780217 0 0 0 0 -94.28172737560817 231.63586247658532 0 231.63586247658532 -54.933675427137132 0 0 0 0 -96.592959886576864 262.00918865715721 0 262.00918865715721 -20.077641892836255 0 0 0 0 -96.61635976906399 268.09238746996482 0 268.09238746996482 -82.007152477621275 0 0 0 0 -79.790425030470942 239.95039172555335 0 239.95039172555335 -63.892011566935253 0 0 0 0 141.72322003599038 154.24567942084923 0 154.24567942084923 -134.97727211543679 0 0 0 0 -105.04402379948442 150.56352937341671 0 150.56352937341671 -132.94249307065184 0 0 0 0 -48.740301083729719 221.53872401550143 0 221.53872401550143 -103.76436110064242 0 0 0 0 -109.21036896368605 178.61318373984977 0 178.61318373984977 -89.01000230599675 0 0 0 0 -129.92797197705659 175.85757951155392 0 175.85757951155392 -113.89522392248909 0 0 0 0 -126.92604129057145 190.73946332049491 0 190.73946332049491 -87.412759451282909 0 0 0 0 -189.72300226244261 161.36095814749206 0 161.36095814749206 -82.534816392781067 0 0 0 0 -195.66814391126354 183.73777533733096 0 183.73777533733096 -108.32837286177528 0 0 0 0 34.620501933337664 51.839473184917722 0 51.839473184917722 -100.33070054770855 0 0 0 0 704.68452879261895 160.04169466937856 0 160.04169466937856 -492.54981246234092 0 0 0 0 -773.52709219140525 155.71018240261037 0 155.71018240261037 145.08893357876332 0 0 0 0 100.93538795430413 -104.03907172305401 0 -104.03907172305401 -185.17899480902634 0 0 0 0 116.90600833565804 -8.0410572396892803 0 -8.0410572396892803 -402.19061140453778 0 0 0 0 -6.0333629039172934 9.418641670941156 0 9.418641670941156 -20.577296737419182 0 0 0 0 -75.842426709441497 -132.24111972029004 0 -132.24111972029004 -19.619881612912053 0 0 0 0 -55.429707496194169 118.31756703052633 0 118.31756703052633 6.7743881513752626 0 0 0 0 6.5125776774257247 132.13562387010961 0 132.13562387010961 -33.471846793669101 0 0 0 0 52.640421387535753 76.266200731190111 0 76.266200731190111 -206.27461495455736 0 0 0 0 27.803663105687519 71.003350741050326 0 71.003350741050326 -203.89985568456359 0 0 0 0 79.57303565262464 60.9679237032027 0 60.9679237032027 -238.97543532391865 0 0 0 0 14.407688664818124 38.103978363191345 0 38.103978363191345 -177.94426404487695 0 0 0 0 83.205981115897885 40.558224885320669 0 40.558224885320669 -307.45628586908788 0 0 0 0 108.48308816595818 -32.115697824476229 0 -32.115697824476229 -210.14702655374185 0 0 0 0 107.94297017124336 8.3380506231351319 0 8.3380506231351319 -398.7637845460049 0 0 0 0 14.669092322452343 139.30140639359888 0 139.30140639359888 14.721819781805607 0 0 0 0 5.19380834641197 -36.357340708818811 0 -36.357340708818811 36.176660230386915 0 0 0 0 -22.137290318329178 92.114282287660899 0 92.114282287660899 -45.159314257893129 0 0 0 0 -90.146598633491521 140.1280346737999 0 140.1280346737999 -123.28010102368989 0 0 0 0 -9.2713196416880237 66.954234852564696 0 66.954234852564696 -71.585723138283356 0 0 0 0 38.077298996679019 25.544186947940943 0 25.544186947940943 -32.707563562849828 0 0 0 0 7.2424949323094694 22.1361273200014 0 22.1361273200014 15.746622468528608 0 0 0 0 60.823214387608459 54.461829616677278 0 54.461829616677278 -72.326295015483993 0 0 0 0 34.816313857357848 35.110395815674664 0 35.110395815674664 -2.6182391109107286 0 0 0 0 -13.53336732457683 60.783133585303403 0 60.783133585303403 -13.255124171570969 0 0 0 0 135.84688018343149 148.09110825725384 0 148.09110825725384 -73.602204782841 0 0 0 0 91.826575942148338 55.553230489602811 0 55.553230489602811 -95.657566206074989 0 0 0 0 14.799965789556154 33.248250262495276 0 33.248250262495276 -5.3092916742880334 0 0 0 0 48.929657529071847 25.266127939265061 0 25.266127939265061 -49.50098867313136 0 0 0 0 -64.179208906338317 160.16759197541978 0 160.16759197541978 -68.938037012172572 0 0 0 0 31.627235402876977 163.38995961995533 0 163.38995961995533 -84.167269437444702 0 0 0 0 7.7883728771453207 3.1492139905242453 0 3.1492139905242453 -12.534907980804121 0 0 0 0 25.032326411132757 46.81905060910789 0 46.81905060910789 12.313612470743987 0 0 0 0 16.102961687220557 1.4813085332587264 0 1.4813085332587264 -1.6425484365609435 0 0 0 0 92.812239615319413 -26.890050651851197 0 -26.890050651851197 -15.988312105833757 0 0 0 0 19.44477682957222 59.926497461668987 0 59.926497461668987 -16.24888136559548 0 0 0 0 12.080139087272983 55.498051206615855 0 55.498051206615855 -34.071671458321362 0 0 0 0 109.16568734260363 57.461258332463331 0 57.461258332463331 6.6467959385518043 0 0 0 0 10.276651711414878 28.384128015356694 0 28.384128015356694 -4.3832183648968268 0 0 0 0 37.486467918600781 51.30147707716759 0 51.30147707716759 -60.750550637293841 0 0 0 0 13.769794290457575 19.942478263084922 0 19.942478263084922 -13.374791755088403 0 0 0 0 22.316188896556028 31.751903573654218 0 31.751903573654218 -3.9549236246124906 0 0 0 0 32.119667397501999 25.011069798012826 0 25.011069798012826 -3.1395457634565958 0 0 0 0 4.6952443670206776 83.588837626209283 0 83.588837626209283 -40.026446270023371 0 0 0 0 -0.040747062332229689 55.209912321082811 0 55.209912321082811 -10.868871593626409 0 0 0 0 36.534027275917865 58.710901316648382 0 58.710901316648382 -79.455962909794607 0 0 0 0 14.658199335994141 102.26721663864828 0 102.26721663864828 -82.573517640488717 0 0 0 0 27.164698399401459 114.85512838282284 0 114.85512838282284 -70.54287848018248 0 0 0 0 -32.201601251392276 101.66235539838453 0 101.66235539838453 -54.155083781170106 0 0 0 0 -71.087512776110088 79.359936123880743 0 79.359936123880743 -31.015944108155963 0 0 0 0 0.52453222101959085 30.702606787292773 0 30.702606787292773 -60.850720419870513 0 0 0 0 -42.411483724048594 79.731756079765546 0 79.731756079765546 -63.250621830193268 0 0 0 0 -27.654603570874315 72.653620788638364 0 72.653620788638364 -87.24912000639597 0 0 0 0 -12.495289084821707 89.953548261433752 0 89.953548261433752 -72.502936921255241 0 0 0 0 -7.6568969025393017 111.98273982984938 0 111.98273982984938 -63.350032657268457 0 0 0 0 40.993872585924692 60.159996858958039 0 60.159996858958039 -27.577841565875133 0 0 0 0 -43.919891787591041 101.64281759864753 0 101.64281759864753 -40.104285811419686 0 0 0 0 2.2531992217700463 74.356237493575463 0 74.356237493575463 -50.535348420291484 0 0 0 0 39.119271023488494 31.659777598433667 0 31.659777598433667 4.111369618173363 0 0 0 0 4.4995279331051279 85.66540327918301 0 85.66540327918301 -81.401788310948405 0 0 0 0 -13.723374439905456 65.563922211693352 0 65.563922211693352 -53.512915056131533 0 0 0 0 50.028587853290318 29.985378538702292 0 29.985378538702292 -7.2085704627029514 0 0 0 0 44.535077661349007 41.675412780533364 0 41.675412780533364 11.194043078493252 0 0 0 0 -54.200941805449474 182.70710420820251 0 182.70710420820251 -164.76450589892193 0 0 0 0 222.52232601895776 57.558084314816369 0 57.558084314816369 -191.50175166638655 0 0 0 0 130.12620764019084 64.766629120476864 0 64.766629120476864 -140.2148162828089 0 0 0 0 180.06396467454761 70.626519798694062 0 70.626519798694062 -154.75368795621762 0 0 0 0 15.452053526576492 59.031278956053939 0 59.031278956053939 -30.449705545983306 0 0 0 0 57.376526768835902 69.853327021090081 0 69.853327021090081 -153.9619773714021 0 0 0 0 32.847909929852236 39.891963465230162 0 39.891963465230162 14.889024268264805 0 0 0 0 50.044707814464346 45.499970549761201 0 45.499970549761201 -25.905606168563281 0 0 0 0 18.78083758940106 33.991921801223668 0 33.991921801223668 -18.853440778908208 0 0 0 0 37.131166258530229 43.95268802213316 0 43.95268802213316 -22.363417026640334 0 0 0 0 -1.1148908706491056 55.991697164714424 0 55.991697164714424 -32.115323643287411 0 0 0 0 7.3914907757859822 29.043818266139645 0 29.043818266139645 -11.040471248518109 0 0 0 0 24.793578832223123 53.986517288937947 0 53.986517288937947 -19.387204925352563 0 0 0 0 22.959284672659123 40.299046244705096 0 40.299046244705096 -26.873961961551686 0 0 0 0 36.654585539507025 78.317188739842095 0 78.317188739842095 -46.925387343071634 0 0 0 0 12.670005149137069 38.65759710355087 0 38.65759710355087 -36.385479943928658 0 0 0 0 4.5172199330409057 44.801151015399228 0 44.801151015399228 -22.677586211735616 0 0 0 0 18.72564160835131 45.322233641223235 0 45.322233641223235 -33.415080069998282 0 0 0 0 22.868968949353075 76.296042422891333 0 76.296042422891333 46.357164216606179 0 0 0 0 19.057542446343149 35.340373753890248 0 35.340373753890248 -31.280873598368231 0 0 0 0 19.094766435984639 41.503138323627354 0 41.503138323627354 -11.432841049769195 0 0 0 0 16.346214477969625 80.641501117046573 0 80.641501117046573 -164.47513169018202 0 0 0 0 19.422674743862636 16.057743712655565 0 16.057743712655565 -24.85237955010831 0 0 0 0 61.75486107220604 9.4212688457701006 0 9.4212688457701006 -32.230496619962651 0 0 0 0 93.955078664711436 1.981400973621021 0 1.981400973621021 -66.374070897989441 0 0 0 0 18.640265942051762 20.459868658016447 0 20.459868658016447 3.479005365353359 0 0 0 0 11.856021271778445 61.263014413481869 0 61.263014413481869 -72.649828666733811 0 0 0 0 19.880770396929272 26.991019882610402 0 26.991019882610402 -36.622299061728654 0 0 0 0 18.786009451312566 27.500422171720857 0 27.500422171720857 -28.659900421662314 0 0 0 0 116.50432951244147 102.47619902408042 0 102.47619902408042 -154.89822808752069 0 0 0 0 -3.2163258892353213 16.73976263136538 0 16.73976263136538 -55.69303414085114 0 0 0 0 79.025049000661966 31.507173055684689 0 31.507173055684689 -77.376975007681722 0 0 0 0 6.9772897868656827 8.6946781622075235 0 8.6946781622075235 -7.2821102141828646 0 0 0 0 74.461421800007884 -34.058677759265265 0 -34.058677759265265 -61.002384693227214 0 0 0 0 62.997344486171642 -44.192657537678315 0 -44.192657537678315 -55.240136510536104 0 0 0 0 -2.4781566245201248 76.061164841243226 0 76.061164841243226 -26.938467537474935 0 0 0 0 -4.2058065038982022 67.836765000460218 0 67.836765000460218 -64.767574379991856 0 0 0 0 -0.9939879420406541 10.134959844119741 0 10.134959844119741 -1.3210166803784205 0 0 0 0 -4.7830301969452194 30.010202841160208 0 30.010202841160208 -112.04564234739519 0 0 0 0 -3.4387268612881599 44.145928941228703 0 44.145928941228703 4.2437994156935019 0 0 0 0 5.0506930658582405 -35.821919995009466 0 -35.821919995009466 -37.155368472871487 0 0 0 0 4.9547919610470785 -40.441003274185789 0 -40.441003274185789 -136.18963673849066 0 0 0 0 -0.76237182483955124 1.2920346622683496 0 1.2920346622683496 -1.5466054421688682 0 0 0 0 29.681072598647006 -68.081888017488382 0 -68.081888017488382 -166.22083794900391 0 0 0 0 56.755091070779599 -95.429553135756578 0 -95.429553135756578 418.45895778381964 0 0 0 0 -4.1187354126294231 25.917816297876861 0 25.917816297876861 -60.275881081387496 0 0 0 0 57.722583745566226 187.87313709933369 0 187.87313709933369 -457.90240974238259 0 0 0 0 -143.38660438814259 81.898465085214411 0 81.898465085214411 145.64612080235565 0 0 0 0 51.103785007712077 25.787806256523027 0 25.787806256523027 -228.1721146760392 0 0 0 0 47.451333537786809 64.165512644323599 0 64.165512644323599 -93.448645753393066 0 0 0 0 -46.812097904710754 308.73465078584559 0 308.73465078584559 -186.34791753197169 0 0 0 0 709.58137752662333 326.44213717975435 0 326.44213717975435 -223.95567554185982 0 0 0 0 4.1229661686908941 1.0946164244401899 0 1.0946164244401899 -0.78151703545037776 0 0 0 0 622.96979314993223 277.20153803073845 0 277.20153803073845 -113.77607063045434 0 0 0 0 218.71045858572325 371.56377303890622 0 371.56377303890622 262.16561037207981 0 0 0 0 -114.82671184045961 237.31961809707252 0 237.31961809707252 -93.055345231652609 0 0 0 0 636.61536033497168 -220.36002474176593 0 -220.36002474176593 -69.785812200374494 0 0 0 0 238.86477210155499 41.462938659871725 0 41.462938659871725 -67.101486576240859 0 0 0 0 -54.167833030787733 -11.088435184348782 0 -11.088435184348782 -149.12974233302521 0 0 0 0 97.285763897711149 36.237733316240337 0 36.237733316240337 90.065448840425233 0 0 0 0 26.036347075401864 42.652407132385633 0 42.652407132385633 -62.249904483276623 0 0 0 0 24.294434287523472 48.334717943049327 0 48.334717943049327 -72.543791004580271 0 0 0 0 11.927374661015463 26.956402934478135 0 26.956402934478135 8.1880982784684306 0 0 0 0 6.7890193927851215 37.902215901107411 0 37.902215901107411 -58.272950140311877 0 0 0 0 14.2494700545558 26.164442436271131 0 26.164442436271131 -4.7902917915676753 0 0 0 0 18.340653320847196 40.790556633155575 0 40.790556633155575 -81.168099881517719 0 0 0 0 13.397242976894631 39.06563290844133 0 39.06563290844133 -64.035379931687203 0 0 0 0 35.784304279895878 41.233102603155203 0 41.233102603155203 -64.403399571081536 0 0 0 0 18.995066276980651 40.635643127712683 0 40.635643127712683 -58.274410176420702 0 0 0 0 7.0376848011273978 42.850204814785684 0 42.850204814785684 -40.604035169388226 0 0 0 0 7.4007367238973529 47.879489647628361 0 47.879489647628361 -55.090483230600512 0 0 0 0 -13.250094365668701 57.916036105209059 0 57.916036105209059 -38.446605797511438 0 0 0 0 5.1242389440828404 5.9671404963428589 0 5.9671404963428589 -5.2222757207922541 0 0 0 0 -3.9874456449006175 41.391825138630338 0 41.391825138630338 -11.505991637011903 0 0 0 0 16.238020905719168 36.862785781850107 0 36.862785781850107 -37.731342241401762 0 0 0 0 19.180843485200967 42.640567736229059 0 42.640567736229059 -38.333071179334638 0 0 0 0 21.421846782575813 32.883832278803311 0 32.883832278803311 -41.535703428446141 0 0 0 0 49.407912422135269 30.623516689940516 0 30.623516689940516 -47.044015807692631 0 0 0 0 28.618504275797022 46.761862693696457 0 46.761862693696457 -59.470822228073303 0 0 0 0 20.909790378953403 36.953024040920354 0 36.953024040920354 -21.742745320812901 0 0 0 0 37.406428409034561 52.536769008691408 0 52.536769008691408 -21.967898903045352 0 0 0 0 44.249345260323025 16.472311306775737 0 16.472311306775737 -9.3853367017036362 0 0 0 0 19.363359853687143 30.403642848643358 0 30.403642848643358 -16.705107019517982 0 0 0 0 40.906072805712483 48.423753205774574 0 48.423753205774574 -35.910270600485092 0 0 0 0 8.5149211191725556 20.843982889755665 0 20.843982889755665 -6.677311338473146 0 0 0 0 26.802163903406537 27.631511806541639 0 27.631511806541639 -1.0593093493716736 0 0 0 0 -10.455385506005769 24.16288186269685 0 24.16288186269685 31.619366260674724 0 0 0 0 25.553998460865841 70.870897406610311 0 70.870897406610311 51.287537635857007 0 0 0 0 16.275234282421351 15.818420313071069 0 15.818420313071069 -5.3896274154589321 0 0 0 0 14.310078009947887 14.283245440165404 0 14.283245440165404 -17.480360203601222 0 0 0 0 15.311572905666253 23.220959999588558 0 23.220959999588558 -46.658357766543759 0 0 0 0 -7.504717712810816 25.882117778923657 0 25.882117778923657 20.146772280664663 0 0 0 0 22.086521292351492 15.205077879966916 0 15.205077879966916 -15.390486500437659 0 0 0 0 17.637350147237157 13.815886185475847 0 13.815886185475847 -27.430385315475633 0 0 0 0 11.316942064329851 45.395296005043747 0 45.395296005043747 -13.100584448242444 0 0 0 0 26.115195945732921 14.433055799781414 0 14.433055799781414 -25.187368141989282 0 0 0 0 24.542603387966402 23.222784544257287 0 23.222784544257287 -12.786891123412794 0 0 0 0 41.561883375488833 29.450987775619069 0 29.450987775619069 -57.420369989446954 0 0 0 0 15.609059642021251 26.579817104295493 0 26.579817104295493 8.886191376659621 0 0 0 0 22.90847244687502 33.778714922749998 0 33.778714922749998 7.945619731924026 0 0 0 0 37.70999358031986 45.134876128362521 0 45.134876128362521 47.018855965863622 0 0 0 0 -3.3214714370624279 34.119011773349939 0 34.119011773349939 -21.354760391790478 0 0 0 0 23.860961784201209 20.55595867404827 0 20.55595867404827 -66.872053677351687 0 0 0 0 37.228309902544893 34.131287790893403 0 34.131287790893403 -25.534268855493899 0 0 0 0 17.775881002175907 36.841758127043747 0 36.841758127043747 6.1901372927956304 0 0 0 0 52.740918310082634 33.250541244784472 0 33.250541244784472 -13.850757321178207 0 0 0 0 6.8063998362413258 61.662667266815788 0 61.662667266815788 -16.557598015327699 0 0 0 0 26.494285053528941 22.451870611295927 0 22.451870611295927 1.7476204462440244 0 0 0 0 -35.669363539342157 86.830808300473052 0 86.830808300473052 0.29690153501655914 0 0 0 0 -36.342550243425649 75.045982908163751 0 75.045982908163751 -35.120803478292146 0 0 0 0 5.9697061195204242 5.884875424409266 0 5.884875424409266 -3.2403422990397974 0 0 0 0 33.971900034448481 28.005454120568174 0 28.005454120568174 -42.540792855106702 0 0 0 0 10.78957113339132 26.693412043507365 0 26.693412043507365 13.844348310633878 0 0 0 0 132.23113904107595 21.193311879693283 0 21.193311879693283 -113.73914170109674 0 0 0 0 4.3504585132681086 4.9882294370266038 0 4.9882294370266038 -7.2625383815012157 0 0 0 0 -22.995220821525436 39.746633077281331 0 39.746633077281331 -15.593604176258395 0 0 0 0 22.217315126988069 24.543094261313968 0 24.543094261313968 -48.025955401253668 0 0 0 0 19.257170955308538 43.392580166523658 0 43.392580166523658 -49.263567058607805 0 0 0 0 -98.674751480706618 129.8212794019837 0 129.8212794019837 -99.10991427029694 0 0 0 0 -20.856255896986113 78.124665559314963 0 78.124665559314963 -72.029767914260447 0 0 0 0 41.970724261195869 27.724715113051246 0 27.724715113051246 -41.544129051687776 0 0 0 0 53.937962344672997 29.832011256188252 0 29.832011256188252 -65.608472551192222 0 0 0 0 25.324349326401716 41.478562428867008 0 41.478562428867008 -34.323920787181123 0 0 0 0 36.609278129202124 22.568089908322492 0 22.568089908322492 -39.072532076639355 0 0 0 0 24.250228748162044 35.251765090192748 0 35.251765090192748 -35.806530040797952 0 0 0 0 7.9644064960592971 19.080564829878455 0 19.080564829878455 -6.763065345571583 0 0 0 0 21.399308598736638 9.6203328142797915 0 9.6203328142797915 -33.151215221972521 0 0 0 0 -11.14853217365453 32.713653059116041 0 32.713653059116041 -28.516985069247312 0 0 0 0 -0.45885760938568865 24.588385871390187 0 24.588385871390187 -12.066485574687599 0 0 0 0 1.6635416044437434 2.2460373302852474 0 2.2460373302852474 -2.1045235128157245 0 0 0 0 -155.51223978408962 168.18653717281632 0 168.18653717281632 -159.16048877922003 0 0 0 0 -97.047366244936711 132.49013739907241 0 132.49013739907241 -168.91223525165515 0 0 0 0 -17.320815286002471 87.369330530598745 0 87.369330530598745 -146.95551712044289 0 0 0 0 11.056999501306564 105.16791789224953 0 105.16791789224953 -199.96552582311506 0 0 0 0 12.245946338869544 124.76801266387156 0 124.76801266387156 -184.19595014163133 0 0 0 0 23.590300689466403 21.47274924962727 0 21.47274924962727 -35.354429432572033 0 0 0 0 10.65661105253011 12.613519202135642 0 12.613519202135642 5.5840456562772012 0 0 0 0 19.104585695773437 17.079068232459669 0 17.079068232459669 1.8002966206944411 0 0 0 0 35.193705107740243 -23.542196861511911 0 -23.542196861511911 -61.727217770393963 0 0 0 0 2.0344984305748426 1.8128009728441867 0 1.8128009728441867 -4.4969365140843109 0 0 0 0 -93.031199258322886 171.52272171237382 0 171.52272171237382 -211.89890415838454 0 0 0 0 102.71779113804951 72.946856440770716 0 72.946856440770716 -121.14877320340747 0 0 0 0 6.6185834282787255 32.964817382322053 0 32.964817382322053 -13.667314326492487 0 0 0 0 223.12765733046217 87.877705207476538 0 87.877705207476538 -22.733750624429376 0 0 0 0 0.59055582746111668 0.19664849243319793 0 0.19664849243319793 -0.43557797538479548 0 0 0 0 202.4041219053106 -62.147873773394167 0 -62.147873773394167 19.783510596970245 0 0 0 0 -252.79073229946334 301.27820209172137 0 301.27820209172137 -149.01312571092421 0 0 0 0 -108.80656745153465 111.56182415282501 0 111.56182415282501 -206.11492242333406 0 0 0 0 -32.867025841362192 279.40555409082936 0 279.40555409082936 -171.32194237136082 0 0 0 0 67.246742492854537 118.58164127111741 0 118.58164127111741 -207.68050612517982 0 0 0 0 6.2565370300019367 111.76743203350307 0 111.76743203350307 -204.64995611258746 0 0 0 0 -12.541745831700609 117.37757287334762 0 117.37757287334762 -171.70102905435488 0 0 0 0 -84.339972245783429 145.99783207515429 0 145.99783207515429 -180.28299053706905 0 0 0 0 14.529815003952535 156.11287684721174 0 156.11287684721174 -192.71182243229669 0 0 0 0 5.0881664705907497 132.81663139935608 0 132.81663139935608 -214.71713854250265 0 0 0 0 -23.82027082334389 113.70301220138572 0 113.70301220138572 -150.36229536229439 0 0 0 0 -18.703895387574448 138.52136337714091 0 138.52136337714091 -101.43032001897882 0 0 0 0 41.487579214470315 113.51645497488562 0 113.51645497488562 -128.72437980814357 0 0 0 0 67.022635919594904 133.8441082602385 0 133.8441082602385 -169.20250630718147 0 0 0 0 108.811966927904 126.84923432180403 0 126.84923432180403 -75.335545373905916 0 0 0 0 32.571993910805759 105.98532572178783 0 105.98532572178783 -80.502482027051883 0 0 0 0 76.629713446796814 127.77786262676091 0 127.77786262676091 -123.05451940904277 0 0 0 0 28.51450510291761 146.98583837446859 0 146.98583837446859 -63.073385298534049 0 0 0 0 72.017756951323463 161.65536785859285 0 161.65536785859285 -96.075242234988764 0 0 0 0 86.747623784365715 180.81636610534406 0 180.81636610534406 -29.174715980108886 0 0 0 0 97.356189643927792 189.22678716773044 0 189.22678716773044 -37.513152299663489 0 0 0 0 160.91538972685521 147.63936341532644 0 147.63936341532644 -46.440511871672243 0 0 0 0 79.122995635400912 122.80788319463909 0 122.80788319463909 -53.219492464279028 0 0 0 0 65.361498421751094 193.07482820092423 0 193.07482820092423 -13.650735378812897 0 0 0 0 67.00267604997498 199.50353899176116 0 199.50353899176116 -112.46539555270829 0 0 0 0 10.568651295943255 235.47493977783984 0 235.47493977783984 -20.682584446045439 0 0 0 0 64.269783658994129 224.14789575789382 0 224.14789575789382 -18.370271196391059 0 0 0 0 57.78829427283199 234.4096322011801 0 234.4096322011801 16.592801973820315 0 0 0 0 41.470405979576753 237.34044250078659 0 237.34044250078659 29.647489064223919 0 0 0 0 50.659865272140451 237.02378034721505 0 237.02378034721505 29.630434736202005 0 0 0 0 32.280046071391553 249.35077801612533 0 249.35077801612533 110.47360249606027 0 0 0 0 11.897172178441906 213.34364373438439 0 213.34364373438439 58.535087381926132 0 0 0 0 31.311412762683176 234.21592097754819 0 234.21592097754819 63.695194060864196 0 0 0 0 78.944347335294879 235.99171669277712 0 235.99171669277712 68.392053294812968 0 0 0 0 111.49768277010298 240.46984296183291 0 240.46984296183291 16.808073252113047 0 0 0 0 56.20121252314857 252.44175650736179 0 252.44175650736179 69.633082950087555 0 0 0 0 142.59113973488684 147.05341170264342 0 147.05341170264342 -33.905929216805816 0 0 0 0 138.38803649292095 217.65803727380444 0 217.65803727380444 -2.965245735949793 0 0 0 0 105.09757981777511 210.62207080982535 0 210.62207080982535 18.700903971350272 0 0 0 0 244.7993301122624 172.23496037032055 0 172.23496037032055 -28.352982595089543 0 0 0 0 169.58575939625734 154.44130979872352 0 154.44130979872352 -42.872359660988877 0 0 0 0 153.25909868209419 154.66896984101277 0 154.66896984101277 -29.598972798907198 0 0 0 0 246.774351573491 182.69479838297775 0 182.69479838297775 -7.187694579748495 0 0 0 0 229.42168648458028 285.51536928864425 0 285.51536928864425 118.25635152380346 0 0 0 0 352.64015972389097 196.83302991492474 0 196.83302991492474 -10.121807909727067 0 0 0 0 346.86912129525444 209.40822023231703 0 209.40822023231703 28.441002391190807 0 0 0 0 189.1421090581498 233.29919068228082 0 233.29919068228082 50.56630345364556 0 0 0 0 95.581296837342961 268.44334154327862 0 268.44334154327862 130.71600710276289 0 0 0 0 161.93428877323822 250.0328744426206 0 250.0328744426206 46.018217154964077 0 0 0 0 135.65578732107679 238.55222144100298 0 238.55222144100298 115.78139926227595 0 0 0 0 191.71540455610375 193.13064721874616 0 193.13064721874616 197.49027832964532 0 0 0 0 157.37482104453738 282.84908905947577 0 282.84908905947577 204.92143412508085 0 0 0 0 486.33957704107161 248.42670061463741 0 248.42670061463741 29.554248397289484 0 0 0 0 294.27513078915945 326.06449451652406 0 326.06449451652406 265.54611879343429 0 0 0 0 259.58761729502294 253.98657601478044 0 253.98657601478044 121.27688804112086 0 0 0 0 354.15455249151637 241.45965919968739 0 241.45965919968739 520.20364337413776 0 0 0 0 357.83853946032468 235.97703332339006 0 235.97703332339006 227.2775619592403 0 0 0 0 211.67860405459942 245.15235527115237 0 245.15235527115237 318.75971532280892 0 0 0 0 209.21462256302766 214.51167753987102 0 214.51167753987102 162.81049174932014 0 0 0 0 454.21758708208336 131.94489054704724 0 131.94489054704724 189.24331370374784 0 0 0 0 434.12930687247581 380.37422668998431 0 380.37422668998431 118.99404467868953 0 0 0 0 119.43558356206631 242.13886242060471 0 242.13886242060471 181.63282589852679 0 0 0 0 110.76992307375622 147.33272795497032 0 147.33272795497032 188.5445510430809 0 0 0 0 78.35720464458791 191.76249579893783 0 191.76249579893783 129.01783899845759 0 0 0 0 17.113528962931014 184.85081869547139 0 184.85081869547139 153.44588488740192 0 0 0 0 57.612702659709612 152.73591618721002 0 152.73591618721002 109.37581756392865 0 0 0 0 15.11505576086347 168.10931864003578 0 168.10931864003578 62.346561453985487 0 0 0 0 -4.7090751690120669 212.75249927337973 0 212.75249927337973 108.97141364149593 0 0 0 0 24.3397870963272 196.6509833741884 0 196.6509833741884 108.30705822250457 0 0 0 0 62.10987058772298 220.24845273534356 0 220.24845273534356 108.55077672448442 0 0 0 0 66.999197883720626 200.92546462305017 0 200.92546462305017 184.62511630056542 0 0 0 0 -29.696509774148581 153.61033920613409 0 153.61033920613409 -260.31177260472396 0 0 0 0 38.345988815417513 142.08926284230984 0 142.08926284230984 -288.95523469760519 0 0 0 0 23.052906675249687 49.056539787630754 0 49.056539787630754 -202.44026997905712 0 0 0 0 -25.677694800040626 87.622482804326864 0 87.622482804326864 -234.47376082072878 0 0 0 0 -156.03408581521944 -28.012219105640725 0 -28.012219105640725 -128.76427138522195 0 0 0 0 -4.736892261171306 47.327380349624036 0 47.327380349624036 -185.66747107888659 0 0 0 0 -11.302809267828707 -51.5533128815905 0 -51.5533128815905 -29.439485259386856 0 0 0 0 123.21253763946879 16.596125592986937 0 16.596125592986937 -200.96435564370677 0 0 0 0 53.817409602361295 112.48064567231995 0 112.48064567231995 -149.44525370062911 0 0 0 0 168.99580698162754 -46.940538168439161 0 -46.940538168439161 -38.309524414862608 0 0 0 0 -1.2650194213292991 3.7491200048031743 0 3.7491200048031743 -4.4457561027646051 0 0 0 0 103.60166611902241 289.4658056507069 0 289.4658056507069 -145.05971752150845 0 0 0 0 -5.4531707324767922 345.83489017165357 0 345.83489017165357 352.9689275750352 0 0 0 0 -131.71218427653366 546.39086735306 0 546.39086735306 353.69399655030793 0 0 0 0 255.0390372450056 382.32634506491013 0 382.32634506491013 139.18260927317897 0 0 0 0 327.47101818429655 1089.020636780132 0 1089.020636780132 117.70195100383717 0 0 0 0 1030.8091203409131 168.79074972882518 0 168.79074972882518 172.07879274699553 0 0 0 0 -2.822624131168908 14.640116978877849 0 14.640116978877849 -3.3558591271511453 0 0 0 0 507.42058428713426 2.7410489076737576 0 2.7410489076737576 -23.743145464370173 0 0 0 0 -352.82201828609686 90.307561633500882 0 90.307561633500882 120.70718674383835 0 0 0 0 596.59204439210589 376.51431272307127 0 376.51431272307127 173.15934356185062 0 0 0 0 -228.4170816038677 268.63242525437454 0 268.63242525437454 -118.40508752185451 0 0 0 0 115.9932729234788 210.64166950799017 0 210.64166950799017 -347.29205184381499 0 0 0 0 152.67743383102061 75.278503801739134 0 75.278503801739134 -276.79313308980818 0 0 0 0 -16.001154589647264 9.1712107900121964 0 9.1712107900121964 -4.5821582275382369 0 0 0 0 -434.8797291526862 355.88681501656538 0 355.88681501656538 -311.36268962524991 0 0 0 0 77.299794587554061 -45.959590314841989 0 -45.959590314841989 12.027933184688663 0 0 0 0 26.404251199347186 57.294063641901317 0 57.294063641901317 -48.657295258474896 0 0 0 0 7.4382592019956064 41.201423547365721 0 41.201423547365721 3.5278431702499802 0 0 0 0 230.15788627545408 -60.845725655255592 0 -60.845725655255592 -24.107353875854827 0 0 0 0 481.35804919212387 74.444078670270756 0 74.444078670270756 -67.805625475593843 0 0 0 0 248.58674407619765 27.855711185499786 0 27.855711185499786 -55.950584292593703 0 0 0 0 302.56382454000413 73.113834218157535 0 73.113834218157535 -74.78493859989976 0 0 0 0 236.81039468919334 45.601647283636339 0 45.601647283636339 -60.293765816122686 0 0 0 0 201.60658866944141 75.01957709279759 0 75.01957709279759 -57.619616062527712 0 0 0 0 171.06299133504882 60.86336025885948 0 60.86336025885948 -63.998988711375205 0 0 0 0 147.78672955939692 5.7571822132722446 0 5.7571822132722446 -52.909374313901935 0 0 0 0 127.12989934337566 37.639926806606582 0 37.639926806606582 -76.798002655779783 0 0 0 0 -273.49110817344626 184.98941115399339 0 184.98941115399339 -54.399071069255115 0 0 0 0 -210.25856998731615 89.357727487513444 0 89.357727487513444 34.148297705178265 0 0 0 0 -207.07714087143904 93.22880793894555 0 93.22880793894555 38.851838923090099 0 0 0 0 -40.100116306472046 148.42060306380699 0 148.42060306380699 -259.28315438229993 0 0 0 0 -84.093580469959505 5.1566769618329715 0 5.1566769618329715 21.832505653024551 0 0 0 0 -119.22625757173955 57.738863622576901 0 57.738863622576901 -243.86958355125262 0 0 0 0 -85.140219747459923 -16.072234151060911 0 -16.072234151060911 -108.16073249000328 0 0 0 0 -327.20249747474736 11.440616681783922 0 11.440616681783922 63.959388886029046 0 0 0 0 -13.233855432772543 13.939430433410962 0 13.939430433410962 7.3674563075151127 0 0 0 0 -100.15329253439268 163.59636121362973 0 163.59636121362973 -274.77084520908375 0 0 0 0 -2.6934078730718056 -2.9862417986730065 0 -2.9862417986730065 0.43925106109749645 0 0 0 0 -347.05392955058778 221.0599496088289 0 221.0599496088289 -140.56877292747049 0 0 0 0 -129.84249168864335 -73.741397745177437 0 -73.741397745177437 39.980272046457685 0 0 0 0 110.69058709415367 -12.174251012093919 0 -12.174251012093919 0.14241623954876559 0 0 0 0 -267.45262520140386 77.617852086026232 0 77.617852086026232 -232.65813218862422 0 0 0 0 32.046741654138849 49.553550071362764 0 49.553550071362764 -72.709672838368675 0 0 0 0 100.33295066656137 162.48242743137234 0 162.48242743137234 42.604396606376667 0 0 0 0 -204.00592652025807 126.15854049087193 0 126.15854049087193 -85.371805399961886 0 0 0 0 -222.3176975256938 148.35490263073189 0 148.35490263073189 -90.087585859087994 0 0 0 0 -191.54495533494628 102.37415811895562 0 102.37415811895562 -72.13486534725962 0 0 0 0 111.5444273439789 68.129982413598555 0 68.129982413598555 -56.32747737372847 0 0 0 0 111.36710445132485 17.763264088781398 0 17.763264088781398 -18.298074302938403 0 0 0 0 114.46781211283087 -1.4323864059606422 0 -1.4323864059606422 -66.363075266215674 0 0 0 0 72.820967740430206 28.231987533199572 0 28.231987533199572 87.345684486768732 0 0 0 0 71.99199430506269 62.54169054153499 0 62.54169054153499 -20.901842292056244 0 0 0 0 68.154079386871672 53.182686519752224 0 53.182686519752224 -36.465917945926776 0 0 0 0 80.857085295763682 66.725533137860111 0 66.725533137860111 -46.69757706121527 0 0 0 0 70.642908311258907 97.909012558497523 0 97.909012558497523 -76.526483611516596 0 0 0 0 58.330560038819385 96.900295911102148 0 96.900295911102148 -74.03101382787645 0 0 0 0 84.455745529747219 132.674416285181 0 132.674416285181 -198.55757583794548 0 0 0 0 76.144357487624802 135.05482163370834 0 135.05482163370834 -139.56861656265937 0 0 0 0 65.697188869002275 127.14569201122686 0 127.14569201122686 -142.75091869587777 0 0 0 0 55.384772384044481 131.57243432889663 0 131.57243432889663 -53.358097826358971 0 0 0 0 87.692887469729612 110.49096397403173 0 110.49096397403173 -106.98426977768031 0 0 0 0 49.066240979198483 154.14262481665537 0 154.14262481665537 -108.36815791456985 0 0 0 0 25.41238736797095 260.58537382660143 0 260.58537382660143 -337.59794690688796 0 0 0 0 57.130720649329305 79.016841799082613 0 79.016841799082613 -355.35800750304224 0 0 0 0 111.22413601035987 66.837205050341709 0 66.837205050341709 -393.12956002710416 0 0 0 0 115.21701926794776 87.019131593170641 0 87.019131593170641 -291.48781709297327 0 0 0 0 90.501929433710757 90.262121057989134 0 90.262121057989134 -272.23329052167264 0 0 0 0 86.311017267053103 163.47969146568812 0 163.47969146568812 -261.68156006341087 0 0 0 0 56.325039811665192 105.14047141460105 0 105.14047141460105 -209.43702920147462 0 0 0 0 95.878740005744476 101.35853682467541 0 101.35853682467541 -249.92568393996407 0 0 0 0 -323.30999082297785 127.0667753718717 0 127.0667753718717 -57.084938522286393 0 0 0 0 -273.65711536919116 158.01504666613891 0 158.01504666613891 -68.352134561635467 0 0 0 0 -260.47507876693271 101.11211379205997 0 101.11211379205997 -88.804614323897113 0 0 0 0 -191.83631094811426 99.279048663362119 0 99.279048663362119 -114.54466391236929 0 0 0 0 -222.96639393348596 121.82326756278417 0 121.82326756278417 -81.685490111754916 0 0 0 0 -200.95055504318589 131.50183883885529 0 131.50183883885529 -70.917157229283475 0 0 0 0 -231.54200469172793 100.56997460157436 0 100.56997460157436 -78.434119043105738 0 0 0 0 277.90826037107763 90.115766023057404 0 90.115766023057404 -106.70166700466507 0 0 0 0 31.242609163068863 46.12313991316276 0 46.12313991316276 -96.718917465971586 0 0 0 0 439.19187361752302 -669.63548476033748 0 -669.63548476033748 -97.346640644234867 0 0 0 0 -51.16299105953658 61.985464436742404 0 61.985464436742404 -26.663237299235334 0 0 0 0 -1930.4464627578454 -1262.1137905868864 0 -1262.1137905868864 711.97714787052246 0 0 0 0 106.93762747449728 1844.3952450145093 0 1844.3952450145093 -652.45092093881249 0 0 0 0 -605.18699959895457 539.0633832135718 0 539.0633832135718 -426.02108437376228 0 0 0 0 77.649939068245658 196.288629336908 0 196.288629336908 -731.11519445752856 0 0 0 0 -276.02759075531503 61.607507838143647 0 61.607507838143647 -128.2770960394846 0 0 0 0 -207.32002848241245 87.489956458659435 0 87.489956458659435 -203.93795816181955 0 0 0 0 -192.2944227998596 120.90048629072135 0 120.90048629072135 -100.47877523500938 0 0 0 0 -201.04528665321413 93.878882443321345 0 93.878882443321345 -156.26668972645712 0 0 0 0 -188.29051896478632 128.26464019573905 0 128.26464019573905 -128.26332764920517 0 0 0 0 -169.9903989040904 176.87837230718469 0 176.87837230718469 -123.12842405297852 0 0 0 0 -171.66880890136235 130.05074163412428 0 130.05074163412428 -171.46557788776408 0 0 0 0 -178.06374255503761 155.09589047907502 0 155.09589047907502 -179.67127736897964 0 0 0 0 -167.89579578812845 170.08030897899152 0 170.08030897899152 -101.06577181059401 0 0 0 0 -137.07058664751821 165.37888998038034 0 165.37888998038034 -92.035829175474646 0 0 0 0 -140.15867314051138 152.34358031840748 0 152.34358031840748 -128.46937681960117 0 0 0 0 -161.80438120929466 154.38278138887472 0 154.38278138887472 -113.78852303287567 0 0 0 0 -110.08616490863278 174.17965740899626 0 174.17965740899626 -64.382983750161657 0 0 0 0 -110.98716977261938 167.59692938865555 0 167.59692938865555 -109.50830478237185 0 0 0 0 -111.01558462226239 143.47807056611236 0 143.47807056611236 -67.475071731772914 0 0 0 0 -116.62804786504421 153.1477302076928 0 153.1477302076928 -80.608743012373452 0 0 0 0 -107.74219978330075 127.13282982219971 0 127.13282982219971 -92.563830653441983 0 0 0 0 -107.50707034105289 129.93268783337635 0 129.93268783337635 -60.396860313871002 0 0 0 0 -157.25742203922709 124.21086342639683 0 124.21086342639683 -134.42177599661954 0 0 0 0 -123.74973003401828 139.29155120082942 0 139.29155120082942 -106.83232231958391 0 0 0 0 -149.03409283724613 143.77821843423226 0 143.77821843423226 -93.2353410960568 0 0 0 0 -174.5404050469806 125.6174524615908 0 125.6174524615908 -83.810569248591491 0 0 0 0 -135.87345378674217 116.41199598938329 0 116.41199598938329 -107.81635465231193 0 0 0 0 -132.18217777963582 127.83772175445938 0 127.83772175445938 -73.600825750312652 0 0 0 0 -106.85012857279708 107.17682909121737 0 107.17682909121737 -53.545007245273155 0 0 0 0 -106.91389041335788 112.91073748089548 0 112.91073748089548 -91.401691794455473 0 0 0 0 -99.020593509150785 106.57928617906327 0 106.57928617906327 -87.582236271107831 0 0 0 0 -143.66888664594444 107.84269581005719 0 107.84269581005719 -64.784141614951295 0 0 0 0 -144.14962701723562 103.88924701595533 0 103.88924701595533 -95.525496112966721 0 0 0 0 -68.927869319275487 97.147781960033171 0 97.147781960033171 -29.108371463609728 0 0 0 0 -47.276335884642322 66.121001822823018 0 66.121001822823018 -37.533196455173311 0 0 0 0 -50.094177510945883 64.405915986602849 0 64.405915986602849 -10.300821424993046 0 0 0 0 -72.48480360940448 82.292189938991214 0 82.292189938991214 -45.431958219855005 0 0 0 0 -78.485087982233381 74.211736016979557 0 74.211736016979557 -56.312963622564894 0 0 0 0 -86.392275623249589 108.48976192899499 0 108.48976192899499 -65.692385783919235 0 0 0 0 -73.935134939543786 89.289983298518564 0 89.289983298518564 -41.414253435599676 0 0 0 0 -90.198024435783736 122.98060497608458 0 122.98060497608458 -75.589433699809888 0 0 0 0 -89.134517314216282 114.51387666619439 0 114.51387666619439 -43.436817845933547 0 0 0 0 -74.791919597424567 117.95544254559718 0 117.95544254559718 -49.724886942780358 0 0 0 0 -72.824309808551334 106.93238519541774 0 106.93238519541774 -10.68474197609612 0 0 0 0 -53.210981109383283 90.747934893333877 0 90.747934893333877 -31.595334982044733 0 0 0 0 -55.907385555627116 92.150025505893609 0 92.150025505893609 11.483358749923354 0 0 0 0 -56.62775139533187 115.73752735401376 0 115.73752735401376 -1.4121347362379311 0 0 0 0 -60.67203004595649 129.47426889265171 0 129.47426889265171 -31.931825419815141 0 0 0 0 -75.709587314224336 129.2408025230834 0 129.2408025230834 -25.279405258326733 0 0 0 0 -70.067700342071475 155.47143572289133 0 155.47143572289133 -41.107042018855282 0 0 0 0 -64.971194014236971 142.26345673762808 0 142.26345673762808 -15.729689917090582 0 0 0 0 -77.92897169990465 139.72016314757639 0 139.72016314757639 -54.7691517383264 0 0 0 0 -92.55015801609261 135.62474424527682 0 135.62474424527682 -50.960319433899713 0 0 0 0 -93.683762584114447 142.91195870921365 0 142.91195870921365 -76.129459421172214 0 0 0 0 -90.953791737149004 155.6920695578774 0 155.6920695578774 -82.294637563496508 0 0 0 0 -87.66613707007491 164.68018091327031 0 164.68018091327031 -58.176297588563102 0 0 0 0 -81.608661626392859 152.70284879944484 0 152.70284879944484 -36.934384456159023 0 0 0 0 -76.219295525661437 182.31716356404286 0 182.31716356404286 -61.707433030409447 0 0 0 0 -74.00841713707996 170.19722500855414 0 170.19722500855414 -19.957375896861777 0 0 0 0 -59.507890114851762 164.62170686233731 0 164.62170686233731 -34.209960477128334 0 0 0 0 -60.999765511016449 156.46702208233773 0 156.46702208233773 -0.37846022685698699 0 0 0 0 -49.321693414123729 161.7913964708132 0 161.7913964708132 -20.14132992708619 0 0 0 0 -49.664379175128943 143.15620957826718 0 143.15620957826718 7.3099463864200516 0 0 0 0 -28.48846917465562 142.43528949206302 0 142.43528949206302 -5.3078727490865276 0 0 0 0 -35.533072280519264 119.31731391091171 0 119.31731391091171 16.067660036431334 0 0 0 0 -19.979146819314337 121.86897995997606 0 121.86897995997606 14.159979151125299 0 0 0 0 -13.563930468808394 137.22420484444592 0 137.22420484444592 -0.29992670545834699 0 0 0 0 -31.21536325791385 124.62855601326737 0 124.62855601326737 16.707605543109821 0 0 0 0 37.99991305579897 110.40324726595281 0 110.40324726595281 14.308888944367936 0 0 0 0 -6.4418198941420997 126.73204693116531 0 126.73204693116531 42.415707953718083 0 0 0 0 -7.1607076667714864 119.70380257840225 0 119.70380257840225 7.8289588940533577 0 0 0 0 -17.705508043407463 134.47750458095106 0 134.47750458095106 6.3068954067057348 0 0 0 0 -41.960975179070374 113.37943171295046 0 113.37943171295046 37.357917772642395 0 0 0 0 -41.281313803105149 136.38678674105176 0 136.38678674105176 -11.267167576330394 0 0 0 0 -56.371209240460303 149.3930325430847 0 149.3930325430847 -10.751858755320427 0 0 0 0 -42.212739828464692 140.19418033221882 0 140.19418033221882 14.159261843480635 0 0 0 0 14.006777861239243 72.620071314776396 0 72.620071314776396 66.624137334161787 0 0 0 0 22.399730701290537 85.627072024286463 0 85.627072024286463 18.787672406047932 0 0 0 0 17.687115368491504 99.217313950575772 0 99.217313950575772 15.654250515642161 0 0 0 0 -13.202026623723214 77.700030041753053 0 77.700030041753053 19.998761257080332 0 0 0 0 24.951394390685891 58.082698692458507 0 58.082698692458507 53.967039754163125 0 0 0 0 7.7131037722137989 96.029889495981479 0 96.029889495981479 24.282141887641046 0 0 0 0 66.383158435637597 68.844587669271277 0 68.844587669271277 38.800238027954038 0 0 0 0 28.716315376372222 76.31538484775956 0 76.31538484775956 41.769439197574684 0 0 0 0 23.638645281738718 55.806708103387791 0 55.806708103387791 50.992484004571452 0 0 0 0 32.456697130117391 33.19993612174494 0 33.19993612174494 82.31999130074837 0 0 0 0 85.191131969069829 114.99082925151015 0 114.99082925151015 52.782489931028977 0 0 0 0 84.826883438268851 108.89029042837046 0 108.89029042837046 -45.91759310051566 0 0 0 0 54.415703045626287 139.31539576852629 0 139.31539576852629 76.91089668011773 0 0 0 0 32.054602596821496 76.11972248480015 0 76.11972248480015 24.387883424289612 0 0 0 0 -86.660957678948762 120.61265137236478 0 120.61265137236478 80.646389106281276 0 0 0 0 30.573540860059438 59.158790829698773 0 59.158790829698773 110.95375387238164 0 0 0 0 257.27856940415222 35.788905478308152 0 35.788905478308152 56.435003347536622 0 0 0 0 70.7876357640489 58.392211223173945 0 58.392211223173945 54.140360368110123 0 0 0 0 26.793722696282202 -68.303173955169768 0 -68.303173955169768 223.18673827419116 0 0 0 0 61.192227616382297 189.43603389889995 0 189.43603389889995 22.303251941940289 0 0 0 0 78.548495878087124 136.78767624935426 0 136.78767624935426 39.763032575831858 0 0 0 0 -13.42859147649142 38.026611420102199 0 38.026611420102199 41.664041706802891 0 0 0 0 5.0755993434695199 2.2612439486149469 0 2.2612439486149469 -2.2740836097302619 0 0 0 0 -40.592266053514322 92.391972214874841 0 92.391972214874841 47.56988958943839 0 0 0 0 -23.934907786693657 76.056172482654802 0 76.056172482654802 21.224772200428561 0 0 0 0 -45.989523534924956 125.71052363338094 0 125.71052363338094 7.5250394525573938 0 0 0 0 -40.227874220901867 88.456286234228173 0 88.456286234228173 4.3215370058605913 0 0 0 0 -27.904976509773405 102.67283025226607 0 102.67283025226607 23.931463997912942 0 0 0 0 -24.580129336129175 116.43252312865479 0 116.43252312865479 78.675303296309721 0 0 0 0 5.3775335345126223 103.12610400748417 0 103.12610400748417 100.15393551362649 0 0 0 0 60.027818954571558 146.10360166649025 0 146.10360166649025 74.684676795397536 0 0 0 0 27.782284136628732 109.86354395184753 0 109.86354395184753 37.258644308520161 0 0 0 0 111.70058491124655 136.28298197542972 0 136.28298197542972 63.698411871984717 0 0 0 0 -22.215093795064604 67.941797480281821 0 67.941797480281821 59.391844781781401 0 0 0 0 -38.534887314250227 63.957380868616383 0 63.957380868616383 37.868805267833523 0 0 0 0 -37.200939264177578 58.586641007295839 0 58.586641007295839 -10.112329836880235 0 0 0 0 11.11739879988454 36.691018087541124 0 36.691018087541124 -30.823285551929075 0 0 0 0 -19.091273563142749 35.474989226064281 0 35.474989226064281 -29.0668003433384 0 0 0 0 -16.235719312084257 26.294617463572649 0 26.294617463572649 -5.4062576006372183 0 0 0 0 -19.425615975458641 31.838953862124072 0 31.838953862124072 -25.294592466727408 0 0 0 0 -6.9498498695029411 14.904302472065865 0 14.904302472065865 -19.250472113344358 0 0 0 0 -74.114042494973546 36.908670380742024 0 36.908670380742024 3.275203626793882 0 0 0 0 94.863075045844312 105.68772388829686 0 105.68772388829686 159.81163837834902 0 0 0 0 -15.171302767834277 6.334421567082245 0 6.334421567082245 -0.52477233384877309 0 0 0 0 94.999427962393383 136.38242081816952 0 136.38242081816952 61.675447489907128 0 0 0 0 -3.4826051559360423 5.5700732851641561 0 5.5700732851641561 3.0627365390172869 0 0 0 0 -17.968487708999419 18.30269778393864 0 18.30269778393864 -2.6561463094585633 0 0 0 0 2.0482205254151893 10.341273257984234 0 10.341273257984234 3.9490620489787069 0 0 0 0 8.0784026219771476 30.780745811083648 0 30.780745811083648 -12.061293227909118 0 0 0 0 -0.47242484200978652 24.268578873623937 0 24.268578873623937 4.016817942108446 0 0 0 0 9.0667294719896745 28.676753427719404 0 28.676753427719404 -27.576147740755914 0 0 0 0 -1.9535673043719726 13.116180077789977 0 13.116180077789977 -18.453023512742675 0 0 0 0 -37.399123702438374 31.084336721786485 0 31.084336721786485 -5.5736906834445108 0 0 0 0 -7.4307567541286517 11.253830164367152 0 11.253830164367152 -0.36001933717758128 0 0 0 0 -14.756339209094733 24.01188711427109 0 24.01188711427109 5.1652942494448748 0 0 0 0 -12.606214592145989 26.867329736346619 0 26.867329736346619 -12.147950966250846 0 0 0 0 0.7915684536419576 2.8751026988347803 0 2.8751026988347803 -38.903216957088262 0 0 0 0 3.1261530993284623 7.9513972147340866 0 7.9513972147340866 -2.7457942173395367 0 0 0 0 -31.583074992042384 36.591701788791397 0 36.591701788791397 -20.020240934164576 0 0 0 0 -22.754133257906688 9.4216675479799008 0 9.4216675479799008 31.069221173017905 0 0 0 0 -30.609181875624927 28.411859667905446 0 28.411859667905446 -27.494595623034911 0 0 0 0 2.5706271961662424 35.305752494967152 0 35.305752494967152 -26.069784695875569 0 0 0 0 -6.0770306384510206 -4.2651668796581461 0 -4.2651668796581461 7.9581098606674638 0 0 0 0 -45.667762998724356 37.592215157927058 0 37.592215157927058 7.9206770947266705 0 0 0 0 -51.444502224592725 19.542712782943454 0 19.542712782943454 -9.8380976874987027 0 0 0 0 1.765995308815036 13.749435685930166 0 13.749435685930166 76.930452890446077 0 0 0 0 26.707464908198745 77.582774920601423 0 77.582774920601423 -222.20813670915686 0 0 0 0 -32.892032622738043 6.1687947069822258 0 6.1687947069822258 -70.341575895790811 0 0 0 0 -197.12817017849011 138.3621694707349 0 138.3621694707349 -86.239753838728575 0 0 0 0 -122.46703732163587 138.38969213018208 0 138.38969213018208 -91.886468485532532 0 0 0 0 -79.271765522134956 69.28465933925736 0 69.28465933925736 -73.38882949202889 0 0 0 0 -31.543878109194338 47.722574029035968 0 47.722574029035968 -55.563850134387394 0 0 0 0 -76.886799364983744 73.377076851665151 0 73.377076851665151 -66.448453258521113 0 0 0 0 -36.074446670449106 45.837736986964956 0 45.837736986964956 -31.058068558842933 0 0 0 0 -10.312518974213162 -2.3808918994400301 0 -2.3808918994400301 -40.453495085352188 0 0 0 0 -43.038750223087845 21.622146824831361 0 21.622146824831361 -21.39320061972694 0 0 0 0 -12.297937926603481 40.079234165390517 0 40.079234165390517 -90.773024034742775 0 0 0 0 -419.15253781148931 11.341123716871834 0 11.341123716871834 182.3348350849775 0 0 0 0 -110.39289878091222 155.15506145540439 0 155.15506145540439 83.933213674017679 0 0 0 0 -116.58022045545658 173.99341205528731 0 173.99341205528731 39.509558220688632 0 0 0 0 -73.772226152388612 121.61684205003939 0 121.61684205003939 47.747330231112755 0 0 0 0 -43.192962754297014 24.263325119572826 0 24.263325119572826 21.002433518680174 0 0 0 0 27.852025022453745 84.238043503795438 0 84.238043503795438 28.758400072654695 0 0 0 0 -15.743139260121097 60.871457898142808 0 60.871457898142808 7.1664718498450384 0 0 0 0 -12.549767029508075 48.2977012898873 0 48.2977012898873 56.50255192541772 0 0 0 0 -37.504345528861961 40.470841414352833 0 40.470841414352833 11.028148509549279 0 0 0 0 0.88947901783831185 50.760984944401571 0 50.760984944401571 20.38032340907921 0 0 0 0 -5.1625364772189641 81.183638785688345 0 81.183638785688345 34.624405089427455 0 0 0 0 -34.384775468650332 67.078967326697239 0 67.078967326697239 51.475350638361306 0 0 0 0 6.7205145848269439 44.944690678171597 0 44.944690678171597 29.013268046457405 0 0 0 0 -137.28201668264228 34.69335566688369 0 34.69335566688369 95.792169384392764 0 0 0 0 -15.251258726907224 3.9208993197338344 0 3.9208993197338344 3.9021634158588583 0 0 0 0 57.413216791130253 46.12703646834234 0 46.12703646834234 8.7237529737111572 0 0 0 0 71.731086809247586 -6.2707857671183547 0 -6.2707857671183547 -150.12422622847953 0 0 0 0 72.277788634804892 25.599088694589227 0 25.599088694589227 18.738463313842658 0 0 0 0 51.126459687206079 189.56810872079677 0 189.56810872079677 35.533269560883127 0 0 0 0 99.732706511276774 98.507158985830756 0 98.507158985830756 -90.508950177863881 0 0 0 0 106.28211447135254 154.59809638997103 0 154.59809638997103 -134.24019658515044 0 0 0 0 89.273266745440196 142.20775981447878 0 142.20775981447878 18.553365247483271 0 0 0 0 85.999425808724482 155.60869012189323 0 155.60869012189323 36.606350927473613 0 0 0 0 90.231704137215274 134.8198332062293 0 134.8198332062293 -51.165956999990158 0 0 0 0 92.088624624986551 150.39269681238875 0 150.39269681238875 15.89787539326062 0 0 0 0 3.4016026711906004 42.078553411755749 0 42.078553411755749 20.557622475322262 0 0 0 0 24.255780616120319 93.357436264896933 0 93.357436264896933 467.75407829943288 0 0 0 0 42.816980519040953 82.246302214375646 0 82.246302214375646 257.52615388453341 0 0 0 0 36.536205748474458 163.79395717257376 0 163.79395717257376 205.99065530861481 0 0 0 0 121.70985300207394 -334.32663101479375 0 -334.32663101479375 -57.366243480484627 0 0 0 0 4.3968117865900922 -0.45271725866713552 0 -0.45271725866713552 -5.9807210145585348 0 0 0 0 2.1038567736662088 14.870104982215011 0 14.870104982215011 -15.030574935192224 0 0 0 0 5.8122015474840865 45.92590250544859 0 45.92590250544859 7.321242036897929 0 0 0 0 54.370958805526243 49.766642421118299 0 49.766642421118299 17.048233096011245 0 0 0 0 85.963501188707596 98.98634951099919 0 98.98634951099919 -44.8144177813544 0 0 0 0 -61.545631154236617 36.972167150774581 0 36.972167150774581 24.991690712294314 0 0 0 0 -68.185904116864549 51.766978783061631 0 51.766978783061631 43.564382786132228 0 0 0 0 -16.046163921506377 49.266149794223224 0 49.266149794223224 2.8292877437486368 0 0 0 0 -16.586310879009943 51.72985854454862 0 51.72985854454862 54.124417208708564 0 0 0 0 -14.403317588861682 28.068396956317827 0 28.068396956317827 33.291336144078684 0 0 0 0 24.330684563137766 38.280545850947192 0 38.280545850947192 21.306451228949527 0 0 0 0 -31.497800127411693 17.484887597533842 0 17.484887597533842 33.497599541272692 0 0 0 0 28.756251342365431 58.963660412054253 0 58.963660412054253 38.216270424955383 0 0 0 0 -278.9386503325004 -444.69136406176312 0 -444.69136406176312 28.640399376308551 0 0 0 0 -370.26684342838416 -48.970330961878972 0 -48.970330961878972 -66.946226553594897 0 0 0 0 -961.37765553243844 936.16802768128719 0 936.16802768128719 -709.94621661314886 0 0 0 0 -1112.9282587080088 858.00297633244554 0 858.00297633244554 -615.6381736151634 0 0 0 0 -788.22074590262491 492.50194382035261 0 492.50194382035261 -807.6553675676405 0 0 0 0 -934.54017028056114 903.88288294492168 0 903.88288294492168 -1115.7260430022725 0 0 0 0 -1081.2279752479226 137.29359402286354 0 137.29359402286354 238.68188447624914 0 0 0 0 -1.9977442748460135 6.7291813349576319 0 6.7291813349576319 -5.5222070644153254 0 0 0 0 -810.09852769150166 1114.2116522340029 0 1114.2116522340029 -711.8966005496768 0 0 0 0 -227.43223557597958 44.95365584540923 0 44.95365584540923 -253.22442268536543 0 0 0 0 13.953419685427008 13.787298670781411 0 13.787298670781411 -9.9040624033426745 0 0 0 0 16.247075220402621 37.060049448451466 0 37.060049448451466 27.412559979392569 0 0 0 0 13.132923060766188 29.32084804860466 0 29.32084804860466 50.237446253610869 0 0 0 0 -115.76797015877673 786.73577230045248 0 786.73577230045248 -532.30268939065718 0 0 0 0 7.6071258037991356 19.002003081053772 0 19.002003081053772 -13.54649792687087 0 0 0 0 -367.4981459339906 474.12808569055778 0 474.12808569055778 41.096824366082728 0 0 0 0 2.1016514648975146 7.5780605266470928 0 7.5780605266470928 0.90731465063868288 0 0 0 0 -136.73155953525566 78.398968237959707 0 78.398968237959707 1.3096809601734094 0 0 0 0 5.0506836617748263 28.961288802155238 0 28.961288802155238 27.939203537277205 0 0 0 0 -9.1456719537964091 20.07772109877078 0 20.07772109877078 -5.7753123053189483 0 0 0 0 4.1501557435879022 18.814224472308457 0 18.814224472308457 -2.3677132085620216 0 0 0 0 3.3890103792402044 -0.9781542837390873 0 -0.9781542837390873 -19.582897466491595 0 0 0 0 64.284354379931756 21.858248630102025 0 21.858248630102025 -47.506510792818858 0 0 0 0 3.1160483254235487 22.258682184275489 0 22.258682184275489 -2.5764905095000628 0 0 0 0 -16.585335231924546 45.115967796316909 0 45.115967796316909 30.323216121429141 0 0 0 0 10.856609278940596 33.888458619205267 0 33.888458619205267 -27.917294079283238 0 0 0 0 -1.4365942130100109 21.833561624547542 0 21.833561624547542 -5.229009203624722 0 0 0 0 -22.822375269446638 27.820110326234499 0 27.820110326234499 5.2259442489132653 0 0 0 0 -19.434879058066684 25.435041123619929 0 25.435041123619929 -0.8200383562375726 0 0 0 0 -18.068021883653273 39.268075011185559 0 39.268075011185559 -0.49539428943697317 0 0 0 0 -5.7490771391458111 27.78498687096544 0 27.78498687096544 -3.1104655632625509 0 0 0 0 5.2719382157956716 28.410614722435639 0 28.410614722435639 -22.837402171651775 0 0 0 0 -5.2898907684721053 39.159917241289804 0 39.159917241289804 9.0866640092772286 0 0 0 0 15.990694745560177 36.941386534614139 0 36.941386534614139 9.1862373577537255 0 0 0 0 14.517393114074366 50.13638010205068 0 50.13638010205068 -10.514736069886567 0 0 0 0 19.664071095201507 35.637187574445079 0 35.637187574445079 -29.011042495378206 0 0 0 0 -23.233498483197764 25.133076854726824 0 25.133076854726824 -26.424647577433461 0 0 0 0 -6.0238823163249293 26.378707598130987 0 26.378707598130987 4.3676847789764253 0 0 0 0 -43.056788477348164 19.099434106423359 0 19.099434106423359 32.521251420130284 0 0 0 0 2.7327984902252354 17.445749873103537 0 17.445749873103537 -13.338960049322196 0 0 0 0 -4.8302376601342587 3.9197993443275863 0 3.9197993443275863 -2.521247143465569 0 0 0 0 20.382084071970894 34.739923098063855 0 34.739923098063855 -8.6715755782788619 0 0 0 0 35.384379087739319 31.296011287897844 0 31.296011287897844 -27.438777977180344 0 0 0 0 7.5066861695231637 28.496643805072381 0 28.496643805072381 -43.232247356463631 0 0 0 0 10.916597101210868 24.834394255091865 0 24.834394255091865 -24.464990456743521 0 0 0 0 3.66383518426926 12.859008517547437 0 12.859008517547437 -50.706185606482904 0 0 0 0 8.0759570526497555 27.285711652531063 0 27.285711652531063 -56.757344919446041 0 0 0 0 3.6514216367068002 12.219554046128906 0 12.219554046128906 -32.051412789493043 0 0 0 0 2.2655892277303167 12.617959661400448 0 12.617959661400448 -13.343783877906283 0 0 0 0 -3.55406991447569 15.538720477165779 0 15.538720477165779 2.13064397679707 0 0 0 0 0.9399317140923813 18.465798288620135 0 18.465798288620135 -9.1150653650038294 0 0 0 0 -3.8991686816443689 19.971073439766769 0 19.971073439766769 -6.8988871611072682 0 0 0 0 7.551417210395833 18.453596342892155 0 18.453596342892155 -22.943545690252314 0 0 0 0 -27.111812659946736 22.609739251340216 0 22.609739251340216 -27.342617868684101 0 0 0 0 1.7367957580474354 1.4384657442458177 0 1.4384657442458177 0.93326979428716328 0 0 0 0 -3.986788663562038 -16.862674357544165 0 -16.862674357544165 -56.239139787645968 0 0 0 0 -1.3135084996756348 2.5022759066199711 0 2.5022759066199711 0.10792128950757984 0 0 0 0 39.938147794949145 67.483876435111256 0 67.483876435111256 96.556483278058295 0 0 0 0 -26.518979296361977 16.234698021396298 0 16.234698021396298 25.794747902371455 0 0 0 0 -57.511202395166038 8.2473231221920287 0 8.2473231221920287 81.596718893969523 0 0 0 0 -9.4817922264846857 84.539164166572846 0 84.539164166572846 136.79820068722802 0 0 0 0 64.183586700790329 19.660989217814858 0 19.660989217814858 108.96413694866942 0 0 0 0 -0.13485835149052683 -1.6363227397939539 0 -1.6363227397939539 -0.74367825634147522 0 0 0 0 547.65371854700061 182.34893414557382 0 182.34893414557382 -312.83392571837066 0 0 0 0 -746.46474368888448 588.87822046496785 0 588.87822046496785 -688.25870541114091 0 0 0 0 -445.30434631462413 109.341755649074 0 109.341755649074 75.292362464722828 0 0 0 0 411.13499673926708 -106.44616396013316 0 -106.44616396013316 -163.45008619831424 0 0 0 0 81.731654164133943 558.01743285094744 0 558.01743285094744 -1060.0945513889351 0 0 0 0 -38.585382892706548 101.81792148000568 0 101.81792148000568 -0.055818740289396374 0 0 0 0 -92.543609408501652 56.64454353970541 0 56.64454353970541 28.608197843648668 0 0 0 0 6.0955560139009322 87.932895448353065 0 87.932895448353065 2.5855935581384983 0 0 0 0 -1548.6399721016569 1776.4993601635847 0 1776.4993601635847 -1175.2588992500878 0 0 0 0 -1.5773369053505064 -0.35807467640042034 0 -0.35807467640042034 -3.9829691810748926 0 0 0 0 -141.73284363624407 452.47260172181268 0 452.47260172181268 -774.53830589057725 0 0 0 0 -10.062955053141962 0.72908594818969163 0 0.72908594818969163 1.2836001460492064 0 0 0 0 -315.23597906998475 506.75466031437099 0 506.75466031437099 -753.50750534046892 0 0 0 0 -485.84179020280499 385.25833300394106 0 385.25833300394106 -881.63493092365388 0 0 0 0 -676.85624313395965 388.76187116788742 0 388.76187116788742 -305.61028783484471 0 0 0 0 -862.05218803424214 929.1253477231603 0 929.1253477231603 -775.51051196551089 0 0 0 0 -685.22964803711511 646.74943009890922 0 646.74943009890922 -657.27820720051409 0 0 0 0 -747.8002377429948 651.3212920308888 0 651.3212920308888 -422.82622857194292 0 0 0 0 -44.719893300985859 47.767090845749408 0 47.767090845749408 93.884469492542848 0 0 0 0 0.33816995577390685 1.4887815995557965 0 1.4887815995557965 -0.16539469489831538 0 0 0 0 -45.307180756353773 117.95964958447621 0 117.95964958447621 -11.407308283623365 0 0 0 0 -35.873923219653079 120.92622512308481 0 120.92622512308481 -85.045185396180386 0 0 0 0 -133.11313765773957 161.34734610854139 0 161.34734610854139 -211.21549873827871 0 0 0 0 -3.1148071531961818 -0.910367396535122 0 -0.910367396535122 1.2522043654092485 0 0 0 0 -84.769454118730209 35.630931505279477 0 35.630931505279477 -73.137482192301832 0 0 0 0 -46.398108592789953 14.477737968668151 0 14.477737968668151 32.478996047818455 0 0 0 0 -9.4865737749519212 9.3760475409821709 0 9.3760475409821709 -12.756879458581921 0 0 0 0 -78.604756395798177 95.880638124181132 0 95.880638124181132 -76.694312668173893 0 0 0 0 -61.461712367236032 83.272550668618351 0 83.272550668618351 -94.048423349059476 0 0 0 0 -66.846922910321155 -56.921363355753385 0 -56.921363355753385 60.630978033386782 0 0 0 0 18.202021706711093 21.356538421635037 0 21.356538421635037 61.684520348723709 0 0 0 0 -15.310350969724823 19.146237048658804 0 19.146237048658804 -12.26752575713067 0 0 0 0 -19.300015081781112 18.774127550097681 0 18.774127550097681 8.5517979573468423 0 0 0 0 -26.38240513317038 29.446623385461947 0 29.446623385461947 1.1445886604822313 0 0 0 0 9.404801861019223 57.659395285812934 0 57.659395285812934 -198.31159761080744 0 0 0 0 -67.50933647902275 113.02366526150126 0 113.02366526150126 -112.42222182906335 0 0 0 0 -31.798066969437059 23.68646844163959 0 23.68646844163959 -47.328524568196372 0 0 0 0 -13.800501531615737 3.538517245253388 0 3.538517245253388 -89.283722671316355 0 0 0 0 -38.257495677244151 56.572834441310988 0 56.572834441310988 -39.887271862335183 0 0 0 0 6.239872530582943 20.059784424490317 0 20.059784424490317 -70.010854084606763 0 0 0 0 2.8270026743412018 27.296735739270844 0 27.296735739270844 -62.000500202171679 0 0 0 0 2.363994396146154 25.059579760909401 0 25.059579760909401 -57.444403350074936 0 0 0 0 4.7389253558096414 24.351602953290225 0 24.351602953290225 -14.067860232020656 0 0 0 0 10.425099764863262 37.584993391032185 0 37.584993391032185 138.36478939414883 0 0 0 0 1.0448817561533588 3.7696450853559078 0 3.7696450853559078 -0.13243671596435913 0 0 0 0 16.384645454752899 15.638866582579794 0 15.638866582579794 3.3805766764461396 0 0 0 0 0.42837835464106888 4.7258468909840445 0 4.7258468909840445 5.0881788039189502 0 0 0 0 21.69138860712701 1.306607705546412 0 1.306607705546412 0.62334635773095215 0 0 0 0 -39.177141102132737 48.648426107201885 0 48.648426107201885 149.17136764627412 0 0 0 0 -156.45886099671043 107.53390235204824 0 107.53390235204824 122.7903982866892 0 0 0 0 -14.115550677579449 145.23449984205126 0 145.23449984205126 -47.137288244293813 0 0 0 0 -86.986910639156122 -296.59714088347846 0 -296.59714088347846 61.294044088697774 0 0 0 0 -1.2379110566800762 0.88736967023177726 0 0.88736967023177726 3.6937474590636583 0 0 0 0 0.79732204705214826 15.779509313009839 0 15.779509313009839 -9.3906037357373862 0 0 0 0 -63.987820156042289 -50.02769578564039 0 -50.02769578564039 -13.657415919738924 0 0 0 0 -31.277978931786492 -21.990296711384872 0 -21.990296711384872 -138.5247947464336 0 0 0 0 -33.534697132941801 -16.385634997448506 0 -16.385634997448506 -18.331100005711619 0 0 0 0 -43.955727281783766 -117.57957594485742 0 -117.57957594485742 -84.719074481050939 0 0 0 0 -48.741056713450234 -51.402850154123371 0 -51.402850154123371 -277.15463645786076 0 0 0 0 -59.587605058106419 -14.822525020919784 0 -14.822525020919784 -104.38734674941588 0 0 0 0 -5.5992243536675232 -12.016876408679309 0 -12.016876408679309 -133.15396418674209 0 0 0 0 -57.221357654864732 -76.757161477311115 0 -76.757161477311115 -10.705247093212165 0 0 0 0 523.51599957906728 413.01264305986888 0 413.01264305986888 -32.275564762829163 0 0 0 0 34.190341311469638 -186.53780847541748 0 -186.53780847541748 -84.196624812407208 0 0 0 0 98.067657617011719 -113.14140642923348 0 -113.14140642923348 -4.2896202580079716 0 0 0 0 -77.231819655589788 75.973407309963932 0 75.973407309963932 -60.788091703956525 0 0 0 0 -712.77393899660819 -405.25462487708046 0 -405.25462487708046 -386.55955841464402 0 0 0 0 -923.33868595463719 654.67363198219209 0 654.67363198219209 -359.23378609829979 0 0 0 0 -234.83875971811358 163.3227260875401 0 163.3227260875401 -12.467502739711563 0 0 0 0 -93.0362451605979 975.32167785300771 0 975.32167785300771 -824.74828002873119 0 0 0 0 -370.95069028915532 971.33901072284925 0 971.33901072284925 -788.38665335157202 0 0 0 0 -629.74886442977004 679.31452773882575 0 679.31452773882575 -935.39917924383963 0 0 0 0 -1655.9028654518916 688.90649269649339 0 688.90649269649339 265.61575476683902 0 0 0 0 -1536.7051846277654 -91.130904019194475 0 -91.130904019194475 61.928499867684877 0 0 0 0 139.54135651909746 618.36945337120324 0 618.36945337120324 -429.83008728842287 0 0 0 0 -7.986824141845787 7.9584941277514147 0 7.9584941277514147 -9.4724753007994096 0 0 0 0 -298.47671920488938 -103.56085671860455 0 -103.56085671860455 61.934876312459892 0 0 0 0 -742.03384468730292 87.654453467461281 0 87.654453467461281 49.709130429379002 0 0 0 0 -145.77918227977352 103.83090232148243 0 103.83090232148243 -184.72777351076365 0 0 0 0 -914.46642185947712 665.96291461295368 0 665.96291461295368 33.917956598997989 0 0 0 0 -890.1075646408317 530.52727454427122 0 530.52727454427122 -304.60260445022504 0 0 0 0 -3.9757079715760142 5.2544173759190471 0 5.2544173759190471 -4.8855462700675822 0 0 0 0 -953.5889020273944 824.60523771751139 0 824.60523771751139 433.2613379674458 0 0 0 0 234.75544623406677 299.16623043921072 0 299.16623043921072 235.78777201822231 0 0 0 0 165.78309324800648 402.79637225502756 0 402.79637225502756 -491.37720866600102 0 0 0 0 226.86937343868431 114.75482687290776 0 114.75482687290776 11.014362177531439 0 0 0 0 -7.2713921875809433 10.218448243938063 0 10.218448243938063 -10.363484008783871 0 0 0 0 -100.36803469544611 -142.95154135307303 0 -142.95154135307303 211.59831753805338 0 0 0 0 -18.922788093403142 309.30018497364858 0 309.30018497364858 -345.76206569918759 0 0 0 0 82.747668181897097 -8.4352657279789582 0 -8.4352657279789582 -209.44131884969829 0 0 0 0 -322.62557432532776 236.28818390639935 0 236.28818390639935 -188.97178666961736 0 0 0 0 -142.76564530898759 177.41343859227982 0 177.41343859227982 -489.84595821503626 0 0 0 0 -192.29858627972499 389.14081651622723 0 389.14081651622723 -477.41511255255864 0 0 0 0 -275.46124792391129 327.30860426703907 0 327.30860426703907 -307.77311565473246 0 0 0 0 -7.8641907774320146 2.002724904631549 0 2.002724904631549 1.5752167416517864 0 0 0 0 -199.18315198265918 159.85592680059335 0 159.85592680059335 -117.60055440448332 0 0 0 0 -219.9650724370149 224.38626693681726 0 224.38626693681726 266.22847988574858 0 0 0 0 1.2759591804418733 9.5098249640642649 0 9.5098249640642649 4.6082289721874883 0 0 0 0 -104.50999813951785 95.209127812207043 0 95.209127812207043 -533.57784959030323 0 0 0 0 -790.56813242694625 623.07325642508158 0 623.07325642508158 -546.89059760078453 0 0 0 0 -137.64703313696646 412.19099388649914 0 412.19099388649914 -639.60286920292128 0 0 0 0 -842.99610617983853 807.75522621591517 0 807.75522621591517 -1550.9834831519074 0 0 0 0 -349.22766880021663 263.84150548693742 0 263.84150548693742 -386.3588873394574 0 0 0 0 -662.10511298167694 1053.0363024022927 0 1053.0363024022927 -1225.5489335334241 0 0 0 0 -417.72930315000121 866.90664124692194 0 866.90664124692194 -898.434879970461 0 0 0 0 -490.45504028223149 670.65014672935058 0 670.65014672935058 -894.69280907709799 0 0 0 0 80.063975435561588 679.00196679987926 0 679.00196679987926 -756.87411880442596 0 0 0 0 -239.02007201624656 826.93770900124991 0 826.93770900124991 -719.91760600110501 0 0 0 0 -305.98813196331321 744.56077728268428 0 744.56077728268428 -815.22850588203801 0 0 0 0 -266.50621485503507 597.32699068976444 0 597.32699068976444 -836.12421576891757 0 0 0 0 -57.797406529447471 740.42361379477597 0 740.42361379477597 -815.25189747010245 0 0 0 0 -1.7691073175419092 5.7416687095240064 0 5.7416687095240064 2.8100507813269129 0 0 0 0 279.28520618312905 176.61785078350113 0 176.61785078350113 637.24858125818355 0 0 0 0 -19.981603838673351 24.47764773878832 0 24.47764773878832 -21.188550739109004 0 0 0 0 -18.268792725051753 83.354351904170926 0 83.354351904170926 468.67833685046378 0 0 0 0 106.62844328760002 125.8964924687109 0 125.8964924687109 -73.90536069173686 0 0 0 0 16.256534046537126 -39.432189593353542 0 -39.432189593353542 547.97302030462379 0 0 0 0 132.21991596221051 60.134992421567404 0 60.134992421567404 -213.96779297302965 0 0 0 0 -134.63782256111153 73.616950710624224 0 73.616950710624224 -127.51716348328773 0 0 0 0 -29.933337466805824 170.18937654477281 0 170.18937654477281 334.7648059907205 0 0 0 0 38.194631961878258 34.842582315874893 0 34.842582315874893 339.07463826068943 0 0 0 0 -71.721730427263537 -87.874121421195923 0 -87.874121421195923 828.69093547317152 0 0 0 0 28.089812595793774 -66.384652015764232 0 -66.384652015764232 474.29083038022054 0 0 0 0 -144.18842265536659 7.714659089885572 0 7.714659089885572 526.18883090269583 0 0 0 0 -75.823931914987043 -86.016214809374787 0 -86.016214809374787 312.72564898259657 0 0 0 0 -155.20398389101319 -64.539074676232303 0 -64.539074676232303 323.23441604638901 0 0 0 0 32.593867611816677 97.233725370623745 0 97.233725370623745 25.108232422828451 0 0 0 0 -5.7908511984104223 15.153322704329042 0 15.153322704329042 22.201602675429029 0 0 0 0 -98.89917348765448 35.763294174575094 0 35.763294174575094 15.297235704929335 0 0 0 0 -120.46271680980863 -2.9856656505130559 0 -2.9856656505130559 262.88634531176592 0 0 0 0 -96.686098605685402 47.980143865286664 0 47.980143865286664 82.737935988090612 0 0 0 0 -2.3664483997524428 6.4102563660203415 0 6.4102563660203415 -3.4972927450342688 0 0 0 0 -17.670047213003272 36.582771297757063 0 36.582771297757063 -24.497584367309173 0 0 0 0 -18.686986001092009 30.983888202437811 0 30.983888202437811 -54.886404699318518 0 0 0 0 -2.6356169479455218 -7.4454598500760181 0 -7.4454598500760181 6.3042963994808172 0 0 0 0 8.4733860413180082 -27.511475353918286 0 -27.511475353918286 -48.101913322079781 0 0 0 0 0.040590789313682762 1.5114824178432258 0 1.5114824178432258 10.655921302487705 0 0 0 0 444.54983642554726 208.73663594500977 0 208.73663594500977 71.991207956158178 0 0 0 0 490.19177306450001 -793.15860604781983 0 -793.15860604781983 782.75212631179238 0 0 0 0 -109.50708624820982 -234.21785028356544 0 -234.21785028356544 785.80707448411522 0 0 0 0 195.28862269369711 -173.84362963216608 0 -173.84362963216608 157.44117448713632 0 0 0 0 -526.53963409902644 201.3327279784553 0 201.3327279784553 714.30949011538542 0 0 0 0 -548.44292508536864 -383.77327411760086 0 -383.77327411760086 1577.317938661381 0 0 0 0 -2.2560445515981371 2.6538721203448219 0 2.6538721203448219 6.5458254585566893 0 0 0 0 -101.9844441164314 123.6977442005882 0 123.6977442005882 -101.74611642162199 0 0 0 0 -229.18430766232632 155.80745465453037 0 155.80745465453037 159.98762779280514 0 0 0 0 -280.65838132982026 114.58483041311774 0 114.58483041311774 48.327865062797173 0 0 0 0 -43.511585115556954 -22.538662003382342 0 -22.538662003382342 36.189216080711049 0 0 0 0 -17.708627856241947 47.119003121557398 0 47.119003121557398 58.174013322131941 0 0 0 0 -66.679565474871197 -16.577089611835618 0 -16.577089611835618 143.10384107999562 0 0 0 0 -99.560723630769644 34.951416854288254 0 34.951416854288254 14.629519665351836 0 0 0 0 -41.485841922199342 22.9582151632723 0 22.9582151632723 21.300664268405448 0 0 0 0 0.90284680447075516 -7.7789533733975986 0 -7.7789533733975986 35.822444915302185 0 0 0 0 -23.454245788299886 19.984711116784638 0 19.984711116784638 21.576631206105958 0 0 0 0 -21.546580090367058 24.066552402545298 0 24.066552402545298 11.743900996826973 0 0 0 0 -17.630623537130305 20.656121118899136 0 20.656121118899136 18.786047818633961 0 0 0 0 -17.957402533230137 13.089551439787499 0 13.089551439787499 29.759594937713075 0 0 0 0 -8.0776651253545424 5.1972818258154803 0 5.1972818258154803 20.383968606547569 0 0 0 0 -13.603384474971079 12.030369663669127 0 12.030369663669127 15.600738685198344 0 0 0 0 -7.356305205064487 4.2332463061624424 0 4.2332463061624424 14.431567162357858 0 0 0 0 -8.400688633183222 1.7746076697167865 0 1.7746076697167865 18.573553257523528 0 0 0 0 -38.871693016539211 30.05075069299528 0 30.05075069299528 24.19138623368417 0 0 0 0 -30.893217279241071 -121.62606105051054 0 -121.62606105051054 -24.688793546813031 0 0 0 0 146.28154531059408 198.66364649639308 0 198.66364649639308 178.73296260721872 0 0 0 0 -4.7828744760871871 5.4484803328176845 0 5.4484803328176845 2.6196509557705796 0 0 0 0 191.82038143565296 236.2272311073848 0 236.2272311073848 208.98195759359078 0 0 0 0 -2.0621789836877724 25.17563290008593 0 25.17563290008593 -12.746897845860076 0 0 0 0 -13.612050006348596 8.5396248994279915 0 8.5396248994279915 9.3749650160882396 0 0 0 0 61.489197304123081 -38.303330588079916 0 -38.303330588079916 67.550460376534829 0 0 0 0 5.5184418361185124 8.1262227332493389 0 8.1262227332493389 -5.0384786995689046 0 0 0 0 78.090534521645168 26.227262880656781 0 26.227262880656781 43.569441973333596 0 0 0 0 -57.647222701256396 42.628378101850103 0 42.628378101850103 42.631546108781549 0 0 0 0 100.04648565102252 -35.152386843726163 0 -35.152386843726163 -77.535465212800773 0 0 0 0 67.902195817880056 84.249068850432423 0 84.249068850432423 -164.36492086341968 0 0 0 0 18.266671696852427 170.94346096074059 0 170.94346096074059 309.44873008041759 0 0 0 0 6.6964057358841274 45.715479478207669 0 45.715479478207669 577.43193015616635 0 0 0 0 -137.64290501379946 222.53549538238121 0 222.53549538238121 488.61130645131925 0 0 0 0 -205.22464573170873 331.68825339493515 0 331.68825339493515 479.39969608227329 0 0 0 0 95.857498646859312 328.80203817997972 0 328.80203817997972 420.21616977483063 0 0 0 0 -696.25887943270573 194.47942747905836 0 194.47942747905836 681.31399850934031 0 0 0 0 -80.877644129170221 260.28804813484749 0 260.28804813484749 -133.38969539822756 0 0 0 0 35.380169838303118 -121.14239950637875 0 -121.14239950637875 1051.45436216914 0 0 0 0 107.55244694708381 654.82286624478547 0 654.82286624478547 647.60408710675256 0 0 0 0 505.54860351076786 528.34664013637666 0 528.34664013637666 298.71479438447568 0 0 0 0 598.16188541633164 187.37517934528751 0 187.37517934528751 106.99897748401418 0 0 0 0 94.028365092206968 298.49147800943302 0 298.49147800943302 170.61694192144205 0 0 0 0 -0.97688509648891397 2.5985134118765956 0 2.5985134118765956 12.663023042159466 0 0 0 0 32.918247418860119 -138.25949204610652 0 -138.25949204610652 701.16069732292635 0 0 0 0 4.1791091151888224 0.90978807788889071 0 0.90978807788889071 0.29882087076274644 0 0 0 0 -154.04162386793178 216.63163903193436 0 216.63163903193436 870.95774006259853 0 0 0 0 -153.81482795185002 116.19136405718245 0 116.19136405718245 267.80718586459807 0 0 0 0 -159.03417763984135 -102.20562325907602 0 -102.20562325907602 274.98102764468786 0 0 0 0 -161.11438059185457 -47.024228338751527 0 -47.024228338751527 25.633530438236704 0 0 0 0 46.135817736001627 367.14016625672139 0 367.14016625672139 97.510609661359013 0 0 0 0 21.832422947988562 452.94219594981507 0 452.94219594981507 43.442896986174674 0 0 0 0 128.07189307282533 443.74984622937336 0 443.74984622937336 -231.27013785130293 0 0 0 0 -176.61205760384109 525.81062886194695 0 525.81062886194695 -39.887336538571617 0 0 0 0 -116.87205910495686 416.8963735391244 0 416.8963735391244 84.675811605550734 0 0 0 0 -866.67368558468297 899.07199719185337 0 899.07199719185337 -241.11350502822825 0 0 0 0 -921.33115044250007 94.686197351653391 0 94.686197351653391 59.625176049263246 0 0 0 0 -523.87610435415991 95.115728925389703 0 95.115728925389703 -301.26275781259079 0 0 0 0 -710.09732295962749 181.15825995291743 0 181.15825995291743 319.04032247693294 0 0 0 0 -602.3969593813963 362.15136106476348 0 362.15136106476348 283.72792513111199 0 0 0 0 -373.37564678980561 117.38122395635401 0 117.38122395635401 -50.049176993682522 0 0 0 0 10.907711114557969 -57.116140495158334 0 -57.116140495158334 -44.142567543663972 0 0 0 0 2.3010374380266398 -0.12676934169728327 0 -0.12676934169728327 -0.00064147987378238014 0 0 0 0 -53.749120219741599 138.21706366536273 0 138.21706366536273 -115.94789390480946 0 0 0 0 -430.41058878130571 22.861545194982682 0 22.861545194982682 -91.028360719919874 0 0 0 0 -545.63480815624644 170.15275943298184 0 170.15275943298184 -74.219845339765016 0 0 0 0 -466.58672443020623 62.957907150886967 0 62.957907150886967 -64.754366596115915 0 0 0 0 -1.7169336342057591 1.6292025715613754 0 1.6292025715613754 0.26841404737991548 0 0 0 0 -330.06110867865209 80.316262220419958 0 80.316262220419958 822.52922841503096 0 0 0 0 -223.00321672673454 346.32730983235342 0 346.32730983235342 -218.99446458411785 0 0 0 0 -391.0449385321117 235.28368256657814 0 235.28368256657814 656.5871997517097 0 0 0 0 -655.93291285795567 406.77679468856695 0 406.77679468856695 341.33850057520249 0 0 0 0 -573.66050797990465 148.59106256324958 0 148.59106256324958 242.01768863184043 0 0 0 0 -372.58603480076999 130.82468540889204 0 130.82468540889204 536.81987640340594 0 0 0 0 -396.55819297104608 300.45713064854681 0 300.45713064854681 358.52785603664597 0 0 0 0 -420.37199453487119 325.37650923451656 0 325.37650923451656 327.71784416170635 0 0 0 0 -187.61391474714037 211.25882407567497 0 211.25882407567497 369.27202634021342 0 0 0 0 -294.91538535766813 100.62098500159709 0 100.62098500159709 272.40146023379202 0 0 0 0 -325.84781231727538 106.40978337242268 0 106.40978337242268 442.15349547050937 0 0 0 0 -271.75455312264239 31.456576909903561 0 31.456576909903561 467.77769540765439 0 0 0 0 -286.85793541934981 191.6532074976385 0 191.6532074976385 506.85819687929506 0 0 0 0 -299.13118242709606 32.203578936343547 0 32.203578936343547 573.06255876734804 0 0 0 0 -430.24282375583789 -176.59912777489899 0 -176.59912777489899 196.1050515743791 0 0 0 0 18.331135763910424 170.02600432543477 0 170.02600432543477 112.91687158575587 0 0 0 0 55.971730566128826 456.21154180502208 0 456.21154180502208 335.42276517379196 0 0 0 0 -30.724620063476323 211.8062822029824 0 211.8062822029824 281.32180124506885 0 0 0 0 107.05249556144554 326.04925026866204 0 326.04925026866204 202.75863116929895 0 0 0 0 -218.64745709166982 367.10228941573644 0 367.10228941573644 215.41471599874421 0 0 0 0 -50.269542239921051 52.048270698455141 0 52.048270698455141 -48.643587048964847 0 0 0 0 134.33168830793875 383.1749529063909 0 383.1749529063909 243.64352321302886 0 0 0 0 146.18334414935089 360.85332856955074 0 360.85332856955074 111.39886373824538 0 0 0 0 -57.384222811253494 233.19156756278971 0 233.19156756278971 33.552676022398373 0 0 0 0 -40.926027963680099 156.00324116696356 0 156.00324116696356 -80.397827488275652 0 0 0 0 -49.322037097418388 52.180431670057466 0 52.180431670057466 -49.894624001435915 0 0 0 0 158.42909769507605 283.16572813337234 0 283.16572813337234 56.84994153981097 0 0 0 0 211.24878117668322 255.50313800631307 0 255.50313800631307 67.329558942938093 0 0 0 0 229.85559216716138 283.20950592327063 0 283.20950592327063 11.310976990781455 0 0 0 0 169.94373295156765 245.84299356998235 0 245.84299356998235 129.52683640126634 0 0 0 0 85.381554488914844 175.77434102747793 0 175.77434102747793 35.417557078064419 0 0 0 0 95.115602959094758 189.84204574046703 0 189.84204574046703 90.78275704362386 0 0 0 0 -47.306342261274196 50.978611066842376 0 50.978611066842376 -49.434062851763237 0 0 0 0 -89.883154868315614 96.450871660133998 0 96.450871660133998 30.973601530120277 0 0 0 0 -45.625744524973925 80.78655815280581 0 80.78655815280581 -25.973883249582286 0 0 0 0 -113.69054775131372 -11.243952229580827 0 -11.243952229580827 -75.465629769561929 0 0 0 0 -24.200112860298759 20.753589179057599 0 20.753589179057599 -93.184774014705908 0 0 0 0 -0.43326895934296772 39.34857706832554 0 39.34857706832554 -54.671867414162989 0 0 0 0 -26.648624972078323 26.361850229091033 0 26.361850229091033 -30.435997938984656 0 0 0 0 -64.249443887314555 21.986699556851818 0 21.986699556851818 -75.555345164942992 0 0 0 0 -73.397973742852628 -22.656311872931838 0 -22.656311872931838 -126.84433338835879 0 0 0 0 -68.578245277767564 94.227802893228727 0 94.227802893228727 23.90141971860794 0 0 0 0 -189.93806760866687 239.44772017110017 0 239.44772017110017 20.686823865500628 0 0 0 0 -214.93347506965074 6.3410842417124513 0 6.3410842417124513 -28.737902387310896 0 0 0 0 -89.468830589459685 122.94226596164663 0 122.94226596164663 -127.55610446561988 0 0 0 0 18.510506921960769 -18.420699939717451 0 -18.420699939717451 -77.387385072126563 0 0 0 0 -301.15880026756349 118.91602409246116 0 118.91602409246116 -9.4899327435014129 0 0 0 0 0.87051957831068449 2.9758575615231635 0 2.9758575615231635 -2.419914742799719 0 0 0 0 -2.6844593762517377 2.2576608355144003 0 2.2576608355144003 1.8552427445128963 0 0 0 0 -318.5485806941233 79.619005037498027 0 79.619005037498027 -13.692470966110704 0 0 0 0 -116.84739997630459 21.547820942625549 0 21.547820942625549 25.958243996119563 0 0 0 0 -11.830015329504022 51.321444289224019 0 51.321444289224019 -45.015329339181335 0 0 0 0 28.461922569869785 18.543130428500262 0 18.543130428500262 -91.674806535440439 0 0 0 0 -43.94928022420882 49.103045143619042 0 49.103045143619042 -49.345771882982362 0 0 0 0 85.639980955722422 184.61636196505424 0 184.61636196505424 56.489763620375015 0 0 0 0 118.33763604265732 153.17972796142271 0 153.17972796142271 90.908919208217412 0 0 0 0 82.862329810195661 59.501383889271892 0 59.501383889271892 -44.543944279957941 0 0 0 0 -21.489950769373536 183.55962572014687 0 183.55962572014687 -72.645925258908392 0 0 0 0 -43.574329578067875 46.114675828192311 0 46.114675828192311 -40.477476093119776 0 0 0 0 4.392463709721028 4.1362308166508317 0 4.1362308166508317 -12.220932020445513 0 0 0 0 -1.67169495248163 88.769334715521381 0 88.769334715521381 70.738055028465169 0 0 0 0 -63.862392184517375 151.89261791953322 0 151.89261791953322 85.183502016137936 0 0 0 0 -0.72027965250890702 100.26548770006775 0 100.26548770006775 78.116397701789538 0 0 0 0 63.533799369135522 124.45380627063787 0 124.45380627063787 81.125133719303903 0 0 0 0 30.782280842213368 87.792051014256685 0 87.792051014256685 69.239493139813931 0 0 0 0 44.732630964626878 154.24808225744437 0 154.24808225744437 84.442147893536458 0 0 0 0 99.061678562604357 149.32258462802747 0 149.32258462802747 71.898745314498228 0 0 0 0 55.882125524338335 239.06087066303735 0 239.06087066303735 -0.537784123426718 0 0 0 0 140.65594563099876 173.72844903449095 0 173.72844903449095 49.271564599115663 0 0 0 0 79.923815602973264 217.52091906480632 0 217.52091906480632 102.57679137359264 0 0 0 0 31.402891723359062 322.03228239552664 0 322.03228239552664 62.765865786513586 0 0 0 0 -56.93395330950807 -68.45816740743976 0 -68.45816740743976 -121.04697455423229 0 0 0 0 -288.25135989666524 -32.414775701696271 0 -32.414775701696271 165.59251345946905 0 0 0 0 29.02046816523216 85.649456609144181 0 85.649456609144181 66.71842843824561 0 0 0 0 -9.6741610726784586 -0.66321055314612565 0 -0.66321055314612565 12.788869983670715 0 0 0 0 29.064066485509102 81.742398220902942 0 81.742398220902942 -34.974074884774382 0 0 0 0 -43.055730777607153 41.959321045689478 0 41.959321045689478 -33.437542837895336 0 0 0 0 -105.29988593196322 130.26667061573607 0 130.26667061573607 30.469943351316033 0 0 0 0 -100.50603069792487 160.99069865566162 0 160.99069865566162 279.21098438850277 0 0 0 0 -11.362726635525178 78.870683010772154 0 78.870683010772154 54.274593258276582 0 0 0 0 -7.6067744569591014 7.2092140294989804 0 7.2092140294989804 48.395786958227973 0 0 0 0 7.3307603822067904 53.206132591939422 0 53.206132591939422 18.333192159727332 0 0 0 0 -121.4021658476413 62.404694868948354 0 62.404694868948354 59.637292482442717 0 0 0 0 -10.425367543917673 80.023084531811037 0 80.023084531811037 55.477963107859978 0 0 0 0 26.756211278581759 134.11909044358617 0 134.11909044358617 42.941056843545084 0 0 0 0 -46.262231391323439 90.159440713640834 0 90.159440713640834 77.579841772732834 0 0 0 0 -56.261987339497864 141.12593229654794 0 141.12593229654794 45.257395042946882 0 0 0 0 26.874124705722352 129.43899925796222 0 129.43899925796222 98.452196470607305 0 0 0 0 38.050298388769079 153.03208172845666 0 153.03208172845666 142.52981251936944 0 0 0 0 6.7629078315076185 148.01605442413347 0 148.01605442413347 118.06794751411599 0 0 0 0 2.4477103044337127 121.54848039377248 0 121.54848039377248 93.01675040786904 0 0 0 0 32.47272042055647 126.05567919425403 0 126.05567919425403 83.098841556966363 0 0 0 0 -17.851985892855737 152.88161316997684 0 152.88161316997684 93.906030390497108 0 0 0 0 -16.703562503520516 86.579761076890918 0 86.579761076890918 45.284520618759416 0 0 0 0 7.1449445537388101 137.10547998983142 0 137.10547998983142 49.666213566077204 0 0 0 0 182.75000856111728 209.40157721115611 0 209.40157721115611 93.351890555994032 0 0 0 0 133.93913715394518 227.06708485055015 0 227.06708485055015 129.50541142372094 0 0 0 0 52.697987420790014 128.7988956520403 0 128.7988956520403 88.523283527410968 0 0 0 0 41.03429932918516 90.940317914873958 0 90.940317914873958 45.064519611667492 0 0 0 0 78.816797278093873 132.23936230793515 0 132.23936230793515 47.131456756291527 0 0 0 0 73.675328148339759 164.002100326461 0 164.002100326461 97.787939696801459 0 0 0 0 132.69747544705751 145.72731921300328 0 145.72731921300328 97.142193681167555 0 0 0 0 105.053762446566 185.16547509250404 0 185.16547509250404 124.07917112540235 0 0 0 0 95.104629116220167 135.46654906078584 0 135.46654906078584 89.093990985141318 0 0 0 0 219.18543427051918 204.41651946884849 0 204.41651946884849 134.47093300564666 0 0 0 0 170.43541516932601 161.90231938179568 0 161.90231938179568 122.45224840454239 0 0 0 0 183.82409504023326 235.72002607591003 0 235.72002607591003 143.9568943436534 0 0 0 0 251.62930403535574 235.85941771191756 0 235.85941771191756 116.76083780851513 0 0 0 0 295.54720641791937 214.78960195419495 0 214.78960195419495 134.89275126360735 0 0 0 0 314.88859998349199 337.44292947199801 0 337.44292947199801 172.78931161046057 0 0 0 0 213.32147925107711 311.25120007127998 0 311.25120007127998 180.60654078033622 0 0 0 0 255.21392058793174 440.61208844208488 0 440.61208844208488 322.69366652258032 0 0 0 0 189.24931694236875 286.84316479630252 0 286.84316479630252 162.23498554667731 0 0 0 0 166.49291152002115 255.63505406083095 0 255.63505406083095 192.43145843536695 0 0 0 0 214.43089097354095 210.21713688324508 0 210.21713688324508 111.97738415910317 0 0 0 0 136.30846626722632 322.63734311637563 0 322.63734311637563 230.40168201356937 0 0 0 0 156.26090297015071 260.59291982363447 0 260.59291982363447 367.98992947066836 0 0 0 0 313.07334780544807 330.25976621916379 0 330.25976621916379 261.36803287387374 0 0 0 0 -5.560456715110746 8.5545518075185996 0 8.5545518075185996 -8.9997324159807803 0 0 0 0 104.15158757918107 177.47914252612873 0 177.47914252612873 251.32278200721703 0 0 0 0 188.68122776786913 245.21192010335017 0 245.21192010335017 272.8247201173981 0 0 0 0 194.57941188471523 53.530234767504226 0 53.530234767504226 3.3259980954999264 0 0 0 0 233.88478168723668 187.77676994007197 0 187.77676994007197 141.82699960569062 0 0 0 0 235.927378741133 243.37432319857135 0 243.37432319857135 59.949675447657683 0 0 0 0 187.49544872149272 201.13096556792607 0 201.13096556792607 121.53597816381443 0 0 0 0 203.70135517315794 192.53467291464494 0 192.53467291464494 58.045968525925673 0 0 0 0 161.13629337890234 229.99525283613161 0 229.99525283613161 106.56183935999252 0 0 0 0 237.81646292878577 258.5061564798616 0 258.5061564798616 123.0613470230237 0 0 0 0 65.095005275152289 29.329842630071028 0 29.329842630071028 33.62536382520193 0 0 0 0 -1.5723576373488299 7.968700892575427 0 7.968700892575427 -12.647141548213689 0 0 0 0 18.790844550487236 29.187070026630863 0 29.187070026630863 -15.917080047747731 0 0 0 0 176.94108447793406 59.046347777180927 0 59.046347777180927 -85.079248658112192 0 0 0 0 67.151928270228382 66.164890245385322 0 66.164890245385322 42.320923039367699 0 0 0 0 110.23782631587528 55.48439961911572 0 55.48439961911572 38.594316867820453 0 0 0 0 0.097965679800836369 75.673642295669197 0 75.673642295669197 98.461937784943075 0 0 0 0 98.918593885755399 61.28369733062209 0 61.28369733062209 85.269074760810327 0 0 0 0 45.376742398970237 136.37886092065219 0 136.37886092065219 167.80137953051599 0 0 0 0 61.987180633979733 52.249456677085618 0 52.249456677085618 7.2509127417324635 0 0 0 0 18.713468475216359 35.064830384206289 0 35.064830384206289 -22.937896973640818 0 0 0 0 22.962001543433871 44.764637597823821 0 44.764637597823821 -7.3600615799064144 0 0 0 0 -29.102677891627536 34.0852300530496 0 34.0852300530496 4.4601827295291514 0 0 0 0 -9.9325423236841743 60.455983867781015 0 60.455983867781015 13.334646800765768 0 0 0 0 -13.655043487262446 43.39183509617078 0 43.39183509617078 6.9017645338317379 0 0 0 0 -6.6846082679912797 34.33042087877584 0 34.33042087877584 10.382320390217501 0 0 0 0 1.2978462904284243 36.592151112829015 0 36.592151112829015 -9.0089825399650181 0 0 0 0 11.346618988383852 25.574309680622719 0 25.574309680622719 -11.189158191125898 0 0 0 0 -4.62749454292981 20.644139830472962 0 20.644139830472962 -1.177681137824127 0 0 0 0 -26.9358219745518 81.519090491965244 0 81.519090491965244 167.7989403042975 0 0 0 0 66.860417610005243 39.344415286143885 0 39.344415286143885 -16.452038903770358 0 0 0 0 0.76331278456457596 5.0475411423462333 0 5.0475411423462333 -4.3115918218723301 0 0 0 0 -12.091681602985773 -41.068831764528113 0 -41.068831764528113 297.15813978020469 0 0 0 0 0.025508653155327465 21.930120850204911 0 21.930120850204911 0.78194932029675801 0 0 0 0 -128.48086590732237 133.98516358419525 0 133.98516358419525 321.88907124564776 0 0 0 0 -122.39377892314951 73.419568913668627 0 73.419568913668627 885.91468492806871 0 0 0 0 65.699383777435287 -270.72718821108811 0 -270.72718821108811 252.47968285575246 0 0 0 0 674.72833091551729 716.23398749638409 0 716.23398749638409 843.61585097509851 0 0 0 0 245.12708173448482 194.36613188357205 0 194.36613188357205 209.67214322370637 0 0 0 0 0.37015469387878852 -0.6431091253964496 0 -0.6431091253964496 7.0183712228571586 0 0 0 0 226.11210370111803 196.73246965423004 0 196.73246965423004 210.60351031193568 0 0 0 0 -3.197329456289836 1.5466594867537964 0 1.5466594867537964 21.579063700010678 0 0 0 0 -42.030991014056781 21.371582276133267 0 21.371582276133267 48.49156723402848 0 0 0 0 176.86496556529892 121.19613722310169 0 121.19613722310169 100.86802042512625 0 0 0 0 0.18083223118037495 1.5118409361570144 0 1.5118409361570144 0.05762218736661584 0 0 0 0 211.61296638690692 152.18691674176807 0 152.18691674176807 74.234130025177365 0 0 0 0 148.33907519061177 264.48703736954303 0 264.48703736954303 249.54976721041203 0 0 0 0 108.48354505411407 385.15980323579333 0 385.15980323579333 760.84643272321409 0 0 0 0 0.17080413454823429 176.86729647014317 0 176.86729647014317 385.29664120384177 0 0 0 0 60.275286988719017 176.14763641633863 0 176.14763641633863 690.39736037672014 0 0 0 0 -0.14860678138938965 272.35697886067464 0 272.35697886067464 581.81555201489982 0 0 0 0 584.3675771351991 -20.55034081881422 0 -20.55034081881422 469.50206061171525 0 0 0 0 75.039827314449212 292.25542505537413 0 292.25542505537413 1176.7853062263193 0 0 0 0 45.851044652874407 361.62150764632884 0 361.62150764632884 331.42334244988797 0 0 0 0 267.4952454632803 190.39887222282118 0 190.39887222282118 235.32510720027267 0 0 0 0 -26.303311273470172 322.35060348176239 0 322.35060348176239 207.26071320976666 0 0 0 0 0.20834129639843013 392.46996662964733 0 392.46996662964733 17.362352272812586 0 0 0 0 137.56365850604925 354.96831513019509 0 354.96831513019509 -44.538574736246346 0 0 0 0 -33.07967633967246 383.66529020681315 0 383.66529020681315 -43.646626352230214 0 0 0 0 -40.697123041351688 207.76759023664806 0 207.76759023664806 -163.57786066159815 0 0 0 0 311.11728697914077 424.24293909666824 0 424.24293909666824 -58.728056456050012 0 0 0 0 -0.67784395809695752 6.0953021901822666 0 6.0953021901822666 -5.9434751242900425 0 0 0 0 116.9531787245287 376.23030801925933 0 376.23030801925933 4.90928003121644 0 0 0 0 655.46028774341175 444.38811405402021 0 444.38811405402021 223.07807192665041 0 0 0 0 -0.57836671608349377 3.1617345880058139 0 3.1617345880058139 -1.6086486428347939 0 0 0 0 -745.50437812172459 413.48526542871605 0 413.48526542871605 465.41349100201387 0 0 0 0 10.713620244016056 232.07237661627005 0 232.07237661627005 47.959817223837149 0 0 0 0 124.22753831885348 678.56178059643173 0 678.56178059643173 451.00684182433451 0 0 0 0 -14.495819527459389 213.43184470121992 0 213.43184470121992 342.13891013123293 0 0 0 0 -27.956677156791557 113.7288338573585 0 113.7288338573585 277.50274922976439 0 0 0 0 31.5453327632531 292.15094429371788 0 292.15094429371788 253.36013360266497 0 0 0 0 198.8841865014474 109.76314106761879 0 109.76314106761879 131.10286076942339 0 0 0 0 2.3395617992864572 213.02399878280994 0 213.02399878280994 152.82945242732404 0 0 0 0 43.068577575359086 245.72830862426395 0 245.72830862426395 -56.996784157331604 0 0 0 0 -95.077047106417012 315.33324587256993 0 315.33324587256993 103.37602523370833 0 0 0 0 -190.44834150743554 341.59965691244707 0 341.59965691244707 -8.9880260930726763 0 0 0 0 378.23860730784691 119.0958434088088 0 119.0958434088088 -30.892116468472977 0 0 0 0 -79.947181033552624 436.78959177571824 0 436.78959177571824 -357.61616962723565 0 0 0 0 -122.75859202701395 373.55569420918118 0 373.55569420918118 -82.719518166715261 0 0 0 0 -141.0396495312234 387.98666287103254 0 387.98666287103254 -88.811865581582879 0 0 0 0 1.6830781526514329 319.12787101592858 0 319.12787101592858 -122.84316451517373 0 0 0 0 -111.8410299612915 411.28559806955388 0 411.28559806955388 -39.994305143739439 0 0 0 0 98.283039457495761 310.49494990316509 0 310.49494990316509 -17.149381448639815 0 0 0 0 -15.272359369599144 206.71736591321087 0 206.71736591321087 103.58214084951778 0 0 0 0 -64.399741855610046 245.5619711305585 0 245.5619711305585 159.10458708695205 0 0 0 0 -13.515854095276154 180.06631476717871 0 180.06631476717871 176.92011759421439 0 0 0 0 -40.124763388754218 151.919162299042 0 151.919162299042 152.874512513833 0 0 0 0 -36.993319634537329 155.86975387985467 0 155.86975387985467 150.43886485497387 0 0 0 0 16.664410495475749 139.14510463667102 0 139.14510463667102 82.540799597088153 0 0 0 0 38.353828395542223 166.02751044400225 0 166.02751044400225 113.71306860725144 0 0 0 0 16.837899318854397 84.433778293769763 0 84.433778293769763 8.526239217186685 0 0 0 0 -76.912570846448943 77.039530060165362 0 77.039530060165362 29.380114174522532 0 0 0 0 -44.816583012623596 104.75690563960461 0 104.75690563960461 37.207886371839777 0 0 0 0 -70.245439392223489 15.843280811615614 0 15.843280811615614 18.249245236525894 0 0 0 0 -28.578531528975873 78.638784529888653 0 78.638784529888653 4.2758277198317955 0 0 0 0 -97.40136904452811 -27.167314322756738 0 -27.167314322756738 -90.114496880754814 0 0 0 0 -184.21465726222959 87.0782957960364 0 87.0782957960364 -25.22626109369503 0 0 0 0 -49.382153043465223 53.092261583743493 0 53.092261583743493 -16.707190352772159 0 0 0 0 -24.017385360086337 79.343039514692464 0 79.343039514692464 -121.6486556630216 0 0 0 0 -80.742194151971489 -40.985335327253779 0 -40.985335327253779 -5.7050929828143353 0 0 0 0 -0.99372896053864679 1.592574123481223 0 1.592574123481223 3.6962930700997667 0 0 0 0 -46.683998066058848 73.18793627877767 0 73.18793627877767 -133.29767326664842 0 0 0 0 -150.28773910286691 74.818802643897016 0 74.818802643897016 43.023060501966029 0 0 0 0 -19.703617405961268 25.465859025114696 0 25.465859025114696 -33.418218679780693 0 0 0 0 1.839928795466335 4.0632477132251381 0 4.0632477132251381 -0.64598154164234955 0 0 0 0 -21.183737092389492 91.16341478585764 0 91.16341478585764 -39.778116902871602 0 0 0 0 2.4159961947852935 17.6279068464994 0 17.6279068464994 33.373726381688357 0 0 0 0 -18.463908315465233 71.981371791224774 0 71.981371791224774 56.06117974893732 0 0 0 0 -5.2784216533400468 97.561702086567038 0 97.561702086567038 36.639022745508555 0 0 0 0 -41.384499453764874 78.862268898800721 0 78.862268898800721 79.829855985844006 0 0 0 0 -1.8967037320835516 106.40245703022401 0 106.40245703022401 170.20192644013378 0 0 0 0 -20.982980796979973 73.539105017074235 0 73.539105017074235 151.78621249470518 0 0 0 0 22.782232437231869 99.115470938037788 0 99.115470938037788 169.33709314103453 0 0 0 0 -4.9775707930655813 10.317523800133086 0 10.317523800133086 2.5612853386172656 0 0 0 0 20.140920503661619 9.3534968644921719 0 9.3534968644921719 61.81256126763401 0 0 0 0 21.999607688689139 22.347202213849414 0 22.347202213849414 31.460297535621748 0 0 0 0 -29.944007414800581 7.3306845202328077 0 7.3306845202328077 127.50595944068482 0 0 0 0 2.939503324801592 8.6154099649850746 0 8.6154099649850746 0.23858653471784486 0 0 0 0 -3.5289689310229733 11.088809506754387 0 11.088809506754387 17.262654381989705 0 0 0 0 -2.2532498942018719 13.86577398279951 0 13.86577398279951 23.285840830763505 0 0 0 0 5.3647089932134975 14.499016789997199 0 14.499016789997199 16.85598188593297 0 0 0 0 -12.154447708096995 21.398846703366871 0 21.398846703366871 12.257155192742175 0 0 0 0 -12.603320152746164 24.075094126540534 0 24.075094126540534 16.187291789919072 0 0 0 0 -0.36034968418243807 18.607456634746086 0 18.607456634746086 10.246821220855963 0 0 0 0 -1.0624683084934077 19.536147806817553 0 19.536147806817553 23.580584470313624 0 0 0 0 -13.260171765123346 9.2432905708620865 0 9.2432905708620865 6.6769171481078189 0 0 0 0 -10.080990998869197 -2.2403841128454474 0 -2.2403841128454474 23.282630732959937 0 0 0 0 -26.469330110150622 39.849880085288532 0 39.849880085288532 20.902386211516159 0 0 0 0 -29.294106676027582 10.439355673256387 0 10.439355673256387 1.5545547924398502 0 0 0 0 -60.963631559541682 27.518638993543391 0 27.518638993543391 70.184374411306635 0 0 0 0 -31.817116521837306 -1.9274617165592645 0 -1.9274617165592645 4.0777585061650825 0 0 0 0 -12.440474797855131 10.042884101083473 0 10.042884101083473 19.718940346456293 0 0 0 0 -87.060230082253838 -28.661031212737498 0 -28.661031212737498 35.709711456544028 0 0 0 0 -13.476389076313353 16.874993210721641 0 16.874993210721641 39.844156354653023 0 0 0 0 -2.1199943355453001 2.404713276196631 0 2.404713276196631 6.2670433112430164 0 0 0 0 -83.088110668708396 18.944269993253215 0 18.944269993253215 44.173423349568111 0 0 0 0 -2.342169654126451 7.7125695947454744 0 7.7125695947454744 20.317089917520146 0 0 0 0 3.0283691400618409 12.062417078521321 0 12.062417078521321 20.80926340852966 0 0 0 0 -25.097048534981411 8.065972988101727 0 8.065972988101727 -1.4050697971671404 0 0 0 0 -9.1955452847469132 53.733999553321155 0 53.733999553321155 28.105820535936346 0 0 0 0 -4.8168180863649468 52.894653497978197 0 52.894653497978197 -8.5364747278317736 0 0 0 0 -54.014414732911973 -2.5197504106736233 0 -2.5197504106736233 52.642815543293182 0 0 0 0 -33.794400681741536 2.1569202685936943 0 2.1569202685936943 -3.7635157014819924 0 0 0 0 -14.490864542371128 4.2328903472480306 0 4.2328903472480306 -13.542100475452571 0 0 0 0 -29.043686799115676 19.380850827962604 0 19.380850827962604 -6.8506869555799952 0 0 0 0 52.2192382119174 -1.3792797540627362 0 -1.3792797540627362 -37.44088238506265 0 0 0 0 -3.4522857283220532 2.6568513538882144 0 2.6568513538882144 -1.5762346727970638 0 0 0 0 20.169184669677634 -18.239324086155648 0 -18.239324086155648 20.324497832550378 0 0 0 0 31.003471059033473 -0.96881748245436938 0 -0.96881748245436938 -14.468235970907699 0 0 0 0 -45.348597645112022 37.830630121645299 0 37.830630121645299 -56.314445558462467 0 0 0 0 59.537397038817289 -10.59584558958386 0 -10.59584558958386 -84.18187379302708 0 0 0 0 -65.241391099916655 -7.1633015605539185 0 -7.1633015605539185 31.583561507428385 0 0 0 0 -9.8617413754480197 6.444071110472926 0 6.444071110472926 -2.4427379095161585 0 0 0 0 79.298188292159466 45.333889420625383 0 45.333889420625383 2.4048999465567249 0 0 0 0 -71.262278958482057 89.409896703614436 0 89.409896703614436 -91.21036062917392 0 0 0 0 21.605745259568721 189.27533630144978 0 189.27533630144978 -678.2604817587362 0 0 0 0 -4.1995104557161369 1.8605874087424752 0 1.8605874087424752 -0.99529723480450727 0 0 0 0 -275.19052299237228 238.82573705525465 0 238.82573705525465 117.48357011563439 0 0 0 0 28.665137654796126 119.91262391154191 0 119.91262391154191 -165.1734991122612 0 0 0 0 26.50042661781913 10.107548198646885 0 10.107548198646885 -87.439804436923623 0 0 0 0 0.18119672310035639 -0.82932346607590546 0 -0.82932346607590546 -5.073979128271386 0 0 0 0 -114.07634925330785 254.22203450028474 0 254.22203450028474 -259.90959230814133 0 0 0 0 -173.47352777108608 133.63063513831139 0 133.63063513831139 -57.815128248684005 0 0 0 0 3.0420273605068076 4.0295402106271041 0 4.0295402106271041 0.97886882107567175 0 0 0 0 -48.459156823111698 57.056866415844638 0 57.056866415844638 -97.89893508136629 0 0 0 0 20.302440428444243 13.314639236690937 0 13.314639236690937 -10.862310268197689 0 0 0 0 -0.43668912385962244 6.9852051989752511 0 6.9852051989752511 2.526713831019336 0 0 0 0 5.3620095813967055 25.626219657259071 0 25.626219657259071 -5.756660048028607 0 0 0 0 0.39679522649385035 7.1529389336433269 0 7.1529389336433269 -69.838309023002239 0 0 0 0 -43.836895257687502 53.776421236355418 0 53.776421236355418 -3.5983015303427237 0 0 0 0 -32.075442338566063 41.883045029449477 0 41.883045029449477 -19.110385384973597 0 0 0 0 55.541173787947628 -10.171773765524222 0 -10.171773765524222 -5.1491717140102544 0 0 0 0 15.902484949365316 62.526088643028743 0 62.526088643028743 40.735341780364251 0 0 0 0 -252.70697730730535 240.24800676179495 0 240.24800676179495 -199.68016214432555 0 0 0 0 -295.55885185090301 280.24340388997439 0 280.24340388997439 -154.6936057924413 0 0 0 0 380.84364335182181 106.67406418178871 0 106.67406418178871 0.81185498760328301 0 0 0 0 0.79192507219116237 1.8739011116906426 0 1.8739011116906426 0.087910600505139769 0 0 0 0 -647.8260643423564 400.35664410975551 0 400.35664410975551 -170.66437876563805 0 0 0 0 -455.56713359399873 407.86219971242372 0 407.86219971242372 -228.57728923208197 0 0 0 0 -292.66761046826286 541.75629733302344 0 541.75629733302344 -267.20872354825497 0 0 0 0 -645.06756885616778 346.62737377202438 0 346.62737377202438 -103.2455365923272 0 0 0 0 -121.0261465042131 448.07651889719114 0 448.07651889719114 -284.44881763659032 0 0 0 0 -93.813560525617504 367.47144117239645 0 367.47144117239645 -312.39509302477097 0 0 0 0 55.49024922810284 37.40868730984338 0 37.40868730984338 17.666820792061806 0 0 0 0 162.13101995319448 161.50246643172227 0 161.50246643172227 89.84764908742909 0 0 0 0 -17.358094776645885 85.685519234633375 0 85.685519234633375 -23.678614327816376 0 0 0 0 65.306349145714194 98.881127168376679 0 98.881127168376679 36.124728856887486 0 0 0 0 8.3051892221950112 11.243035321335825 0 11.243035321335825 1.857420745998386 0 0 0 0 13.886482432205227 7.0295102773447837 0 7.0295102773447837 -10.002742340233109 0 0 0 0 121.17447111293586 45.331127877453127 0 45.331127877453127 -24.141862423061411 0 0 0 0 -91.36389608529862 556.71315128254037 0 556.71315128254037 -262.85668007804588 0 0 0 0 -100.22729097207048 126.29511728788839 0 126.29511728788839 136.41783795472838 0 0 0 0 117.97025856603068 146.08876441812367 0 146.08876441812367 -96.444335665722065 0 0 0 0 -347.27072962812963 412.41954386465056 0 412.41954386465056 -120.459342952734 0 0 0 0 -230.9692406816248 555.89169225712158 0 555.89169225712158 -297.67523481325907 0 0 0 0 -479.36203583324277 478.2270364921161 0 478.2270364921161 -165.17536202612973 0 0 0 0 -190.86858019168358 430.60533475063028 0 430.60533475063028 -438.39499611970405 0 0 0 0 25.310030770473531 244.97026376891927 0 244.97026376891927 -327.39824088823116 0 0 0 0 -417.23937849783397 839.22681474254296 0 839.22681474254296 -584.81883039981938 0 0 0 0 0.57252357402467169 638.19825286621881 0 638.19825286621881 -322.13798882326637 0 0 0 0 -47.629607342038071 399.73611716817868 0 399.73611716817868 -549.34845467293621 0 0 0 0 -165.45834556956834 514.27677230156587 0 514.27677230156587 -399.38076535828895 0 0 0 0 197.42486197148537 476.21433375229071 0 476.21433375229071 -536.79616627610812 0 0 0 0 -106.6579602529855 203.87468912057011 0 203.87468912057011 28.912715291366112 0 0 0 0 44.882338463299675 267.51083490970018 0 267.51083490970018 45.571777917249165 0 0 0 0 -192.45892678459495 325.20785660591991 0 325.20785660591991 125.06601232865978 0 0 0 0 -75.116950533425552 279.76183211030775 0 279.76183211030775 -532.17831871404212 0 0 0 0 -114.4642348112975 -60.529327252252415 0 -60.529327252252415 462.6510237309451 0 0 0 0 -67.099426295637386 359.95934777693537 0 359.95934777693537 130.8371372800691 0 0 0 0 35.791754453849421 19.046990487859503 0 19.046990487859503 11.051674260005818 0 0 0 0 -112.40479515291827 175.63250006396154 0 175.63250006396154 -104.10311419179106 0 0 0 0 -102.21777375056172 102.5932410767212 0 102.5932410767212 -81.814926514204672 0 0 0 0 -18.661984544058214 81.83601104319132 0 81.83601104319132 -34.821492989175795 0 0 0 0 -60.832968554401305 130.44894350401137 0 130.44894350401137 -90.445392558505318 0 0 0 0 -91.359912450014235 212.92738077486558 0 212.92738077486558 -15.68226053014223 0 0 0 0 -51.383179023170669 121.59343389919582 0 121.59343389919582 -74.713469220102525 0 0 0 0 -16.90694184138556 180.11786914710638 0 180.11786914710638 -27.309252641307467 0 0 0 0 76.208494189675548 257.20978386825163 0 257.20978386825163 -298.70069517774391 0 0 0 0 12.959712052269538 5.2571142687401036 0 5.2571142687401036 2.5780805477056106 0 0 0 0 168.77403701095318 511.61661201526408 0 511.61661201526408 182.11191851839408 0 0 0 0 486.62550586157886 539.65242064736594 0 539.65242064736594 -715.03455082700384 0 0 0 0 -589.35733768387581 -652.04693098383814 0 -652.04693098383814 557.35546673432555 0 0 0 0 -454.42771808387806 136.12120266933016 0 136.12120266933016 1183.2081935082806 0 0 0 0 -128.46614055469217 -97.649918035789455 0 -97.649918035789455 1466.7654413198302 0 0 0 0 24.652755912189605 944.30695910729173 0 944.30695910729173 173.72337588708979 0 0 0 0 -41.650140316589386 279.862634073751 0 279.862634073751 -244.01647382126657 0 0 0 0 -395.28334502227881 -212.54403680513451 0 -212.54403680513451 -831.6617633650385 0 0 0 0 -96.797429874655791 455.70357756656676 0 455.70357756656676 -560.30407341018145 0 0 0 0 -215.26272095355671 200.9164906980568 0 200.9164906980568 -692.83160296051574 0 0 0 0 -279.51672489543853 -412.89151520641008 0 -412.89151520641008 -834.7142685755025 0 0 0 0 -1356.3327760613756 67.433326391036644 0 67.433326391036644 -435.59363889588531 0 0 0 0 -1350.0771977585246 15.70838669729801 0 15.70838669729801 -10.153645986025367 0 0 0 0 -8.840630820490702 -3.7162778403417036 0 -3.7162778403417036 -0.0083627249731037523 0 0 0 0 19.515648943466658 167.98033939039397 0 167.98033939039397 -728.59482227182525 0 0 0 0 -1566.3460804907081 316.26978673679332 0 316.26978673679332 -62.327342769474626 0 0 0 0 -1.2340508343636429 6.7631493713121245 0 6.7631493713121245 2.6910889259271897 0 0 0 0 -1209.3539741109271 683.06409219977013 0 683.06409219977013 -844.51496212662278 0 0 0 0 -1414.633820009898 433.49806624903977 0 433.49806624903977 -460.85414942018542 0 0 0 0 -814.93421108459006 142.25153316048181 0 142.25153316048181 -768.01909777364563 0 0 0 0 -1195.3608393004688 943.9059866673233 0 943.9059866673233 -299.77872245108665 0 0 0 0 -814.61173931451049 1086.4942523647806 0 1086.4942523647806 -348.78577532604413 0 0 0 0 -755.08483279834036 856.4920989578568 0 856.4920989578568 -400.62523875099942 0 0 0 0 -778.01019407616695 684.97640756006604 0 684.97640756006604 -580.31514400089145 0 0 0 0 -637.1134996087203 799.524418410414 0 799.524418410414 -690.74194102064939 0 0 0 0 -671.58139387491974 986.95048603023315 0 986.95048603023315 -583.92040620857733 0 0 0 0 -587.14958714699605 795.27109773974007 0 795.27109773974007 -1151.7887731681749 0 0 0 0 -754.81125027113012 297.47350523265686 0 297.47350523265686 -486.66177958854678 0 0 0 0 -643.98243501628167 555.93303200375158 0 555.93303200375158 -456.39095934147008 0 0 0 0 -57.239057140046498 211.70680227867342 0 211.70680227867342 -554.66456995936278 0 0 0 0 -539.93184265004675 327.08225806452629 0 327.08225806452629 -444.33907364278639 0 0 0 0 -258.42443300894229 478.41834105144881 0 478.41834105144881 -630.13487493920593 0 0 0 0 -379.44412548077526 508.6340490638795 0 508.6340490638795 -695.7292539151822 0 0 0 0 -697.4980437985796 630.63794529728148 0 630.63794529728148 -626.33887379187217 0 0 0 0 -331.99982236122014 265.20429117274398 0 265.20429117274398 114.61025830167637 0 0 0 0 -322.63554191251751 90.945515303474167 0 90.945515303474167 -131.33181711478755 0 0 0 0 -279.53879260073882 148.95584264326317 0 148.95584264326317 -387.38931695175597 0 0 0 0 -367.22123191245191 89.409564080873679 0 89.409564080873679 -224.13604345080239 0 0 0 0 -337.39477282785811 288.96729307386886 0 288.96729307386886 -527.17923480293939 0 0 0 0 -229.0861938255839 276.13766449802006 0 276.13766449802006 -585.0164002745023 0 0 0 0 -436.21125512494473 168.62880941576441 0 168.62880941576441 -321.9110643524109 0 0 0 0 -245.46648901465232 245.22037827286294 0 245.22037827286294 -431.26393201215251 0 0 0 0 -109.71088027194492 340.45856928762987 0 340.45856928762987 -375.60003490287818 0 0 0 0 -98.047243485882063 231.21389162470223 0 231.21389162470223 -627.45964523659495 0 0 0 0 -209.9601589810627 332.22074010074357 0 332.22074010074357 -796.64440779425968 0 0 0 0 -419.97994731816289 200.20713302801414 0 200.20713302801414 -585.94049092806017 0 0 0 0 -471.62644800083945 361.7826898327512 0 361.7826898327512 -678.68146899963176 0 0 0 0 -545.4670000051774 348.79258787000322 0 348.79258787000322 -619.12393503322892 0 0 0 0 -589.07503594605078 147.23062497931369 0 147.23062497931369 -454.80541606225779 0 0 0 0 -26.182788985126535 413.55982305202815 0 413.55982305202815 -703.34105403198191 0 0 0 0 -187.83673477857519 249.28489301802711 0 249.28489301802711 -675.28636564129556 0 0 0 0 2.878916316156392 432.97571895527199 0 432.97571895527199 -597.50006878291788 0 0 0 0 -72.081344683945645 355.6419646355389 0 355.6419646355389 -621.63086089464832 0 0 0 0 -113.79785898138653 357.95952166386087 0 357.95952166386087 -546.48725698070848 0 0 0 0 -74.743524178222287 296.75310963414995 0 296.75310963414995 -528.75513823003712 0 0 0 0 -65.060722746013198 319.21236187058275 0 319.21236187058275 -576.85157916035314 0 0 0 0 -70.241128781839507 339.61165445187908 0 339.61165445187908 -627.10587132272849 0 0 0 0 -88.91155454654654 320.00406059245051 0 320.00406059245051 -557.8790570580386 0 0 0 0 -536.9481896792422 427.5147985333906 0 427.5147985333906 119.01579992971028 0 0 0 0 -263.14143306653568 384.77298447972385 0 384.77298447972385 -438.62481440157899 0 0 0 0 -109.04388597902107 326.43824804899464 0 326.43824804899464 -487.10364146238135 0 0 0 0 -110.76165283103182 293.70967899821517 0 293.70967899821517 -463.46975827370079 0 0 0 0 5.2328415721858619 220.41885792273206 0 220.41885792273206 -725.50513824542213 0 0 0 0 1.4553759931295644 260.2757369569681 0 260.2757369569681 -1110.676363444436 0 0 0 0 -271.54483411097317 364.23897534408752 0 364.23897534408752 -189.30399454961298 0 0 0 0 -292.73062613450747 457.70305490723968 0 457.70305490723968 -482.95796558938673 0 0 0 0 -93.215844075515633 255.31566806226147 0 255.31566806226147 -471.54418508380695 0 0 0 0 -67.104259179730434 273.12267505913223 0 273.12267505913223 -461.00600263522028 0 0 0 0 -73.681744555127807 153.59746187902556 0 153.59746187902556 -400.99058660911942 0 0 0 0 -369.2468302580819 -64.230596533892822 0 -64.230596533892822 -823.16592044974459 0 0 0 0 1.5828741588599939 -2.0246255679812748 0 -2.0246255679812748 -10.21702357534156 0 0 0 0 -114.13415112300436 233.35722309611918 0 233.35722309611918 -456.0686865588541 0 0 0 0 -82.694057316417457 292.03191806766063 0 292.03191806766063 -464.93591914701756 0 0 0 0 -39.997946331917774 269.11447769021288 0 269.11447769021288 -545.40497263803491 0 0 0 0 -26.582109988899902 398.69406056182561 0 398.69406056182561 -269.86384290672504 0 0 0 0 -338.82743602608207 892.57500137892953 0 892.57500137892953 862.56259146193224 0 0 0 0 -265.52548551090877 189.07250577616469 0 189.07250577616469 -327.89285978836051 0 0 0 0 -424.20428572382662 101.52732057776666 0 101.52732057776666 -286.10261676534265 0 0 0 0 -257.78089044705848 225.03854321712697 0 225.03854321712697 -280.00876774165226 0 0 0 0 -282.83844483474968 117.99512764386054 0 117.99512764386054 -222.21142083296218 0 0 0 0 -287.0362025462382 270.95828426195294 0 270.95828426195294 -278.95164068098529 0 0 0 0 -711.48062624978047 462.82585934700137 0 462.82585934700137 -181.30284187078723 0 0 0 0 -671.61966170818778 214.62837237705389 0 214.62837237705389 -189.66533815128787 0 0 0 0 -154.33573398398585 178.99253032253364 0 178.99253032253364 -204.7098568559104 0 0 0 0 -205.1448797613557 119.90009287080466 0 119.90009287080466 -62.101191343850587 0 0 0 0 -191.68772240792168 216.56054174313249 0 216.56054174313249 -143.6182917577712 0 0 0 0 -212.89679734071251 262.06667258854304 0 262.06667258854304 -239.74579716554217 0 0 0 0 -179.39351754178642 162.7813299045838 0 162.7813299045838 -153.76409411683562 0 0 0 0 -79.932058426173171 101.63432168168401 0 101.63432168168401 -210.31640162473741 0 0 0 0 -174.42356553048012 139.25348345987913 0 139.25348345987913 -276.72283712401122 0 0 0 0 -77.833421379822539 -0.14076157842282555 0 -0.14076157842282555 -100.64789668900494 0 0 0 0 -4.6151476599334273 -51.839246304598419 0 -51.839246304598419 -72.522170657521883 0 0 0 0 -154.87628534040414 63.69698486364905 0 63.69698486364905 -124.36350002464314 0 0 0 0 -41.624446581874508 14.155400920708416 0 14.155400920708416 -144.66984669781505 0 0 0 0 -37.539480623789132 64.987175963501613 0 64.987175963501613 -54.870566365054401 0 0 0 0 -22.23903290599992 -27.162766822222693 0 -27.162766822222693 4.7205746363870276 0 0 0 0 30.840571312757675 -11.316708771415506 0 -11.316708771415506 9.1974079799119863 0 0 0 0 -62.525919238076312 62.161866266637844 0 62.161866266637844 3.4141182644889341 0 0 0 0 -152.88143524591578 184.46300482569495 0 184.46300482569495 -173.78827998988709 0 0 0 0 -189.06662803787185 319.7550203011233 0 319.7550203011233 -268.15347374671546 0 0 0 0 -141.42429070855724 338.58793099435206 0 338.58793099435206 -287.71566858699043 0 0 0 0 -331.44287200628605 488.20226374037998 0 488.20226374037998 -370.6137479161589 0 0 0 0 -364.72503575506926 254.31348653736381 0 254.31348653736381 -202.12373165112513 0 0 0 0 -136.91683149915116 166.36002616232895 0 166.36002616232895 -235.68160052573876 0 0 0 0 -133.14622200478334 85.332188628621225 0 85.332188628621225 -171.1958594396765 0 0 0 0 -89.836351157675381 128.2208633052137 0 128.2208633052137 -129.36949293150246 0 0 0 0 -208.52901208178082 189.33800140431049 0 189.33800140431049 -155.43199096461467 0 0 0 0 -154.65651132643688 239.83965698595784 0 239.83965698595784 -264.32896196034562 0 0 0 0 -140.69965767989925 207.20790593771835 0 207.20790593771835 -137.7103478347999 0 0 0 0 -87.192556507419795 149.78094141399197 0 149.78094141399197 -91.22499838485237 0 0 0 0 -97.768022686650511 121.86460015224657 0 121.86460015224657 -138.15561224101202 0 0 0 0 -48.723000428231899 95.058366409732116 0 95.058366409732116 -63.611833133723849 0 0 0 0 -1.9934823785442859 72.617618878462963 0 72.617618878462963 -69.707158548222651 0 0 0 0 -84.167450040287804 62.728930201792537 0 62.728930201792537 -67.650238054124202 0 0 0 0 27.942207734449767 8.6423816813148733 0 8.6423816813148733 21.477410902707561 0 0 0 0 -74.680686289793812 105.87193523649148 0 105.87193523649148 -8.0149913375571487 0 0 0 0 3.597919451422058 84.905473598308163 0 84.905473598308163 -4.9262610293153557 0 0 0 0 -93.95335862171487 155.7619285790297 0 155.7619285790297 -24.818991490930784 0 0 0 0 -48.846737630490679 148.78915864957526 0 148.78915864957526 47.254419605538715 0 0 0 0 -39.428324795910157 127.96569936443848 0 127.96569936443848 -14.948734911245992 0 0 0 0 -91.378477130900137 173.9132146667107 0 173.9132146667107 46.935679366382828 0 0 0 0 -95.26996500819223 205.98371161986142 0 205.98371161986142 101.99984216965277 0 0 0 0 -64.102647518273443 150.23431789455208 0 150.23431789455208 -42.031782125377504 0 0 0 0 -62.443932754860725 178.28552059348294 0 178.28552059348294 -173.10993371585937 0 0 0 0 -77.424909258785192 130.95204995334279 0 130.95204995334279 -99.951213970984099 0 0 0 0 -126.3729093792208 189.18689482894115 0 189.18689482894115 -56.027809833816718 0 0 0 0 -116.16486497106962 230.5352076955769 0 230.5352076955769 -135.02933514596225 0 0 0 0 -22.785742961103097 141.69193990479107 0 141.69193990479107 -101.27955536014269 0 0 0 0 -108.28720986522967 141.63305231480626 0 141.63305231480626 82.069430296032806 0 0 0 0 591.66167935511476 448.26967765941936 0 448.26967765941936 -1216.8480300870142 0 0 0 0 79.82616478583077 -256.97021710365698 0 -256.97021710365698 202.63121887873422 0 0 0 0 -39.727007291541668 166.58234773245749 0 166.58234773245749 -122.85200436664309 0 0 0 0 -0.0026352854719675634 -0.92213542798047854 0 -0.92213542798047854 -4.7019130301048584 0 0 0 0 -398.36897714254883 848.5702713659889 0 848.5702713659889 -552.35317688294163 0 0 0 0 33.534837713232264 269.28826193714303 0 269.28826193714303 -438.24540099325532 0 0 0 0 192.70828179671662 74.389984532623203 0 74.389984532623203 -207.92802327740719 0 0 0 0 200.92791178861808 760.07269089432157 0 760.07269089432157 -969.15171142520921 0 0 0 0 -225.55218443731428 480.72794391786647 0 480.72794391786647 -398.23308327680206 0 0 0 0 455.15079319752112 9.4394571492634896 0 9.4394571492634896 -843.02253586822735 0 0 0 0 1092.5011951620691 -216.17726849559403 0 -216.17726849559403 -1080.7346296659161 0 0 0 0 -195.50634029401408 115.47567159121581 0 115.47567159121581 7.007514536186136 0 0 0 0 -453.39974883856485 149.68878426811716 0 149.68878426811716 -426.03160310351814 0 0 0 0 -0.082645508434808335 2.2303188847889643 0 2.2303188847889643 -2.0606464268520348 0 0 0 0 -405.7085514256687 359.88402154574896 0 359.88402154574896 -199.29633394828488 0 0 0 0 49.91455651295837 428.73393272304565 0 428.73393272304565 -606.65049970624204 0 0 0 0 -559.51216701522935 387.2135130487477 0 387.2135130487477 -542.69519354572549 0 0 0 0 -213.66281725183944 663.94086148165115 0 663.94086148165115 -500.4665362704045 0 0 0 0 293.16218299341563 251.53654546044982 0 251.53654546044982 -598.52039144068112 0 0 0 0 85.42138155066641 -150.40943034514567 0 -150.40943034514567 -356.41070122430756 0 0 0 0 -411.06335007892631 373.2071998195579 0 373.2071998195579 -520.15727328052526 0 0 0 0 -3.5816717879984026 -0.070293173316457569 0 -0.070293173316457569 -0.0062985433244762135 0 0 0 0 311.82248674990842 -157.6143012956727 0 -157.6143012956727 -588.42784080498677 0 0 0 0 148.21835213675513 450.27323089213132 0 450.27323089213132 -715.09900474010828 0 0 0 0 -267.2332644356502 -144.31932202187636 0 -144.31932202187636 9.4545985203649252 0 0 0 0 95.228539040297619 -33.461907630358837 0 -33.461907630358837 -714.99533517345844 0 0 0 0 -121.36245735636476 -218.43298721367955 0 -218.43298721367955 74.834827575810777 0 0 0 0 -106.65218903755886 2.5039903789711389 0 2.5039903789711389 246.07347244549055 0 0 0 0 -236.74679226743319 -222.71011185174757 0 -222.71011185174757 473.2670497703275 0 0 0 0 -183.66680345879286 92.633130360556606 0 92.633130360556606 558.90190907050237 0 0 0 0 2.7227863610790166 7.6451978147015609 0 7.6451978147015609 3.5552432408989212 0 0 0 0 1396.7651952274609 -529.56949430062195 0 -529.56949430062195 72.476984722768975 0 0 0 0 -171.6470734829054 -50.248731546954332 0 -50.248731546954332 134.78686165635281 0 0 0 0 331.97309142634913 214.63398058667008 0 214.63398058667008 -250.2554228225772 0 0 0 0 -117.52535538213851 107.55417306250638 0 107.55417306250638 -23.258272942410258 0 0 0 0 -111.09016542286554 48.646733688260611 0 48.646733688260611 -137.28321988414609 0 0 0 0 74.594236448967422 -32.657771870521174 0 -32.657771870521174 -44.520090953143153 0 0 0 0 61.749092572394147 -39.844182666624192 0 -39.844182666624192 23.568199077520148 0 0 0 0 0.74181727556839405 -0.035271950688525067 0 -0.035271950688525067 0.43550822343559048 0 0 0 0 -4.5474729677012817 3.9673871542078061 0 3.9673871542078061 2.0522323187315417 0 0 0 0 -153.57572188318591 126.33785016599359 0 126.33785016599359 332.14500982133904 0 0 0 0 -61.664719319203869 240.39879716456562 0 240.39879716456562 280.48928456563135 0 0 0 0 -58.467922993684624 164.27247076579511 0 164.27247076579511 135.89349707683868 0 0 0 0 -54.729756466753315 201.33303950919435 0 201.33303950919435 99.00773690090864 0 0 0 0 -50.072256954852492 158.51895091882761 0 158.51895091882761 52.672854120151896 0 0 0 0 -36.865690201579127 193.20720030615485 0 193.20720030615485 101.29195168540173 0 0 0 0 11.082975311204791 129.29818121307471 0 129.29818121307471 53.563474668048002 0 0 0 0 80.930442624492571 141.18677004266647 0 141.18677004266647 90.751856717703049 0 0 0 0 14.031449271540623 148.88391851630877 0 148.88391851630877 91.383347255745321 0 0 0 0 -2.232008917380881 172.75065308613512 0 172.75065308613512 136.75758022973605 0 0 0 0 3.7191078817704692 219.70207566603494 0 219.70207566603494 168.93631923491193 0 0 0 0 63.933996902254876 82.676931453752331 0 82.676931453752331 45.107367823145978 0 0 0 0 -1.4480059845373034 103.21203902573689 0 103.21203902573689 39.982766977635038 0 0 0 0 51.838194439245854 96.506374422519002 0 96.506374422519002 89.594896518625319 0 0 0 0 251.3833115415182 95.790942346389784 0 95.790942346389784 103.13328857368833 0 0 0 0 226.49099334055791 157.83590044117591 0 157.83590044117591 124.86831359044845 0 0 0 0 107.42667300257017 165.80655668875897 0 165.80655668875897 110.22784034119104 0 0 0 0 132.46086961304536 62.201213178275793 0 62.201213178275793 101.23618365730363 0 0 0 0 31.33952151495032 230.71263741109578 0 230.71263741109578 165.55068278879116 0 0 0 0 137.67383538500872 217.63271648904629 0 217.63271648904629 151.98588725955779 0 0 0 0 100.49910072749481 160.40565784953651 0 160.40565784953651 128.24628611415392 0 0 0 0 108.06683241552673 193.56092317691946 0 193.56092317691946 130.43610847606578 0 0 0 0 -4.4643936316441568 1.31706628025767 0 1.31706628025767 0.48323716163902475 0 0 0 0 -9.6702423351089237 73.013242497631836 0 73.013242497631836 259.55418892428952 0 0 0 0 -17.660616059823951 25.839176193228468 0 25.839176193228468 144.92706474360602 0 0 0 0 21.684690776863135 -37.27846329678141 0 -37.27846329678141 3.7176654287713973 0 0 0 0 16.966330177645432 -55.620109592997323 0 -55.620109592997323 195.61687843519758 0 0 0 0 -13.934416133008199 37.065519379457328 0 37.065519379457328 74.768694994534599 0 0 0 0 80.038560268723813 -22.854442335164322 0 -22.854442335164322 109.58118587390345 0 0 0 0 189.10337592121505 -13.971168160876914 0 -13.971168160876914 106.28814313543262 0 0 0 0 -2.3492465448543953 -4.6963354298081867 0 -4.6963354298081867 -0.35479554152880155 0 0 0 0 4.6979247185663553 78.119570445309364 0 78.119570445309364 73.786876761879284 0 0 0 0 2.1891054150473792 -35.983969090017126 0 -35.983969090017126 -103.99016661018777 0 0 0 0 -28.371380213295197 16.86850475057372 0 16.86850475057372 77.507296096273421 0 0 0 0 -42.068123220087728 6.4966296250513551 0 6.4966296250513551 80.230932621772808 0 0 0 0 -109.26451258084489 -8.2680172571840558 0 -8.2680172571840558 210.39493730443428 0 0 0 0 -64.593528261524625 70.283028316925993 0 70.283028316925993 217.70647871016854 0 0 0 0 -77.178684589223849 47.024444879579278 0 47.024444879579278 210.47652739436307 0 0 0 0 -36.853032832834288 102.01347842722771 0 102.01347842722771 234.68859989411976 0 0 0 0 -106.73993538654759 80.389077415518841 0 80.389077415518841 268.96014028977515 0 0 0 0 -24.049398296978325 38.250813391827478 0 38.250813391827478 124.6907854048859 0 0 0 0 -30.123668163636466 68.05939397806651 0 68.05939397806651 168.06372231248679 0 0 0 0 -27.690905180119444 127.25975013338302 0 127.25975013338302 172.24784636211734 0 0 0 0 -50.880657637952027 63.660771058745468 0 63.660771058745468 284.27105727472554 0 0 0 0 -23.373020220162289 42.307990218042505 0 42.307990218042505 338.4952860393887 0 0 0 0 -23.710844338071183 77.529319950333047 0 77.529319950333047 289.90267707108796 0 0 0 0 11.323545847510104 100.21832117192662 0 100.21832117192662 291.5797777425496 0 0 0 0 -46.343984065686527 129.00003407078611 0 129.00003407078611 289.19640066559441 0 0 0 0 -71.8778590534057 95.073545090623156 0 95.073545090623156 291.92713738303064 0 0 0 0 -15.955079264283995 117.17205792352979 0 117.17205792352979 291.38093430580193 0 0 0 0 -12.777008927805582 130.46229811880221 0 130.46229811880221 218.69510921257825 0 0 0 0 -27.813286805445387 201.13247748650519 0 201.13247748650519 238.2367642801546 0 0 0 0 -38.179691412558896 184.25678512194372 0 184.25678512194372 322.61478720372543 0 0 0 0 -66.257958828136907 149.63315052818325 0 149.63315052818325 280.4953738697177 0 0 0 0 -114.58743442400009 142.96483700145109 0 142.96483700145109 327.10835470311599 0 0 0 0 -95.018293639994226 192.58211010065452 0 192.58211010065452 418.44195674145885 0 0 0 0 -201.03981118396041 1.250521085339642 0 1.250521085339642 286.09056280381992 0 0 0 0 -89.130496087069332 115.60123140228006 0 115.60123140228006 335.49910234480558 0 0 0 0 177.99236303240468 648.69496979857468 0 648.69496979857468 920.65402636615272 0 0 0 0 -110.92570028431874 231.59281244223121 0 231.59281244223121 361.57522417743166 0 0 0 0 244.44032770257036 211.49880385298275 0 211.49880385298275 80.803467954192456 0 0 0 0 97.091440819145646 124.74608632357558 0 124.74608632357558 78.704144187033307 0 0 0 0 38.48562586211483 296.81668049101245 0 296.81668049101245 368.97954194841168 0 0 0 0 -53.471355767338537 52.125191374419956 0 52.125191374419956 58.660250471098607 0 0 0 0 -22.688613124773838 53.155861617906339 0 53.155861617906339 121.06438136169618 0 0 0 0 -97.254026746006275 122.62246914798925 0 122.62246914798925 -11.467848926036822 0 0 0 0 -25.864829386364647 25.671582946533746 0 25.671582946533746 -2.2957144372008251 0 0 0 0 61.007822105049854 113.81853359194429 0 113.81853359194429 -38.234986848021435 0 0 0 0 -98.54310128679208 215.85296168462628 0 215.85296168462628 -80.285406942763075 0 0 0 0 -8.4878585999904317 38.60644114805109 0 38.60644114805109 -38.321039861992176 0 0 0 0 263.77283037269081 83.36606122440935 0 83.36606122440935 -34.207559648130655 0 0 0 0 12.593822733273555 215.56489734657043 0 215.56489734657043 354.02386714213208 0 0 0 0 -85.591635971373762 21.74623535419596 0 21.74623535419596 -24.942864338726849 0 0 0 0 -213.10802805282583 -4.060599682481552 0 -4.060599682481552 520.13160228073684 0 0 0 0 -196.13444351119688 -25.049386384733225 0 -25.049386384733225 455.94624776834689 0 0 0 0 -38.692292264233402 50.582974342171383 0 50.582974342171383 390.0737172444442 0 0 0 0 34.270734570627553 32.075793478290365 0 32.075793478290365 30.641835662680496 0 0 0 0 -92.378977113985457 26.233662539821125 0 26.233662539821125 396.87241693987517 0 0 0 0 -98.402956760102825 81.090271629902645 0 81.090271629902645 79.978592480563748 0 0 0 0 -225.3860066444031 148.76640407118248 0 148.76640407118248 486.13777843255843 0 0 0 0 284.41031992414355 588.31146093087864 0 588.31146093087864 -37.819764021201991 0 0 0 0 144.341881427521 296.3934907724215 0 296.3934907724215 -638.4769286660794 0 0 0 0 153.73076875710103 -76.912175591514824 0 -76.912175591514824 388.28831996064764 0 0 0 0 11.417052341175577 11.080271061543471 0 11.080271061543471 10.967347558275101 0 0 0 0 -163.15807171825509 -597.2243365649183 0 -597.2243365649183 1674.1101480357283 0 0 0 0 -142.28334783286846 924.01316397282244 0 924.01316397282244 134.26462290036216 0 0 0 0 -869.60136941605015 637.07968779128532 0 637.07968779128532 1645.9634168509504 0 0 0 0 467.20346291019814 460.98111044521283 0 460.98111044521283 -578.09791565916021 0 0 0 0 127.98221583172563 1417.0414561423054 0 1417.0414561423054 534.60730181694089 0 0 0 0 -342.25825405521027 14.507475878512196 0 14.507475878512196 1231.8635096227372 0 0 0 0 1337.194447248934 -598.48661442803586 0 -598.48661442803586 -443.26312641137702 0 0 0 0 -4.1969722837171162 -4.3417324194636109 0 -4.3417324194636109 -7.1604271821803387 0 0 0 0 196.69465679269342 355.2730402972611 0 355.2730402972611 -860.30278543386339 0 0 0 0 -1.0885378438679538 2.4630590699964756 0 2.4630590699964756 2.4348446097499021 0 0 0 0 -18.399651949774125 48.530339096230819 0 48.530339096230819 -15.461452878933414 0 0 0 0 111.28788471696316 -69.102780520207489 0 -69.102780520207489 50.289747359489411 0 0 0 0 -5.6148760572049241 23.066746293976074 0 23.066746293976074 -7.6630810315462323 0 0 0 0 -35.398287898351555 124.47790096594235 0 124.47790096594235 317.26438520645206 0 0 0 0 120.25133975867357 -16.280288132075839 0 -16.280288132075839 -160.34796117922815 0 0 0 0 -6.9087981245120318 -51.262368856927424 0 -51.262368856927424 -59.447501651116909 0 0 0 0 -16.761242432898143 44.953095702257997 0 44.953095702257997 339.24024614324662 0 0 0 0 12.727399305977343 18.061751667375347 0 18.061751667375347 -5.7459917970227625 0 0 0 0 -6.9582177704724018 -37.130466953351061 0 -37.130466953351061 477.09346519118299 0 0 0 0 12.370605127903048 6.1188138335676143 0 6.1188138335676143 -2.6439217291616508 0 0 0 0 23.228299867187161 7.1996313410227231 0 7.1996313410227231 354.27413893279299 0 0 0 0 4.1655760310253243 1.5355736919605647 0 1.5355736919605647 1.0454975781883071 0 0 0 0 -11.322334920492722 21.295232422124172 0 21.295232422124172 6.3197925830718304 0 0 0 0 -226.20021790402825 209.06066659341832 0 209.06066659341832 -106.08049030287293 0 0 0 0 -3.9239847107820935 -0.51318256064289258 0 -0.51318256064289258 -1.2483918922474633 0 0 0 0 -20.262293897234485 -49.182510840202667 0 -49.182510840202667 -706.03474787615232 0 0 0 0 -245.75652740681107 159.69189895091949 0 159.69189895091949 -256.68200644346143 0 0 0 0 -53.346367754646053 -239.7840930008897 0 -239.7840930008897 -218.97715862239056 0 0 0 0 -220.58913273143116 109.00526099565286 0 109.00526099565286 -80.111778164021416 0 0 0 0 -350.73219368871969 147.4562835903165 0 147.4562835903165 -70.390545460293652 0 0 0 0 -92.204048530991713 154.53084619738911 0 154.53084619738911 -71.865815914859922 0 0 0 0 -231.66900188229829 15.245342095832143 0 15.245342095832143 -107.67684149776687 0 0 0 0 -120.13957711290277 58.202948049933184 0 58.202948049933184 -91.634456328034503 0 0 0 0 -62.991587764008727 20.762847595146013 0 20.762847595146013 -39.362705775229188 0 0 0 0 -103.38007192573923 14.59520497715215 0 14.59520497715215 -37.176812894042087 0 0 0 0 139.011200133893 258.89219223452346 0 258.89219223452346 -909.05368317515604 0 0 0 0 226.38792287011165 612.97920941877419 0 612.97920941877419 617.52086786455584 0 0 0 0 -5.6962039032886196 2.4772382885024911 0 2.4772382885024911 -0.4524517299012274 0 0 0 0 30.360209968719573 4.1752413730328044 0 4.1752413730328044 -49.685660183025902 0 0 0 0 -44.842059884076662 -17.880646737888583 0 -17.880646737888583 -17.951529066082003 0 0 0 0 -97.168577498817285 -35.951106442083073 0 -35.951106442083073 -46.870387458420737 0 0 0 0 -2.0339365604595514 64.109547127836777 0 64.109547127836777 -115.75003641330932 0 0 0 0 72.477036561336718 85.605280479692738 0 85.605280479692738 15.151679817434342 0 0 0 0 29.810870488483488 11.951836768467729 0 11.951836768467729 -32.214752123483777 0 0 0 0 31.652016470674425 256.21291327696417 0 256.21291327696417 -40.123377775792505 0 0 0 0 -201.76828586076954 -39.605565898521718 0 -39.605565898521718 -123.22848137372421 0 0 0 0 249.36823682954127 168.37609641195013 0 168.37609641195013 -106.96400442075901 0 0 0 0 174.33724993970827 178.17782248266849 0 178.17782248266849 -437.27802360417445 0 0 0 0 93.376498983379861 331.64939194159024 0 331.64939194159024 52.069966973918781 0 0 0 0 -154.10988182710571 263.3925760678203 0 263.3925760678203 144.12018705495211 0 0 0 0 -77.195861924556084 365.27833111690688 0 365.27833111690688 55.978649684457196 0 0 0 0 51.381588913762243 196.66988382104591 0 196.66988382104591 100.00490000747595 0 0 0 0 -119.95936512146 103.24278671303546 0 103.24278671303546 -23.973278044657491 0 0 0 0 -160.29748723983357 49.583728263337662 0 49.583728263337662 85.445988443689203 0 0 0 0 -98.953725060273428 -24.69545196265608 0 -24.69545196265608 125.57918149033412 0 0 0 0 -69.589591159994598 -65.567265686138853 0 -65.567265686138853 225.59370084349939 0 0 0 0 253.37387344855233 -50.030760938277581 0 -50.030760938277581 6.9204172507497788 0 0 0 0 14.266510143599589 598.2161921716779 0 598.2161921716779 368.13380509483795 0 0 0 0 395.87795676363748 -121.82593812305095 0 -121.82593812305095 177.74194985207032 0 0 0 0 207.23834217890544 319.38998534785856 0 319.38998534785856 347.04190140387254 0 0 0 0 -20.077315971697317 47.589299100474932 0 47.589299100474932 383.53869706243859 0 0 0 0 -10.357959737339115 -63.709082327675787 0 -63.709082327675787 957.83253375259665 0 0 0 0 6.2014054509854759 32.479671411480012 0 32.479671411480012 321.09840906857607 0 0 0 0 -48.353936930056079 56.121577560754304 0 56.121577560754304 363.81742950706825 0 0 0 0 -47.764092648620135 77.64125367609995 0 77.64125367609995 326.50759251819056 0 0 0 0 -2.0735425586026395 56.643438652426994 0 56.643438652426994 286.45674035659681 0 0 0 0 38.854357518655888 204.19454905929888 0 204.19454905929888 74.889972844196564 0 0 0 0 20.204293199931271 83.523707422461484 0 83.523707422461484 103.72675139489911 0 0 0 0 -1.7391744379469571 0.20272737514457972 0 0.20272737514457972 0.21966657084369956 0 0 0 0 23.64971051964676 -5.8965888339598678 0 -5.8965888339598678 -70.583990543993423 0 0 0 0 45.890566776724881 43.460315865214397 0 43.460315865214397 115.79411791321581 0 0 0 0 35.376168492046418 4.5452207757907672 0 4.5452207757907672 25.642514363128385 0 0 0 0 -4.0156123941924307 5.8657649281922204 0 5.8657649281922204 72.460987218470109 0 0 0 0 8.5199053929973161 21.041791871130954 0 21.041791871130954 -6.880652761154991 0 0 0 0 -11.31835451565712 7.6544285244781349 0 7.6544285244781349 2.0993435952223081 0 0 0 0 1.65952543723688 -4.3284744400443742 0 -4.3284744400443742 -2.8910514188910383 0 0 0 0 -46.944669740463723 -9.7969278595564901 0 -9.7969278595564901 22.285060326261373 0 0 0 0 22.828406527978586 -57.487924814860435 0 -57.487924814860435 45.952672655041169 0 0 0 0 17.441574001088156 42.707264163060245 0 42.707264163060245 -29.234680092329654 0 0 0 0 48.702624040779483 5.0110780764839546 0 5.0110780764839546 1.9775909103263984 0 0 0 0 -7.3204143616894726 12.708707372657045 0 12.708707372657045 -4.4914330271349172 0 0 0 0 -46.646190184574607 -4.1453012074294691 0 -4.1453012074294691 8.1903954856425116 0 0 0 0 2.4535582849906312 13.974191462787545 0 13.974191462787545 14.174615641872059 0 0 0 0 -111.40925884597527 24.659514825370024 0 24.659514825370024 55.652175375689694 0 0 0 0 -68.463899736772873 3.5457630965183853 0 3.5457630965183853 12.968144548603505 0 0 0 0 -1.9633691958353872 15.047167024786006 0 15.047167024786006 15.705021390033494 0 0 0 0 -64.026817536159797 30.653565626431487 0 30.653565626431487 33.163518888588442 0 0 0 0 -16.662175878780545 -1.8175023083549604 0 -1.8175023083549604 23.784972672985759 0 0 0 0 2.7544468542073446 45.212151833027519 0 45.212151833027519 26.67457186847605 0 0 0 0 -10.145932181033544 9.0742191697610082 0 9.0742191697610082 7.9293280225719514 0 0 0 0 2.6252176737672386 10.058219826123235 0 10.058219826123235 17.946288606908126 0 0 0 0 -42.004144168022322 36.173333730486775 0 36.173333730486775 29.672809057628911 0 0 0 0 -91.056592109503981 7.2801045960877673 0 7.2801045960877673 19.960560392519255 0 0 0 0 -3.9217872936549156 8.696544919372414 0 8.696544919372414 -0.1528249334512779 0 0 0 0 4.3600594691724979 13.348868028379627 0 13.348868028379627 24.740997264145591 0 0 0 0 -9.4641132552133058 38.541838223017294 0 38.541838223017294 20.427722237533089 0 0 0 0 -6.5062605232014903 6.662827273480616 0 6.662827273480616 21.91856824274214 0 0 0 0 10.030198704444047 13.432901934161237 0 13.432901934161237 3.813440490346693 0 0 0 0 -16.963629168240004 14.95680569625074 0 14.95680569625074 6.8729643536244112 0 0 0 0 25.962770325495512 19.41769351930634 0 19.41769351930634 -13.19656072671205 0 0 0 0 -33.115923522651428 57.869215982071182 0 57.869215982071182 43.22707598339548 0 0 0 0 6.5552384045440704 43.352493114321987 0 43.352493114321987 -19.816453401052968 0 0 0 0 -25.016566455567954 50.231764007958191 0 50.231764007958191 112.21341374420808 0 0 0 0 -24.653227035974851 56.030301487902761 0 56.030301487902761 43.351723397310707 0 0 0 0 -26.798235284211842 50.795720615259597 0 50.795720615259597 55.246969456276929 0 0 0 0 6.9896442941426358 37.251741567065892 0 37.251741567065892 24.576801584196801 0 0 0 0 11.331848485395312 26.716854493755818 0 26.716854493755818 29.744311822007148 0 0 0 0 -44.825316851362004 38.675968874910268 0 38.675968874910268 47.132174267164373 0 0 0 0 -1.563847522441705 8.8682186403457735 0 8.8682186403457735 20.694707704653887 0 0 0 0 -62.515968381274433 35.418390837257903 0 35.418390837257903 34.145199771868647 0 0 0 0 -42.333260105551744 -3.7975776580124148 0 -3.7975776580124148 17.546615387315796 0 0 0 0 -98.765034095418258 30.619276019958939 0 30.619276019958939 36.089264391548568 0 0 0 0 -87.382991533755558 56.563062637818803 0 56.563062637818803 42.888616438458939 0 0 0 0 -1.9337130060273466 1.5967730658216155 0 1.5967730658216155 2.8669648831317502 0 0 0 0 -47.047455281630391 19.032478409087162 0 19.032478409087162 13.527868069024407 0 0 0 0 -2.0804898690847722 13.97289459600168 0 13.97289459600168 11.932814746201828 0 0 0 0 -47.620113468539785 77.582620213071095 0 77.582620213071095 -83.174500455070302 0 0 0 0 -29.272663926501991 49.513946775879049 0 49.513946775879049 -40.247945295408499 0 0 0 0 -23.559159643741594 10.39730027816168 0 10.39730027816168 20.569767984440183 0 0 0 0 -5.9115390882159176 1.7965385668233722 0 1.7965385668233722 3.0757202394920711 0 0 0 0 -2.7884358160663396 76.339746269082752 0 76.339746269082752 81.342970846598291 0 0 0 0 161.08932956296485 -5.0520410369244928 0 -5.0520410369244928 4.6547217800180078 0 0 0 0 69.534082593105268 67.821178551761932 0 67.821178551761932 7.867035367693461 0 0 0 0 38.802454433243838 -58.582750348555692 0 -58.582750348555692 46.397575906739803 0 0 0 0 -4.2260626149532889 -0.51633108342235801 0 -0.51633108342235801 0.036212013264574239 0 0 0 0 264.00746234714461 142.40996345540225 0 142.40996345540225 36.103810458929729 0 0 0 0 -13.621893637871835 -13.972175224362672 0 -13.972175224362672 -0.55829306482337415 0 0 0 0 -41.451582310724916 -16.723022667858459 0 -16.723022667858459 151.54779397642415 0 0 0 0 -37.501109198168535 -2.6543372938539269 0 -2.6543372938539269 11.856109438300095 0 0 0 0 51.019563396905141 141.6686620033006 0 141.6686620033006 179.86039282841375 0 0 0 0 -34.542345780890173 21.236212832625824 0 21.236212832625824 51.89253817113422 0 0 0 0 57.601585218675609 238.49758706534794 0 238.49758706534794 258.0167588490076 0 0 0 0 241.39138000248931 120.64175228047861 0 120.64175228047861 15.577571807953063 0 0 0 0 191.25833460297144 -16.134768276786417 0 -16.134768276786417 101.52822268843556 0 0 0 0 161.07157777772227 45.69555003977257 0 45.69555003977257 -48.840178318228936 0 0 0 0 92.312122059964167 88.507655022397557 0 88.507655022397557 11.432524404484866 0 0 0 0 90.177267868879426 83.504169603311766 0 83.504169603311766 2.162440789721586 0 0 0 0 99.897832414808818 62.641282916272303 0 62.641282916272303 19.235408899156027 0 0 0 0 102.71674054540199 74.746389960635497 0 74.746389960635497 -8.9451825656942674 0 0 0 0 98.714280273545228 74.395162595448369 0 74.395162595448369 -17.463321515409916 0 0 0 0 10.799974200170254 23.254687948114224 0 23.254687948114224 -21.977115979599148 0 0 0 0 -6.5024461666689604 39.267539317630508 0 39.267539317630508 -6.1358385194689617 0 0 0 0 -40.395588787534507 65.816253624663659 0 65.816253624663659 0.10261868367069837 0 0 0 0 10.820265266322039 6.9065216108933214 0 6.9065216108933214 -6.9229494054877847 0 0 0 0 2.7195782358281235 6.0682901081560487 0 6.0682901081560487 17.680813522388391 0 0 0 0 -103.37658726760492 47.171307312003592 0 47.171307312003592 12.971844763633271 0 0 0 0 -93.729356418647512 34.927918628268344 0 34.927918628268344 18.875217404725845 0 0 0 0 -38.587247076626227 42.495196060144735 0 42.495196060144735 -1.5127330488830921 0 0 0 0 -46.981719811985386 28.792327850222136 0 28.792327850222136 13.887328761526078 0 0 0 0 -39.761316574535158 18.554664163031703 0 18.554664163031703 29.443812665624137 0 0 0 0 -54.358263805348543 32.99291874066148 0 32.99291874066148 16.889868909385768 0 0 0 0 -78.511995002227195 45.048144323974157 0 45.048144323974157 90.375430338113802 0 0 0 0 -5.8706832808086489 9.467808411100691 0 9.467808411100691 30.496256674855204 0 0 0 0 -41.163451576052466 -3.7344023205259873 0 -3.7344023205259873 52.216918186523117 0 0 0 0 34.264011465143994 77.028771073458756 0 77.028771073458756 79.55924389037682 0 0 0 0 -11.418991204417019 -0.71259703001135222 0 -0.71259703001135222 0.91737699767904246 0 0 0 0 -46.94682676910088 77.760602233140162 0 77.760602233140162 88.876400101595209 0 0 0 0 -31.821080330295615 14.936800757818382 0 14.936800757818382 -0.033367191566238574 0 0 0 0 -26.748095851071412 66.756772586119041 0 66.756772586119041 80.166391431772354 0 0 0 0 -38.888391723659879 21.027365681518859 0 21.027365681518859 93.783961310340601 0 0 0 0 -60.442823096564098 28.239045704220189 0 28.239045704220189 119.43534528518649 0 0 0 0 23.408328606670693 -77.065538906364509 0 -77.065538906364509 95.774027822491917 0 0 0 0 -33.726420096470974 16.437162149968572 0 16.437162149968572 18.339430037960483 0 0 0 0 -2.5873670463405318 6.7401455204413594 0 6.7401455204413594 9.6207267785477768 0 0 0 0 -6.7362589792701897 6.4050148655182433 0 6.4050148655182433 2.1650315377508562 0 0 0 0 -4.9437213548744694 17.463097624538705 0 17.463097624538705 3.8808707272182801 0 0 0 0 -4.1340559625677997 8.0692420257400954 0 8.0692420257400954 -1.2170639687974472 0 0 0 0 3.5368953256177917 15.22876587975648 0 15.22876587975648 5.8259824116472885 0 0 0 0 -33.864976373336503 39.590522607400999 0 39.590522607400999 12.185221013245609 0 0 0 0 -29.804508431683644 34.29035265690618 0 34.29035265690618 5.8894118358748528 0 0 0 0 -30.251476610772727 16.273736910658783 0 16.273736910658783 -1.9524812924877182 0 0 0 0 -4.1552196382835973 11.913352693603883 0 11.913352693603883 4.1307489804385114 0 0 0 0 7.1487617720778758 7.4493382931621852 0 7.4493382931621852 4.2086623193062138 0 0 0 0 -22.183088851190405 190.42280731995925 0 190.42280731995925 -304.35659815865256 0 0 0 0 -31.553859636333073 18.106108998301352 0 18.106108998301352 -164.44693894810916 0 0 0 0 -229.77637231461995 70.177737360656465 0 70.177737360656465 136.97346628513333 0 0 0 0 -7.4036016577738337 28.619157775017811 0 28.619157775017811 -5.964806156589475 0 0 0 0 -30.447333464035182 708.85563661197739 0 708.85563661197739 -160.36781176515069 0 0 0 0 6.0183977333793166 11.110902929260064 0 11.110902929260064 12.125999067780612 0 0 0 0 15.354776116968921 15.127911913028356 0 15.127911913028356 5.5565609440289165 0 0 0 0 -0.063482331439445261 248.62300113856145 0 248.62300113856145 -122.01472981214465 0 0 0 0 29.731150734631228 85.087178673755261 0 85.087178673755261 49.651062165299663 0 0 0 0 -28.688661367152235 225.9370476794611 0 225.9370476794611 60.841993384143279 0 0 0 0 65.360115859090001 71.268346254802054 0 71.268346254802054 -495.19479015325487 0 0 0 0 -4.6942141414037906 10.162397356161819 0 10.162397356161819 10.219963931769598 0 0 0 0 -2.4980165903423313 -0.23389354587362376 0 -0.23389354587362376 1.2160383377341049 0 0 0 0 0.013554890741403086 10.653429035030568 0 10.653429035030568 -3.8174335290459567 0 0 0 0 4.0203805442601492 3.5765502773749489 0 3.5765502773749489 0.51821960154219937 0 0 0 0 42.036144913727185 31.22395852421505 0 31.22395852421505 10.167489654128076 0 0 0 0 -3.9134578880175468 6.1302670137256428 0 6.1302670137256428 15.36703912413941 0 0 0 0 -42.63963797177712 53.021887334714847 0 53.021887334714847 472.48544589833182 0 0 0 0 -0.015797377825947478 10.696465163604444 0 10.696465163604444 -3.8414034777151755 0 0 0 0 2.9226103740226108 0.95881729628864321 0 0.95881729628864321 -0.63604347475435929 0 0 0 0 91.747216217860114 160.35217637301503 0 160.35217637301503 -212.8920433104322 0 0 0 0 -13.75104107448351 72.907219724630522 0 72.907219724630522 113.71719830771326 0 0 0 0 75.762653545967623 169.93640685650416 0 169.93640685650416 117.03602305669483 0 0 0 0 0.15513042554084677 409.050712705357 0 409.050712705357 157.48636118923969 0 0 0 0 -1.3157740869945798 2.448713133707713 0 2.448713133707713 -1.260665413590857 0 0 0 0 -35.012782862839231 9.789228046181961 0 9.789228046181961 86.974620592525753 0 0 0 0 97.433199760998832 189.05862051789154 0 189.05862051789154 114.59720792077042 0 0 0 0 -18.395983278198401 51.562424662870399 0 51.562424662870399 184.00095655632049 0 0 0 0 6.1302661877052742 -10.558217721047185 0 -10.558217721047185 -3.2571684578470013 0 0 0 0 169.46488528671398 95.85136353881353 0 95.85136353881353 33.012283702682907 0 0 0 0 -194.03939271445415 98.667591094279487 0 98.667591094279487 82.518290701938895 0 0 0 0 -210.52668752628961 -85.122619999079689 0 -85.122619999079689 145.75603645849878 0 0 0 0 -51.901880085099037 120.51041035701428 0 120.51041035701428 -44.333261569088791 0 0 0 0 -2.1445254246012269 1.4104221969672324 0 1.4104221969672324 -2.0934183201908212 0 0 0 0 20.689255958969625 57.804480505004676 0 57.804480505004676 -42.649340572941583 0 0 0 0 -251.19093991136469 -95.476747145628906 0 -95.476747145628906 7.0209180066376575 0 0 0 0 1.7336620511993317 1.4952755121121868 0 1.4952755121121868 3.0895870067576539 0 0 0 0 211.89380894432907 -126.65234649738613 0 -126.65234649738613 -132.71757651541702 0 0 0 0 -153.24073065001721 143.84207220075587 0 143.84207220075587 227.91722725498221 0 0 0 0 234.29505419284396 162.41053323582491 0 162.41053323582491 12.439424754598804 0 0 0 0 -61.113984426221577 62.491513056658732 0 62.491513056658732 80.907752493832049 0 0 0 0 -17.550377200466755 63.349803625447748 0 63.349803625447748 14.884162823102088 0 0 0 0 2.1473137329157908 90.377935133612482 0 90.377935133612482 -7.6262353303354757 0 0 0 0 12.166773182689212 -25.655855391106343 0 -25.655855391106343 -7.1588109456351958 0 0 0 0 101.33694233058486 50.026493286863115 0 50.026493286863115 -21.589915782972639 0 0 0 0 14.652561094277189 8.4239853290728206 0 8.4239853290728206 -2.5964252485937322 0 0 0 0 -1.5899397392233823 3.4011277544198748 0 3.4011277544198748 -7.3274572210889204 0 0 0 0 0.046847880010318477 19.871609257807904 0 19.871609257807904 -1.1140979014699042 0 0 0 0 -0.0088242342945905709 6.8469177573083186 0 6.8469177573083186 -2.7384274669529987 0 0 0 0 187.11205387902737 -45.727633984700788 0 -45.727633984700788 -15.553781735812663 0 0 0 0 -265.17611478010076 758.29586365674913 0 758.29586365674913 -645.76774396095425 0 0 0 0 -242.89443493599538 665.0826568428165 0 665.0826568428165 -585.4054351267805 0 0 0 0 -242.31590597856848 678.4501099209665 0 678.4501099209665 -742.96334234761889 0 0 0 0 -0.39536326854431536 597.81415521994131 0 597.81415521994131 -810.23036394341034 0 0 0 0 -123.7187269400747 725.80005345418795 0 725.80005345418795 -738.45248325509601 0 0 0 0 -175.86918887639331 773.97199960836224 0 773.97199960836224 -782.92209259291121 0 0 0 0 -75.728580985392909 705.7163136201998 0 705.7163136201998 -766.27325048149578 0 0 0 0 -719.03343887733354 905.46445789251084 0 905.46445789251084 -673.56481403766156 0 0 0 0 -749.42323298113479 678.47002977662487 0 678.47002977662487 -584.42508548503247 0 0 0 0 -760.56755024471204 742.703217112321 0 742.703217112321 -500.62789247804176 0 0 0 0 35.349910980191964 35.477217096833343 0 35.477217096833343 -19.13683852163274 0 0 0 0 -200.69158491319104 129.64292583911629 0 129.64292583911629 -25.298176657845033 0 0 0 0 -690.30028085980666 603.3554203999247 0 603.3554203999247 -396.80140738471528 0 0 0 0 -267.86870603117859 764.82148253985724 0 764.82148253985724 -636.93138799623557 0 0 0 0 -93.636646778075374 230.3841792267558 0 230.3841792267558 -257.78083481301655 0 0 0 0 27.730905073815151 38.474732071407431 0 38.474732071407431 -22.473670201361699 0 0 0 0 -108.41578665439738 216.82130302493533 0 216.82130302493533 -270.15983036828402 0 0 0 0 -123.42375043664288 87.149846858794263 0 87.149846858794263 -9.8398804364551324 0 0 0 0 -70.274720354682358 48.87358667665103 0 48.87358667665103 -44.348307872183796 0 0 0 0 -101.07970745822968 46.923268779471982 0 46.923268779471982 -21.260898880107561 0 0 0 0 -74.715377591666766 76.065249838826276 0 76.065249838826276 -15.281085128139239 0 0 0 0 -55.385816167414305 51.817091100194375 0 51.817091100194375 -3.7896289697091561 0 0 0 0 -45.314958482413829 32.701103065574046 0 32.701103065574046 -10.625174225371296 0 0 0 0 -78.982098105749174 65.086274480403517 0 65.086274480403517 -22.905007127148565 0 0 0 0 -47.207232593238587 62.032498493870662 0 62.032498493870662 -24.687667048310686 0 0 0 0 -4.7740425242882338 27.414172646362204 0 27.414172646362204 2.8514789760338317 0 0 0 0 12.192728839088701 -0.22306901812250146 0 -0.22306901812250146 0.86021034821087028 0 0 0 0 150.33552400079498 30.199860616423393 0 30.199860616423393 -7.4066431016253773 0 0 0 0 -31.084652873260723 41.807118051539788 0 41.807118051539788 -9.2434700564391505 0 0 0 0 -0.039216643251535288 6.8152614890459624 0 6.8152614890459624 -4.4623097674765972 0 0 0 0 33.435045177193388 -17.488203677798083 0 -17.488203677798083 -782.23061304412113 0 0 0 0 -123.34840468455513 24.889007115998538 0 24.889007115998538 6.2270452016327908 0 0 0 0 -266.87392251568963 106.39283589916522 0 106.39283589916522 -9.5163284588197712 0 0 0 0 -56.204564250685507 1.101957027494791 0 1.101957027494791 -28.289612593001038 0 0 0 0 -56.966292963801607 595.48748873782256 0 595.48748873782256 -757.03619019535836 0 0 0 0 -188.14827067687293 683.2527382070075 0 683.2527382070075 -808.2392486538738 0 0 0 0 -383.42711716945632 423.88291988015408 0 423.88291988015408 -884.91215578814445 0 0 0 0 -390.04115864977939 665.76090138636209 0 665.76090138636209 -693.55344567862267 0 0 0 0 -0.28654554206877947 340.2484530779584 0 340.2484530779584 -991.2875087122593 0 0 0 0 -307.71140713804925 253.69005179385431 0 253.69005179385431 -59.944719770428492 0 0 0 0 -133.46384028891043 184.92788517678855 0 184.92788517678855 -145.10732314527922 0 0 0 0 1.4146135428745765 69.441771610887372 0 69.441771610887372 -90.471354327368317 0 0 0 0 -6.4564054896509333 5.8128535240358019 0 5.8128535240358019 -1.7610842358189984 0 0 0 0 18.694858727714745 31.382222056985484 0 31.382222056985484 -44.037300775926269 0 0 0 0 20.056519942954765 -59.704715970616235 0 -59.704715970616235 -17.289930764018209 0 0 0 0 -67.259106137338676 14.926027623161644 0 14.926027623161644 31.584322952199727 0 0 0 0 61.891689513620804 8.7109540027449839 0 8.7109540027449839 8.2727344743398135 0 0 0 0 -86.143192692266894 -70.939834103322937 0 -70.939834103322937 -132.67296231212094 0 0 0 0 2.4195560357764663 1.5632959098957144 0 1.5632959098957144 -1.4114299426421724 0 0 0 0 -40.844291210316442 47.220317406417053 0 47.220317406417053 -15.956677226058673 0 0 0 0 2.2774972588049422 3.0553397538276954 0 3.0553397538276954 2.0559841015267892 0 0 0 0 11.795154728315538 -6.9982948138349457 0 -6.9982948138349457 19.788914512768315 0 0 0 0 -0.13101459778408753 43.175572263076901 0 43.175572263076901 -8.8114614716687356 0 0 0 0 8.0274208359478507 53.104053232360457 0 53.104053232360457 -1.0783959454420255 0 0 0 0 14.886793304845924 76.957236651905987 0 76.957236651905987 65.157245251277345 0 0 0 0 -15.564663006502087 52.762052618535563 0 52.762052618535563 49.11097563135263 0 0 0 0 -30.893623074371135 -49.415855522485799 0 -49.415855522485799 531.70101186117972 0 0 0 0 3.100281069447135 0.080844183523126389 0 0.080844183523126389 -0.91178651055938076 0 0 0 0 121.34847769979388 171.31361404753989 0 171.31361404753989 38.685394995263778 0 0 0 0 36.512516969101853 126.68692335355081 0 126.68692335355081 42.195563881541602 0 0 0 0 0.15473946530983085 80.19888343839375 0 80.19888343839375 467.69014047859673 0 0 0 0 -19.183028070212458 204.64257648808052 0 204.64257648808052 455.50571372733611 0 0 0 0 33.346777666862181 114.69211445073961 0 114.69211445073961 3.0562050016305875 0 0 0 0 -5.2024883735430194 -40.266589784849202 0 -40.266589784849202 190.09033574989735 0 0 0 0 2.7246658948279219 -2.7265277637707186 0 -2.7265277637707186 72.85492992415675 0 0 0 0 -22.468937866011402 127.62775577780485 0 127.62775577780485 331.84918922500219 0 0 0 0 10.433047009762959 156.63246252404133 0 156.63246252404133 190.41113159289671 0 0 0 0 -66.595009797114471 168.35778435978864 0 168.35778435978864 192.33519708093081 0 0 0 0 82.736387582375755 221.75670593410177 0 221.75670593410177 180.50649452795915 0 0 0 0 -98.569980175023375 8.3901885955729085 0 8.3901885955729085 -73.631861540543468 0 0 0 0 -190.45638636455988 34.718552340673341 0 34.718552340673341 -21.684177078306675 0 0 0 0 -362.46895357445464 -117.12044045295988 0 -117.12044045295988 -26.594074518030538 0 0 0 0 -784.26058044820093 335.09227739137714 0 335.09227739137714 -86.9167880746827 0 0 0 0 -263.19641728149145 58.681150002965296 0 58.681150002965296 18.618997316152672 0 0 0 0 0.29841184383980135 -0.51420890873289693 0 -0.51420890873289693 5.1263146991203996 0 0 0 0 32.592380271751608 143.92042025349474 0 143.92042025349474 170.49467249225927 0 0 0 0 200.1085405082631 343.45726539626958 0 343.45726539626958 163.87500181988798 0 0 0 0 4.3140819666150492 39.237434318587475 0 39.237434318587475 101.30945640900245 0 0 0 0 -26.903230692129 94.212389955654544 0 94.212389955654544 131.53749342466472 0 0 0 0 -8.8159328873734921 15.493576928616676 0 15.493576928616676 150.69481883218032 0 0 0 0 -135.2258720441896 -20.220482233940857 0 -20.220482233940857 35.77329131314292 0 0 0 0 -221.59288038610248 3.6192035278727417 0 3.6192035278727417 35.275096575118368 0 0 0 0 -110.72318316213477 7.7809698329360799 0 7.7809698329360799 37.647664131880447 0 0 0 0 -114.98703343178749 36.981817284077351 0 36.981817284077351 61.547675086447271 0 0 0 0 15.218887976618134 42.036669579760201 0 42.036669579760201 54.846789487039132 0 0 0 0 -2.8844311290946152 0.94276745539974627 0 0.94276745539974627 16.711285048233037 0 0 0 0 -74.577351352367259 5.8413411875990278 0 5.8413411875990278 30.533061789850763 0 0 0 0 -45.313343506226374 21.261344507327522 0 21.261344507327522 5.9259066319573321 0 0 0 0 -20.754294818540075 34.624600016411932 0 34.624600016411932 -0.40087103881523944 0 0 0 0 -10.661673334215806 18.830335645989209 0 18.830335645989209 -2.4136474248554123 0 0 0 0 -36.42428683972534 18.029696963596862 0 18.029696963596862 14.712052562755957 0 0 0 0 -91.60144570376724 22.17113143145616 0 22.17113143145616 42.428622446046575 0 0 0 0 -78.826033702251152 51.26553240746216 0 51.26553240746216 51.454270190144598 0 0 0 0 -78.298511755885556 42.879691824127804 0 42.879691824127804 19.297316716314526 0 0 0 0 -56.04367932491914 46.043727997679525 0 46.043727997679525 49.989380500192055 0 0 0 0 -29.088567326834891 16.335058938944712 0 16.335058938944712 6.7020621211122489 0 0 0 0 -36.402366347586849 22.922617472198283 0 22.922617472198283 17.875116382183677 0 0 0 0 -52.338093991335597 41.886412502645541 0 41.886412502645541 7.0492641957415856 0 0 0 0 -34.723807329050032 21.774398129280598 0 21.774398129280598 16.736349030557903 0 0 0 0 -84.69650509173465 32.849404104876555 0 32.849404104876555 -2.3475463521723441 0 0 0 0 -96.91176813171478 68.284084268030711 0 68.284084268030711 81.899766312773863 0 0 0 0 -114.69707702690357 72.020180125204206 0 72.020180125204206 37.20780039957026 0 0 0 0 -20.585507928281231 33.755171748578363 0 33.755171748578363 2.5611584324731211 0 0 0 0 -132.57039156352403 112.51130716475745 0 112.51130716475745 -18.598631201210083 0 0 0 0 -155.25923622766277 58.608987970015733 0 58.608987970015733 38.38824406855565 0 0 0 0 -77.484653648076346 44.670802302403899 0 44.670802302403899 25.263116207976054 0 0 0 0 -91.882337389590248 24.314784623357809 0 24.314784623357809 47.103029094658268 0 0 0 0 -65.677991579764665 27.50095667720289 0 27.50095667720289 -4.5511370842918026 0 0 0 0 -41.960848824717687 2.4097095149918459 0 2.4097095149918459 17.287751785308501 0 0 0 0 -61.19977326960543 109.1902223785969 0 109.1902223785969 10.74038568414835 0 0 0 0 -45.575018853884103 72.57729238072352 0 72.57729238072352 7.4307250626952737 0 0 0 0 -109.04326230524748 42.357199613619741 0 42.357199613619741 78.497067330268692 0 0 0 0 -100.49819493314135 40.34870784017221 0 40.34870784017221 48.551300315652043 0 0 0 0 -209.5241811600572 140.58070146272803 0 140.58070146272803 -48.683491047175266 0 0 0 0 -98.135032601443527 78.586478766437722 0 78.586478766437722 -25.746673670684686 0 0 0 0 -192.66240696523164 65.075126828818611 0 65.075126828818611 42.223966663637839 0 0 0 0 -205.82185348359053 124.77777175997744 0 124.77777175997744 -98.268227219799883 0 0 0 0 -217.01522792666219 496.48177933766419 0 496.48177933766419 449.81524054384499 0 0 0 0 -90.440314917057549 106.50220220910887 0 106.50220220910887 10.761482042282296 0 0 0 0 -100.52825835518888 70.051784063263767 0 70.051784063263767 7.3536462196898356 0 0 0 0 18.296735568083591 28.520277246363506 0 28.520277246363506 15.249899123450035 0 0 0 0 -103.85919191329685 27.43058717136023 0 27.43058717136023 -7.1551510702629457 0 0 0 0 -97.931682420719881 180.38226781555568 0 180.38226781555568 -152.89555110377842 0 0 0 0 -100.80886993085005 59.736712902584259 0 59.736712902584259 4.0993017306232105 0 0 0 0 -312.71105535964307 172.13525140044294 0 172.13525140044294 -24.582563764968654 0 0 0 0 25.998246541577799 23.821346358587689 0 23.821346358587689 19.75951408337356 0 0 0 0 -79.473084427416325 69.570310971130311 0 69.570310971130311 20.337280188803561 0 0 0 0 107.55991948486349 38.222134114846369 0 38.222134114846369 -22.689763708796818 0 0 0 0 339.61641583465098 -15.061870651123172 0 -15.061870651123172 -85.174964687475949 0 0 0 0 0.6525684514329626 2.5489646788043672 0 2.5489646788043672 5.4242005842518068 0 0 0 0 107.52920592301921 26.593549149587041 0 26.593549149587041 30.451133441976708 0 0 0 0 -272.92989595595282 -472.22877480753232 0 -472.22877480753232 311.00964627703797 0 0 0 0 190.84193436886926 121.5491502838222 0 121.5491502838222 -102.22216728840067 0 0 0 0 -24.67458977596317 20.64022598361742 0 20.64022598361742 -8.8867135490040496 0 0 0 0 -6.1413638271696982 59.177211057602108 0 59.177211057602108 6.6024575951305451 0 0 0 0 53.656112460630538 -2.0285818160646159 0 -2.0285818160646159 0.83934617531485856 0 0 0 0 -48.104443761272705 33.403428857229301 0 33.403428857229301 -11.713256849427125 0 0 0 0 -4.9393411548549295 9.3633775497038272 0 9.3633775497038272 -5.5541749454862668 0 0 0 0 -38.260305075076758 15.343446748735005 0 15.343446748735005 37.745161783292133 0 0 0 0 -26.640043789622723 64.696642466740741 0 64.696642466740741 149.98953145362248 0 0 0 0 -4.8183360666007502 -28.788522373419255 0 -28.788522373419255 34.331983283052978 0 0 0 0 4.8132044515168957 0.94385540284802971 0 0.94385540284802971 -3.1420378869347161 0 0 0 0 301.04446927490062 138.63539206799396 0 138.63539206799396 -59.721454277227167 0 0 0 0 -26.724883959859653 57.225364326622184 0 57.225364326622184 235.86122846944636 0 0 0 0 67.293134719206137 69.740770165224603 0 69.740770165224603 53.669496491675091 0 0 0 0 231.46893145754802 187.80173723002372 0 187.80173723002372 82.474990820104722 0 0 0 0 237.43665839552705 251.71732189705654 0 251.71732189705654 198.74622894568529 0 0 0 0 369.25346506075584 282.44261684085359 0 282.44261684085359 22.97862665419234 0 0 0 0 248.61162473400691 167.39830660092048 0 167.39830660092048 66.17115667185135 0 0 0 0 40.537360891932622 26.661664037023002 0 26.661664037023002 48.991083403045195 0 0 0 0 -102.06237665315712 133.64917566746954 0 133.64917566746954 74.490501818628218 0 0 0 0 -33.229951570883713 137.73475488617805 0 137.73475488617805 29.461848531420401 0 0 0 0 -120.9237549455429 30.783905679338204 0 30.783905679338204 86.031339377637778 0 0 0 0 -112.36496613407598 69.32695910337452 0 69.32695910337452 12.053801757996553 0 0 0 0 -210.65200128139986 70.233780189104436 0 70.233780189104436 42.125142952150782 0 0 0 0 7.387228989368765 20.6604916739402 0 20.6604916739402 19.932057789909862 0 0 0 0 -54.165557996006555 48.844292412685718 0 48.844292412685718 -19.528947822327609 0 0 0 0 -193.21796081462526 112.85801594052464 0 112.85801594052464 15.52668015328527 0 0 0 0 -53.741827297337295 61.085370645352668 0 61.085370645352668 -7.5159877599071478 0 0 0 0 -8.4480144933366716 5.374170392783526 0 5.374170392783526 3.1023057547377419 0 0 0 0 -60.797610535475542 49.31791288889508 0 49.31791288889508 -30.419688942682114 0 0 0 0 -60.527516698355612 51.771871183760595 0 51.771871183760595 -14.453945030545583 0 0 0 0 -57.740185813076096 65.525505721874651 0 65.525505721874651 -30.288669261275743 0 0 0 0 -57.808138734166278 65.174117050824862 0 65.174117050824862 -20.456375045978348 0 0 0 0 -82.589812392048771 63.901888212367339 0 63.901888212367339 -80.326725451290258 0 0 0 0 -124.1336827897394 210.68017005063302 0 210.68017005063302 -5.648099388297851 0 0 0 0 10.179210759868567 12.191651937361215 0 12.191651937361215 14.863860348036809 0 0 0 0 -66.303649464360205 91.294205796155438 0 91.294205796155438 -54.779056954561383 0 0 0 0 -138.1376180715597 84.890377294083009 0 84.890377294083009 -55.322833310108763 0 0 0 0 -66.78403782130772 95.908135502224468 0 95.908135502224468 -79.540259556189994 0 0 0 0 4.9230959996275487 109.59553767818579 0 109.59553767818579 -83.931164943696785 0 0 0 0 -77.717354000742489 -101.09910109229531 0 -101.09910109229531 213.14548820047639 0 0 0 0 -70.485743294302665 160.82388662848098 0 160.82388662848098 -75.049862343090354 0 0 0 0 -334.79893578156771 352.04771341152082 0 352.04771341152082 -51.830748885637149 0 0 0 0 779.2429258468037 283.41827617311355 0 283.41827617311355 -381.07016997486062 0 0 0 0 -78.893139123851142 25.115972519157367 0 25.115972519157367 3.5627032484044321 0 0 0 0 -396.35761361198092 135.36494981748547 0 135.36494981748547 449.7496051328344 0 0 0 0 -77.880783314896689 -2.61190969966583 0 -2.61190969966583 530.58622233483766 0 0 0 0 850.83884361897071 362.34808727599011 0 362.34808727599011 -23.807543797071048 0 0 0 0 5.8320819164059117 5.7282837706807186 0 5.7282837706807186 3.6594670880188289 0 0 0 0 530.3314638005977 904.77749456572201 0 904.77749456572201 601.52404803480022 0 0 0 0 268.59701578383829 521.00656566956968 0 521.00656566956968 352.53021036505629 0 0 0 0 266.04408856206283 321.81022146445684 0 321.81022146445684 351.62457667192939 0 0 0 0 341.88841449870961 367.64639956078463 0 367.64639956078463 200.98397479009145 0 0 0 0 388.106696432842 67.790829070952896 0 67.790829070952896 -145.75197237257817 0 0 0 0 -6.6921410285534648 11.267428219057113 0 11.267428219057113 -12.53146771235312 0 0 0 0 274.17209391576762 315.62843743269696 0 315.62843743269696 291.0332630139892 0 0 0 0 -28.393752026051516 11.911313916367362 0 11.911313916367362 -13.763174337409509 0 0 0 0 313.45068593796896 258.78029189717563 0 258.78029189717563 219.45188216147653 0 0 0 0 0.42996013351512374 -3.2043368675331294 0 -3.2043368675331294 -83.365246458924958 0 0 0 0 -3.1056147204044748 6.0562258327323519 0 6.0562258327323519 -6.4767286177143717 0 0 0 0 11.767712411288812 -17.4005259412952 0 -17.4005259412952 -146.46227831445867 0 0 0 0 31.161963721533539 49.486879651427444 0 49.486879651427444 -51.384625452657929 0 0 0 0 31.839625556996907 42.142366733038216 0 42.142366733038216 -20.735596117660862 0 0 0 0 59.516677188017638 59.582481985460618 0 59.582481985460618 -77.006701462967612 0 0 0 0 61.105889204787672 66.651873356764554 0 66.651873356764554 -54.526154731975112 0 0 0 0 79.765325704182032 65.840591106563807 0 65.840591106563807 -55.094969491066877 0 0 0 0 46.930361733451718 65.749238024385704 0 65.749238024385704 -35.490994967403822 0 0 0 0 11.123965241975384 43.293147782780579 0 43.293147782780579 -33.06338136458362 0 0 0 0 42.932207392739656 40.694713991209937 0 40.694713991209937 -42.278323204351182 0 0 0 0 37.628023811310413 55.308550516354444 0 55.308550516354444 -27.662841698554985 0 0 0 0 45.226266480734921 71.725226902050053 0 71.725226902050053 -52.39539679880545 0 0 0 0 -2.5404557516183388 8.1783817319563497 0 8.1783817319563497 -1.1837370216916625 0 0 0 0 -31.52399437015265 60.197091175323294 0 60.197091175323294 88.383049183899857 0 0 0 0 64.978088933487015 45.975183316870243 0 45.975183316870243 -43.878369331709109 0 0 0 0 110.8228310620907 95.110280619082914 0 95.110280619082914 -30.926518549427783 0 0 0 0 -49.963523318452644 97.706456204708957 0 97.706456204708957 139.93966254341649 0 0 0 0 137.78289846078405 35.205715370382677 0 35.205715370382677 -34.531002981926576 0 0 0 0 200.13228933719802 216.60410723362656 0 216.60410723362656 153.40642271908291 0 0 0 0 -12.3240168123084 15.551577472261926 0 15.551577472261926 -17.268009455990466 0 0 0 0 5.8190440451980976 48.426638995282701 0 48.426638995282701 6.7621385657985229 0 0 0 0 30.117138861503918 93.27653900776204 0 93.27653900776204 52.783828010113211 0 0 0 0 129.61978741755593 132.00385119274597 0 132.00385119274597 64.546599170316767 0 0 0 0 206.17312547982146 208.39385703888001 0 208.39385703888001 127.00106689786116 0 0 0 0 179.71275732868526 221.81593265154152 0 221.81593265154152 154.92121648107059 0 0 0 0 239.86423510922032 236.38654448246598 0 236.38654448246598 148.42387571510335 0 0 0 0 263.01922949403161 197.71492937156381 0 197.71492937156381 148.53875580050226 0 0 0 0 233.13887265756784 223.88253885698214 0 223.88253885698214 137.32869641664001 0 0 0 0 197.88600947728264 219.53603955280778 0 219.53603955280778 175.5313168079083 0 0 0 0 322.80927494897696 272.07647737013576 0 272.07647737013576 151.57273766070284 0 0 0 0 300.70624604950717 225.44026562934232 0 225.44026562934232 164.90843635934925 0 0 0 0 310.25838326306985 207.21418988028017 0 207.21418988028017 87.226988367649028 0 0 0 0 350.65132893267219 149.57883455668343 0 149.57883455668343 103.57381611572782 0 0 0 0 270.34128623294964 158.60412675748739 0 158.60412675748739 206.00297346556181 0 0 0 0 228.20004514456377 263.4615899987657 0 263.4615899987657 164.07823890735926 0 0 0 0 232.48299825708091 222.8311066276874 0 222.8311066276874 136.1074551145648 0 0 0 0 225.43235121469115 249.8649601787447 0 249.8649601787447 118.07867039107077 0 0 0 0 197.89942879371665 207.22427175366647 0 207.22427175366647 76.887306341261137 0 0 0 0 106.02521918905404 155.08455511035936 0 155.08455511035936 80.836413181445096 0 0 0 0 244.81159794785708 215.81541835339522 0 215.81541835339522 52.986779198952718 0 0 0 0 176.84749146369722 208.31930940458369 0 208.31930940458369 116.58745628327961 0 0 0 0 -18.767354094089683 12.521974749154939 0 12.521974749154939 -8.6151957964811885 0 0 0 0 117.5272673494037 133.06856400223114 0 133.06856400223114 95.55675148440605 0 0 0 0 -56.46821159839601 -51.356721049847692 0 -51.356721049847692 -44.542684536780143 0 0 0 0 273.26947282660058 205.30206921891158 0 205.30206921891158 240.3670264784414 0 0 0 0 257.91367105242534 298.49688064869952 0 298.49688064869952 273.99070788578138 0 0 0 0 -12.131357416287386 8.6479279113976162 0 8.6479279113976162 -5.0541179017743687 0 0 0 0 253.21734269034641 265.17044735045056 0 265.17044735045056 140.08420270794159 0 0 0 0 155.80727400609612 214.26543404379026 0 214.26543404379026 228.52489638072075 0 0 0 0 250.22640402310935 213.490215431053 0 213.490215431053 164.66468737738978 0 0 0 0 265.421498326039 244.26399603956816 0 244.26399603956816 196.6324156034043 0 0 0 0 269.95531694387546 249.59221216852893 0 249.59221216852893 114.24177562991099 0 0 0 0 218.27974633303529 194.64415136981188 0 194.64415136981188 71.458418292815622 0 0 0 0 207.8248979281052 240.84433514044213 0 240.84433514044213 127.27041899447795 0 0 0 0 223.54024727722208 242.53735000462075 0 242.53735000462075 101.28182603464666 0 0 0 0 224.52905556216137 245.31737247500678 0 245.31737247500678 104.26991395886944 0 0 0 0 210.52886515748105 195.62051744753626 0 195.62051744753626 76.903089403451304 0 0 0 0 -15.772580998517228 10.670744091072208 0 10.670744091072208 6.5020518411462547 0 0 0 0 116.29165521269897 136.32931128062955 0 136.32931128062955 79.927258055271523 0 0 0 0 -75.160563025476051 48.333372094010201 0 48.333372094010201 -12.636414663317368 0 0 0 0 -151.72211817256175 91.903172595033539 0 91.903172595033539 50.87471542723506 0 0 0 0 -35.140079198619787 133.34407110682696 0 133.34407110682696 32.832301650054433 0 0 0 0 -134.35921452993352 21.956609230248432 0 21.956609230248432 -13.219001779008977 0 0 0 0 279.05279260125553 157.46355871195578 0 157.46355871195578 53.91384784845286 0 0 0 0 0.13121029847653176 2.6550336270102548 0 2.6550336270102548 2.073499715623953 0 0 0 0 445.11577404377749 267.87952719714121 0 267.87952719714121 119.78556745121386 0 0 0 0 262.66289542823506 255.92219871880843 0 255.92219871880843 166.88071171172123 0 0 0 0 -236.07364604609029 144.21352754949839 0 144.21352754949839 109.1325643942364 0 0 0 0 -404.37751081614988 42.452891403159811 0 42.452891403159811 76.074541581194353 0 0 0 0 2.2226537932028805 394.8282943122058 0 394.8282943122058 -35.729714099157718 0 0 0 0 -311.30780428368598 333.20686411990846 0 333.20686411990846 55.947109820626792 0 0 0 0 32.866833597569894 118.87480181612852 0 118.87480181612852 119.32773099427868 0 0 0 0 -155.38345361943357 315.73478976224305 0 315.73478976224305 34.362741237886439 0 0 0 0 45.894014574348802 59.745118676932606 0 59.745118676932606 41.019396001411195 0 0 0 0 -244.4964182128715 387.40926447152015 0 387.40926447152015 -102.59264484314917 0 0 0 0 -229.23567964671383 469.01739212955908 0 469.01739212955908 -400.57736421982554 0 0 0 0 -308.04315891907027 279.20500217560584 0 279.20500217560584 -9.2444354941908387 0 0 0 0 -135.56955959433981 209.93639576249188 0 209.93639576249188 -40.538882822474989 0 0 0 0 -245.29651324252336 169.42548854113375 0 169.42548854113375 40.345266905522294 0 0 0 0 -77.048377899963896 53.972573785511322 0 53.972573785511322 -0.032462957399445713 0 0 0 0 -182.66773105743414 322.21929789709884 0 322.21929789709884 -104.53233362839819 0 0 0 0 -188.32994543501991 199.79988948822574 0 199.79988948822574 5.3779800520460412 0 0 0 0 -152.81838022240845 209.33471139002245 0 209.33471139002245 4.50785338980495 0 0 0 0 -84.793248992643043 42.115751944003236 0 42.115751944003236 -17.648817105144516 0 0 0 0 -111.5351798728725 216.86938476391572 0 216.86938476391572 47.678420812029799 0 0 0 0 -153.95851253443107 204.1406596837478 0 204.1406596837478 72.985849349555792 0 0 0 0 -34.738042846758617 131.09413877592669 0 131.09413877592669 -14.31566042821396 0 0 0 0 -194.14099588614772 225.3804573365087 0 225.3804573365087 8.2886381289426936 0 0 0 0 -116.2112914936115 168.62352522925721 0 168.62352522925721 -52.342768539594545 0 0 0 0 -26.621595817664002 38.87573371590031 0 38.87573371590031 -44.911272807111587 0 0 0 0 -35.166546018301233 168.72289846955573 0 168.72289846955573 -249.94038571288547 0 0 0 0 -16.958443634508512 83.305203050717864 0 83.305203050717864 -15.905231138996896 0 0 0 0 -10.057502814539475 69.349734825937048 0 69.349734825937048 -70.804267950089979 0 0 0 0 -101.69660746998488 191.35059972697854 0 191.35059972697854 -62.545218778541312 0 0 0 0 11.662812404327269 99.2900768322761 0 99.2900768322761 -23.871036801767332 0 0 0 0 -9.4597663577151252 79.876921974962897 0 79.876921974962897 31.802732864482095 0 0 0 0 -27.825476852214443 44.693921173176655 0 44.693921173176655 16.973365311623468 0 0 0 0 -12.163978211229022 24.853388479585821 0 24.853388479585821 -21.304754807611459 0 0 0 0 -67.314171870944847 24.381196023095981 0 24.381196023095981 62.588736779045576 0 0 0 0 -2.0854185083371704 57.505724787046347 0 57.505724787046347 8.1662250129120366 0 0 0 0 9.127307828181074 57.238591182725941 0 57.238591182725941 -2.6059062665590318 0 0 0 0 -8.3586994131248353 43.339324593819399 0 43.339324593819399 9.9593715501857503 0 0 0 0 51.564198028969258 56.182994932183647 0 56.182994932183647 -13.063822759628238 0 0 0 0 -25.084530885991626 31.404510084844333 0 31.404510084844333 -14.820065037725726 0 0 0 0 -2.4972202596589561 36.128365965106582 0 36.128365965106582 -26.731086395075693 0 0 0 0 12.816374566637194 28.039172631453823 0 28.039172631453823 -1.5754609789482146 0 0 0 0 -20.767109709537976 31.362484165415779 0 31.362484165415779 -22.286998931482174 0 0 0 0 -2.6729992965701967 46.15184364781453 0 46.15184364781453 -31.671929997883126 0 0 0 0 -11.568120689840725 72.941492861873485 0 72.941492861873485 33.625098763513961 0 0 0 0 -52.359754205506761 12.388783576498099 0 12.388783576498099 -20.043356512371247 0 0 0 0 -19.555163611122367 22.952866704106469 0 22.952866704106469 3.4534472275461923 0 0 0 0 -14.130963037263427 -10.184993242684868 0 -10.184993242684868 -3.3147053595566831 0 0 0 0 15.8316668580228 10.283542378445418 0 10.283542378445418 -79.624431167263538 0 0 0 0 6.9728534560745175 48.891700085435332 0 48.891700085435332 -32.31201662094827 0 0 0 0 -10.41846077757387 25.194174813446104 0 25.194174813446104 -25.92089818704163 0 0 0 0 -37.398741745102598 29.325954119580274 0 29.325954119580274 103.3587184035423 0 0 0 0 -90.953796212299494 131.25494114090543 0 131.25494114090543 -70.697596744268594 0 0 0 0 143.34222788562693 104.42644306784496 0 104.42644306784496 -41.902420421669376 0 0 0 0 46.44497976249113 97.370656365594186 0 97.370656365594186 42.003576446815714 0 0 0 0 12.95477305798704 41.693818460695184 0 41.693818460695184 -39.873539290492772 0 0 0 0 12.274946239060228 26.382490020729165 0 26.382490020729165 -44.825663430310669 0 0 0 0 -2.2319897363304335 38.571787881479395 0 38.571787881479395 -35.478072781974333 0 0 0 0 -2.5104113617271651 -26.701794128668553 0 -26.701794128668553 -105.08865692678955 0 0 0 0 37.745232589782972 27.665417556603643 0 27.665417556603643 -46.479454381478718 0 0 0 0 54.259469757990701 102.15472103798584 0 102.15472103798584 -64.296969145420007 0 0 0 0 -170.0002297340834 2.4657597576806438 0 2.4657597576806438 16.085031234106282 0 0 0 0 -21.648412362450706 36.559159388445281 0 36.559159388445281 -17.578680539289962 0 0 0 0 -10.163047766759775 26.670129454031262 0 26.670129454031262 -34.137338798689882 0 0 0 0 57.823290741414894 84.402010425608751 0 84.402010425608751 -9.1843554785737069 0 0 0 0 -1.2910196922020987 55.715208258872735 0 55.715208258872735 -3.0191558646038175 0 0 0 0 36.668685298034688 63.800838961120462 0 63.800838961120462 -25.192910294361354 0 0 0 0 46.404142102717742 65.351540244006173 0 65.351540244006173 -26.340926745790057 0 0 0 0 0.14805978213775006 -0.24634211836951891 0 -0.24634211836951891 -2.4783972139788375 0 0 0 0 126.43754569166776 60.505878862219106 0 60.505878862219106 -43.383054509133217 0 0 0 0 -355.09044290320526 -45.296058422703936 0 -45.296058422703936 147.7239536952693 0 0 0 0 79.774215964709583 16.77026737947017 0 16.77026737947017 -4.922836543439189 0 0 0 0 -23.140943819322274 66.391180740189156 0 66.391180740189156 20.043167090407223 0 0 0 0 -23.428655368206819 74.641622026083496 0 74.641622026083496 12.174384235986508 0 0 0 0 17.116316572268261 52.107256444811355 0 52.107256444811355 37.293081406836791 0 0 0 0 27.330497152564931 25.839254358979815 0 25.839254358979815 35.347994992684107 0 0 0 0 -8.4693879725246006 26.801251474042147 0 26.801251474042147 17.874095627601491 0 0 0 0 -9.8501954063249286 39.412346388481637 0 39.412346388481637 11.499762988183647 0 0 0 0 47.124368327451521 -1.7411736905705766 0 -1.7411736905705766 -26.34362781578966 0 0 0 0 -4.2372858569870004 43.807262213958893 0 43.807262213958893 15.149887272249543 0 0 0 0 -30.784271033331606 43.032154174328753 0 43.032154174328753 15.748635407275287 0 0 0 0 -17.303860399901168 26.73981046865083 0 26.73981046865083 -5.8583419323549606 0 0 0 0 -0.077268186084168633 1.2994658398238386 0 1.2994658398238386 -6.5586755109406454 0 0 0 0 -63.707621783565173 504.14071251794303 0 504.14071251794303 -299.57062887420761 0 0 0 0 -44.53753141215202 105.84426657331278 0 105.84426657331278 176.18533427473449 0 0 0 0 70.57257257571473 43.797128178688581 0 43.797128178688581 -12.620536965754582 0 0 0 0 -3.0238218591076986 3.3913641158741967 0 3.3913641158741967 -3.1630356001884081 0 0 0 0 -35.60008423715044 33.943502529524267 0 33.943502529524267 171.80991243274184 0 0 0 0 -73.574962329912523 119.42146363141364 0 119.42146363141364 204.58672000902516 0 0 0 0 11.457369692716384 175.67072685898165 0 175.67072685898165 173.87427527549153 0 0 0 0 123.36931775459743 117.86356024038105 0 117.86356024038105 73.203583579132101 0 0 0 0 213.44920989384991 210.00398398685502 0 210.00398398685502 92.697067210356181 0 0 0 0 76.255394924606662 137.805442591678 0 137.805442591678 333.10126894147834 0 0 0 0 193.48063537492999 -49.706535338889807 0 -49.706535338889807 116.55893207769259 0 0 0 0 330.09419715715921 -263.2580046265939 0 -263.2580046265939 364.61252199875889 0 0 0 0 -9.9044356806765848 5.9148067517367906 0 5.9148067517367906 5.5563819209827443 0 0 0 0 -18.566170963735203 78.915258472618007 0 78.915258472618007 -19.915721605815634 0 0 0 0 -0.087330874077451881 -1.7021617400896503 0 -1.7021617400896503 -63.474683867923886 0 0 0 0 -7.7702062746294445 11.498564747823465 0 11.498564747823465 -2.067040079810667 0 0 0 0 6.2459837372359743 39.306441647928295 0 39.306441647928295 -76.88546146992303 0 0 0 0 7.4098642852719649 78.733785718260151 0 78.733785718260151 -224.08642449637409 0 0 0 0 5.0282676084898412 116.19542059143714 0 116.19542059143714 -215.21338833807204 0 0 0 0 -136.28748822827765 243.32277165548294 0 243.32277165548294 -301.98964841068664 0 0 0 0 4.8502236643541892 68.752535599843895 0 68.752535599843895 -328.95453262022056 0 0 0 0 -19.290532896920922 49.729071025678422 0 49.729071025678422 -144.87548078530472 0 0 0 0 -2.6847202018398377 -1.1473619058410804 0 -1.1473619058410804 1.7228591327386766 0 0 0 0 -47.291351106556249 98.170305518804525 0 98.170305518804525 -143.29417899208784 0 0 0 0 17.697720024005321 104.51321688147982 0 104.51321688147982 -256.80746318797173 0 0 0 0 20.440875586762559 23.356014157536265 0 23.356014157536265 -204.77767591161683 0 0 0 0 -22.143866132520998 53.643299190456673 0 53.643299190456673 -133.91688915138366 0 0 0 0 -0.93708346302707923 4.7365637324714385 0 4.7365637324714385 -3.5462405857066983 0 0 0 0 0.19722008536336944 17.009227920803824 0 17.009227920803824 15.084286645518659 0 0 0 0 57.296644237751025 19.300226560175361 0 19.300226560175361 -4.477883633786405 0 0 0 0 -0.51123252030319577 2.714728993135509 0 2.714728993135509 -0.48957529985788995 0 0 0 0 -4.3908385230051579 4.4756602602269737 0 4.4756602602269737 -1.8902930862623748 0 0 0 0 33.043827542733197 34.358915499367868 0 34.358915499367868 15.736721618959564 0 0 0 0 -3.0908469509614633 -0.88189288648780462 0 -0.88189288648780462 -0.85226418269184023 0 0 0 0 0.50241617477934142 6.0855105701076582 0 6.0855105701076582 -0.15693331378997399 0 0 0 0 -6.422445486048673 5.4675398263698298 0 5.4675398263698298 2.0588761830804287 0 0 0 0 -7.5247303006854054 7.354255442511203 0 7.354255442511203 0.00091932348004775122 0 0 0 0 -2.8045262739007057 0.37644546168084503 0 0.37644546168084503 2.030165729371987 0 0 0 0 125.48044876020504 22.257062817450787 0 22.257062817450787 -14.948969013697933 0 0 0 0 61.62218452550951 -30.094868208405387 0 -30.094868208405387 14.879276249935174 0 0 0 0 -0.96430232757859358 2.3720669519053956 0 2.3720669519053956 -1.8784974502832483 0 0 0 0 -384.82343577010033 80.915796511355438 0 80.915796511355438 -1.2202568431312102 0 0 0 0 -1.1279967227783345 5.1857113620517339 0 5.1857113620517339 0.0062697495013708249 0 0 0 0 -42.718436856179324 -65.442247240098368 0 -65.442247240098368 -31.137014780491882 0 0 0 0 -1.1289114465544117 5.1883306739036925 0 5.1883306739036925 -0.0012206189203425311 0 0 0 0 42.784997018519789 30.974704757871223 0 30.974704757871223 2.8242498747204081 0 0 0 0 51.577116293631661 -16.257961472751049 0 -16.257961472751049 -6.8405168326717103 0 0 0 0 217.54832211209578 -37.64555105024192 0 -37.64555105024192 -203.51540597846906 0 0 0 0 -482.19382083165692 -12.91454970909399 0 -12.91454970909399 121.77735746635153 0 0 0 0 -5.2815933790878091 4.2755832152051312 0 4.2755832152051312 1.0596532361069677 0 0 0 0 -81.833066438157402 -53.379662261198973 0 -53.379662261198973 45.483167420563404 0 0 0 0 -170.12006579917215 -97.489883371912583 0 -97.489883371912583 25.133064423636824 0 0 0 0 112.53955228264385 285.1758946234113 0 285.1758946234113 -152.61967101391201 0 0 0 0 0.57987609067092194 -0.54528981875002103 0 -0.54528981875002103 -5.1307605019020741 0 0 0 0 -284.06652144753207 98.957911340030478 0 98.957911340030478 14.139088644194999 0 0 0 0 308.06527248715429 -175.44134475141618 0 -175.44134475141618 -146.87542260595364 0 0 0 0 46.527334334881743 147.54614845809556 0 147.54614845809556 -95.957518092836835 0 0 0 0 -197.13293242341388 259.00613148159391 0 259.00613148159391 -79.299530062562553 0 0 0 0 108.47403094667243 -53.637237613365869 0 -53.637237613365869 -49.877729936932155 0 0 0 0 -18.877537543929066 -26.291279669225332 0 -26.291279669225332 -3.8076523560957867 0 0 0 0 223.261598269557 2.2847395684802905 0 2.2847395684802905 -77.508282737631816 0 0 0 0 233.21077603679441 -112.08096477827348 0 -112.08096477827348 -165.35170367678802 0 0 0 0 208.62353093677666 -128.45987259137837 0 -128.45987259137837 -73.072876176534919 0 0 0 0 133.95120444380154 -153.87126930747763 0 -153.87126930747763 -76.531407613467309 0 0 0 0 -163.2142230047175 230.28645689671976 0 230.28645689671976 -484.19025732693262 0 0 0 0 -14.039873037746702 -201.56376852375774 0 -201.56376852375774 140.08746998064453 0 0 0 0 275.44866744660976 -330.56736580956931 0 -330.56736580956931 -89.179969600780169 0 0 0 0 -263.37176890500632 -449.90500436125876 0 -449.90500436125876 687.94435889378656 0 0 0 0 -406.54458315453667 171.458308636109 0 171.458308636109 -164.12552444284665 0 0 0 0 -103.82474849465962 132.19510129770606 0 132.19510129770606 -86.425345940398984 0 0 0 0 -118.43793182568334 16.607419905922143 0 16.607419905922143 -12.409318127291044 0 0 0 0 -23.384453234903049 -12.19523992096947 0 -12.19523992096947 -5.1191832566983066 0 0 0 0 -21.932258673099568 77.732251364795957 0 77.732251364795957 -51.311368445531116 0 0 0 0 -72.660616283566924 62.536881849679048 0 62.536881849679048 -13.800068613869371 0 0 0 0 -15.739504346685862 68.562528970989661 0 68.562528970989661 -46.91914489697956 0 0 0 0 -11.501600472212886 44.295814046046871 0 44.295814046046871 -129.28557639205792 0 0 0 0 46.736576854891609 81.581400446673797 0 81.581400446673797 -121.14191139539435 0 0 0 0 -84.683998143475037 -10.658249316911679 0 -10.658249316911679 -116.85177690324781 0 0 0 0 -26.674458307825262 42.737138269345451 0 42.737138269345451 -67.736504296946805 0 0 0 0 -355.0392083984334 211.7416328110121 0 211.7416328110121 15.929887705471629 0 0 0 0 -102.63155210946206 -38.107776365108293 0 -38.107776365108293 236.92246244916896 0 0 0 0 22.640213427919662 22.194461533683352 0 22.194461533683352 -199.75608167203609 0 0 0 0 27.924234969985264 99.365540424376377 0 99.365540424376377 -137.92503886614577 0 0 0 0 251.37813897173328 44.879601854445355 0 44.879601854445355 -153.33123867606628 0 0 0 0 -166.25103528004547 306.52262165663706 0 306.52262165663706 -254.29065472146613 0 0 0 0 -619.91849903869297 600.0397278797609 0 600.0397278797609 -274.82234076437453 0 0 0 0 -404.28266775398515 605.44081095093861 0 605.44081095093861 -592.44084254840345 0 0 0 0 -3.9054688918497789 2.9704725235354204 0 2.9704725235354204 0.25636929005340292 0 0 0 0 -634.94569882613723 563.98897946938814 0 563.98897946938814 0.17006751886219718 0 0 0 0 -551.05125592333206 532.72308587926091 0 532.72308587926091 -208.91522984260519 0 0 0 0 -858.65916303410268 1021.1655631835529 0 1021.1655631835529 -416.81699951947667 0 0 0 0 -756.43045060028089 782.35980332169129 0 782.35980332169129 -0.67621554705585807 0 0 0 0 -703.55297295211858 722.70254300977467 0 722.70254300977467 -262.87842208074289 0 0 0 0 -610.89495127786358 746.43476305348304 0 746.43476305348304 -577.77048305368226 0 0 0 0 -557.39488778383384 824.36145976814987 0 824.36145976814987 -465.27674483283045 0 0 0 0 -398.97368138909951 790.83722641700297 0 790.83722641700297 -893.35658500538557 0 0 0 0 -428.63403551767988 765.78424151932995 0 765.78424151932995 -728.40312932351662 0 0 0 0 -205.94009046746942 588.13649350081687 0 588.13649350081687 -627.28663858528125 0 0 0 0 -464.51515435712281 515.49964108162749 0 515.49964108162749 -287.62013398289855 0 0 0 0 -94.325182871825064 175.83741329579652 0 175.83741329579652 -365.002406119238 0 0 0 0 -179.74162406110918 32.658883282896568 0 32.658883282896568 -45.03995017651323 0 0 0 0 166.16798500274308 84.368190316454275 0 84.368190316454275 -795.54438003873111 0 0 0 0 112.93355953695573 232.95252161077588 0 232.95252161077588 135.2673351446283 0 0 0 0 -97.765934899070999 -3.4300968890820513 0 -3.4300968890820513 164.09538564247487 0 0 0 0 11.320769070589449 128.32070467822632 0 128.32070467822632 123.46870787998614 0 0 0 0 -28.384475566184335 22.611532999850553 0 22.611532999850553 -17.350507907908224 0 0 0 0 25.645208390371408 166.97217720535264 0 166.97217720535264 5.1042491554762819 0 0 0 0 -45.913704652390152 5.9693065599021793 0 5.9693065599021793 -60.635622088506352 0 0 0 0 -118.554419853539 34.883747595275054 0 34.883747595275054 76.816628556349315 0 0 0 0 -25.309280556757585 32.339181530012866 0 32.339181530012866 -50.299201936407371 0 0 0 0 -47.389322447990708 25.249962651014357 0 25.249962651014357 26.092612374268356 0 0 0 0 -49.744322409751476 48.485556035360787 0 48.485556035360787 43.848893039539689 0 0 0 0 -31.039010765853163 39.391979001367872 0 39.391979001367872 40.183676419517724 0 0 0 0 -41.165950907728984 42.26566900711623 0 42.26566900711623 40.566301287821261 0 0 0 0 -38.896251294267131 45.607017001755594 0 45.607017001755594 35.422403414508153 0 0 0 0 -42.102407102808741 32.436582849462894 0 32.436582849462894 -24.915626125225401 0 0 0 0 -30.119278232479701 121.91352999823721 0 121.91352999823721 116.59056527163193 0 0 0 0 87.527318478591042 176.42540772719076 0 176.42540772719076 68.431191079675045 0 0 0 0 48.740691745091681 91.143509573871142 0 91.143509573871142 -38.122438303078525 0 0 0 0 47.247448317735689 100.34838047557423 0 100.34838047557423 -22.701234785745328 0 0 0 0 -44.684892336947087 40.811947528374731 0 40.811947528374731 54.523586983865243 0 0 0 0 -48.996095931746197 44.654796602921202 0 44.654796602921202 -32.538074697180576 0 0 0 0 -57.572408558742609 106.17530931228248 0 106.17530931228248 29.782974359077343 0 0 0 0 -15.602773982758229 13.874272745529815 0 13.874272745529815 3.9094442622816814 0 0 0 0 24.005398979774327 88.796223885252402 0 88.796223885252402 -24.983792644008645 0 0 0 0 -22.558235891441655 61.766134613474605 0 61.766134613474605 -24.115315974500845 0 0 0 0 60.981609869886597 90.783972225701291 0 90.783972225701291 -39.042456698371097 0 0 0 0 50.445242119392788 78.231706886472239 0 78.231706886472239 -51.046950835676398 0 0 0 0 71.662074426436448 55.16390034534561 0 55.16390034534561 -103.85805063739099 0 0 0 0 82.264651689212769 80.46727609327354 0 80.46727609327354 -69.671200756851249 0 0 0 0 65.712697618146194 60.129070699527801 0 60.129070699527801 -106.87304377887995 0 0 0 0 24.004304827765736 10.511270387389231 0 10.511270387389231 -157.44213828232023 0 0 0 0 -7.2833576178527437 210.73606194294916 0 210.73606194294916 -67.505858088523382 0 0 0 0 74.304571963220951 107.18668342423916 0 107.18668342423916 -172.13765395776772 0 0 0 0 36.404214494432381 125.16819360748923 0 125.16819360748923 -69.09192271878419 0 0 0 0 63.551588149353847 126.14399196686645 0 126.14399196686645 -40.636412091058446 0 0 0 0 106.81382446261705 115.19109980480789 0 115.19109980480789 -40.376086598567781 0 0 0 0 278.64030533652112 142.84011619263765 0 142.84011619263765 -725.25878396184271 0 0 0 0 277.96227913338498 354.48381361838574 0 354.48381361838574 -351.23303753189975 0 0 0 0 280.24477394779387 223.87004032878031 0 223.87004032878031 -345.74946289538411 0 0 0 0 79.16356227529468 255.57220988185873 0 255.57220988185873 -184.04199969945785 0 0 0 0 65.48638301443134 133.10547355181916 0 133.10547355181916 -374.16806862455269 0 0 0 0 27.37368398118997 167.04271842630988 0 167.04271842630988 -186.85497106927573 0 0 0 0 -0.91860101753263734 23.064826415804419 0 23.064826415804419 -144.1013090343331 0 0 0 0 -86.171296939472086 -65.458582768100314 0 -65.458582768100314 -223.56659059528101 0 0 0 0 -1.3895452384730049 1.4302119099672517 0 1.4302119099672517 -0.57223507319045552 0 0 0 0 1225.9756261533767 378.2493640518951 0 378.2493640518951 738.97118926153053 0 0 0 0 20.623335409458377 -260.00678400041943 0 -260.00678400041943 -696.56595659119284 0 0 0 0 577.09594788028335 979.80366623957525 0 979.80366623957525 411.69811077427585 0 0 0 0 -0.902120641010697 602.70573834352399 0 602.70573834352399 821.74467400583671 0 0 0 0 -126.19216482311458 269.76446481333551 0 269.76446481333551 116.28084733150899 0 0 0 0 -250.07860515795619 31.164503065145254 0 31.164503065145254 -345.35971821096609 0 0 0 0 -46.351622979535023 492.66350873617921 0 492.66350873617921 310.95716482268472 0 0 0 0 261.8848454781255 406.77430762957374 0 406.77430762957374 -477.51013713644352 0 0 0 0 290.36591061911895 228.54589026453323 0 228.54589026453323 -28.688133883813862 0 0 0 0 784.96255951441606 -78.055832793685511 0 -78.055832793685511 -197.14062058675336 0 0 0 0 -755.01336380894645 393.40002828696379 0 393.40002828696379 312.48653420289338 0 0 0 0 3.5045368000205457 4.9903184855438241 0 4.9903184855438241 -0.39119105577668734 0 0 0 0 29.054574303755771 31.359942339123933 0 31.359942339123933 -19.754820905558006 0 0 0 0 238.3865070879101 -187.66251846040041 0 -187.66251846040041 220.3993717758276 0 0 0 0 278.95891946737538 -27.133325630380568 0 -27.133325630380568 21.85843113291412 0 0 0 0 -3135.3445166538777 2690.6760677438115 0 2690.6760677438115 -1504.9844396588887 0 0 0 0 6.7775653027349989 8.99946734958354 0 8.99946734958354 0.86315611287022875 0 0 0 0 102.28535640278278 315.51837917669036 0 315.51837917669036 -155.77633981715189 0 0 0 0 204.35875395314361 318.9809613311445 0 318.9809613311445 -295.09496946907893 0 0 0 0 283.92929225807984 283.77702406222124 0 283.77702406222124 -454.09956320842321 0 0 0 0 204.2076325770031 316.51636595198943 0 316.51636595198943 -271.63814761377216 0 0 0 0 327.75257329261512 215.10490829254559 0 215.10490829254559 -273.08336977060753 0 0 0 0 113.38142142426295 230.98767643928659 0 230.98767643928659 65.994630050874548 0 0 0 0 997.15235480920092 152.77953123184852 0 152.77953123184852 -544.30924571902142 0 0 0 0 283.73974537153845 -13.049219356122194 0 -13.049219356122194 372.73703174740876 0 0 0 0 -2882.4647021109595 2057.4772662656524 0 2057.4772662656524 -249.80494200831163 0 0 0 0 20.170607885692604 22.589467236869041 0 22.589467236869041 -19.762275930962545 0 0 0 0 -3146.2019248770375 1326.6405970565393 0 1326.6405970565393 -1884.9410784778884 0 0 0 0 -2885.6504630471463 1996.0081701652307 0 1996.0081701652307 -808.90922146450612 0 0 0 0 -3174.2588909988626 1423.6998395270566 0 1423.6998395270566 375.17636863075313 0 0 0 0 -3216.8208272974298 1179.0485542484967 0 1179.0485542484967 -735.84301519864221 0 0 0 0 -2803.280958127536 1106.1668059713556 0 1106.1668059713556 -496.69382594196941 0 0 0 0 -2880.3106765166449 1827.1051310175972 0 1827.1051310175972 -1099.0684329918586 0 0 0 0 -1782.5758140055405 590.46709476543765 0 590.46709476543765 -270.48033712441975 0 0 0 0 4.767714264761679 4.4374955275194452 0 4.4374955275194452 0.75022113313286809 0 0 0 0 -4220.4452355609983 2937.672032177968 0 2937.672032177968 -897.01200226234505 0 0 0 0 5.4616247594766776 8.9556352006292457 0 8.9556352006292457 -8.2210718003240686 0 0 0 0 2630.9965642765455 763.54246650674759 0 763.54246650674759 -1579.3831576526864 0 0 0 0 2331.3630391378683 -80.216726076418126 0 -80.216726076418126 -644.14442316659552 0 0 0 0 -312.67318326808891 -346.2291292640366 0 -346.2291292640366 819.14099098088263 0 0 0 0 -4197.3565116341197 1556.4352614701929 0 1556.4352614701929 -125.33790769442567 0 0 0 0 2275.9078607306292 1120.6673406096161 0 1120.6673406096161 -906.11732102022506 0 0 0 0 956.04246288954528 442.25003470398042 0 442.25003470398042 -177.84723416453926 0 0 0 0 766.8784525062656 1085.6567298210575 0 1085.6567298210575 -286.67419112469361 0 0 0 0 586.20436644286383 393.60558652597683 0 393.60558652597683 82.597579959576251 0 0 0 0 -170.5177394143102 655.20581049831526 0 655.20581049831526 136.31360946927452 0 0 0 0 849.73389031046827 584.00446795336029 0 584.00446795336029 -186.0502457184275 0 0 0 0 1207.2254793124157 -378.10968351836345 0 -378.10968351836345 206.53082707556314 0 0 0 0 190.78422013707313 485.63216608489165 0 485.63216608489165 188.30478796006355 0 0 0 0 31.19051490991842 298.8472618177766 0 298.8472618177766 47.870454162748501 0 0 0 0 95.558146077906713 345.67406773967377 0 345.67406773967377 53.359823747596238 0 0 0 0 573.42949144571321 218.75105596383219 0 218.75105596383219 -109.70900628712843 0 0 0 0 279.33638223973685 317.91518170025665 0 317.91518170025665 -96.618449360976228 0 0 0 0 -7.3668188182491576 332.42676371377456 0 332.42676371377456 179.77780762768816 0 0 0 0 -10.763487652860931 230.40216802708164 0 230.40216802708164 83.406431321127457 0 0 0 0 -1371.076476368471 815.00894349103328 0 815.00894349103328 145.15895221861138 0 0 0 0 -460.47433877516596 304.00851815225178 0 304.00851815225178 270.5017911594332 0 0 0 0 -949.08895574093913 -10.558376717803185 0 -10.558376717803185 174.31655899469479 0 0 0 0 -123.67109598789648 443.77131376939724 0 443.77131376939724 230.29513272913755 0 0 0 0 -10.769624116817198 8.3818072749867909 0 8.3818072749867909 -7.0034572760222886 0 0 0 0 -14.17398002027403 591.38287411836063 0 591.38287411836063 -1428.2682122062688 0 0 0 0 -982.06163909121824 1051.5149048320454 0 1051.5149048320454 -947.33894560580666 0 0 0 0 938.08197317644954 1870.8886773347404 0 1870.8886773347404 -675.0507380052004 0 0 0 0 147.25422163214535 850.26793078762421 0 850.26793078762421 -217.00257722114111 0 0 0 0 -339.35438383692235 1599.2682119778401 0 1599.2682119778401 -1176.3111725072959 0 0 0 0 351.99340550730994 554.50030393445923 0 554.50030393445923 -2034.2148671628747 0 0 0 0 68.827863530998002 773.02561282034731 0 773.02561282034731 -784.05009163221166 0 0 0 0 768.12100368522806 1422.5966121997481 0 1422.5966121997481 -1104.4951922115579 0 0 0 0 -132.73788343527121 786.71636395975656 0 786.71636395975656 -1552.0911968698783 0 0 0 0 -465.90431060414994 1111.1088969213306 0 1111.1088969213306 -1562.4507175540784 0 0 0 0 -415.3896604145757 1010.7379576427875 0 1010.7379576427875 -1442.2870898017864 0 0 0 0 -475.39516892538813 811.4806264036979 0 811.4806264036979 -978.19811661425047 0 0 0 0 -1204.3879290247351 283.42035055326414 0 283.42035055326414 -1341.7780769142701 0 0 0 0 -803.51389312827814 884.18706170911537 0 884.18706170911537 -961.48619064399099 0 0 0 0 -789.27262146750581 1041.0314400544339 0 1041.0314400544339 -666.87093743497462 0 0 0 0 -805.63103489272908 1222.1503568589687 0 1222.1503568589687 -1020.5958336394688 0 0 0 0 -787.45663251224323 1056.8596164982628 0 1056.8596164982628 -652.75030087945197 0 0 0 0 -983.21134258424718 1354.638502882357 0 1354.638502882357 -643.63140856292739 0 0 0 0 -936.4732363167459 1098.5474464445433 0 1098.5474464445433 0.94254845785326324 0 0 0 0 -1.2967563522784928 5.9366895097990096 0 5.9366895097990096 0.81536402739328651 0 0 0 0 -811.52356953207345 1633.4050056831475 0 1633.4050056831475 -1696.9415277664957 0 0 0 0 -541.76519161724718 1366.7503958311718 0 1366.7503958311718 -2571.3000902764761 0 0 0 0 -795.58474971980468 1752.7655025037384 0 1752.7655025037384 -1080.1454593938688 0 0 0 0 -1022.2276660007701 1502.9775368518203 0 1502.9775368518203 -5.3175599558454865 0 0 0 0 -1041.3356518695509 1219.4754858241504 0 1219.4754858241504 -919.40556095152715 0 0 0 0 -824.58038841779489 1106.60601421717 0 1106.60601421717 -1158.576781017 0 0 0 0 -1076.7132951032254 1012.8949957747973 0 1012.8949957747973 -1156.4449162978126 0 0 0 0 -1000.8383648213821 1164.4598725881024 0 1164.4598725881024 -1298.2371328529989 0 0 0 0 -980.38436850259313 1109.3616454586736 0 1109.3616454586736 -1394.1753995124309 0 0 0 0 -1005.402458563578 1169.1386938104843 0 1169.1386938104843 -1517.6555334509321 0 0 0 0 -1061.516830681674 1000.4534109602664 0 1000.4534109602664 -1337.9729995653615 0 0 0 0 -1151.106409745611 887.44157050356444 0 887.44157050356444 -1212.9788013019279 0 0 0 0 -974.12308813798882 892.42751374116779 0 892.42751374116779 -1262.4663222559757 0 0 0 0 -1159.0642166886246 967.10836198547622 0 967.10836198547622 -1179.8686626128328 0 0 0 0 -1158.3880112810293 971.15994414387387 0 971.15994414387387 -1186.2500071687828 0 0 0 0 -1254.2319726444548 985.03029216935829 0 985.03029216935829 -1264.1791761327913 0 0 0 0 -1293.4134279845603 941.63308419007808 0 941.63308419007808 -1188.7240653066474 0 0 0 0 -1062.2644064358756 722.18886407761602 0 722.18886407761602 -1179.3801062644634 0 0 0 0 -1307.1262282802491 869.14095793235174 0 869.14095793235174 -1166.5295544371766 0 0 0 0 -1006.7462466911209 831.96960625261249 0 831.96960625261249 -1200.7637862106785 0 0 0 0 -1057.1995383753419 1242.3002343903881 0 1242.3002343903881 -1205.338045743003 0 0 0 0 -1379.9002302431982 1273.469516453275 0 1273.469516453275 -1206.8686000816087 0 0 0 0 -1036.328436684882 1216.051628479705 0 1216.051628479705 -1340.2727722652198 0 0 0 0 -662.1767402280675 1527.7726564145742 0 1527.7726564145742 -1807.8479053553601 0 0 0 0 -734.56006693713425 1927.387719686245 0 1927.387719686245 -2650.8837742436444 0 0 0 0 -12.194455738335819 1203.7482509672791 0 1203.7482509672791 -1936.2789471527503 0 0 0 0 -1893.7976602018171 1610.380154659535 0 1610.380154659535 -1491.9103704572335 0 0 0 0 -1604.8108688244829 1209.1204244600158 0 1209.1204244600158 -1476.3171995340381 0 0 0 0 -2437.1693500429974 2909.9306479735678 0 2909.9306479735678 -2290.6417006356351 0 0 0 0 -2861.3115664278885 1785.9819970518147 0 1785.9819970518147 -1093.719200215477 0 0 0 0 -1275.0530421504955 828.68879355343233 0 828.68879355343233 -1238.645925987701 0 0 0 0 -1214.6880580765501 900.24620972388948 0 900.24620972388948 -1218.9188399229024 0 0 0 0 -1812.2771933949552 1050.4765406536753 0 1050.4765406536753 -1177.1747176786375 0 0 0 0 -1999.497735943889 1073.4035083953877 0 1073.4035083953877 -1082.159545519884 0 0 0 0 -2263.1633966747904 1727.7479127806146 0 1727.7479127806146 -1582.7196886786114 0 0 0 0 -1893.9462082072132 1391.1443951646943 0 1391.1443951646943 -1373.0546329161152 0 0 0 0 -2568.230655613821 1482.593609841002 0 1482.593609841002 -922.20012563656201 0 0 0 0 -1501.3229735651112 988.31617392843327 0 988.31617392843327 -1151.9156803252117 0 0 0 0 -1404.7444720397725 699.71315397602302 0 699.71315397602302 -770.69092956717941 0 0 0 0 -566.20807581067493 457.45056248917535 0 457.45056248917535 -1.6424742118088034 0 0 0 0 -900.00589070183923 866.93573679920519 0 866.93573679920519 -1167.2378457456343 0 0 0 0 291.00652191521658 839.10153944880585 0 839.10153944880585 -1305.624166202118 0 0 0 0 -436.14540344233683 769.94525237652124 0 769.94525237652124 -1298.6134603327255 0 0 0 0 -533.15693453159474 879.60936121393024 0 879.60936121393024 -1292.3549399188341 0 0 0 0 -897.59444696301944 636.17616712312156 0 636.17616712312156 -1114.4352410730062 0 0 0 0 219.40910139567859 1069.826954987715 0 1069.826954987715 -1339.3887524130259 0 0 0 0 219.35124117851166 1293.9509827660388 0 1293.9509827660388 -1742.3759705421689 0 0 0 0 162.30797831807286 1163.0192911920822 0 1163.0192911920822 -1145.1474209335211 0 0 0 0 -63.350408391455858 992.78048011057581 0 992.78048011057581 -1367.4456741057802 0 0 0 0 -126.96938744980434 1166.6482392858816 0 1166.6482392858816 -1357.8933435015933 0 0 0 0 -101.59385429879694 1191.1165005515286 0 1191.1165005515286 -1334.6194299307826 0 0 0 0 -88.008054016439928 1327.9539567099118 0 1327.9539567099118 -1155.5158556839451 0 0 0 0 -315.38305322133237 1130.0445914547017 0 1130.0445914547017 -1189.0336013085325 0 0 0 0 -488.58730662851303 914.79309400209604 0 914.79309400209604 -1332.9340931867628 0 0 0 0 -279.87530498759588 1065.6429551964684 0 1065.6429551964684 -1299.4374981250439 0 0 0 0 -561.98399191664066 1024.8682423377031 0 1024.8682423377031 -1297.9338119627209 0 0 0 0 -439.26630245154956 949.39963376370724 0 949.39963376370724 -1288.0767624140135 0 0 0 0 -366.95740772620047 1088.7555701209494 0 1088.7555701209494 -1183.7245233709109 0 0 0 0 -279.84327683862648 1082.8197413389134 0 1082.8197413389134 -1250.4917822095304 0 0 0 0 -341.51891311476356 904.50005549310299 0 904.50005549310299 -1255.690309406913 0 0 0 0 -259.57216403688653 927.96136985311023 0 927.96136985311023 -1058.5443108775653 0 0 0 0 -259.07745617702312 1194.9538558295208 0 1194.9538558295208 -974.23094775853679 0 0 0 0 -811.32439675064234 833.3200851118745 0 833.3200851118745 -1284.0506377298152 0 0 0 0 -530.09854240128334 953.76645757601 0 953.76645757601 -1308.0317272235116 0 0 0 0 -769.81148410153401 770.35286282388552 0 770.35286282388552 -1257.0250459635317 0 0 0 0 -791.57661870581796 916.71329714618332 0 916.71329714618332 -1331.6084646149538 0 0 0 0 -603.86520239471065 849.78356706680461 0 849.78356706680461 -1332.5217582518817 0 0 0 0 -1006.5897431984487 850.8297597804451 0 850.8297597804451 -1246.1092607842584 0 0 0 0 -920.98604362246988 826.03352856643323 0 826.03352856643323 -1262.1969173596044 0 0 0 0 -787.9397324994643 921.07149534249766 0 921.07149534249766 -1419.4644225111697 0 0 0 0 -871.03899157381966 966.16594857178279 0 966.16594857178279 -1422.9226655754755 0 0 0 0 -417.10423999140039 1188.6386702850577 0 1188.6386702850577 -2378.7972897432992 0 0 0 0 -831.41543168138014 916.35956451614766 0 916.35956451614766 -117.11888172817089 0 0 0 0 -892.44428170560423 1023.959264693287 0 1023.959264693287 -1568.9135302502837 0 0 0 0 -771.23430330588599 874.67720895730599 0 874.67720895730599 -1439.8955420422717 0 0 0 0 -819.91861018785858 1173.7447707949177 0 1173.7447707949177 -1706.4080874758365 0 0 0 0 -705.83147978986381 977.65251674418687 0 977.65251674418687 -1676.3815387558279 0 0 0 0 -814.68508906831994 1168.2355986857037 0 1168.2355986857037 -1764.4708555191173 0 0 0 0 -508.09573299746262 1063.1578571518185 0 1063.1578571518185 -2144.3616053853475 0 0 0 0 -648.3968802850577 1125.8033928388031 0 1125.8033928388031 -1993.1716163818855 0 0 0 0 -616.74676443097997 1050.4930393544491 0 1050.4930393544491 -1861.985663295316 0 0 0 0 -682.45671118877362 1027.0550312420819 0 1027.0550312420819 -1869.2947614045843 0 0 0 0 -558.59002199173847 929.4205939713429 0 929.4205939713429 -1856.9784536639054 0 0 0 0 -608.94472240054165 863.48466597791412 0 863.48466597791412 -1676.4945011590316 0 0 0 0 -769.56625490135048 971.04123550848453 0 971.04123550848453 -1578.0954477451887 0 0 0 0 -616.52364447994114 825.96420568593567 0 825.96420568593567 -1452.2181076202833 0 0 0 0 76.496268178503669 46.623847029775789 0 46.623847029775789 22.930086948297685 0 0 0 0 -468.33372755977325 850.25147057508002 0 850.25147057508002 -1381.5603188072564 0 0 0 0 -593.20081785673756 959.37964192311847 0 959.37964192311847 -1476.373255468061 0 0 0 0 -466.67987061187569 952.25136196166181 0 952.25136196166181 -1239.6793549706927 0 0 0 0 -418.06453270447673 738.55009167874232 0 738.55009167874232 -1332.5693989280262 0 0 0 0 -409.46383193109068 769.6855391303834 0 769.6855391303834 -1753.7688534152112 0 0 0 0 -496.6588977764477 737.01653816257021 0 737.01653816257021 -1549.5508611271871 0 0 0 0 -295.70691020361846 995.65794908741373 0 995.65794908741373 -1179.5411848794902 0 0 0 0 -317.2169708328438 814.10228298943548 0 814.10228298943548 -1440.482517371056 0 0 0 0 -313.58411381652695 779.98754248674959 0 779.98754248674959 -1120.1980498346311 0 0 0 0 -228.43217914440902 748.87954706465825 0 748.87954706465825 -1244.977952048037 0 0 0 0 -265.53693505120464 448.92223524992733 0 448.92223524992733 -1186.7173022038769 0 0 0 0 -226.83704093971755 403.90789683946059 0 403.90789683946059 -1742.6373269786127 0 0 0 0 -207.21447018685285 793.75204879080411 0 793.75204879080411 -2408.9043030995563 0 0 0 0 -401.33346580667421 756.75389425872709 0 756.75389425872709 -1943.4609998056549 0 0 0 0 -356.694473903568 770.01647404763207 0 770.01647404763207 -2119.0135729612666 0 0 0 0 -326.78591306495946 571.50922441441799 0 571.50922441441799 -1729.1059808757564 0 0 0 0 -217.32274923485238 457.97499161807355 0 457.97499161807355 -2101.1984040904208 0 0 0 0 -160.03972120955586 514.32877002272289 0 514.32877002272289 -2230.1511893075949 0 0 0 0 26.236688110067917 80.559603207744658 0 80.559603207744658 13.497675869810337 0 0 0 0 -553.06486867461354 484.47477975138463 0 484.47477975138463 646.71789450167853 0 0 0 0 -1.3292113218640225 5.5198891076098278 0 5.5198891076098278 1.5354158516607299 0 0 0 0 -1.2867160418118431 8.0453906198457332 0 8.0453906198457332 4.4149298618931709 0 0 0 0 -841.4757095775567 1334.6630403983872 0 1334.6630403983872 -1583.6926876529469 0 0 0 0 -435.17982399387984 465.03324006072944 0 465.03324006072944 -1124.583225475566 0 0 0 0 -801.78951056450023 1342.1837119831034 0 1342.1837119831034 -1960.223126662273 0 0 0 0 -684.42359314805071 1941.8307967011642 0 1941.8307967011642 -980.57914535062446 0 0 0 0 -185.88170793853351 569.77518564619822 0 569.77518564619822 -1055.0572647778463 0 0 0 0 -1091.937608998036 -816.87577737914398 0 -816.87577737914398 -543.81395844911458 0 0 0 0 -1.1317355293994922 10.171142676453115 0 10.171142676453115 4.2272982676729782 0 0 0 0 -1.4441585355060909 4.4586075258595201 0 4.4586075258595201 1.7663444152241965 0 0 0 0 -23.300452418974601 645.84245153998199 0 645.84245153998199 -1056.687917068266 0 0 0 0 -191.1570469008293 718.62374931003433 0 718.62374931003433 -972.72796212538378 0 0 0 0 -218.00522098080546 696.00385995565011 0 696.00385995565011 -977.60154004744254 0 0 0 0 -133.1462937660981 733.13275899880682 0 733.13275899880682 -994.30462498829002 0 0 0 0 -124.44047387754108 686.67096410965678 0 686.67096410965678 -750.50290582777234 0 0 0 0 -198.04461562610231 786.3467948283942 0 786.3467948283942 -803.30753204450593 0 0 0 0 -171.46207727945875 705.55767847542302 0 705.55767847542302 -1005.2904801809054 0 0 0 0 -237.91500776310568 982.86151857596997 0 982.86151857596997 -923.9428640532351 0 0 0 0 89.604576808851562 378.48911126054008 0 378.48911126054008 -571.95034426421626 0 0 0 0 45.135730687645264 546.44305899235769 0 546.44305899235769 -1000.0774118758709 0 0 0 0 -186.39297674967747 681.57941240778564 0 681.57941240778564 -90.219868572894484 0 0 0 0 -356.74532122974051 299.43049690382031 0 299.43049690382031 1362.2228273726287 0 0 0 0 2.7429459238992422 1998.0830434879681 0 1998.0830434879681 -2499.8148883754984 0 0 0 0 838.86719842672755 2319.7531169213762 0 2319.7531169213762 -2376.7890660950761 0 0 0 0 -0.77214355782015787 6.4969163531425522 0 6.4969163531425522 1.4996602008185818 0 0 0 0 0.54273039833060466 1881.3262377415558 0 1881.3262377415558 -363.49558618972515 0 0 0 0 -305.02007819799474 1506.4464416417468 0 1506.4464416417468 935.82539350587467 0 0 0 0 32.583244599343743 1301.1182536996785 0 1301.1182536996785 -645.01941203327442 0 0 0 0 299.26096663741919 1476.1961080908732 0 1476.1961080908732 -1283.3818764554599 0 0 0 0 -107.61654296398046 1540.4896168287523 0 1540.4896168287523 -528.10029249273066 0 0 0 0 -125.30899041140219 1193.6827232768264 0 1193.6827232768264 -873.83869796020736 0 0 0 0 -239.80993642139947 935.03946470235678 0 935.03946470235678 -564.83313773709233 0 0 0 0 -150.83625225625292 1296.6792378417376 0 1296.6792378417376 -159.25392199942144 0 0 0 0 5.3887891352060251 1525.2500551855919 0 1525.2500551855919 -1208.8544292009174 0 0 0 0 -139.67177945183357 1274.2028968193845 0 1274.2028968193845 -1197.7253445976239 0 0 0 0 -121.8324141381745 1364.7000754733599 0 1364.7000754733599 -739.35161960312689 0 0 0 0 60.217615276720608 1472.3137330193931 0 1472.3137330193931 -1417.2790138968849 0 0 0 0 68.998968994186725 1515.6568645015523 0 1515.6568645015523 -1222.5223677610629 0 0 0 0 85.241332972553209 1797.8883613274083 0 1797.8883613274083 -1765.7522450081597 0 0 0 0 -0.56909844207257265 1923.7800708912982 0 1923.7800708912982 -2440.2999322997784 0 0 0 0 -156.6015441249765 1408.0606920005885 0 1408.0606920005885 -1287.6110255216922 0 0 0 0 731.34254770562256 945.15886212264741 0 945.15886212264741 -4224.9607333849926 0 0 0 0 -6.8628753699619551 7.6341867057021915 0 7.6341867057021915 -5.9321697111228033 0 0 0 0 361.50205138607271 285.07594374147811 0 285.07594374147811 -408.23729569563875 0 0 0 0 -0.27844349404767854 657.40769546917363 0 657.40769546917363 703.27654584923039 0 0 0 0 304.7434525425997 682.08300132371369 0 682.08300132371369 -1225.4436282608294 0 0 0 0 308.0034883346234 644.93347714494303 0 644.93347714494303 -2510.9095432450013 0 0 0 0 17.254027973802295 744.26231526567426 0 744.26231526567426 -586.63217617447663 0 0 0 0 516.48302618862363 1332.3268051926207 0 1332.3268051926207 -241.06237890918055 0 0 0 0 -1088.0181663411495 627.13227106814884 0 627.13227106814884 -548.25141075185093 0 0 0 0 489.83297771870275 -149.28460102343524 0 -149.28460102343524 -209.85729270092997 0 0 0 0 -1234.0236977619643 919.15552292773646 0 919.15552292773646 -852.25895599557407 0 0 0 0 -395.03344637710688 335.04957273079344 0 335.04957273079344 -877.12663762949524 0 0 0 0 -12.12877434854812 8.5210816542391541 0 8.5210816542391541 -3.6534815082172756 0 0 0 0 -598.85705026681535 1557.8266960661422 0 1557.8266960661422 -3278.9444984578877 0 0 0 0 -2355.1835158776885 941.42689778112617 0 941.42689778112617 2107.7529747642329 0 0 0 0 468.12751807407767 60.871504160983022 0 60.871504160983022 -1187.2195085188723 0 0 0 0 -18.735195126672863 16.901669222821269 0 16.901669222821269 -7.4065087887625864 0 0 0 0 -170.00000624115637 681.05523185250786 0 681.05523185250786 363.38946467837013 0 0 0 0 300.87060042853409 771.36685628735722 0 771.36685628735722 -1046.4912051498759 0 0 0 0 -677.16806823945808 1395.0430036981779 0 1395.0430036981779 -1321.8482957404267 0 0 0 0 -1376.3290769140149 1310.83044908187 0 1310.83044908187 -715.04549983552715 0 0 0 0 -1395.6849870953156 1356.6139700710846 0 1356.6139700710846 -595.42444337780034 0 0 0 0 -1747.160751575655 1356.6689959502291 0 1356.6689959502291 -511.49087760128896 0 0 0 0 -1739.6206602577472 1036.2066964677688 0 1036.2066964677688 -414.01518405808019 0 0 0 0 -1168.2456750370038 1251.3549457747067 0 1251.3549457747067 -704.24333901486898 0 0 0 0 -1379.5538976967509 785.36347916942395 0 785.36347916942395 -571.82668063754681 0 0 0 0 -185.20995914163359 946.23057663028885 0 946.23057663028885 -861.23067671860554 0 0 0 0 -656.88696337120382 1050.3835973056957 0 1050.3835973056957 -840.2925385141134 0 0 0 0 -689.17333102654084 904.34055947726665 0 904.34055947726665 -789.17223979320261 0 0 0 0 -87.249028544625617 507.50742413146691 0 507.50742413146691 -341.7608659867401 0 0 0 0 0.51094668215228012 785.14686287558106 0 785.14686287558106 -693.69284063929445 0 0 0 0 -21.799406741010898 163.23924361229001 0 163.23924361229001 -702.76989412108014 0 0 0 0 -0.35276987984174468 -1.3927074580908823 0 -1.3927074580908823 -2.6887909518139992 0 0 0 0 -123.1127320160831 -27.270165756955976 0 -27.270165756955976 399.91068223666662 0 0 0 0 80.516604475855274 -42.588242289115442 0 -42.588242289115442 19.791557430748071 0 0 0 0 -3.7673116811151672 32.396911096220748 0 32.396911096220748 75.005736405619729 0 0 0 0 -150.60647269639662 384.61539092111457 0 384.61539092111457 5.8433637748203182 0 0 0 0 -63.916108766978141 171.17356233822647 0 171.17356233822647 82.359955105521294 0 0 0 0 -94.804199138965487 146.38550789285 0 146.38550789285 145.61077325402221 0 0 0 0 -64.344942489148636 50.704420673849661 0 50.704420673849661 -8.3060878093165229 0 0 0 0 -69.793335838305211 154.46262727041176 0 154.46262727041176 -78.196184145601364 0 0 0 0 -48.57445749434919 116.9028389828818 0 116.9028389828818 -17.77948416617437 0 0 0 0 -13.320368890754253 133.40017527131204 0 133.40017527131204 -59.715940811234759 0 0 0 0 -21.248849481433354 85.269384018367418 0 85.269384018367418 -57.552714570774697 0 0 0 0 7.9538792827206635 66.350923174439231 0 66.350923174439231 -57.789707538729999 0 0 0 0 -28.625770905127865 58.901597972173477 0 58.901597972173477 -144.21812324868733 0 0 0 0 -143.10708980152231 66.607905741875584 0 66.607905741875584 -74.194426819361979 0 0 0 0 -41.193007828308055 72.478059664306784 0 72.478059664306784 -130.96493150391325 0 0 0 0 -10.714141831767847 1.7476367290873895 0 1.7476367290873895 -41.323111482386594 0 0 0 0 28.813385038587512 8.8678738436137792 0 8.8678738436137792 -53.440490079308802 0 0 0 0 16.722045597547549 67.521049690403743 0 67.521049690403743 -84.79804388674529 0 0 0 0 95.956475723518452 100.22264348942554 0 100.22264348942554 -135.58727660722798 0 0 0 0 9.958073789351289 4.9031852180517888 0 4.9031852180517888 2.8015080737352509 0 0 0 0 89.320782247574243 60.010660449290299 0 60.010660449290299 36.066934343787125 0 0 0 0 -61.465834547696431 198.99251907060898 0 198.99251907060898 562.7238053212568 0 0 0 0 4.5126486939973063 0.81912367745053416 0 0.81912367745053416 0.21779203136690661 0 0 0 0 -47.986153145280696 13.470420881716564 0 13.470420881716564 837.09326600244822 0 0 0 0 -28.154281519025062 274.07666899011747 0 274.07666899011747 -474.07818529641372 0 0 0 0 -217.36983415259601 207.4688959200721 0 207.4688959200721 -271.72060334010166 0 0 0 0 -277.08494215428072 125.78910942631774 0 125.78910942631774 -239.15534717105766 0 0 0 0 -11.225745492072747 316.48867333007365 0 316.48867333007365 -236.37458295892429 0 0 0 0 1.0633160439494134 -0.31988764613299736 0 -0.31988764613299736 0.39255013337118427 0 0 0 0 -81.238404637766507 -18.662035831082903 0 -18.662035831082903 816.20762317335902 0 0 0 0 4.2237611935779569 75.715042567484488 0 75.715042567484488 146.39232934891334 0 0 0 0 -82.988504871027544 173.78900410845381 0 173.78900410845381 247.10641083278824 0 0 0 0 35.341443973244168 243.5000529666795 0 243.5000529666795 143.03103271129658 0 0 0 0 110.27999286361955 147.57845525329321 0 147.57845525329321 23.360393289007334 0 0 0 0 66.227788015234182 32.102332095291786 0 32.102332095291786 -150.18679788876034 0 0 0 0 2.1732197510979248 2.5224424981450824 0 2.5224424981450824 3.450771809834464 0 0 0 0 -32.264253206731922 46.779945239614463 0 46.779945239614463 44.311089921355823 0 0 0 0 -579.36362043782628 466.01333048870947 0 466.01333048870947 335.36437153007137 0 0 0 0 218.13480505015468 252.96109340518888 0 252.96109340518888 -632.95618049355835 0 0 0 0 387.41988850583402 -400.27080806574668 0 -400.27080806574668 -284.03176491848717 0 0 0 0 -6.1873376498471657 1.8718964745243625 0 1.8718964745243625 11.650327558106483 0 0 0 0 -174.84963462324959 217.08841017754457 0 217.08841017754457 235.01634884295345 0 0 0 0 -62.840804965147981 298.95725747810502 0 298.95725747810502 114.50202155108127 0 0 0 0 1.6768481456627686 48.495018604179776 0 48.495018604179776 -40.050071927311166 0 0 0 0 3.9141557023337512 23.357288713004351 0 23.357288713004351 12.308598161168447 0 0 0 0 -47.529953623863548 70.667439845685294 0 70.667439845685294 -37.259376707392619 0 0 0 0 -34.052778012339331 86.937741872716288 0 86.937741872716288 -48.474456975736757 0 0 0 0 -44.431725935288341 59.215366572818311 0 59.215366572818311 -41.621658586867852 0 0 0 0 -3.129613982848241 51.703189403386205 0 51.703189403386205 -37.49717184363999 0 0 0 0 -23.491951210795015 52.753184907770788 0 52.753184907770788 -20.301857622775287 0 0 0 0 -7.9555611845715575 44.396301356077373 0 44.396301356077373 -41.193668261679164 0 0 0 0 -54.779474792750989 52.374620110676915 0 52.374620110676915 -38.384561205173668 0 0 0 0 -207.38444162051019 -67.120000537004671 0 -67.120000537004671 64.833727482255199 0 0 0 0 -48.823384273280681 88.018178577287472 0 88.018178577287472 -55.222525045464863 0 0 0 0 15.009643877105503 19.452470537926132 0 19.452470537926132 4.3512504407847814 0 0 0 0 -48.259287882254284 105.25373902571664 0 105.25373902571664 -73.853533471195988 0 0 0 0 -42.823451048825518 103.73783888816615 0 103.73783888816615 -97.141095081620733 0 0 0 0 -41.164721152916172 106.91677520627672 0 106.91677520627672 -127.21939085700433 0 0 0 0 31.840101361671259 79.387200998815388 0 79.387200998815388 -53.054950753783487 0 0 0 0 -101.19917854271625 111.19015858804778 0 111.19015858804778 -122.21906558815317 0 0 0 0 -36.694018578265968 73.978706829468138 0 73.978706829468138 -12.855132576514734 0 0 0 0 -44.409808615056789 55.728218713705047 0 55.728218713705047 16.154443692331498 0 0 0 0 19.01582870175832 50.068697966866111 0 50.068697966866111 -72.982704559963949 0 0 0 0 -51.611578145617386 114.16268051162479 0 114.16268051162479 -174.39038308938325 0 0 0 0 -187.6171907777898 124.41123010704177 0 124.41123010704177 -27.531703897664556 0 0 0 0 6.9383356713100142 6.4154383168357469 0 6.4154383168357469 -7.9376363267895371 0 0 0 0 9.2761775202875469 92.443679599608004 0 92.443679599608004 -36.590884021345119 0 0 0 0 -35.185563629530989 71.709952328054726 0 71.709952328054726 -41.698518287808895 0 0 0 0 -18.754310170112063 63.767661932544883 0 63.767661932544883 -45.527658331451178 0 0 0 0 -92.639824201940428 109.45392644628828 0 109.45392644628828 -60.935835522017442 0 0 0 0 -94.363694993681747 113.10916692339288 0 113.10916692339288 -62.251450424744689 0 0 0 0 -52.409775377624101 124.57942320709662 0 124.57942320709662 -70.511629413849732 0 0 0 0 -45.306312322049052 96.459503782221873 0 96.459503782221873 -85.78156173042953 0 0 0 0 -0.78751336899249935 16.67009043467592 0 16.67009043467592 4.0690586706930247 0 0 0 0 -36.911065905293071 118.23726348366381 0 118.23726348366381 -87.751836010458646 0 0 0 0 -158.31747263587749 124.3134850628594 0 124.3134850628594 -37.253203272372048 0 0 0 0 4.2137015143456225 5.0467644046424596 0 5.0467644046424596 7.3557878282993698 0 0 0 0 -100.38699954482581 106.7935821608462 0 106.7935821608462 -23.822959496777912 0 0 0 0 -102.2236818667152 97.662423762503749 0 97.662423762503749 -62.212713286540875 0 0 0 0 -81.360112310838304 70.100814175901178 0 70.100814175901178 182.89164972857907 0 0 0 0 -52.947174857101345 231.93587682917769 0 231.93587682917769 -115.59432278519307 0 0 0 0 -0.87530163646674453 45.336926880141945 0 45.336926880141945 67.802996523854858 0 0 0 0 -71.197920739090478 113.58921789314081 0 113.58921789314081 -73.660268943665869 0 0 0 0 -20.602437364944308 160.29320395149261 0 160.29320395149261 -22.139686478170916 0 0 0 0 111.56384639940006 28.509535832497932 0 28.509535832497932 -84.520692132688509 0 0 0 0 -92.720578482349083 64.539782118368748 0 64.539782118368748 -147.94359746026475 0 0 0 0 -135.67157442384632 275.7023341287877 0 275.7023341287877 221.49754862586633 0 0 0 0 475.91497086625168 135.29010940181251 0 135.29010940181251 -48.013491233844434 0 0 0 0 -175.90438598392211 184.4067886266439 0 184.4067886266439 211.12567924018003 0 0 0 0 1.6319201821272529 2.0677892995350931 0 2.0677892995350931 2.1236873627963888 0 0 0 0 96.367248152571847 302.44435879613593 0 302.44435879613593 93.193920783754947 0 0 0 0 9.3632997211043403 -14.44576046369184 0 -14.44576046369184 93.460935720806447 0 0 0 0 -87.241340229092884 67.626117997050756 0 67.626117997050756 -18.201887635103049 0 0 0 0 -122.9700515754821 68.970623159340903 0 68.970623159340903 31.8086162834079 0 0 0 0 -91.487537110395351 108.07363140679263 0 108.07363140679263 -44.799035972782804 0 0 0 0 -54.631320549957309 175.68298731107279 0 175.68298731107279 94.412817748907401 0 0 0 0 -46.10275495994938 106.73303534487877 0 106.73303534487877 -0.11011890950248926 0 0 0 0 -76.716296035201594 133.19856846317816 0 133.19856846317816 27.679861622851604 0 0 0 0 -7.6514174682506564 163.77830776884184 0 163.77830776884184 -10.36322898465005 0 0 0 0 -25.219289280856174 128.90172840589912 0 128.90172840589912 -10.711315959197236 0 0 0 0 -34.177373507754965 119.0691255254369 0 119.0691255254369 -9.4649779375904473 0 0 0 0 -51.37290344601297 133.43663077938618 0 133.43663077938618 27.671929240459576 0 0 0 0 247.78404264243181 113.71064402984666 0 113.71064402984666 -113.83627377833545 0 0 0 0 33.339652224385645 80.638396815067608 0 80.638396815067608 -45.516598185042312 0 0 0 0 7.4961128111299331 32.745387005335033 0 32.745387005335033 -137.96862569849327 0 0 0 0 3.0136419795435359 29.498653093992289 0 29.498653093992289 -98.725654308273079 0 0 0 0 -384.23388038509438 98.354670083908786 0 98.354670083908786 -56.572086724634573 0 0 0 0 -96.107517506287422 122.41318001183924 0 122.41318001183924 -58.206334129255993 0 0 0 0 -120.23613695554741 236.59072446396385 0 236.59072446396385 -269.12475817068662 0 0 0 0 -4.0858147524276518 2.6517843115960211 0 2.6517843115960211 8.7329185863153498 0 0 0 0 -132.09655383038807 -75.589957572294225 0 -75.589957572294225 -197.30696436337894 0 0 0 0 -92.648002309411822 171.93025093872711 0 171.93025093872711 -233.11186638659956 0 0 0 0 -314.5200635029305 212.03640069272842 0 212.03640069272842 41.29346646681006 0 0 0 0 -320.03665841491971 16.76108571423768 0 16.76108571423768 51.436922732627863 0 0 0 0 -15.143529553301263 31.577560851117184 0 31.577560851117184 57.688783510048367 0 0 0 0 -172.99731170875748 178.62293279538153 0 178.62293279538153 -30.904771390403766 0 0 0 0 -51.479334163046587 126.42066670711938 0 126.42066670711938 -26.705199588264804 0 0 0 0 -16.162040137796794 74.583776116152876 0 74.583776116152876 -39.793241698367638 0 0 0 0 -58.874341870545322 97.925692904489551 0 97.925692904489551 -14.959046347962158 0 0 0 0 -57.309517293219869 88.555548158291913 0 88.555548158291913 12.83393647496996 0 0 0 0 -44.815666866452446 49.707266673101223 0 49.707266673101223 -21.906807624525001 0 0 0 0 39.782693194993044 64.759175289736959 0 64.759175289736959 -26.866973656125992 0 0 0 0 9.780906099056665 159.76399020721146 0 159.76399020721146 -81.627559214408393 0 0 0 0 -21.87756141967111 63.343608742150536 0 63.343608742150536 -179.37781503071892 0 0 0 0 -28.2372622083858 107.02701498735041 0 107.02701498735041 -374.62181527572466 0 0 0 0 0.89534589477752036 9.8588573702801625 0 9.8588573702801625 -3.947688998578144 0 0 0 0 -103.32418445650273 180.71418860751419 0 180.71418860751419 -85.87323630614992 0 0 0 0 11.8203267747067 269.4708495674472 0 269.4708495674472 -65.017693528323434 0 0 0 0 -109.76532641941139 221.70137564175411 0 221.70137564175411 -67.547523720480967 0 0 0 0 -74.688208200677764 141.82351145113353 0 141.82351145113353 -190.79864364750347 0 0 0 0 1.307558736948792 0.8863092811635056 0 0.8863092811635056 1.6960550424442857 0 0 0 0 206.98682777784416 -316.59501220769016 0 -316.59501220769016 -392.781311896033 0 0 0 0 120.57083977673756 221.91236909927648 0 221.91236909927648 -461.79028455967273 0 0 0 0 -93.886987965051958 184.89826020238615 0 184.89826020238615 319.37161992397159 0 0 0 0 -244.02297660382465 342.45112936065561 0 342.45112936065561 291.45844899144595 0 0 0 0 -423.62293207224866 47.01592372878622 0 47.01592372878622 49.971084268596314 0 0 0 0 0.77987959789098404 -2.2433827548838039 0 -2.2433827548838039 -5.7404475134472364 0 0 0 0 64.457481201341579 14.063365963427714 0 14.063365963427714 -60.619004666157707 0 0 0 0 -256.98406810760935 198.03801378825301 0 198.03801378825301 11.142172591949929 0 0 0 0 100.51647161058554 213.58266921835548 0 213.58266921835548 10.638302194980497 0 0 0 0 2.3343538919798448 63.006215597320988 0 63.006215597320988 12.829781832564663 0 0 0 0 -48.142193164520606 48.998757229518354 0 48.998757229518354 -46.370174045832179 0 0 0 0 159.8946478561993 464.11671567041731 0 464.11671567041731 364.32310951172008 0 0 0 0 -156.09819357697415 91.28785470758794 0 91.28785470758794 246.61572015688489 0 0 0 0 234.68871439416398 153.67118034733539 0 153.67118034733539 34.14741081781176 0 0 0 0 -162.55925518534059 167.17038741996203 0 167.17038741996203 -156.66825572742346 0 0 0 0 -293.67451440576406 166.8971104195989 0 166.8971104195989 402.73390209855097 0 0 0 0 16.146457025565724 45.96287494005901 0 45.96287494005901 -46.526827226585738 0 0 0 0 -41.329826126057483 44.439342594697692 0 44.439342594697692 -35.931490488353589 0 0 0 0 2.6940287040524709 98.023895452728539 0 98.023895452728539 -34.493212068904541 0 0 0 0 14.751044902070134 403.22099350901317 0 403.22099350901317 319.79105936221822 0 0 0 0 2.8664795582109832 44.19145761009149 0 44.19145761009149 0.97106880044871247 0 0 0 0 -6.7308455496731483 11.102213957603013 0 11.102213957603013 -8.9067741626520984 0 0 0 0 -75.986376817849077 292.318582778767 0 292.318582778767 -31.666015516217158 0 0 0 0 -26.936935020152305 17.506120451627794 0 17.506120451627794 30.769404159588703 0 0 0 0 3.2116802097988284 39.201678792755885 0 39.201678792755885 9.4762160907863375 0 0 0 0 -51.696228289605642 62.696042591418518 0 62.696042591418518 7.1438367129467224 0 0 0 0 3.5802397602601559 94.56879080953513 0 94.56879080953513 -85.92433901383265 0 0 0 0 -10.099312447680859 43.00463753718941 0 43.00463753718941 -65.303481149599975 0 0 0 0 -10.549752306709706 34.52296920587105 0 34.52296920587105 2.8815102018779726 0 0 0 0 -17.24375859742149 49.49661456504375 0 49.49661456504375 -17.763481182222684 0 0 0 0 -11.898036696780764 47.152789572734036 0 47.152789572734036 -1.5413643947613309 0 0 0 0 -0.29749651188797088 43.712753931909518 0 43.712753931909518 -31.216997097212158 0 0 0 0 -37.455167708038061 44.02418338235293 0 44.02418338235293 -83.966268705786206 0 0 0 0 -20.279699812213948 127.90890334302821 0 127.90890334302821 -139.24348399273731 0 0 0 0 -49.394601864622018 109.64599356979306 0 109.64599356979306 -58.539962982744328 0 0 0 0 -47.079912803325058 53.374936059724085 0 53.374936059724085 -45.538308970050238 0 0 0 0 -26.601864461320126 55.351674969282911 0 55.351674969282911 -33.196722979671591 0 0 0 0 -11.52168870662894 14.705614041821462 0 14.705614041821462 -11.319210287082782 0 0 0 0 -110.67708947984647 21.758168337024472 0 21.758168337024472 -22.399346337646421 0 0 0 0 -117.66011419060305 79.184346996027671 0 79.184346996027671 55.244352348756365 0 0 0 0 24.028324399987468 20.429786189804872 0 20.429786189804872 4.9862708566797664 0 0 0 0 0.60888560610510467 61.724625271239802 0 61.724625271239802 -37.328377019817708 0 0 0 0 -190.3793623983147 218.31884241134685 0 218.31884241134685 2.0275263861585699 0 0 0 0 -9.8298616840679642 52.350410652836274 0 52.350410652836274 77.494896761685169 0 0 0 0 -65.695683703263057 394.19823061065608 0 394.19823061065608 -167.99535064114548 0 0 0 0 -412.74939714038919 341.39400795098572 0 341.39400795098572 -174.09948188880662 0 0 0 0 -6.243334560111947 6.2590110737028866 0 6.2590110737028866 24.626691251633055 0 0 0 0 -139.29052811924339 361.02267991466852 0 361.02267991466852 -352.9624844758855 0 0 0 0 -316.77477426181213 231.1710441031646 0 231.1710441031646 300.93231374058632 0 0 0 0 36.908606739722018 246.38595332307295 0 246.38595332307295 -268.53355392806952 0 0 0 0 2.5424018712801626 166.1358037183154 0 166.1358037183154 32.505477701422933 0 0 0 0 445.05051614003605 444.87798534006652 0 444.87798534006652 199.97645627138991 0 0 0 0 225.791273716859 254.30808992305629 0 254.30808992305629 -184.19521370412485 0 0 0 0 -147.90312703009113 166.81163546321841 0 166.81163546321841 -170.37553227202534 0 0 0 0 123.26258917412815 9.4891200530810238 0 9.4891200530810238 -140.73597454384071 0 0 0 0 127.66256879737921 98.899509298261819 0 98.899509298261819 -47.55891622059471 0 0 0 0 673.60274241182924 -114.56283803497809 0 -114.56283803497809 25.279630210532559 0 0 0 0 -746.82719141361667 -173.49406343481451 0 -173.49406343481451 163.92313737365112 0 0 0 0 -0.74920315247553049 -0.011867505207376894 0 -0.011867505207376894 -10.249799515956315 0 0 0 0 -88.296442688115349 -270.34273598750769 0 -270.34273598750769 219.06736916544969 0 0 0 0 43.064478877873626 89.934931134284852 0 89.934931134284852 -163.66552080966812 0 0 0 0 -216.80032663232123 343.46376954399057 0 343.46376954399057 185.85739368901886 0 0 0 0 -48.737075150806049 172.73810081474767 0 172.73810081474767 -139.12808697117543 0 0 0 0 -46.182960550495409 24.318467845416421 0 24.318467845416421 656.41525251968778 0 0 0 0 -3.6079296658908788 11.148711769485459 0 11.148711769485459 -21.730377327789093 0 0 0 0 6.8428740445160656 241.04625857929568 0 241.04625857929568 -91.459456723318908 0 0 0 0 -32.929397547002736 57.148069646166363 0 57.148069646166363 58.652503468049758 0 0 0 0 -30.220510478034186 70.351518490791449 0 70.351518490791449 -34.891462930809652 0 0 0 0 -26.3426130926523 -150.65578200496702 0 -150.65578200496702 17.497294230903208 0 0 0 0 6.2641625359174213 114.86004172986213 0 114.86004172986213 -6.6803598593105562 0 0 0 0 5.8411945628977264 115.94350305352418 0 115.94350305352418 21.489219681330724 0 0 0 0 -18.921461466335543 73.485906583518457 0 73.485906583518457 30.042828467615678 0 0 0 0 -41.850453274692711 66.35522762859955 0 66.35522762859955 -25.694056019462323 0 0 0 0 -350.61797608568213 -98.063893787206325 0 -98.063893787206325 300.29049350664172 0 0 0 0 -71.640504478487856 207.87427876009951 0 207.87427876009951 -80.871797549840267 0 0 0 0 -6.6962508901079048 26.526193224644786 0 26.526193224644786 -8.9325737977800621 0 0 0 0 2.6813219484756701 66.81400588350607 0 66.81400588350607 -166.78126027230883 0 0 0 0 -125.15677249136206 74.716654697993363 0 74.716654697993363 80.278622399509914 0 0 0 0 47.421568193694839 160.84925497737254 0 160.84925497737254 -185.26736794690532 0 0 0 0 8.496050265374862 67.601506379474543 0 67.601506379474543 83.23742643817998 0 0 0 0 -275.59478949948971 160.79014566099431 0 160.79014566099431 48.816054065642675 0 0 0 0 -41.308279156359994 56.131890707743558 0 56.131890707743558 5.2589632900861432 0 0 0 0 -212.5526789452997 249.34795456257416 0 249.34795456257416 -57.01076423559789 0 0 0 0 -197.17819863304612 199.39197579511892 0 199.39197579511892 12.884129415455391 0 0 0 0 -162.98387336261294 204.32101975356454 0 204.32101975356454 9.1511512744327774 0 0 0 0 -39.892027161820664 55.195237118582249 0 55.195237118582249 -57.937300693996789 0 0 0 0 -467.73643899535818 -61.849240202776855 0 -61.849240202776855 -29.909427116021106 0 0 0 0 -195.19658648949553 221.50435421243674 0 221.50435421243674 -63.652037833482609 0 0 0 0 -222.48416595076287 126.17940873537873 0 126.17940873537873 -172.0891727969647 0 0 0 0 -16.367017069448593 14.841332274466932 0 14.841332274466932 15.137924913305426 0 0 0 0 6.1201959135435402 39.150389934069104 0 39.150389934069104 -55.750946637322784 0 0 0 0 4.2977519078995101 15.117095018547843 0 15.117095018547843 -46.329882073478075 0 0 0 0 -696.42409605137073 667.00078952610784 0 667.00078952610784 -433.9853278513765 0 0 0 0 -87.424131503619719 561.44777536820038 0 561.44777536820038 -755.50873713277542 0 0 0 0 -10.294715583406287 284.03631915404731 0 284.03631915404731 -334.2388449961727 0 0 0 0 184.12709224212449 79.002796344531816 0 79.002796344531816 -619.35761666871258 0 0 0 0 -723.70516395282903 456.71142881249398 0 456.71142881249398 -209.34343457123032 0 0 0 0 -11.577695038846286 269.45097158321732 0 269.45097158321732 -262.56542461643403 0 0 0 0 -28.15651372364664 326.4752961613849 0 326.4752961613849 -375.3369538407278 0 0 0 0 -51.701935727716773 263.14576558488625 0 263.14576558488625 -209.37285929062637 0 0 0 0 -45.847284184801538 200.50364734340837 0 200.50364734340837 -222.3964333354088 0 0 0 0 40.647042011332815 191.25507481000386 0 191.25507481000386 -422.95114802688477 0 0 0 0 -93.766245934813924 156.91922257489932 0 156.91922257489932 67.393363770243013 0 0 0 0 4.9230973880330566 222.46332796173374 0 222.46332796173374 51.523786941208527 0 0 0 0 38.733841384419975 111.85251598021296 0 111.85251598021296 -104.15939531663025 0 0 0 0 -11.966868366369454 133.14323660033915 0 133.14323660033915 -109.83175218717952 0 0 0 0 -93.084181457425984 149.96343007802443 0 149.96343007802443 -32.652285034200759 0 0 0 0 -138.50218910908006 165.94373615181394 0 165.94373615181394 -38.224582986847963 0 0 0 0 -164.35308884350525 266.20269806380384 0 266.20269806380384 -101.92716281635512 0 0 0 0 -121.63856532385398 217.90408066936652 0 217.90408066936652 -128.73020831961185 0 0 0 0 -80.132555010588476 150.97105691007164 0 150.97105691007164 -63.079258496771217 0 0 0 0 -61.900694753428979 286.68944897522306 0 286.68944897522306 -236.16161027387716 0 0 0 0 -72.488266995427693 306.33018980573979 0 306.33018980573979 -252.69226860580966 0 0 0 0 -53.060664089403872 318.13147882641351 0 318.13147882641351 -253.65057452471046 0 0 0 0 -139.32708173364517 428.63571357353067 0 428.63571357353067 -395.15624186111381 0 0 0 0 -60.332961342002818 75.695411091648566 0 75.695411091648566 -219.2995601103903 0 0 0 0 -5.1385989765403792 395.43496306032466 0 395.43496306032466 -767.04600860452047 0 0 0 0 48.838490000358433 252.23186427030305 0 252.23186427030305 -426.49504456907016 0 0 0 0 23.779154984134948 151.17266009410378 0 151.17266009410378 -338.90474707460089 0 0 0 0 -5.4461656110288459 242.19327452645666 0 242.19327452645666 -325.90114255354274 0 0 0 0 -52.541442532783549 154.97827132372913 0 154.97827132372913 -91.826800045004347 0 0 0 0 11.564577717304928 223.83204354449117 0 223.83204354449117 -307.06329222115164 0 0 0 0 11.444903253840494 97.476208985126505 0 97.476208985126505 -173.70633848769648 0 0 0 0 -54.057567852389184 217.90523181358003 0 217.90523181358003 -177.81862019568734 0 0 0 0 -35.973650123687548 212.2233698787968 0 212.2233698787968 -199.4565338329121 0 0 0 0 -98.180982683577895 269.66245718760183 0 269.66245718760183 -169.28015367992339 0 0 0 0 -46.159700344491284 318.71598774950689 0 318.71598774950689 -290.7717272695445 0 0 0 0 -49.464609161128465 317.83761214520928 0 317.83761214520928 -285.52482192397292 0 0 0 0 -28.696319581882562 298.8051688361229 0 298.8051688361229 -294.5408660593821 0 0 0 0 -300.0218192358152 141.90610428218497 0 141.90610428218497 -76.112456814924371 0 0 0 0 -37.046299269273732 70.880978313572996 0 70.880978313572996 -76.241809205850586 0 0 0 0 -219.15550901232928 356.09403038646269 0 356.09403038646269 -231.02475896687247 0 0 0 0 -178.4136642526646 198.33169625332084 0 198.33169625332084 -91.144314871104143 0 0 0 0 -156.74733180789917 156.64675159366379 0 156.64675159366379 -83.775742834521225 0 0 0 0 61.306177490543632 82.003445448943239 0 82.003445448943239 -101.91020897566523 0 0 0 0 -65.557105015039269 -5.517553220022819 0 -5.517553220022819 54.604725819335727 0 0 0 0 -91.53293006416061 81.334515637550794 0 81.334515637550794 3.6767331308292341 0 0 0 0 -48.766047905970481 59.315513706002093 0 59.315513706002093 -51.682921392268327 0 0 0 0 -48.753457386126684 58.079401228045754 0 58.079401228045754 -172.78033494246483 0 0 0 0 -34.193338382619913 42.379569253647787 0 42.379569253647787 -24.309849666489754 0 0 0 0 -8.3860301136909836 31.89782639616206 0 31.89782639616206 -15.936284786377456 0 0 0 0 -48.177928511133359 51.487227120283933 0 51.487227120283933 -14.764224875518266 0 0 0 0 -45.203844857533113 67.749026650897576 0 67.749026650897576 -30.204234210549203 0 0 0 0 -1.3572406413134246 13.069783099220928 0 13.069783099220928 4.5314397624087235 0 0 0 0 42.294171615196319 46.991722704897256 0 46.991722704897256 -32.074343058193335 0 0 0 0 24.928772794784891 82.75668199564825 0 82.75668199564825 -57.352307588116673 0 0 0 0 48.734325346527839 50.836559917559498 0 50.836559917559498 -34.377229021149105 0 0 0 0 -4.0852656460213908 7.4450030192283947 0 7.4450030192283947 -9.1653109829246517 0 0 0 0 -18.165950806152068 54.335975019284888 0 54.335975019284888 19.76343593292404 0 0 0 0 -25.964693692483706 59.748548911316902 0 59.748548911316902 61.742441252274148 0 0 0 0 2.4136378708171833 74.768615504523041 0 74.768615504523041 -33.435287393719591 0 0 0 0 -0.30318999185328721 97.105385146416666 0 97.105385146416666 33.355697046790738 0 0 0 0 -7.7250734652118531 33.05357864038676 0 33.05357864038676 -13.422467045052713 0 0 0 0 1.1317421466965243 40.873698090334983 0 40.873698090334983 -13.289347121695755 0 0 0 0 -26.086837467896657 48.527446759489976 0 48.527446759489976 -28.968399554825737 0 0 0 0 -29.960450759353989 31.224323176866164 0 31.224323176866164 -7.4422905516948958 0 0 0 0 -29.029942136808174 31.32222438606243 0 31.32222438606243 -9.0616568493577603 0 0 0 0 -46.619433728148579 53.904979212107719 0 53.904979212107719 -6.3215301783893665 0 0 0 0 -25.097274556805132 52.044817348736615 0 52.044817348736615 -6.5661491073260549 0 0 0 0 -2.2157693645495655 22.660425905503573 0 22.660425905503573 6.2897556083198367 0 0 0 0 -38.062724107061513 62.85332229710184 0 62.85332229710184 -46.606338054232765 0 0 0 0 -55.405031563534067 45.791094371346844 0 45.791094371346844 -84.032070176719571 0 0 0 0 -92.314642028104572 88.145783348678378 0 88.145783348678378 13.015593386968249 0 0 0 0 -36.161822974940335 41.682202872551187 0 41.682202872551187 79.621898011196478 0 0 0 0 -56.866095813165884 103.34227971619111 0 103.34227971619111 -68.998883533764456 0 0 0 0 -34.104206485874343 50.339855603173 0 50.339855603173 19.375153712546336 0 0 0 0 -48.459138310674462 56.825145040893403 0 56.825145040893403 -12.844701239686401 0 0 0 0 -13.137164437761854 26.527521669478034 0 26.527521669478034 17.685263866080561 0 0 0 0 -117.34541493748111 114.22726320509537 0 114.22726320509537 -13.617712550039869 0 0 0 0 -191.9621020818995 159.41742431823513 0 159.41742431823513 20.166003496255144 0 0 0 0 -151.61153798783198 178.64921167019202 0 178.64921167019202 -22.989743929982069 0 0 0 0 -105.85187057687108 -61.797844608368905 0 -61.797844608368905 90.721172837191261 0 0 0 0 -76.254374785043183 81.188045575065189 0 81.188045575065189 -41.175631752381378 0 0 0 0 -16.213341512156191 11.1992646884229 0 11.1992646884229 30.896302074102493 0 0 0 0 -51.733902027866861 -9.8330949448900355 0 -9.8330949448900355 20.217538193537621 0 0 0 0 -107.5341879218031 -12.936523822427262 0 -12.936523822427262 -4.271997442774591 0 0 0 0 -92.611413047958195 -16.768767106477753 0 -16.768767106477753 -8.1980427043963573 0 0 0 0 -111.16340802559534 -13.752729022115091 0 -13.752729022115091 40.784341583523201 0 0 0 0 -382.63363935146481 53.874761165570817 0 53.874761165570817 43.559649419956258 0 0 0 0 -382.72154636225059 -6.1707340215725708 0 -6.1707340215725708 24.988013107838924 0 0 0 0 -219.93038493153654 331.90601067520038 0 331.90601067520038 -176.99201866272779 0 0 0 0 -252.18305584047266 191.29048819712625 0 191.29048819712625 -4.0467578376556048 0 0 0 0 -307.1009132631516 208.9965812875962 0 208.9965812875962 19.473197498926311 0 0 0 0 -323.18802747932932 456.97822125721723 0 456.97822125721723 -18.365688319536275 0 0 0 0 -639.39752410490473 322.38968461566401 0 322.38968461566401 -33.41766011386062 0 0 0 0 -354.01072187005047 578.18418604176259 0 578.18418604176259 -404.86240849891328 0 0 0 0 -190.58162930869912 348.6462477912828 0 348.6462477912828 -169.71935388632119 0 0 0 0 -390.26804165424983 1369.8354701471108 0 1369.8354701471108 -1052.1870103280962 0 0 0 0 -739.1202810310715 343.85358021172578 0 343.85358021172578 293.06958082733036 0 0 0 0 105.4582677828148 51.830671642957896 0 51.830671642957896 -1827.1866955614751 0 0 0 0 -6.7543019720296229 6.8423315770716613 0 6.8423315770716613 -6.5463320069306121 0 0 0 0 47.246582724066684 -28.26085324853193 0 -28.26085324853193 -574.95505688627236 0 0 0 0 -491.12163899972438 110.04306640679715 0 110.04306640679715 20.659626491993549 0 0 0 0 7.0741278318706122 2.7682980418270517 0 2.7682980418270517 -1.5015129676180994 0 0 0 0 -943.20758153771749 -734.49156458988637 0 -734.49156458988637 -970.69125695287948 0 0 0 0 -1120.1738457946776 863.15285099235916 0 863.15285099235916 80.608868190436624 0 0 0 0 -638.71165718529664 872.02640445520228 0 872.02640445520228 -872.22762893217987 0 0 0 0 -285.75384827145172 313.78360637243895 0 313.78360637243895 -3.0017536880477564 0 0 0 0 246.37499074931839 295.8120498196804 0 295.8120498196804 -491.17027420138038 0 0 0 0 74.062817040488881 46.575384673196822 0 46.575384673196822 -7.475832460942911 0 0 0 0 3.265158338243717 4.9470571220919659 0 4.9470571220919659 -12.728711699102917 0 0 0 0 42.960812340224948 59.739702660648618 0 59.739702660648618 16.824522988463286 0 0 0 0 43.876262773337658 19.418554035335546 0 19.418554035335546 -6.7111281746183522 0 0 0 0 8.1518007341657324 15.221011288677147 0 15.221011288677147 4.9640899197798554 0 0 0 0 88.431981356145116 2.6230428856506478 0 2.6230428856506478 -25.689340539422119 0 0 0 0 86.192012640211033 15.075656866179997 0 15.075656866179997 17.670332602836424 0 0 0 0 -1.37676838275911 16.617797997372691 0 16.617797997372691 -1.5903644133359194 0 0 0 0 -66.084664448918829 38.249969126739416 0 38.249969126739416 -57.616048542739009 0 0 0 0 6.2114572671928556 8.337184594642947 0 8.337184594642947 8.1182493800889688 0 0 0 0 -1.5919190819398459 36.781347240723221 0 36.781347240723221 2.2130619751744405 0 0 0 0 -27.808320323843446 7.7979463178439943 0 7.7979463178439943 18.611637162199997 0 0 0 0 -15.44111123239032 13.803622571069141 0 13.803622571069141 16.805462156721859 0 0 0 0 -32.045668567362554 29.738257405144395 0 29.738257405144395 -13.546641826920677 0 0 0 0 62.699405349580047 31.846399787726114 0 31.846399787726114 42.053614382421074 0 0 0 0 103.51035560385208 -62.789987222116906 0 -62.789987222116906 24.857917844637996 0 0 0 0 26.924739442030841 46.138979701470817 0 46.138979701470817 -41.177043921856239 0 0 0 0 55.262916719657369 72.045833114316338 0 72.045833114316338 -20.944602672680048 0 0 0 0 80.368522038021183 12.112743520687218 0 12.112743520687218 -7.0622857506386936 0 0 0 0 115.12669258344249 -4.6410412650875514 0 -4.6410412650875514 -10.706257764963084 0 0 0 0 49.894506224256475 46.272276607269305 0 46.272276607269305 -14.7058948087506 0 0 0 0 -10.400874983844652 7.5758192439281231 0 7.5758192439281231 -0.11960254734293585 0 0 0 0 12.348991100646828 17.101474902968008 0 17.101474902968008 2.3661437861850061 0 0 0 0 -98.00406969692267 177.05208649933047 0 177.05208649933047 107.32005424285308 0 0 0 0 119.30451006747171 31.303945235471474 0 31.303945235471474 -21.353155884800799 0 0 0 0 10.91835435480607 -85.834547391918022 0 -85.834547391918022 118.68375949465553 0 0 0 0 89.125141051648825 57.581554580945522 0 57.581554580945522 -28.493805473830434 0 0 0 0 10.344445664880041 9.5369955589495135 0 9.5369955589495135 7.1043399173738067 0 0 0 0 1.1179479153142893 17.085423524190446 0 17.085423524190446 28.828674670963665 0 0 0 0 4.2619179641624214 40.637704034983472 0 40.637704034983472 17.998279862920754 0 0 0 0 -54.669244631008041 12.940065814213995 0 12.940065814213995 29.429687553885742 0 0 0 0 -36.23323040320156 71.495621114532696 0 71.495621114532696 16.096858312186669 0 0 0 0 -121.69125763774446 344.84870918898923 0 344.84870918898923 -108.86806436099869 0 0 0 0 -172.78979920650181 244.51064979729927 0 244.51064979729927 133.65105991950259 0 0 0 0 -360.44405200349138 587.1170238801933 0 587.1170238801933 -305.64247370116209 0 0 0 0 -0.70413185706424031 1.37006343528342 0 1.37006343528342 -5.1984004673243476 0 0 0 0 144.84589292568489 59.095416327872954 0 59.095416327872954 -177.07747812184607 0 0 0 0 -1152.1551879125882 648.56767641860552 0 648.56767641860552 53.638938113042968 0 0 0 0 -805.5501941590046 537.67036841870868 0 537.67036841870868 33.934706237783757 0 0 0 0 -583.64019293584715 540.43522311959532 0 540.43522311959532 96.50260568849626 0 0 0 0 -778.84501655639906 610.28135772328096 0 610.28135772328096 114.17679545065039 0 0 0 0 -443.08542969151313 468.17108724940044 0 468.17108724940044 -81.632790174509864 0 0 0 0 343.71911854833888 135.16064327035565 0 135.16064327035565 91.219424071940011 0 0 0 0 -136.05592256895761 77.724740484147333 0 77.724740484147333 293.2506420352438 0 0 0 0 -739.24332278093789 374.64120948249183 0 374.64120948249183 251.23576135034818 0 0 0 0 -347.64542141891434 217.50852078819298 0 217.50852078819298 223.63755345491518 0 0 0 0 -114.80836338602057 261.21096553644384 0 261.21096553644384 116.15913291927427 0 0 0 0 -100.70590785650711 213.46363187985844 0 213.46363187985844 154.01440032359096 0 0 0 0 -101.61832307608256 212.81132568183421 0 212.81132568183421 191.27837576344609 0 0 0 0 129.22411165366066 174.54390330179012 0 174.54390330179012 177.55087011054275 0 0 0 0 -92.408082706882851 164.44056694614119 0 164.44056694614119 291.73477583625936 0 0 0 0 234.58977254250203 314.01930878928397 0 314.01930878928397 351.38492134318221 0 0 0 0 234.58977254250203 314.01930878934218 0 314.01930878934218 351.38492134335684 0 0 0 0 252.50046186156396 7.4667643258580938 0 7.4667643258580938 406.16279683070024 0 0 0 0 234.58977254251658 314.01930878932762 0 314.01930878932762 351.38492134324042 0 0 0 0 359.95915264551877 158.7809224340599 0 158.7809224340599 72.493046707415488 0 0 0 0 242.93421388492061 39.446766406181268 0 39.446766406181268 146.36173267674167 0 0 0 0 290.71782015556164 167.54862586977833 0 167.54862586977833 134.54383020615205 0 0 0 0 508.64980416267645 106.91434910366661 0 106.91434910366661 125.71857149782591 0 0 0 0 336.02489435201278 94.491294159786776 0 94.491294159786776 193.34391629323363 0 0 0 0 625.7991943146335 38.131756074173609 0 38.131756074173609 203.78783514921088 0 0 0 0 336.65291196768521 105.73024422249 0 105.73024422249 147.09034954308299 0 0 0 0 -61.416057243390242 145.87829892337322 0 145.87829892337322 220.96342162939254 0 0 0 0 105.36356143993908 115.62739495377173 0 115.62739495377173 338.26749622519128 0 0 0 0 99.924979806906777 147.18389300014678 0 147.18389300014678 161.66406997287413 0 0 0 0 184.9461018837319 113.10535390259611 0 113.10535390259611 64.783151689480292 0 0 0 0 -303.95286361900435 266.47475289337308 0 266.47475289337308 70.449733123241458 0 0 0 0 -70.071279105482972 105.29723046811159 0 105.29723046811159 136.72753033129266 0 0 0 0 -159.47352946527099 29.853325503092492 0 29.853325503092492 4.320554798017838 0 0 0 0 0.32065102339402074 111.35238199458036 0 111.35238199458036 -73.887586947093951 0 0 0 0 47.901560398691799 19.678265595779521 0 19.678265595779521 92.666103876981651 0 0 0 0 226.65927715715952 123.64900312217651 0 123.64900312217651 -6.5772759482206311 0 0 0 0 162.54921095026657 166.37086631081183 0 166.37086631081183 61.073842665180564 0 0 0 0 202.11674701632001 120.31603226416337 0 120.31603226416337 100.6529116264428 0 0 0 0 -561.46825615580747 569.8261769014498 0 569.8261769014498 -417.66422676281945 0 0 0 0 -415.02013462502509 82.144370757836441 0 82.144370757836441 -182.23687708668513 0 0 0 0 -343.35852160743525 229.30790214153967 0 229.30790214153967 54.266698901883501 0 0 0 0 -328.67209209371867 202.0331893879702 0 202.0331893879702 -20.734689676712151 0 0 0 0 -86.797724582564115 125.80220242866199 0 125.80220242866199 -77.15435207714836 0 0 0 0 81.232433401848539 65.929883114788026 0 65.929883114788026 22.972852952487301 0 0 0 0 87.603566134122957 53.378693992337503 0 53.378693992337503 -69.254529116165941 0 0 0 0 -76.179631796872854 38.541931560357625 0 38.541931560357625 -33.996751971149934 0 0 0 0 84.856531178578734 72.03732716043487 0 72.03732716043487 -100.7366635374201 0 0 0 0 2.3192523846773838 137.19648972435607 0 137.19648972435607 -140.28266540719778 0 0 0 0 105.99696263197802 36.340044250580831 0 36.340044250580831 -73.250039313148591 0 0 0 0 97.25588109412638 23.26456919543125 0 23.26456919543125 -89.31453170178429 0 0 0 0 -148.32716355990851 117.95067296499474 0 117.95067296499474 -48.488946108976961 0 0 0 0 -127.65209344918912 312.78441752497019 0 312.78441752497019 -82.519351176106284 0 0 0 0 -229.56775652809938 361.04455531158419 0 361.04455531158419 -98.814997122201021 0 0 0 0 -493.35701837348461 599.19462225260213 0 599.19462225260213 -89.009881572836093 0 0 0 0 -296.73074258930501 501.48794735420961 0 501.48794735420961 -68.246440494946 0 0 0 0 -371.21625574225982 508.36084412916171 0 508.36084412916171 10.546720045938855 0 0 0 0 -392.70286777100046 358.43324305825081 0 358.43324305825081 15.340050366648939 0 0 0 0 -713.73094807037523 373.49981445137746 0 373.49981445137746 38.419103673266363 0 0 0 0 -86.772785413952079 87.550870131548436 0 87.550870131548436 58.116656143778528 0 0 0 0 -9.5311956217556144 214.3760351036035 0 214.3760351036035 83.085056474865269 0 0 0 0 -77.065606960211881 71.026922310644295 0 71.026922310644295 28.507002752143308 0 0 0 0 12.030082665611189 76.823823973838444 0 76.823823973838444 12.910840180382365 0 0 0 0 -8.2262997479513444 24.091396204672151 0 24.091396204672151 16.363462056583757 0 0 0 0 -19.590960065583204 47.333740389571176 0 47.333740389571176 -14.136661372496746 0 0 0 0 -0.54960192985890899 20.933392582235683 0 20.933392582235683 19.302021866722498 0 0 0 0 23.423693975521019 182.29913553854567 0 182.29913553854567 130.29259597248165 0 0 0 0 -183.89915010333061 -45.03509077095805 0 -45.03509077095805 40.569015398363263 0 0 0 0 -77.596038664075905 -1.5235765061909774 0 -1.5235765061909774 32.304223966930294 0 0 0 0 -33.923553175365342 1.9686777554593959 0 1.9686777554593959 6.2557711267976259 0 0 0 0 -5.069689040709477 9.9714008191082968 0 9.9714008191082968 2.2278412705487654 0 0 0 0 54.278254999466299 114.16985393835421 0 114.16985393835421 156.63699820158945 0 0 0 0 19.522254824369156 37.215892516280292 0 37.215892516280292 148.25896408418157 0 0 0 0 9.2418576722211583 45.05873036435969 0 45.05873036435969 32.276469918790099 0 0 0 0 3.1030236568599747 30.979497652275001 0 30.979497652275001 11.277495569707284 0 0 0 0 -52.818266344846052 20.511084049132478 0 20.511084049132478 -30.227202970047074 0 0 0 0 37.021291180019034 95.728488186345203 0 95.728488186345203 -215.36616889165998 0 0 0 0 -16.244069294151885 25.311919189249124 0 25.311919189249124 -3.6755869707667443 0 0 0 0 426.31508710954222 208.00277735048439 0 208.00277735048439 48.086448598640345 0 0 0 0 22.505997503475612 26.04655558479476 0 26.04655558479476 1.7585809856986145 0 0 0 0 339.29756356751727 172.35086290052459 0 172.35086290052459 50.832450147092459 0 0 0 0 618.82466805366221 204.54223661413562 0 204.54223661413562 130.81273030827288 0 0 0 0 -23.174809607163638 -2.6801816509188114 0 -2.6801816509188114 8.6990148641220486 0 0 0 0 17.81870071778394 62.207506091661344 0 62.207506091661344 75.277049163225456 0 0 0 0 494.11561987095774 353.41509235445847 0 353.41509235445847 175.60262306570075 0 0 0 0 236.76961168680282 386.85113547099172 0 386.85113547099172 345.94024115981301 0 0 0 0 463.42517240269808 275.79705321398797 0 275.79705321398797 171.11495615728199 0 0 0 0 331.11590927337238 325.79823270434281 0 325.79823270434281 222.27876768300484 0 0 0 0 324.65734621229058 193.72787525012973 0 193.72787525012973 126.03004617616534 0 0 0 0 122.84402260455681 283.30496238065825 0 283.30496238065825 401.4846036448871 0 0 0 0 91.63927485098975 127.32339483640681 0 127.32339483640681 290.48938860689668 0 0 0 0 186.00351393232995 202.77628748871211 0 202.77628748871211 173.30553008014977 0 0 0 0 164.29521285799274 126.02926156508329 0 126.02926156508329 83.305322725969745 0 0 0 0 290.77089351457835 216.94813922493631 0 216.94813922493631 98.740946401027031 0 0 0 0 228.95958620377496 239.82205965388857 0 239.82205965388857 146.48092971980805 0 0 0 0 213.136925982908 222.17629772951477 0 222.17629772951477 159.86326119980367 0 0 0 0 176.64981246073876 63.223386994308385 0 63.223386994308385 -64.349381199135678 0 0 0 0 153.12623820910085 114.47418304987514 0 114.47418304987514 61.061860600486398 0 0 0 0 204.55506836403219 112.66048179479549 0 112.66048179479549 57.1367124679673 0 0 0 0 146.45330585260672 59.685235616758291 0 59.685235616758291 -29.8953109588183 0 0 0 0 94.837334226267558 41.816664113277511 0 41.816664113277511 -38.618092856690055 0 0 0 0 134.7176544602371 23.800490829038608 0 23.800490829038608 -67.129445037406185 0 0 0 0 133.83075899515097 19.27506784783327 0 19.27506784783327 -89.888477785731084 0 0 0 0 150.87965230976988 33.316231694145245 0 33.316231694145245 -81.922723348645377 0 0 0 0 139.08678783102914 52.8154524156962 0 52.8154524156962 -23.532221161032794 0 0 0 0 66.377622676656756 47.313395241646504 0 47.313395241646504 0.94423856350476854 0 0 0 0 127.72336332096165 27.366359512190684 0 27.366359512190684 -68.166071783940424 0 0 0 0 76.196399688450583 84.459059455772149 0 84.459059455772149 6.9464122031640727 0 0 0 0 75.438497492534708 99.171742815150594 0 99.171742815150594 86.898709146073088 0 0 0 0 37.455420931451954 41.583563523643534 0 41.583563523643534 37.515106703547644 0 0 0 0 142.21110264916229 111.64693439534358 0 111.64693439534358 39.431317937705899 0 0 0 0 75.53176405611157 88.204446789502981 0 88.204446789502981 121.21166633076791 0 0 0 0 89.543815640117828 82.935974618056207 0 82.935974618056207 118.99911676062038 0 0 0 0 -1.2834430512380095 2.1987557453989268 0 2.1987557453989268 -3.6960885265670811 0 0 0 0 116.76574132265523 65.44902837270638 0 65.44902837270638 276.55598297268443 0 0 0 0 -0.16934800177114084 86.195839250925928 0 86.195839250925928 158.86421941268054 0 0 0 0 7.5377583917907032 62.102162546045292 0 62.102162546045292 41.226615372506785 0 0 0 0 -11.537599703369779 51.189099167371751 0 51.189099167371751 123.64020459495077 0 0 0 0 14.006209161459992 18.647204189837794 0 18.647204189837794 -57.002547925018007 0 0 0 0 -48.55384708391648 90.090726645139512 0 90.090726645139512 48.720964653730334 0 0 0 0 21.313350331178398 22.757200034080967 0 22.757200034080967 13.860570170037676 0 0 0 0 -17.891375372098992 -1.2706107934573083 0 -1.2706107934573083 29.354715704073897 0 0 0 0 -30.897478647295429 109.86295869741298 0 109.86295869741298 24.318806305658654 0 0 0 0 15.302295200814115 50.303991739234334 0 50.303991739234334 -66.666014803326107 0 0 0 0 -40.81803229751911 9.5457289979119935 0 9.5457289979119935 6.1804715949702569 0 0 0 0 -12.178749183811306 88.508371631953196 0 88.508371631953196 20.449800964590395 0 0 0 0 -385.23979447170859 237.4371034145006 0 237.4371034145006 217.63789367774734 0 0 0 0 379.50969753564277 114.99829024550854 0 114.99829024550854 -130.66864159013494 0 0 0 0 -332.05945330049144 49.059838507135282 0 49.059838507135282 174.02678146473772 0 0 0 0 -298.29828933459794 311.14287300338128 0 311.14287300338128 163.29440390397212 0 0 0 0 90.490554661839269 159.310446036543 0 159.310446036543 65.236645673438034 0 0 0 0 34.938275731903559 33.178651043570426 0 33.178651043570426 -520.70442318237474 0 0 0 0 0.43200621824189511 2.4364890225957936 0 2.4364890225957936 -2.2251607603767809 0 0 0 0 -77.669261264534725 201.22685933831963 0 201.22685933831963 -275.57292343201698 0 0 0 0 -17.619543866079766 132.16663862208225 0 132.16663862208225 -195.37619648974214 0 0 0 0 -17.032409654336561 64.401908343055482 0 64.401908343055482 -140.87002480942465 0 0 0 0 -20.922303975276009 122.42106045942637 0 122.42106045942637 -56.741928118790383 0 0 0 0 28.881157514550978 -17.304555117386371 0 -17.304555117386371 -99.445616217388306 0 0 0 0 -75.823674181908899 36.039303590539163 0 36.039303590539163 -93.397585200771573 0 0 0 0 19.12954796214035 105.47397783031556 0 105.47397783031556 -208.04461685272327 0 0 0 0 56.197335738001129 91.631477600421931 0 91.631477600421931 -79.739493854647662 0 0 0 0 20.61071938240346 13.520112462457575 0 13.520112462457575 9.3685078644853377 0 0 0 0 32.374368664037775 2.9383315740478793 0 2.9383315740478793 -45.419310326542472 0 0 0 0 16.085735183293536 118.73135134102131 0 118.73135134102131 -114.22428353800933 0 0 0 0 12.524245919653055 8.8343857146960261 0 8.8343857146960261 6.0358488142381361 0 0 0 0 146.1816012157251 -54.917562259844999 0 -54.917562259844999 -17.128641757524747 0 0 0 0 27.07586431674099 91.722488283765415 0 91.722488283765415 -90.475311993424839 0 0 0 0 -26.777228422255575 107.54694634161569 0 107.54694634161569 0.28630656916091896 0 0 0 0 -52.14364433433002 192.64341407753091 0 192.64341407753091 -69.980152350493881 0 0 0 0 3.7448392587266426 118.78584373765443 0 118.78584373765443 -0.059218919137492776 0 0 0 0 -16.706708344516301 97.342942433113421 0 97.342942433113421 -20.877117565774824 0 0 0 0 114.52327164205053 72.440921522254939 0 72.440921522254939 -16.244063797232229 0 0 0 0 -52.674554842536736 103.5212022770765 0 103.5212022770765 77.41008908006188 0 0 0 0 66.624151982068724 84.883815910914564 0 84.883815910914564 -17.199473920628407 0 0 0 0 -66.827474571549828 237.83293132817926 0 237.83293132817926 41.523161970901128 0 0 0 0 -45.897443050063885 304.72680281678186 0 304.72680281678186 -152.3794818607621 0 0 0 0 -325.69050873349988 448.20729697858042 0 448.20729697858042 -94.025043549703696 0 0 0 0 -508.32653404760276 273.9087276292048 0 273.9087276292048 -160.18889066162228 0 0 0 0 -245.51552648756478 448.78868179311758 0 448.78868179311758 -404.31300154510245 0 0 0 0 26.711120821160875 350.66112408346817 0 350.66112408346817 -289.45418041071389 0 0 0 0 -4.3515936623089146 247.4638597959738 0 247.4638597959738 -136.05543619530363 0 0 0 0 -257.92230446945541 453.41768273561138 0 453.41768273561138 -158.86687948583858 0 0 0 0 205.15860557170527 65.348961687857809 0 65.348961687857809 -125.6678894873894 0 0 0 0 28.72831409385617 305.09294927023075 0 305.09294927023075 -180.76155852431839 0 0 0 0 101.33875356840872 20.507507333302783 0 20.507507333302783 -77.301609801310406 0 0 0 0 187.77142223271221 14.249070689231303 0 14.249070689231303 -84.729029328227625 0 0 0 0 217.76227021535306 -64.644414040318225 0 -64.644414040318225 28.580719272729766 0 0 0 0 491.27460454841275 310.10924832818273 0 310.10924832818273 -173.52590507262357 0 0 0 0 11.482813437255231 302.61682718373709 0 302.61682718373709 155.33122177948098 0 0 0 0 479.59710584832101 452.16194549194006 0 452.16194549194006 93.720165774364432 0 0 0 0 849.88553907056485 -245.93488899210934 0 -245.93488899210934 11.649635112298256 0 0 0 0 3.8635434643023672 3.1850591755350308 0 3.1850591755350308 2.9915298022407057 0 0 0 0 346.33684663025178 -77.193766273960136 0 -77.193766273960136 237.79450223987078 0 0 0 0 595.06515255129852 152.96845709228364 0 152.96845709228364 -0.3487296201128629 0 0 0 0 -27.158151263117361 283.19446298612274 0 283.19446298612274 0.26156621927657397 0 0 0 0 -385.46060472607496 362.36163251050675 0 362.36163251050675 81.346580151948729 0 0 0 0 -339.56931563584294 78.414791950694053 0 78.414791950694053 10.579816528479569 0 0 0 0 -464.79906149064482 289.30009268976573 0 289.30009268976573 0.032945517497786278 0 0 0 0 -559.1322893454003 403.9176018057351 0 403.9176018057351 -113.82929609261191 0 0 0 0 -678.18778161101727 201.60806377738118 0 201.60806377738118 -9.8249908492580289 0 0 0 0 -378.21505693708968 310.94017997651099 0 310.94017997651099 -368.51740204375164 0 0 0 0 1.3021084895024408 -0.88745889951384882 0 -0.88745889951384882 0.14139888419299496 0 0 0 0 599.31194870216495 89.15451295294406 0 89.15451295294406 -134.03952812994248 0 0 0 0 -322.34091740134318 218.69513492683473 0 218.69513492683473 -0.019603430196719479 0 0 0 0 -132.44994116843918 308.24538799675065 0 308.24538799675065 -323.12991674524528 0 0 0 0 -313.42646007451185 184.40550445064946 0 184.40550445064946 -107.50544354664453 0 0 0 0 -191.43809372723626 50.643439231655066 0 50.643439231655066 9.5174791219760664 0 0 0 0 -14.97534777199553 5.8170093778353475 0 5.8170093778353475 1.2320648347522365 0 0 0 0 -4.3071291016967734 -0.19122562032134738 0 -0.19122562032134738 -70.304310910243657 0 0 0 0 -33.862043114389962 -3.5559867247502552 0 -3.5559867247502552 42.274948828104925 0 0 0 0 -41.734241578938963 -43.702705080519081 0 -43.702705080519081 0.86247610860300483 0 0 0 0 -17.08162734570891 14.497717337546817 0 14.497717337546817 -0.24841851424534944 0 0 0 0 -84.545818445786153 57.180153518428597 0 57.180153518428597 77.074400470213732 0 0 0 0 -22.697719636766109 14.712818906314865 0 14.712818906314865 1.2454872973102757 0 0 0 0 -49.863248720121192 -20.388740676291491 0 -20.388740676291491 86.637300306720135 0 0 0 0 -667.92597850874336 595.49270765042456 0 595.49270765042456 -169.20524190759897 0 0 0 0 -2.2463046472109252 1.7750449513651976 0 1.7750449513651976 -5.3064292789263163 0 0 0 0 56.464268251380417 37.383094419230474 0 37.383094419230474 -162.85378145575669 0 0 0 0 -4.1308386607527439 2.1397694408671839 0 2.1397694408671839 0.29588307060386576 0 0 0 0 -793.66614792416431 459.5090132162195 0 459.5090132162195 -265.00655708963313 0 0 0 0 -629.61432401277762 367.84571326521291 0 367.84571326521291 60.361051254556514 0 0 0 0 -192.08274906482256 -29.367339269796503 0 -29.367339269796503 146.53468465320123 0 0 0 0 -328.29359718874275 241.40847766027082 0 241.40847766027082 94.267645933898166 0 0 0 0 55.793196126935072 319.3515455027009 0 319.3515455027009 -26.56231032472715 0 0 0 0 24.373647410746116 74.978316592569627 0 74.978316592569627 3.0902856123138918 0 0 0 0 -23.730235268649267 3.065660274354741 0 3.065660274354741 22.184561301488429 0 0 0 0 -2.6256046286910184 -0.12788443785330195 0 -0.12788443785330195 9.3612413721506016 0 0 0 0 129.71842166507668 112.10077607345374 0 112.10077607345374 -79.83734855743387 0 0 0 0 -32.682435209999312 -10.433081306713575 0 -10.433081306713575 21.896677592972992 0 0 0 0 -21.889429862509132 -0.22508528536491212 0 -0.22508528536491212 3.3881261640926823 0 0 0 0 -52.108308061517619 39.781562989716804 0 39.781562989716804 38.577729187862133 0 0 0 0 16.181145764883695 49.240603841841221 0 49.240603841841221 -21.75088175059318 0 0 0 0 -75.540380145489507 49.746789833094226 0 49.746789833094226 -31.165549593817559 0 0 0 0 -130.22840692706086 121.32094355144 0 121.32094355144 -41.461690738833568 0 0 0 0 -109.25778301155151 8.9333733767125523 0 8.9333733767125523 18.78956303612722 0 0 0 0 -71.94881822358002 31.53004736166622 0 31.53004736166622 -36.529357058789174 0 0 0 0 -120.51410288105944 -11.427826367325906 0 -11.427826367325906 -42.017807983080274 0 0 0 0 -201.59275747490392 164.22487765104779 0 164.22487765104779 -70.222158753211261 0 0 0 0 -203.82373826549156 95.48844745045426 0 95.48844745045426 -35.632217933831271 0 0 0 0 -168.28977803615271 105.63487508021353 0 105.63487508021353 -68.926668542611878 0 0 0 0 -31.309074489210616 121.18106470601379 0 121.18106470601379 360.91945695779577 0 0 0 0 -149.67078105162 238.95556203808155 0 238.95556203808155 -291.43825042543176 0 0 0 0 -20.256926714337297 1.8911092197535311 0 1.8911092197535311 1.2237250053960551 0 0 0 0 -334.28827047094092 212.61622020180948 0 212.61622020180948 -89.738999800812962 0 0 0 0 371.20506223371194 471.80810599926917 0 471.80810599926917 -954.48462194635795 0 0 0 0 -5.463625161207915 0.95562234842000748 0 0.95562234842000748 0.40487952959510665 0 0 0 0 -311.37729348617199 41.680913799455084 0 41.680913799455084 5.0125959601573413 0 0 0 0 28.925419988370777 617.12571576889604 0 617.12571576889604 -22.532058663317002 0 0 0 0 3.8900278534711106 -47.26719003397011 0 -47.26719003397011 78.730135821169824 0 0 0 0 180.23344928315419 -167.91095055249752 0 -167.91095055249752 -25.83292928668925 0 0 0 0 3.3105883756907133 -30.045167662496169 0 -30.045167662496169 312.879570295132 0 0 0 0 2.2246293210408439 2.713626059818921 0 2.713626059818921 4.0187941589122715 0 0 0 0 28.155856829529512 265.33863037146511 0 265.33863037146511 49.658217655131011 0 0 0 0 28.249426129248604 311.9226575362718 0 311.9226575362718 388.9417616136634 0 0 0 0 0.77307605723012074 -1.0367424520356519 0 -1.0367424520356519 2.6576603648218224 0 0 0 0 224.31174681782886 15.718788464484533 0 15.718788464484533 373.65046826330945 0 0 0 0 426.26001731346696 162.60343407039909 0 162.60343407039909 -9.0229668191459496 0 0 0 0 -14.095299914411633 8.1787077884668662 0 8.1787077884668662 8.8343997673209174 0 0 0 0 -45.385894211054477 18.086160240952069 0 18.086160240952069 6.4916124175602476 0 0 0 0 -38.914591690522229 51.348141348495119 0 51.348141348495119 16.084130429182551 0 0 0 0 -42.021062278438876 25.148853850630985 0 25.148853850630985 -1.3068242319714045 0 0 0 0 -13.414461374867113 22.766339501171007 0 22.766339501171007 -6.2850485573823391 0 0 0 0 -23.799240474431826 77.328787635273329 0 77.328787635273329 38.44100341637386 0 0 0 0 -30.47837157673473 40.193517812818754 0 40.193517812818754 -13.328578261600342 0 0 0 0 -87.62748274723117 36.696208778803339 0 36.696208778803339 12.671754608702031 0 0 0 0 -11.622548092061086 36.180209596270409 0 36.180209596270409 -13.686809311148181 0 0 0 0 -247.27338433978366 139.38203822377545 0 139.38203822377545 16.106767391756875 0 0 0 0 -4.52737617528404 11.576015682930546 0 11.576015682930546 9.9749100442600138 0 0 0 0 -72.98636341724341 102.25715885883983 0 102.25715885883983 -26.08797858028629 0 0 0 0 -28.933149094082182 -94.373062877595657 0 -94.373062877595657 9.9625331127026584 0 0 0 0 -73.628795644268394 23.429045335578849 0 23.429045335578849 64.712958158132096 0 0 0 0 23.370302312327112 51.04793384775985 0 51.04793384775985 -11.933123693772359 0 0 0 0 -37.659294231569845 -0.59769571045126213 0 -0.59769571045126213 3.0005009243925187 0 0 0 0 -54.577183808520203 67.650037074830834 0 67.650037074830834 -83.022709632787155 0 0 0 0 -79.281255306901585 121.69099957608705 0 121.69099957608705 -193.64226022146613 0 0 0 0 -118.32936949581381 94.83489418330646 0 94.83489418330646 -33.26519503860618 0 0 0 0 -106.27452804741552 53.942021502844 0 53.942021502844 22.280734654097614 0 0 0 0 -119.76901100940995 110.68153289496922 0 110.68153289496922 9.6022023036784958 0 0 0 0 -124.11277679419254 147.78757853637217 0 147.78757853637217 -82.155908978624211 0 0 0 0 -125.1888034822623 136.82658109158365 0 136.82658109158365 -57.824389550267369 0 0 0 0 -125.82116739852972 119.95282442580356 0 119.95282442580356 -48.752069018526527 0 0 0 0 -182.12526930388412 93.062642109187436 0 93.062642109187436 -40.707835930050351 0 0 0 0 -6.5943628348205117 1.43654057918428 0 1.43654057918428 0.26184647637120406 0 0 0 0 -133.05834457154378 125.86438982985419 0 125.86438982985419 -98.994900512770982 0 0 0 0 -51.971888547224808 136.82103120817919 0 136.82103120817919 -190.89218158222866 0 0 0 0 -62.668490813750395 82.90444556780858 0 82.90444556780858 -78.63799793466751 0 0 0 0 -217.93957306081938 236.81124312252359 0 236.81124312252359 -126.17116756468022 0 0 0 0 -370.02651994990629 198.61029011531355 0 198.61029011531355 -25.322703467165411 0 0 0 0 -131.50665302370362 279.82420301486127 0 279.82420301486127 -413.94138382079836 0 0 0 0 -57.144602987462804 -50.103697404948434 0 -50.103697404948434 78.697586022673931 0 0 0 0 -248.21491335341227 77.256438739854275 0 77.256438739854275 78.801436373789329 0 0 0 0 -18.863089545759593 1.0182724354303474 0 1.0182724354303474 5.9078753519069664 0 0 0 0 33.796006875001694 47.669058180406864 0 47.669058180406864 -20.56016064947471 0 0 0 0 144.14597306286214 70.441877047822345 0 70.441877047822345 -17.345387841662159 0 0 0 0 292.17829206197621 -447.86352165601238 0 -447.86352165601238 -196.86624240491074 0 0 0 0 71.019977749201644 24.770490427101322 0 24.770490427101322 17.254537383545539 0 0 0 0 -6.8988319666420601 26.719014881063778 0 26.719014881063778 17.091851758084857 0 0 0 0 -6.4008773056268637 65.602074637765327 0 65.602074637765327 69.839849267780664 0 0 0 0 21.502583797115207 17.693770932754845 0 17.693770932754845 -24.272988457963407 0 0 0 0 32.298355077434508 40.461385617138149 0 40.461385617138149 -21.705067582297488 0 0 0 0 23.836806697008114 26.232813928574615 0 26.232813928574615 -25.511707002131516 0 0 0 0 -1181.0661431973749 1333.6185978844733 0 1333.6185978844733 389.61742040436366 0 0 0 0 -58.479023281908667 -294.70607245150313 0 -294.70607245150313 274.95985719106102 0 0 0 0 4.0689099839237315 79.644371603553736 0 79.644371603553736 -33.714074183881166 0 0 0 0 13.529285399900367 7.7120187397697606 0 7.7120187397697606 -0.51928935488643901 0 0 0 0 -119.63302722185017 -21.635548453035881 0 -21.635548453035881 111.98499543634534 0 0 0 0 -7.3417522845203473 25.72260005747712 0 25.72260005747712 -3.8255759861875731 0 0 0 0 -27.804583493692839 -2.5808760987620474 0 -2.5808760987620474 -0.69087176678146989 0 0 0 0 58.577106823045597 9.1792115765929339 0 9.1792115765929339 -16.233094206232636 0 0 0 0 0.24854020643707031 18.439589289671858 0 18.439589289671858 -6.970879928136128 0 0 0 0 -25.165219265868224 3.3535395820743759 0 3.3535395820743759 3.6821963071347454 0 0 0 0 -528.15597977253128 219.94291089611943 0 219.94291089611943 993.22379187241313 0 0 0 0 -135.53891097058295 65.859018884882971 0 65.859018884882971 -32.015226251678541 0 0 0 0 -555.44277763391983 -44.793149309909495 0 -44.793149309909495 755.22528915701696 0 0 0 0 -243.10139813227306 -135.0093783407101 0 -135.0093783407101 -70.147733126199455 0 0 0 0 134.42541841246748 -237.85056523441017 0 -237.85056523441017 290.04777566230769 0 0 0 0 -2.8958486316111234 1.331030780741294 0 1.331030780741294 -2.5471770721017322 0 0 0 0 -102.57743114258483 -478.1822530151403 0 -478.1822530151403 353.47847470112538 0 0 0 0 -10.139664421560326 -0.11362753765241962 0 -0.11362753765241962 0.020141762903246097 0 0 0 0 -380.950801166362 -115.74484534779913 0 -115.74484534779913 438.95272293958988 0 0 0 0 -431.09789933150932 -349.30087469999853 0 -349.30087469999853 -7.3829876639647409 0 0 0 0 599.36060250308583 203.74144694351708 0 203.74144694351708 176.30827365597361 0 0 0 0 -404.04132334960286 447.30043341673445 0 447.30043341673445 -397.65025161822996 0 0 0 0 -184.62155717531459 -206.00060052220942 0 -206.00060052220942 -307.48719965678174 0 0 0 0 -4.9488416780786544 -1.3037042318312899 0 -1.3037042318312899 -2.2133761169953772 0 0 0 0 -467.77795395860448 204.59816999304894 0 204.59816999304894 301.43867256816884 0 0 0 0 490.91311581118271 220.2361114485775 0 220.2361114485775 -561.8283823680249 0 0 0 0 -5.4603197003238773 1.7204912858119883 0 1.7204912858119883 9.2554953414658598 0 0 0 0 244.65338284836253 -230.30885519657022 0 -230.30885519657022 88.907067975786049 0 0 0 0 -4.7208532324416375 -0.020505136310099203 0 -0.020505136310099203 -2.784786002947385 0 0 0 0 -575.34842125597061 335.80641627336445 0 335.80641627336445 91.943196390398953 0 0 0 0 -244.0639388941832 96.224205188391238 0 96.224205188391238 -128.23280061864352 0 0 0 0 -651.5440933273153 278.87893512305163 0 278.87893512305163 0.31038628015812719 0 0 0 0 191.54070926231179 263.79593690716138 0 263.79593690716138 -0.055511181719944666 0 0 0 0 -241.46853453846606 17.644959556783988 0 17.644959556783988 195.21328987870947 0 0 0 0 -2.3334645787921318 10.600820807940181 0 10.600820807940181 -5.1131772510707378 0 0 0 0 1.4418264246338963 6.3552728093140018 0 6.3552728093140018 1.851679138176479 0 0 0 0 -3.2091851561224303 -3.3408458897320088 0 -3.3408458897320088 6.4033564668206964 0 0 0 0 11.424455290051242 8.0357791111055121 0 8.0357791111055121 -4.9426988967315992 0 0 0 0 -37.418465765752899 7.2094366331293713 0 7.2094366331293713 -1.0492140362330247 0 0 0 0 -28.502562923144069 3.2565037509120884 0 3.2565037509120884 -2.8995681368869555 0 0 0 0 -4.2047652501418877 -2.11018075154022 0 -2.11018075154022 -1.3136408185425807 0 0 0 0 -19.0308214536999 2.3388150397622667 0 2.3388150397622667 5.2386445878219092 0 0 0 0 -109.4626649724305 69.96650685883651 0 69.96650685883651 0.58474400261184201 0 0 0 0 -1.2093837471412288 -1.206795092161471 0 -1.206795092161471 0.10326988957686467 0 0 0 0 0.6588462015447889 -2.2728725569641846 0 -2.2728725569641846 -0.94988966313601964 0 0 0 0 7.8323244002278471 20.639601635826693 0 20.639601635826693 15.785204448227887 0 0 0 0 -57.283149209988096 -4.6511973894957919 0 -4.6511973894957919 -5.8982972942430933 0 0 0 0 20.932047883490327 25.500648215394904 0 25.500648215394904 0.020183861990517471 0 0 0 0 78.255046903285347 75.115456561310566 0 75.115456561310566 38.525850773683487 0 0 0 0 -8.8972290621202319 9.0121967918166774 0 9.0121967918166774 44.190981626081339 0 0 0 0 -327.01523647046088 -98.841636776720406 0 -98.841636776720406 -7.2911429822106584 0 0 0 0 0.49539809305421389 1.4497938147410991 0 1.4497938147410991 1.0457116116359231 0 0 0 0 22.704283430186933 52.416088885362115 0 52.416088885362115 99.318806197232334 0 0 0 0 180.29185247519945 92.018983023051987 0 92.018983023051987 23.387182903046778 0 0 0 0 95.114160798936723 47.375442035526248 0 47.375442035526248 0.091182639815087896 0 0 0 0 214.46188250284649 136.93639947489646 0 136.93639947489646 78.106571429001633 0 0 0 0 275.83762137132089 107.45520309107633 0 107.45520309107633 -0.01842950853460934 0 0 0 0 559.15869671454038 118.15888836832892 0 118.15888836832892 -11.543858950270874 0 0 0 0 105.04583144165917 100.39544779942662 0 100.39544779942662 81.055316068222965 0 0 0 0 137.52027825831738 105.5924220312736 0 105.5924220312736 -26.21664871100802 0 0 0 0 140.34391819606935 85.049916942101845 0 85.049916942101845 39.101793985784752 0 0 0 0 240.84961932710758 292.93386957762596 0 292.93386957762596 159.44610728038242 0 0 0 0 2.0008852754663291 2.1626975689108932 0 2.1626975689108932 5.2912800216949734 0 0 0 0 -78.146397054919362 85.106938715303841 0 85.106938715303841 110.81055889483468 0 0 0 0 73.895806310528314 21.2766159904495 0 21.2766159904495 -35.171789460175205 0 0 0 0 18.31424791803056 -32.959665639704326 0 -32.959665639704326 -27.417045060218925 0 0 0 0 0.069166099417231841 1.7096253371499444 0 1.7096253371499444 -7.0437307793786204 0 0 0 0 50.608798158317768 38.507941820837004 0 38.507941820837004 0.073329610881046392 0 0 0 0 28.072078885124938 24.205776621121913 0 24.205776621121913 0.16871596348210005 0 0 0 0 21.037332368542593 45.305414548376575 0 45.305414548376575 -7.4765588559566822 0 0 0 0 31.358752828563183 27.791903021690814 0 27.791903021690814 21.060192975855898 0 0 0 0 26.927766323508649 47.83980516835436 0 47.83980516835436 -27.047888917615637 0 0 0 0 -51.508332534766851 45.175412380742273 0 45.175412380742273 17.448268460400868 0 0 0 0 13.0923186155851 212.32923257110087 0 212.32923257110087 2.9675848993481395 0 0 0 0 107.17855068733729 53.569769240937603 0 53.569769240937603 -28.036922684681485 0 0 0 0 69.784928166146074 -142.10686715136399 0 -142.10686715136399 -133.02339815386222 0 0 0 0 105.91957099783849 122.01332935520259 0 122.01332935520259 39.555036791236489 0 0 0 0 1.1406605984410003 0.088709873380224735 0 0.088709873380224735 -3.1636980974216726 0 0 0 0 -28.53816761209282 238.40238952657501 0 238.40238952657501 192.21179922330339 0 0 0 0 85.539898007382362 223.4422814979589 0 223.4422814979589 0.15767218979453901 0 0 0 0 79.762814272555261 273.54496793892031 0 273.54496793892031 125.21036774662207 0 0 0 0 124.37204112628206 154.33788096832359 0 154.33788096832359 109.16928820389876 0 0 0 0 -43.249691485079893 146.29548443250678 0 146.29548443250678 143.34462017774786 0 0 0 0 112.98298440429198 77.720190153450858 0 77.720190153450858 140.82147604163038 0 0 0 0 332.7621589686587 101.31383462897429 0 101.31383462897429 0.012032487165092443 0 0 0 0 319.23859099374567 131.3001141663517 0 131.3001141663517 -11.896306538401404 0 0 0 0 295.30388056370066 -158.07597028974124 0 -158.07597028974124 402.71266508993722 0 0 0 0 700.71230050067243 -468.07454750197212 0 -468.07454750197212 -351.02249587491679 0 0 0 0 1454.7986511567688 -333.87892575632941 0 -333.87892575632941 -415.20761724071053 0 0 0 0 692.16514589371491 326.1210515035782 0 326.1210515035782 123.82902313047089 0 0 0 0 -246.04774392901527 97.158800900411734 0 97.158800900411734 154.28798127856135 0 0 0 0 3.338477853067161 430.19334644333867 0 430.19334644333867 -426.29740786819457 0 0 0 0 94.500131170630993 130.88935574077914 0 130.88935574077914 124.86231909116759 0 0 0 0 71.172043075136571 104.55763736230256 0 104.55763736230256 112.0175620370137 0 0 0 0 -178.07350353394031 69.860511976698035 0 69.860511976698035 112.38356773406122 0 0 0 0 -44.602367766398856 231.97693728899503 0 231.97693728899503 45.134838732119533 0 0 0 0 4.0876250497667286 6.3650336289774003 0 6.3650336289774003 2.8965550291811724 0 0 0 0 -50.145121310835748 175.89973811353047 0 175.89973811353047 131.11637557539507 0 0 0 0 -146.67386175747743 239.74452505589215 0 239.74452505589215 -146.5757694313761 0 0 0 0 -104.56520143428861 166.52442297982998 0 166.52442297982998 -185.2868855206907 0 0 0 0 -54.673458858287631 176.09217179308325 0 176.09217179308325 -227.44279261485644 0 0 0 0 -28.021215295293587 183.05777704260618 0 183.05777704260618 -168.13415108132904 0 0 0 0 7.2939466160507322 6.4010550394773276 0 6.4010550394773276 2.4214810132896503 0 0 0 0 -74.471233847115514 82.519253435890278 0 82.519253435890278 5.4985263515700353 0 0 0 0 4.405106598212349 2.7657947870890212 0 2.7657947870890212 1.0120264995700836 0 0 0 0 175.53492758661105 329.75386715099376 0 329.75386715099376 463.82029198331293 0 0 0 0 -11.568562828996619 83.348691532442899 0 83.348691532442899 172.90105012715503 0 0 0 0 -188.40920438623834 263.72076862541326 0 263.72076862541326 -32.265787586729857 0 0 0 0 -42.950995493325536 291.37074306828072 0 291.37074306828072 -56.440893609673367 0 0 0 0 230.26408932052618 87.912387307966128 0 87.912387307966128 25.412092804996064 0 0 0 0 154.79539019400954 321.58662476482459 0 321.58662476482459 -104.38417649020266 0 0 0 0 34.97432922572807 196.19213615911212 0 196.19213615911212 -133.03685561247403 0 0 0 0 111.02345488941501 226.62475061587975 0 226.62475061587975 -361.4241824591445 0 0 0 0 -74.733815411702381 408.81143662969953 0 408.81143662969953 -360.52961863917881 0 0 0 0 -236.87674815054925 339.73066105859471 0 339.73066105859471 -340.27514540572884 0 0 0 0 83.716777488204826 53.544531409806908 0 53.544531409806908 30.050527965129575 0 0 0 0 -72.789275801993426 540.02323993547907 0 540.02323993547907 -548.73720310712815 0 0 0 0 -37.64737698755016 237.4195226742886 0 237.4195226742886 -441.92765661641715 0 0 0 0 -125.2631442449233 354.98472126015804 0 354.98472126015804 -388.55366427505214 0 0 0 0 69.896726170626835 44.213245638262457 0 44.213245638262457 27.016098622527991 0 0 0 0 -44.393153345979954 188.78778693107597 0 188.78778693107597 -93.610085004822395 0 0 0 0 -37.031944858728139 121.0030129125762 0 121.0030129125762 -92.481500372421579 0 0 0 0 478.47983515342275 -345.1864281062808 0 -345.1864281062808 -283.15583967270504 0 0 0 0 -18.184314552264368 212.06752862058966 0 212.06752862058966 200.83453369692143 0 0 0 0 41.42789571618232 23.479823937159381 0 23.479823937159381 2.9105643317161594 0 0 0 0 11.843057077992853 243.30601875404682 0 243.30601875404682 -44.566206384781253 0 0 0 0 21.203114344567439 131.30172649287852 0 131.30172649287852 148.30245192287839 0 0 0 0 64.091768882042743 70.226593709921872 0 70.226593709921872 -131.92037434673693 0 0 0 0 10.178427362856382 161.83079271466704 0 161.83079271466704 68.306685407471377 0 0 0 0 20.251994650252527 166.77187468461489 0 166.77187468461489 -41.621497675776482 0 0 0 0 64.654247097025291 106.17556819149468 0 106.17556819149468 -21.023024279871606 0 0 0 0 6.7865386021439917 130.01960507606418 0 130.01960507606418 75.305623601889238 0 0 0 0 -2.5016486517124576 91.145878517694655 0 91.145878517694655 -15.079999077992397 0 0 0 0 57.033152431149574 123.3974991585419 0 123.3974991585419 -58.700965783009451 0 0 0 0 30.11173205803243 79.696342372357321 0 79.696342372357321 4.6560360920702806 0 0 0 0 37.79352122347882 20.412074895648402 0 20.412074895648402 -4.8924471955833724 0 0 0 0 20.624763509375299 6.7647800909021214 0 6.7647800909021214 -21.171727060833348 0 0 0 0 38.1356583383822 106.12889330862527 0 106.12889330862527 85.122591343228123 0 0 0 0 23.273847397529607 26.080993099691113 0 26.080993099691113 1.4666572653804906 0 0 0 0 31.389148591540106 29.829003387676494 0 29.829003387676494 -4.5317879032227211 0 0 0 0 39.989196476808047 26.54739406920271 0 26.54739406920271 -4.4923199428012595 0 0 0 0 42.346446751921576 22.098109365892014 0 22.098109365892014 2.2047506651724689 0 0 0 0 37.867085909754906 28.828399456584521 0 28.828399456584521 7.9517080429504858 0 0 0 0 36.052056575888173 22.501556821607664 0 22.501556821607664 3.7241601370915305 0 0 0 0 3.7832192590804716 6.9272896873006147 0 6.9272896873006147 -8.9623005339531119 0 0 0 0 44.173214325326626 26.835404743227627 0 26.835404743227627 3.2225243102875538 0 0 0 0 12.678030317174489 40.858074972667964 0 40.858074972667964 -32.295991451296686 0 0 0 0 674.55861360071503 4.2031316190550569 0 4.2031316190550569 -515.60763717356895 0 0 0 0 718.77490220811069 233.74153440247392 0 233.74153440247392 644.86131746205501 0 0 0 0 5.1760406005572754 9.5528456249973743 0 9.5528456249973743 13.654997733638083 0 0 0 0 798.38421689951792 281.82091543103888 0 281.82091543103888 -75.70973026563297 0 0 0 0 944.57554091321435 -30.972414539020974 0 -30.972414539020974 -381.4789812527888 0 0 0 0 24.675598099664057 -27.156084744288819 0 -27.156084744288819 70.792440835910384 0 0 0 0 509.22897495651705 -157.91471382514283 0 -157.91471382514283 -200.70810069118306 0 0 0 0 7.3630626275380564 2.3921532670509151 0 2.3921532670509151 2.7124578665780916 0 0 0 0 353.81063537137379 162.47414736771316 0 162.47414736771316 -81.922914821439917 0 0 0 0 535.39285607499551 -67.103758139943238 0 -67.103758139943238 85.597273221676005 0 0 0 0 27.992817926492329 3.7766975931568254 0 3.7766975931568254 -18.537970053202912 0 0 0 0 39.576554201604267 22.619789050804684 0 22.619789050804684 3.1608136786344403 0 0 0 0 39.546550115635 25.062644583427755 0 25.062644583427755 5.1829454999970039 0 0 0 0 14.153047503016921 16.53228946260721 0 16.53228946260721 4.1442521786888733 0 0 0 0 11.924337641663442 57.294876467422 0 57.294876467422 27.161725554731674 0 0 0 0 37.911896374303979 24.053129236104724 0 24.053129236104724 4.862224665699614 0 0 0 0 69.089035948620221 -26.534389663363982 0 -26.534389663363982 -57.936251651524799 0 0 0 0 -114.37766461328829 496.16712607807858 0 496.16712607807858 227.8179938395624 0 0 0 0 5.1639980368058183 -2.4900939695128912 0 -2.4900939695128912 -12.377548311331907 0 0 0 0 6.2883667826346112 2.621979087788759 0 2.621979087788759 -3.8903328556836243 0 0 0 0 141.42741835496781 -36.049796410530689 0 -36.049796410530689 -43.736773494056251 0 0 0 0 90.732318233949627 -91.33489968496724 0 -91.33489968496724 112.57160354319785 0 0 0 0 281.03414140144378 203.57769896440732 0 203.57769896440732 27.815494951315486 0 0 0 0 431.56810599971141 -123.59810276811186 0 -123.59810276811186 -7.4642519624176202 0 0 0 0 154.94533153008524 -158.61304667686636 0 -158.61304667686636 123.72305897129991 0 0 0 0 183.69554760175379 59.882210820869659 0 59.882210820869659 -120.59178069719928 0 0 0 0 248.56642788404861 -13.174845023007947 0 -13.174845023007947 -153.81190020404756 0 0 0 0 209.60789530914917 24.157814175501699 0 24.157814175501699 -168.41062925742881 0 0 0 0 319.17158737786303 201.26962752307736 0 201.26962752307736 -156.25874842042685 0 0 0 0 44.831642492379615 254.18496442268952 0 254.18496442268952 -299.33319207190232 0 0 0 0 250.79296865235665 180.52939464390511 0 180.52939464390511 -298.7616985985369 0 0 0 0 100.38185710997641 89.792410462803673 0 89.792410462803673 -276.18244100162701 0 0 0 0 159.43413392853836 113.30170420392824 0 113.30170420392824 -267.43845502617478 0 0 0 0 120.78702112391602 16.360048138682032 0 16.360048138682032 -150.60073496584664 0 0 0 0 95.800764931871527 183.90083986953687 0 183.90083986953687 -415.25594206851383 0 0 0 0 16.108878199827814 205.91427513433518 0 205.91427513433518 -377.95504400096252 0 0 0 0 -112.56956244778848 259.2397640178242 0 259.2397640178242 -368.32861260337086 0 0 0 0 -23.01318583023567 122.13359846553794 0 122.13359846553794 -179.32834106044902 0 0 0 0 99.144369713547349 76.347593507292913 0 76.347593507292913 -256.65215697791427 0 0 0 0 63.864921934033191 -23.278879054749268 0 -23.278879054749268 -53.631389193644281 0 0 0 0 77.176269219962705 105.81173525101622 0 105.81173525101622 -217.73312868877838 0 0 0 0 0.55709542881259111 -0.2187065576488223 0 -0.2187065576488223 -6.2099137634330646 0 0 0 0 209.45368330898054 72.890421883952513 0 72.890421883952513 -127.50925390751217 0 0 0 0 271.52397147097122 -26.770619448237994 0 -26.770619448237994 23.478345287614502 0 0 0 0 271.35165474586393 -36.650138754346699 0 -36.650138754346699 -247.79740595431213 0 0 0 0 224.40746560374646 -195.85206365257909 0 -195.85206365257909 -99.850388569699135 0 0 0 0 4.7081019709889418 5.773273769135244 0 5.773273769135244 -2.5645471574378291 0 0 0 0 -78.0065034659292 145.38916635288479 0 145.38916635288479 311.95737915334757 0 0 0 0 215.6512595001559 -162.13192732541211 0 -162.13192732541211 9.9255456561950268 0 0 0 0 1.3942796184783219 12.882754003949231 0 12.882754003949231 308.78304859375612 0 0 0 0 -61.272070536539104 70.622689242009073 0 70.622689242009073 130.00285425502807 0 0 0 0 41.736000564913411 75.223588847671635 0 75.223588847671635 124.88656278207782 0 0 0 0 32.359059757869545 66.688446208121604 0 66.688446208121604 153.76390912778515 0 0 0 0 23.817755815143755 122.84632271033479 0 122.84632271033479 55.267813421334722 0 0 0 0 245.75894784940829 -122.15465123228205 0 -122.15465123228205 -31.746101571436157 0 0 0 0 0.860662330697199 1.6282096782924782 0 1.6282096782924782 -3.9166499622408537 0 0 0 0 -22.32416689618185 51.516336300388502 0 51.516336300388502 -14.062859493686119 0 0 0 0 -34.069140893654733 26.073566905113765 0 26.073566905113765 3.5810759755335368 0 0 0 0 6.1381215402770266 25.565807163610458 0 25.565807163610458 -9.0581619555277655 0 0 0 0 339.71350141773837 14.371120550997148 0 14.371120550997148 -126.42378524482774 0 0 0 0 -104.3509428147845 84.390993885435819 0 84.390993885435819 -42.644157848684699 0 0 0 0 -77.491950001342047 143.97859829004301 0 143.97859829004301 -20.582429090427468 0 0 0 0 -14.387154365670852 9.3472524213350567 0 9.3472524213350567 -3.4394827790578688 0 0 0 0 330.41743397163373 -28.098475784034235 0 -28.098475784034235 -19.438134612631984 0 0 0 0 445.2864813468932 19.022303252928396 0 19.022303252928396 -159.11689285149623 0 0 0 0 225.53087851275632 -42.068102129007457 0 -42.068102129007457 -13.590827402716968 0 0 0 0 -33.666778309776419 75.252456354799506 0 75.252456354799506 -43.763330642192159 0 0 0 0 159.89394330904179 -58.125194878419279 0 -58.125194878419279 -9.9903030649111315 0 0 0 0 -135.01404008693862 182.85088823282058 0 182.85088823282058 -243.38177667892887 0 0 0 0 503.21920364283687 -132.21257962447999 0 -132.21257962447999 -13.628197935429853 0 0 0 0 -64.607302442957007 211.47780198934561 0 211.47780198934561 -239.55879308910517 0 0 0 0 243.86633892033569 -1.7645894977031276 0 -1.7645894977031276 -61.384546133180265 0 0 0 0 0.49317869963604011 0.30291573832393226 0 0.30291573832393226 -2.2217456126032289 0 0 0 0 -488.09321818229364 540.25299041415201 0 540.25299041415201 -164.71368601656286 0 0 0 0 2.8267652056889911 57.416660849743934 0 57.416660849743934 -81.946784721402111 0 0 0 0 208.1968518423455 99.680128924192104 0 99.680128924192104 -138.66201897646533 0 0 0 0 347.680773927681 105.61867208566764 0 105.61867208566764 -178.35622367635369 0 0 0 0 313.28926239132488 36.412709367752541 0 36.412709367752541 -128.72431791536656 0 0 0 0 -8.159121119615584 17.76021414368671 0 17.76021414368671 -7.3562850809656339 0 0 0 0 257.38591143865051 131.95973924508144 0 131.95973924508144 -155.48218414714211 0 0 0 0 237.62566157018955 131.90109758965264 0 131.90109758965264 -153.90609560471785 0 0 0 0 54.254967643051643 62.518979323172928 0 62.518979323172928 -71.989354793584937 0 0 0 0 -90.844007491436059 114.39042116218297 0 114.39042116218297 -51.755055164630903 0 0 0 0 -34.584113578435101 98.989873730165272 0 98.989873730165272 -12.241452478138484 0 0 0 0 132.11616577477616 124.41072024386995 0 124.41072024386995 -26.220046726555665 0 0 0 0 -46.573342005563973 232.80704599401361 0 232.80704599401361 0.6388752309649135 0 0 0 0 113.88318200833055 205.21038365611457 0 205.21038365611457 -289.48173149271497 0 0 0 0 89.060994534436759 122.06425186178058 0 122.06425186178058 -2.3165583849731775 0 0 0 0 -45.024037572145659 55.964715193163812 0 55.964715193163812 -17.763198258429952 0 0 0 0 44.523704074876164 62.334991474639764 0 62.334991474639764 -46.786690938775855 0 0 0 0 91.172944772097253 44.410234555898569 0 44.410234555898569 -69.865570439977091 0 0 0 0 56.384987510813517 126.31429064500844 0 126.31429064500844 117.84480733110831 0 0 0 0 6.8564830704117412 37.665055549874523 0 37.665055549874523 45.888272288488224 0 0 0 0 -66.53023148061402 129.1432681896149 0 129.1432681896149 57.263805301867251 0 0 0 0 28.695075607823512 80.670063889898245 0 80.670063889898245 62.212909065974969 0 0 0 0 37.582508489137581 170.3621418990806 0 170.3621418990806 17.309888165371376 0 0 0 0 42.200264648868881 60.17350701680413 0 60.17350701680413 59.844802379001692 0 0 0 0 -9.1055698279126496 5.6082446551142198 0 5.6082446551142198 13.968390849858395 0 0 0 0 -121.09977941225407 52.231612552826846 0 52.231612552826846 269.64496439465802 0 0 0 0 197.84289761830223 162.5320352202034 0 162.5320352202034 1.3370461655686086 0 0 0 0 -60.452788547061573 331.96476206148509 0 331.96476206148509 -43.859400292759346 0 0 0 0 156.93699803773961 16.060607687919401 0 16.060607687919401 -105.24309713942057 0 0 0 0 29.038682360835992 305.64199641141931 0 305.64199641141931 -368.90909108761116 0 0 0 0 61.412235924399283 177.8259336152114 0 177.8259336152114 -363.61228500344441 0 0 0 0 51.566515469079604 220.89840509436908 0 220.89840509436908 -323.90904442856117 0 0 0 0 61.024998058590427 307.42181105345662 0 307.42181105345662 -515.04567463381682 0 0 0 0 42.054484455044985 329.78643151035976 0 329.78643151035976 -436.63918774135527 0 0 0 0 10.791939036655776 184.06935164625338 0 184.06935164625338 -386.50051426250138 0 0 0 0 70.797200042394252 238.53828465810511 0 238.53828465810511 -480.77962904421292 0 0 0 0 -29.633031442663196 201.65456493101374 0 201.65456493101374 -614.30572092326474 0 0 0 0 23.01297938698599 262.1688290991242 0 262.1688290991242 -546.33277352689765 0 0 0 0 -169.8887347280579 177.12271396190772 0 177.12271396190772 -484.52279615448788 0 0 0 0 -421.01584407236078 493.05730658199172 0 493.05730658199172 -576.10465078986454 0 0 0 0 15.862185400066664 117.96913377794408 0 117.96913377794408 30.312875605559384 0 0 0 0 71.99329619164962 69.583626489998238 0 69.583626489998238 39.100825104821325 0 0 0 0 59.786002454333357 53.162698464904679 0 53.162698464904679 85.323439437270281 0 0 0 0 32.392433006734791 108.82120676863633 0 108.82120676863633 -27.417786358375452 0 0 0 0 11.256528773126774 134.55865042994265 0 134.55865042994265 7.3593035582307493 0 0 0 0 9.8742322380276164 144.75207129707997 0 144.75207129707997 -33.86549085965089 0 0 0 0 -10.671564279180529 140.34788093658699 0 140.34788093658699 -9.7085461623792071 0 0 0 0 4.9321714704419719 123.96852437642519 0 123.96852437642519 -0.89308568019623635 0 0 0 0 6.1940793817921076 139.1969280741796 0 139.1969280741796 12.017423980374588 0 0 0 0 6.1825826939166291 141.37531428068542 0 141.37531428068542 36.894055083768762 0 0 0 0 -5.0596642323544074 131.35838832825539 0 131.35838832825539 26.422186870433507 0 0 0 0 14.40422295605822 127.82717633918219 0 127.82717633918219 26.991425167514535 0 0 0 0 16.987254061001295 117.05375643655134 0 117.05375643655134 26.532851870957529 0 0 0 0 2.4306005721300608 130.70974156900775 0 130.70974156900775 28.583829941948352 0 0 0 0 9.5112409657012904 117.46357616544992 0 117.46357616544992 36.187754411503192 0 0 0 0 21.169015818937623 123.68155538605424 0 123.68155538605424 19.004970053909346 0 0 0 0 2.0947847708666814 129.60656960569759 0 129.60656960569759 25.106584190754802 0 0 0 0 -39.260193272468314 139.1257503247034 0 139.1257503247034 16.503482204927423 0 0 0 0 -14.011322928517984 122.04645988116908 0 122.04645988116908 -3.9272579878379474 0 0 0 0 -6.9101393668242963 138.20603241924618 0 138.20603241924618 -70.618433534822543 0 0 0 0 0.93487142559024505 133.56479393196059 0 133.56479393196059 -8.0038961626632954 0 0 0 0 -30.257833790554287 134.86956502744579 0 134.86956502744579 39.363372912164778 0 0 0 0 -25.565258790367807 136.18402195520684 0 136.18402195520684 53.530512301978888 0 0 0 0 -21.197291897224204 124.25681811631512 0 124.25681811631512 21.666841928270514 0 0 0 0 -34.670334682498833 125.86014303879892 0 125.86014303879892 64.246246936250827 0 0 0 0 -20.234198182173714 146.66069486246124 0 146.66069486246124 87.422973882723454 0 0 0 0 -34.464743167670349 124.45947417961906 0 124.45947417961906 72.567792500092764 0 0 0 0 -4.0930579757405212 100.79606305236302 0 100.79606305236302 89.963289632738451 0 0 0 0 -5.6566204673363245 120.37596193920035 0 120.37596193920035 44.418867748307093 0 0 0 0 -12.295585417927214 124.77342861730904 0 124.77342861730904 65.625623795684078 0 0 0 0 6.291687081247801 129.0388068527036 0 129.0388068527036 65.966575535217999 0 0 0 0 -70.10934629253461 113.03023424879211 0 113.03023424879211 123.59157418143877 0 0 0 0 -45.273212414846057 173.27373529581746 0 173.27373529581746 102.10499031297149 0 0 0 0 -63.214679555376279 155.24210858993365 0 155.24210858993365 88.690370696160244 0 0 0 0 -11.143567625090327 131.88734231980425 0 131.88734231980425 52.071975013772317 0 0 0 0 -13.662432114200783 113.58265806972486 0 113.58265806972486 35.545724983478067 0 0 0 0 25.226959297804569 139.04325015686481 0 139.04325015686481 52.698274236317957 0 0 0 0 109.6188494052476 181.78584590528772 0 181.78584590528772 106.90662060280556 0 0 0 0 -98.723210107862542 48.388920731489634 0 48.388920731489634 58.371311937593418 0 0 0 0 -7.3020145601926529 5.956242071188413 0 5.956242071188413 6.2653723034013638 0 0 0 0 2.0991186403698521 108.74801449697043 0 108.74801449697043 123.50308843288803 0 0 0 0 -32.233597739737888 102.62578776859664 0 102.62578776859664 102.56725299464961 0 0 0 0 -31.854931805886736 100.60855509391695 0 100.60855509391695 24.601920465021976 0 0 0 0 276.59836491279202 361.03698724578135 0 361.03698724578135 -657.82012844784185 0 0 0 0 230.04382541622181 297.84039963552641 0 297.84039963552641 -15.388023007282754 0 0 0 0 -33.274906537451159 35.758649486954255 0 35.758649486954255 -31.508067744368176 0 0 0 0 116.22522589867367 33.941479838977102 0 33.941479838977102 -259.20157740030118 0 0 0 0 -36.012427551357177 -190.18970513780459 0 -190.18970513780459 -83.447634200281755 0 0 0 0 251.38545260025785 -113.36666893046277 0 -113.36666893046277 -103.09244197464432 0 0 0 0 -0.75951210131076863 2.8138950868030292 0 2.8138950868030292 -9.7061541349586662 0 0 0 0 -557.40753771661912 160.1219576098938 0 160.1219576098938 45.25796359674132 0 0 0 0 280.44251316359805 -97.928293078093702 0 -97.928293078093702 -396.15040349179799 0 0 0 0 -16.860733300221909 236.56756129759742 0 236.56756129759742 -53.73637337643413 0 0 0 0 -145.06116274551118 241.96951144052571 0 241.96951144052571 58.681903297838289 0 0 0 0 -138.85844862027443 90.465869549214403 0 90.465869549214403 127.89488347198858 0 0 0 0 41.423942564419121 97.29199762812641 0 97.29199762812641 95.931981111374625 0 0 0 0 -0.31003533681135309 0.35831369022750437 0 0.35831369022750437 -6.585046910761335 0 0 0 0 -7.0836079832651961 17.134800834219547 0 17.134800834219547 -37.155621049659374 0 0 0 0 -127.46965856695533 118.71076359365907 0 118.71076359365907 -134.31295661642071 0 0 0 0 -225.74692583827891 133.29503926449797 0 133.29503926449797 -19.365084778415621 0 0 0 0 -219.78299528394564 108.76446639308233 0 108.76446639308233 74.055006419141137 0 0 0 0 -669.19490063645571 -74.611893575531212 0 -74.611893575531212 77.134314891020637 0 0 0 0 -2.0605082911114962 3.8444434122617253 0 3.8444434122617253 -13.262953834687607 0 0 0 0 -409.16794293732164 -141.82852317598554 0 -141.82852317598554 -31.326485983385282 0 0 0 0 267.49704769185428 -295.68003780147092 0 -295.68003780147092 -258.53414911418804 0 0 0 0 -521.23224915823084 236.56853367085569 0 236.56853367085569 162.89785099810251 0 0 0 0 598.83447588423223 281.12681976635577 0 281.12681976635577 -165.44940349143508 0 0 0 0 214.73377856839215 23.809810832099174 0 23.809810832099174 69.762129487164202 0 0 0 0 249.4053490798251 -194.77806621025229 0 -194.77806621025229 -153.25650017058069 0 0 0 0 39.317348191207202 164.6585873158574 0 164.6585873158574 52.726931758810679 0 0 0 0 -3.6789527965912399 10.518146322221213 0 10.518146322221213 -23.99301582295891 0 0 0 0 -122.55015903710228 330.98274249074711 0 330.98274249074711 20.418544878208195 0 0 0 0 -63.080364318178908 91.576114852581668 0 91.576114852581668 41.1384599944613 0 0 0 0 60.04720096422534 234.05416026446619 0 234.05416026446619 57.842555523206101 0 0 0 0 76.691772730813682 102.58609370108934 0 102.58609370108934 -17.270610957719327 0 0 0 0 -47.715907635510121 139.78351998155995 0 139.78351998155995 25.443169001599017 0 0 0 0 -27.912496530642162 89.361202008684444 0 89.361202008684444 -8.0621795452672416 0 0 0 0 -9.2518998800223926 136.02207533596811 0 136.02207533596811 9.8995156497148855 0 0 0 0 13.188802062137256 159.58634826662637 0 159.58634826662637 67.670324477217946 0 0 0 0 321.15112021463756 160.0985983460605 0 160.0985983460605 -38.108638366233208 0 0 0 0 -26.389230940018351 86.963072078178627 0 86.963072078178627 -12.314931217475774 0 0 0 0 84.731930282293888 144.13669015127016 0 144.13669015127016 -12.54382738268032 0 0 0 0 -78.470213757418605 87.854774015075236 0 87.854774015075236 16.136529735060321 0 0 0 0 155.87851460740421 191.13515408928288 0 191.13515408928288 -14.363825062533579 0 0 0 0 91.236348369329789 77.594793347245286 0 77.594793347245286 -40.849408651529302 0 0 0 0 3.5183289232813166 15.586479645687842 0 15.586479645687842 -2.0221320216410703 0 0 0 0 186.44151493967092 27.649432804268827 0 27.649432804268827 -21.262147347370046 0 0 0 0 -568.08805269124787 162.09983613457734 0 162.09983613457734 552.63231194123 0 0 0 0 166.459726859488 -212.15667886379561 0 -212.15667886379561 -325.94230236031217 0 0 0 0 -251.7499148676543 436.01324045477304 0 436.01324045477304 -180.41874427084485 0 0 0 0 433.16876628463615 17.375539053452485 0 17.375539053452485 -51.041161358523823 0 0 0 0 -36.644039431384954 244.37225683916404 0 244.37225683916404 -61.507288755223271 0 0 0 0 -0.67200786629434006 -2.0365203525944722 0 -2.0365203525944722 3.2166957194040151 0 0 0 0 363.87300656314619 211.29319560061413 0 211.29319560061413 39.459062061629083 0 0 0 0 477.79394577688799 219.54514838426621 0 219.54514838426621 39.811504177495408 0 0 0 0 184.26227510281024 206.8829128563375 0 206.8829128563375 108.67028035210024 0 0 0 0 300.62110953419437 198.66719937698622 0 198.66719937698622 13.678617060068063 0 0 0 0 223.60198802265222 187.46344672312262 0 187.46344672312262 18.121420967829181 0 0 0 0 299.55997892052267 171.47220307635985 0 171.47220307635985 37.591143789657508 0 0 0 0 361.60371009963274 176.64509925009406 0 176.64509925009406 -11.661870787749649 0 0 0 0 346.67368510402594 151.45315324130934 0 151.45315324130934 -2.8876741255389788 0 0 0 0 479.6871768789315 101.06189390381041 0 101.06189390381041 -28.019890743133146 0 0 0 0 437.31106824286326 77.6040534727872 0 77.6040534727872 10.415042539178103 0 0 0 0 487.97374013649824 149.82014720447478 0 149.82014720447478 -6.8930599317518499 0 0 0 0 -0.093385145182788065 3.3348897808559101 0 3.3348897808559101 -17.140560902380258 0 0 0 0 118.18050493372721 10.996280768467841 0 10.996280768467841 -7.0415116151270922 0 0 0 0 362.30331816910984 64.81296868141726 0 64.81296868141726 -135.88467399086221 0 0 0 0 329.08357969172721 -8.7772336448833812 0 -8.7772336448833812 -193.81288815950393 0 0 0 0 89.965702374925968 -74.498270182455599 0 -74.498270182455599 -102.62393678646185 0 0 0 0 143.16771303204223 102.555407946169 0 102.555407946169 -150.62456086839666 0 0 0 0 134.43710419016861 148.36481840145279 0 148.36481840145279 27.881324810128717 0 0 0 0 208.51768843893115 -22.89472032032063 0 -22.89472032032063 -30.036181629402563 0 0 0 0 65.898351448202448 186.64171025156975 0 186.64171025156975 10.787889180270213 0 0 0 0 59.613553027455055 190.5771060336192 0 190.5771060336192 138.39214474346954 0 0 0 0 596.93717637842929 130.24223712381354 0 130.24223712381354 -25.043639217445161 0 0 0 0 474.84169202774865 104.45643327144353 0 104.45643327144353 -30.344117169232049 0 0 0 0 1081.2453919033505 -5.356848246017762 0 -5.356848246017762 -70.045441698308423 0 0 0 0 496.44376035037203 245.41346276970398 0 245.41346276970398 69.828486686412361 0 0 0 0 581.84026342101424 236.22462372233349 0 236.22462372233349 70.816804592679546 0 0 0 0 1.5078981692757125 7.5455294979201 0 7.5455294979201 -25.29886852107964 0 0 0 0 104.38565114492667 98.527667644175381 0 98.527667644175381 36.81329118803842 0 0 0 0 482.14914600821794 25.519167367248883 0 25.519167367248883 19.566502794317785 0 0 0 0 5.7838121104168323 16.027115060905277 0 16.027115060905277 20.765000934614221 0 0 0 0 -230.87688368021736 84.663722778162992 0 84.663722778162992 23.865816003199143 0 0 0 0 0.60584161850597518 5.8851046526269499 0 5.8851046526269499 0.86870118269209229 0 0 0 0 4.0688862701945681 4.6812156781875878 0 4.6812156781875878 -3.4122060091070807 0 0 0 0 47.957896706697284 161.13410359521367 0 161.13410359521367 491.82207766499778 0 0 0 0 838.3125099112076 619.80680983657658 0 619.80680983657658 183.8845582605536 0 0 0 0 806.23070931057009 473.8625488624275 0 473.8625488624275 303.76037116014049 0 0 0 0 618.86449482699391 136.45654426431065 0 136.45654426431065 532.38408464295571 0 0 0 0 525.78925914571664 320.20103809460488 0 320.20103809460488 278.24239530273917 0 0 0 0 272.06693874125449 238.36497794809111 0 238.36497794809111 222.46069478067511 0 0 0 0 274.96479097001065 216.89456782907655 0 216.89456782907655 346.36876825493528 0 0 0 0 496.275159285884 366.0150664022367 0 366.0150664022367 226.27886203059097 0 0 0 0 294.89886870028749 224.02570698612544 0 224.02570698612544 138.50384560914245 0 0 0 0 271.14917527044963 264.40638991486776 0 264.40638991486776 189.09412926921505 0 0 0 0 202.07087939895791 163.60551850794945 0 163.60551850794945 76.177827566214546 0 0 0 0 26.80275237292517 26.268957075564686 0 26.268957075564686 171.40259019651876 0 0 0 0 146.28950771473319 149.68320263800706 0 149.68320263800706 143.39773196624446 0 0 0 0 135.31451851781458 146.21302952641418 0 146.21302952641418 206.67409313318421 0 0 0 0 82.10006658675411 102.80930114091097 0 102.80930114091097 47.154004602358327 0 0 0 0 18.918817187121022 48.24217918748036 0 48.24217918748036 80.154323388958801 0 0 0 0 63.027023757644201 97.316386097812938 0 97.316386097812938 71.731184624528396 0 0 0 0 111.97221350397376 177.43861628071681 0 177.43861628071681 188.76528841598702 0 0 0 0 77.49824946391891 97.920976695151694 0 97.920976695151694 80.505219153717917 0 0 0 0 312.91382013184557 291.08421080917287 0 291.08421080917287 -427.41166303994396 0 0 0 0 -11.718590914264496 -5.4290129466753569 0 -5.4290129466753569 34.089320948787645 0 0 0 0 -0.094885961605811531 -1.4708030187401988 0 -1.4708030187401988 3.2486347362043944 0 0 0 0 78.647606567836192 66.740494894496806 0 66.740494894496806 -31.882192231738372 0 0 0 0 87.80692246983017 318.53342323417019 0 318.53342323417019 5.1105755911521555 0 0 0 0 135.72688781643865 110.63972707406447 0 110.63972707406447 -3.8444044948628289 0 0 0 0 66.454861371719744 185.43766830566892 0 185.43766830566892 -41.783673430345516 0 0 0 0 75.546787928967206 151.41769378977642 0 151.41769378977642 47.500716626513167 0 0 0 0 17.3074614007528 177.98084336991815 0 177.98084336991815 27.691083000296203 0 0 0 0 -24.822953938491992 200.43656094673861 0 200.43656094673861 36.170314701801544 0 0 0 0 178.56710970616768 162.35162975214917 0 162.35162975214917 33.41402718952304 0 0 0 0 106.06571664809235 136.55088898698887 0 136.55088898698887 4.8181123663016479 0 0 0 0 107.53072725591119 171.64048366488714 0 171.64048366488714 102.29001137934029 0 0 0 0 127.70314858735583 165.72227732017564 0 165.72227732017564 10.689839888320421 0 0 0 0 130.33680828822253 182.26201709465386 0 182.26201709465386 49.880562365082369 0 0 0 0 211.78721637900526 163.73021582314323 0 163.73021582314323 -5.8580900236120215 0 0 0 0 208.48960177821937 176.53740327217747 0 176.53740327217747 -4.623788618366234 0 0 0 0 118.18181990807352 150.47487124695181 0 150.47487124695181 13.192841899286577 0 0 0 0 139.47590839711893 136.0634107304445 0 136.0634107304445 -9.1516385308277677 0 0 0 0 135.90463737845948 149.71111853534558 0 149.71111853534558 12.045040946679364 0 0 0 0 215.00646643400592 124.76740898008325 0 124.76740898008325 -47.439359627540398 0 0 0 0 215.90271103358828 134.22293239463761 0 134.22293239463761 -9.4220161448056388 0 0 0 0 49.907590952032479 162.71358762384989 0 162.71358762384989 46.61947644175234 0 0 0 0 51.057404572209634 167.55153747625809 0 167.55153747625809 34.559131168505701 0 0 0 0 -18.019970055767772 145.6820193701169 0 145.6820193701169 56.330505628822721 0 0 0 0 12.264991769130575 145.33235640235216 0 145.33235640235216 54.826730573913665 0 0 0 0 -18.715748498980247 121.18649228747563 0 121.18649228747563 37.826633514996502 0 0 0 0 58.25132621571538 113.90628013446985 0 113.90628013446985 20.863247416869854 0 0 0 0 36.85769530354446 119.89105597645903 0 119.89105597645903 22.285283432713186 0 0 0 0 53.311294561364775 107.68094006321553 0 107.68094006321553 -11.804835000315506 0 0 0 0 3.5654825259189238 96.986619454466563 0 96.986619454466563 10.500177881629497 0 0 0 0 -24.287585385500279 114.23465351972663 0 114.23465351972663 -12.075318124931073 0 0 0 0 -11.975764637943939 137.85655464566662 0 137.85655464566662 24.163352451101673 0 0 0 0 180.8738905299324 115.13973876109958 0 115.13973876109958 -13.545750304402645 0 0 0 0 124.75426332956704 96.902786636990641 0 96.902786636990641 -8.5464293772092788 0 0 0 0 98.144116835588648 71.846031809604028 0 71.846031809604028 1.7454352933709743 0 0 0 0 72.243571759143379 127.0078723966144 0 127.0078723966144 -4.1195219970613834 0 0 0 0 215.82777746184183 71.500352382952769 0 71.500352382952769 -12.935049676154449 0 0 0 0 332.21158646299591 89.938434318573854 0 89.938434318573854 -38.126997535371629 0 0 0 0 278.95848594247946 88.896358984588005 0 88.896358984588005 -14.725272892479552 0 0 0 0 348.22258190817229 113.33040087781046 0 113.33040087781046 70.782306222143234 0 0 0 0 340.48290688452835 136.2528229203017 0 136.2528229203017 17.270943414561771 0 0 0 0 340.09324509327416 69.948317679372849 0 69.948317679372849 -28.014298243622761 0 0 0 0 333.68411239656689 122.95964389276651 0 122.95964389276651 39.206235598539934 0 0 0 0 390.13983513242783 154.9651996304674 0 154.9651996304674 15.170469276301446 0 0 0 0 323.56927707956129 79.041951021128625 0 79.041951021128625 -58.129696664283983 0 0 0 0 320.75451563819661 93.045801063133695 0 93.045801063133695 -48.311144779218012 0 0 0 0 342.4001311400134 68.577019947828376 0 68.577019947828376 -106.86388902766339 0 0 0 0 337.30222659217134 117.31473505829854 0 117.31473505829854 -119.27401021114201 0 0 0 0 337.39752200923976 118.35445202948904 0 118.35445202948904 -132.1859849927896 0 0 0 0 272.35085685487502 105.08858120204968 0 105.08858120204968 -47.311979732010514 0 0 0 0 289.8032265131551 110.4083982411903 0 110.4083982411903 -82.544086453570344 0 0 0 0 289.66313707122754 96.416840132376819 0 96.416840132376819 -50.565319997667757 0 0 0 0 250.91736266707812 138.92368079492735 0 138.92368079492735 -43.003920781922716 0 0 0 0 281.21189850991686 168.80936965763249 0 168.80936965763249 -44.836539749987423 0 0 0 0 332.4139687293391 118.49881534103042 0 118.49881534103042 -107.25711479042366 0 0 0 0 313.49840006312479 161.5086887353882 0 161.5086887353882 -81.264461538463365 0 0 0 0 341.98536727871033 105.52755926243481 0 105.52755926243481 -210.51891945340321 0 0 0 0 311.88849459396442 198.49146344633482 0 198.49146344633482 -148.25488637904346 0 0 0 0 319.01259867956833 161.50390317331767 0 161.50390317331767 -112.65002576205461 0 0 0 0 340.39182169570267 188.23792210235843 0 188.23792210235843 -71.810975107458944 0 0 0 0 294.74336576260612 180.82570286567898 0 180.82570286567898 -4.4640936216892442 0 0 0 0 303.19997234063158 186.7072103431401 0 186.7072103431401 -37.050121163505537 0 0 0 0 189.91858069225418 -12.152073170866061 0 -12.152073170866061 -1.1717685024486855 0 0 0 0 189.54361599234107 81.560085237724707 0 81.560085237724707 43.896968559012748 0 0 0 0 291.85584109709453 106.03812690066843 0 106.03812690066843 48.685586229235923 0 0 0 0 281.79532421430486 134.39170240033127 0 134.39170240033127 30.588743405669447 0 0 0 0 276.2558892735542 186.08062905163024 0 186.08062905163024 -71.746611852213391 0 0 0 0 165.71361072291074 -122.36100011938834 0 -122.36100011938834 -8.301988537015859 0 0 0 0 -0.17849385811901008 2.3295293328089599 0 2.3295293328089599 -5.6123024257108227 0 0 0 0 320.05291853502513 181.03843893840894 0 181.03843893840894 -260.97550620195398 0 0 0 0 418.18319798841549 -227.38940247847495 0 -227.38940247847495 -242.56705251871608 0 0 0 0 -23.831633984544169 42.410498790617567 0 42.410498790617567 -259.4409856958373 0 0 0 0 507.02982173851706 71.801252282348287 0 71.801252282348287 -121.84693396811781 0 0 0 0 -14.312802340500326 24.031301355081581 0 24.031301355081581 -34.252601855770621 0 0 0 0 -11.056450824960869 22.405229605120965 0 22.405229605120965 -41.283950020865973 0 0 0 0 -557.24908799492187 -179.14739079450374 0 -179.14739079450374 664.05141091484256 0 0 0 0 518.95973500838591 -59.879588343981595 0 -59.879588343981595 -160.28224846221565 0 0 0 0 206.64721011869551 89.084958161873146 0 89.084958161873146 -1047.95587159141 0 0 0 0 72.721633956938604 21.227477736294531 0 21.227477736294531 79.358165241399547 0 0 0 0 -14.814359601818417 31.298207150195196 0 31.298207150195196 -59.312090436279874 0 0 0 0 508.30888833343488 443.58312673679029 0 443.58312673679029 -51.651500217281864 0 0 0 0 282.95565507864376 100.93781319364643 0 100.93781319364643 -124.12608063188964 0 0 0 0 233.90641742143634 0.46990049997111782 0 0.46990049997111782 -300.22916892543253 0 0 0 0 -54.182025989328395 544.1168218091625 0 544.1168218091625 117.61972947324102 0 0 0 0 272.37132129397651 202.73616838692396 0 202.73616838692396 -24.238824053220014 0 0 0 0 233.25665216592461 589.64190352070727 0 589.64190352070727 27.994671947300958 0 0 0 0 -210.2911847658761 134.83572521159658 0 134.83572521159658 22.994620063487673 0 0 0 0 346.17267275747872 70.626369304896798 0 70.626369304896798 -52.433985917843529 0 0 0 0 322.11749572202825 237.4354659237797 0 237.4354659237797 -3.9257288743829122 0 0 0 0 -542.41781564899429 -712.31810393849446 0 -712.31810393849446 1940.4714883924171 0 0 0 0 571.53355969002587 160.81146982911014 0 160.81146982911014 -31.416200767067494 0 0 0 0 408.88564655512528 110.78622676706073 0 110.78622676706073 118.04847969142429 0 0 0 0 -5.1668599200074539 6.7559539775155741 0 6.7559539775155741 -9.9164787468969848 0 0 0 0 97.084396841099988 73.400628690626036 0 73.400628690626036 -178.60740903810074 0 0 0 0 86.922260855382774 116.50937259043349 0 116.50937259043349 -58.354902001257869 0 0 0 0 125.43987450542045 189.80282578505648 0 189.80282578505648 -381.30157930136193 0 0 0 0 132.68199683773128 132.69516154524899 0 132.69516154524899 -137.07160714626662 0 0 0 0 140.42583639662189 359.22243033350969 0 359.22243033350969 -276.19564649189851 0 0 0 0 94.832212259541848 329.93545731751146 0 329.93545731751146 -60.284405078709824 0 0 0 0 -6.8350352432244108 537.29736655535089 0 537.29736655535089 -135.37855570565443 0 0 0 0 142.23851254151305 360.47052883476954 0 360.47052883476954 -434.57621306688816 0 0 0 0 37.541534520345522 390.23921471586254 0 390.23921471586254 -8.6417727323569125 0 0 0 0 10.200708351485446 336.10146921113119 0 336.10146921113119 213.12964340145118 0 0 0 0 42.560927426595299 287.66201630368596 0 287.66201630368596 128.21238067461672 0 0 0 0 140.48694213924864 57.491344095058594 0 57.491344095058594 415.31658486313245 0 0 0 0 -13.579760268050769 30.176630953978105 0 30.176630953978105 -58.697493641918555 0 0 0 0 440.72172331383808 862.10395374036307 0 862.10395374036307 -2265.8552867239778 0 0 0 0 -69.265578559811729 403.70478549005929 0 403.70478549005929 312.78278754018538 0 0 0 0 455.30696785232431 235.79693603620399 0 235.79693603620399 66.914271092393392 0 0 0 0 385.02151781163229 120.19280137026362 0 120.19280137026362 -14.142706910628476 0 0 0 0 454.18199189535517 187.079706438828 0 187.079706438828 0.45558240727041266 0 0 0 0 298.15462452848624 64.123969459288674 0 64.123969459288674 -49.086236519338854 0 0 0 0 338.16539498020575 158.00126933430511 0 158.00126933430511 20.700612237287714 0 0 0 0 328.15987691417104 176.16063599209156 0 176.16063599209156 -6.8439010928705102 0 0 0 0 509.71820392934387 249.83873901089464 0 249.83873901089464 10.385213711075266 0 0 0 0 586.61171798736905 104.60399677695386 0 104.60399677695386 105.59527793728194 0 0 0 0 -10.121454849841136 22.759709138275738 0 22.759709138275738 -42.802577490532769 0 0 0 0 430.46238785723472 114.58091018181585 0 114.58091018181585 -66.221084557211725 0 0 0 0 380.14822757122965 236.11850460794813 0 236.11850460794813 80.575669904959796 0 0 0 0 -6.360942871876432 13.442821192716636 0 13.442821192716636 -20.163248291287687 0 0 0 0 286.58330087362992 508.48607428852847 0 508.48607428852847 -180.38303948403336 0 0 0 0 474.03246816465253 237.1367020450416 0 237.1367020450416 42.569984237037716 0 0 0 0 477.721143280859 262.4471911898645 0 262.4471911898645 62.900405117688933 0 0 0 0 363.91862979729922 162.39858615081175 0 162.39858615081175 59.595458800406959 0 0 0 0 215.92602547264323 222.87738084124157 0 222.87738084124157 85.822746712947264 0 0 0 0 202.55107526698885 173.33464005127007 0 173.33464005127007 30.051756910965196 0 0 0 0 197.16405474692874 118.58478571581509 0 118.58478571581509 216.42736143236834 0 0 0 0 104.80180676050986 264.99862558099812 0 264.99862558099812 59.934772117601824 0 0 0 0 301.23206438859052 221.86534080919228 0 221.86534080919228 72.412048545273137 0 0 0 0 -71.33721378019618 235.16694378859756 0 235.16694378859756 -181.59347570114187 0 0 0 0 -15.959542363478249 160.52534631836897 0 160.52534631836897 -50.960510515396891 0 0 0 0 -36.612783817946365 104.44710424865934 0 104.44710424865934 -5.1499534214890446 0 0 0 0 55.950018310086307 126.33719198713516 0 126.33719198713516 -79.936705230160442 0 0 0 0 -92.192850336512493 122.89765221272319 0 122.89765221272319 -65.577864750877779 0 0 0 0 118.28364471752866 153.33689173939638 0 153.33689173939638 -82.238664059692383 0 0 0 0 58.170770668136356 72.844139518485918 0 72.844139518485918 -12.665249763522297 0 0 0 0 193.45476478703858 83.001166418896901 0 83.001166418896901 -39.142227873264346 0 0 0 0 206.59607617426082 118.28890032223717 0 118.28890032223717 -6.9664801638746212 0 0 0 0 214.70620457173209 24.709094893723886 0 24.709094893723886 -67.177264707279392 0 0 0 0 403.89189001720024 192.54290629007573 0 192.54290629007573 -143.11649562562525 0 0 0 0 113.89766599522773 -38.108316328434739 0 -38.108316328434739 -194.40230873584323 0 0 0 0 873.93830027985678 -125.86104214876104 0 -125.86104214876104 -188.25901179283892 0 0 0 0 47.956030051065682 81.114083422571639 0 81.114083422571639 -154.88667321648973 0 0 0 0 -49.148723495648483 286.58801280193074 0 286.58801280193074 -206.52702478532592 0 0 0 0 -113.34428300599029 245.43751506261469 0 245.43751506261469 -229.62444983536261 0 0 0 0 35.256974655672174 22.521024791023336 0 22.521024791023336 13.33519469559829 0 0 0 0 -116.82194207833891 222.01353553831723 0 222.01353553831723 -251.45709525853454 0 0 0 0 -91.645961406833521 170.90124807545362 0 170.90124807545362 -300.36112089610833 0 0 0 0 53.003171766988459 34.298527837955582 0 34.298527837955582 20.854038351093237 0 0 0 0 -130.15099499161306 288.0870073288379 0 288.0870073288379 -310.51486402990122 0 0 0 0 -59.951335768775607 219.19800027512974 0 219.19800027512974 669.82824565087685 0 0 0 0 0.69737645097264078 3.5580042504756051 0 3.5580042504756051 1.8617932054330595 0 0 0 0 -28.861644215383421 281.62934938535545 0 281.62934938535545 -476.28381653885299 0 0 0 0 -1.6541150420198392 359.44056618925242 0 359.44056618925242 -265.83640856843704 0 0 0 0 43.167253574406459 420.80914665742148 0 420.80914665742148 181.80666028374253 0 0 0 0 -30.291829262379906 309.2403972448883 0 309.2403972448883 303.33528925534119 0 0 0 0 -188.57375684435101 291.7813597807617 0 291.7813597807617 306.26429488209396 0 0 0 0 -185.66313261314599 331.43226944143498 0 331.43226944143498 651.56294566713768 0 0 0 0 13.405635074923552 7.7724250875981653 0 7.7724250875981653 4.6591067643773272 0 0 0 0 -57.343799721598771 240.2872675057879 0 240.2872675057879 -152.76277535672125 0 0 0 0 150.39164882314799 613.55909058617544 0 613.55909058617544 239.34771171634929 0 0 0 0 -374.24684858547153 129.80910445492191 0 129.80910445492191 30.125400087199523 0 0 0 0 569.25049298953672 255.74978681453649 0 255.74978681453649 5.3375660141027765 0 0 0 0 0.4713611732054801 0.47716093354014788 0 0.47716093354014788 -2.3491412143735317 0 0 0 0 -205.18618181949569 213.97432094157557 0 213.97432094157557 -0.036148161329037976 0 0 0 0 336.22161834390499 351.85285109252436 0 351.85285109252436 -20.055599223676836 0 0 0 0 -248.82808446714262 331.86412900374125 0 331.86412900374125 17.825992149257218 0 0 0 0 -60.775836037308181 302.98929937362846 0 302.98929937362846 -67.888252979606477 0 0 0 0 -53.476079581916565 246.47505972531508 0 246.47505972531508 4.2156617334403563 0 0 0 0 -60.155648466482489 426.94742507676483 0 426.94742507676483 106.96242934120528 0 0 0 0 19.373391292919223 354.67917317074898 0 354.67917317074898 13.024298337259097 0 0 0 0 9.1953128047480277 296.5188302172719 0 296.5188302172719 168.11669576810527 0 0 0 0 -37.642668590249741 253.40506620308042 0 253.40506620308042 16.486680107977008 0 0 0 0 56.077266607071579 304.48146702311715 0 304.48146702311715 -0.0081003270679502748 0 0 0 0 82.464540709990615 277.36564695359266 0 277.36564695359266 25.61147072041058 0 0 0 0 325.25740422471063 186.27729834627826 0 186.27729834627826 11.374015366942331 0 0 0 0 180.39387917278873 189.77424141258234 0 189.77424141258234 74.343808131612604 0 0 0 0 180.80452574180845 191.25632946188716 0 191.25632946188716 15.567222618228698 0 0 0 0 131.94178088039007 147.6346852227889 0 147.6346852227889 41.308918231232383 0 0 0 0 315.96871902351268 173.31466399346391 0 173.31466399346391 39.532272891061439 0 0 0 0 330.94789306350322 216.63973070884276 0 216.63973070884276 80.03096578019904 0 0 0 0 417.32771473834873 183.16809574440413 0 183.16809574440413 39.792332206243827 0 0 0 0 429.18944539977019 227.73677689796295 0 227.73677689796295 116.19074685165833 0 0 0 0 1617.7734981903996 658.99515706336024 0 658.99515706336024 -1170.5762060620764 0 0 0 0 500.0524695185959 175.48738921785116 0 175.48738921785116 67.400066951369809 0 0 0 0 -1.9347008990510091 4.7610437576059184 0 4.7610437576059184 -6.2114992759946972 0 0 0 0 545.56139132608951 255.55210995821471 0 255.55210995821471 65.512765216160915 0 0 0 0 681.26875519596797 -864.22939466023672 0 -864.22939466023672 1225.0212322362058 0 0 0 0 449.78168595123134 235.471701401686 0 235.471701401686 136.76717413226288 0 0 0 0 400.78722337164436 195.02314246574679 0 195.02314246574679 64.56864487103303 0 0 0 0 406.85204204929323 179.81984978607215 0 179.81984978607215 33.557135570663377 0 0 0 0 409.89692015622131 213.9263569445975 0 213.9263569445975 87.981787559692748 0 0 0 0 440.45539542780898 171.95751361151633 0 171.95751361151633 63.931523991781432 0 0 0 0 334.90619389872154 160.87208947252657 0 160.87208947252657 78.171549627681088 0 0 0 0 346.190031769911 173.16123170019637 0 173.16123170019637 72.747406396520091 0 0 0 0 382.02933544368716 146.78068074853218 0 146.78068074853218 79.439452457065272 0 0 0 0 477.30348632095411 149.46022657788853 0 149.46022657788853 101.40045111874497 0 0 0 0 425.68249400580316 207.20880808549555 0 207.20880808549555 36.801914912721259 0 0 0 0 449.08314593293653 172.60150549280297 0 172.60150549280297 29.355142846674426 0 0 0 0 407.02347968023241 207.93730790676636 0 207.93730790676636 0.019853429122320888 0 0 0 0 327.4983295248785 173.68988381879535 0 173.68988381879535 73.073518041237548 0 0 0 0 2.5645844038914944 -0.74930594585565302 0 -0.74930594585565302 -2.0790109811108834 0 0 0 0 293.39853616041546 168.49512504222366 0 168.49512504222366 0.14403816964477301 0 0 0 0 2.0190623412356103 -0.65064017774960803 0 -0.65064017774960803 -1.7894617187517099 0 0 0 0 279.38307575372892 123.0086245615239 0 123.0086245615239 57.464424499827146 0 0 0 0 210.76930526917931 235.64315835344314 0 235.64315835344314 71.120953663019463 0 0 0 0 146.61396010606404 143.29857838006137 0 143.29857838006137 86.639688154607029 0 0 0 0 146.66104475255361 143.66577656024469 0 143.66577656024469 38.521325624649762 0 0 0 0 15.487961218248529 231.12940130578318 0 231.12940130578318 0.079217093469196698 0 0 0 0 -155.44516217390992 186.66163143344238 0 186.66163143344238 78.994390092299 0 0 0 0 25.627761810268566 234.46637580584866 0 234.46637580584866 35.974947609502692 0 0 0 0 -5.3400451226752921 171.79569273239304 0 171.79569273239304 38.745847867030534 0 0 0 0 -169.79362814158958 217.13638994737994 0 217.13638994737994 63.773102424042008 0 0 0 0 34.258842697254295 170.79732833493472 0 170.79732833493472 13.074726422571985 0 0 0 0 37.055383923547197 192.58639084792594 0 192.58639084792594 81.13540421048674 0 0 0 0 -124.71001182603504 290.72653800147964 0 290.72653800147964 95.357166577441603 0 0 0 0 -157.78894139109252 66.900734476035723 0 66.900734476035723 498.15824643462111 0 0 0 0 -1.3496755651096066 3.4266106941054204 0 3.4266106941054204 1.0246611901558396 0 0 0 0 -69.832760467928892 246.20595818984657 0 246.20595818984657 -354.6049712803142 0 0 0 0 -166.71971862448117 199.22602325988555 0 199.22602325988555 -0.048473961953277467 0 0 0 0 -181.20546053664111 291.44721882497743 0 291.44721882497743 -129.14817526577099 0 0 0 0 -31.316865091743239 133.86499081943475 0 133.86499081943475 -119.88676110115193 0 0 0 0 -62.206971410099868 150.41523496502668 0 150.41523496502668 28.604325153290119 0 0 0 0 -84.442262485899846 317.32254430516332 0 317.32254430516332 0.49218291000081843 0 0 0 0 -1.5222667458500609 4.9849178760544959 0 4.9849178760544959 1.3513381877651582 0 0 0 0 -44.830625593129298 81.597863491558201 0 81.597863491558201 276.28752297525352 0 0 0 0 -31.145114321239816 315.16349719254504 0 315.16349719254504 -545.79731735576934 0 0 0 0 -0.72285052407727335 3.4965951728918299 0 3.4965951728918299 0.71307721274462921 0 0 0 0 -187.98784464503115 370.61627254535415 0 370.61627254535415 -169.71367626230494 0 0 0 0 -97.044367561302352 95.812784062058199 0 95.812784062058199 -49.586684761139622 0 0 0 0 -117.43541398768139 89.890184273575869 0 89.890184273575869 484.58286321545165 0 0 0 0 -176.36804633588963 430.13462923561474 0 430.13462923561474 125.76290414301184 0 0 0 0 -133.01677064430987 325.7748960841509 0 325.7748960841509 -147.49635968838993 0 0 0 0 -16.135480213106348 175.1199140614408 0 175.1199140614408 65.94861008922453 0 0 0 0 -19.945854426543519 200.89624959640059 0 200.89624959640059 27.879029534964502 0 0 0 0 -101.87495579050301 178.72256750756787 0 178.72256750756787 71.045587651849928 0 0 0 0 -4.325959887761428 5.145825908265067 0 5.145825908265067 2.8349692738148207 0 0 0 0 -94.102906003226963 263.04630557402197 0 263.04630557402197 -34.873722829004691 0 0 0 0 -160.99259912061461 412.59766302878415 0 412.59766302878415 -126.68333286356938 0 0 0 0 -310.76282148365317 262.87355769915303 0 262.87355769915303 168.70085115772235 0 0 0 0 -100.97298353547376 241.392710351196 0 241.392710351196 53.974780797092535 0 0 0 0 -234.80512079935613 330.71744770380377 0 330.71744770380377 -85.86260160409438 0 0 0 0 -68.22863582176069 469.96305499280425 0 469.96305499280425 -704.25423390925425 0 0 0 0 -2.5802809817626837 3.8021823674347957 0 3.8021823674347957 1.8047202786514447 0 0 0 0 -108.1157432958862 301.00234904343233 0 301.00234904343233 -143.19165858387441 0 0 0 0 -239.64061190339271 561.102849719191 0 561.102849719191 -182.12126367133169 0 0 0 0 -120.27694030065686 232.94795768760741 0 232.94795768760741 124.96324273466598 0 0 0 0 -84.196892303232744 203.95849107158938 0 203.95849107158938 75.083392403568723 0 0 0 0 -42.392127822751718 374.86248970342967 0 374.86248970342967 -68.119082059885841 0 0 0 0 123.62704360077623 221.66347144453903 0 221.66347144453903 27.575145906303078 0 0 0 0 35.62471641258162 280.41384146001656 0 280.41384146001656 68.769337541700224 0 0 0 0 214.10393015405862 230.56977245333837 0 230.56977245333837 74.358160045972909 0 0 0 0 238.77412543614628 84.159780817994033 0 84.159780817994033 313.38359620512347 0 0 0 0 63.662306154074031 156.3419162164646 0 156.3419162164646 287.24462144396966 0 0 0 0 -79.509744936178322 152.268629282029 0 152.268629282029 191.54810663072567 0 0 0 0 -31.975329114502529 177.34624763075408 0 177.34624763075408 152.22444422317494 0 0 0 0 10.806504457985284 161.38643927888188 0 161.38643927888188 110.85229306196561 0 0 0 0 -21.855868220285629 103.11445050154725 0 103.11445050154725 232.64919615014514 0 0 0 0 107.52909785065276 184.87004690994218 0 184.87004690994218 152.28176140333517 0 0 0 0 -913.98031313900356 138.72434071972384 0 138.72434071972384 53.581843795604073 0 0 0 0 -234.13332906810683 564.87316164129879 0 564.87316164129879 -80.226449269466684 0 0 0 0 -462.39021604182199 782.05297819107363 0 782.05297819107363 -41.200135905222851 0 0 0 0 -120.96725831481308 513.47853589808801 0 513.47853589808801 -57.629038122817292 0 0 0 0 226.79573666054057 469.24476673764002 0 469.24476673764002 -149.07261157180619 0 0 0 0 350.82651354755217 509.45824366666056 0 509.45824366666056 -96.877788589445117 0 0 0 0 -1337.4037444851929 -24.185801374413131 0 -24.185801374413131 288.24785140960012 0 0 0 0 -4.5889866537737021 4.7521785455699899 0 4.7521785455699899 -4.4705979869503381 0 0 0 0 -131.1890648116605 723.31484359395836 0 723.31484359395836 -163.1185197274317 0 0 0 0 -1333.7065424260545 24.495843442218757 0 24.495843442218757 107.67514768480032 0 0 0 0 -925.41956778365784 559.62767616525525 0 559.62767616525525 -321.19341969166999 0 0 0 0 -190.61457195659023 367.45153738012596 0 367.45153738012596 -150.93745535266953 0 0 0 0 -206.60041894816823 147.97611338176648 0 147.97611338176648 -161.67658096822561 0 0 0 0 -160.29726938699378 -2.1338935045159815 0 -2.1338935045159815 -107.27832111694443 0 0 0 0 -191.40390834370919 190.23228986436879 0 190.23228986436879 -491.18588641043607 0 0 0 0 -1.9509793502111279 166.31639589114275 0 166.31639589114275 67.711945682312944 0 0 0 0 124.2352898159188 297.72068007625785 0 297.72068007625785 -77.133329371150467 0 0 0 0 48.854938851589395 333.91496324625768 0 333.91496324625768 60.448075270296613 0 0 0 0 49.163320916468365 329.20703375841185 0 329.20703375841185 4.2917622177046724 0 0 0 0 79.14175987514318 314.10979259532178 0 314.10979259532178 -0.95669015632302035 0 0 0 0 38.979700676303764 362.9497138061306 0 362.9497138061306 57.379251029968145 0 0 0 0 46.930478973932622 249.65659934365249 0 249.65659934365249 90.470197579590604 0 0 0 0 -42.39752021384993 238.86152060829045 0 238.86152060829045 0.49671348211268196 0 0 0 0 32.447508700208346 287.06891796000309 0 287.06891796000309 4.4126041664494551 0 0 0 0 46.066642451565087 189.68385320072355 0 189.68385320072355 -13.249860529307625 0 0 0 0 46.585531838136376 218.88286915164645 0 218.88286915164645 106.60220635000587 0 0 0 0 -161.93440210109839 208.5310511827156 0 208.5310511827156 57.559184508507315 0 0 0 0 -150.89993871544357 392.53503108129007 0 392.53503108129007 -392.24926698461786 0 0 0 0 -116.84124727494418 72.862620716856327 0 72.862620716856327 -5.269752490128667 0 0 0 0 -206.80818466025994 -167.53721496569369 0 -167.53721496569369 512.99090967136726 0 0 0 0 -2.6145849865654327 2.8894099659738401 0 2.8894099659738401 1.6933129859817342 0 0 0 0 1121.0303959563389 1943.7580786336493 0 1943.7580786336493 278.72815899176203 0 0 0 0 1072.2312080872071 981.14123987111816 0 981.14123987111816 1.0789849903703725 0 0 0 0 -1.9014501700039546 1857.5260753338334 0 1857.5260753338334 1549.9039503796157 0 0 0 0 260.30070136523136 1185.8334635301808 0 1185.8334635301808 2772.2488110272097 0 0 0 0 6.0959259610262961 1.7638243251666665 0 1.7638243251666665 1.464548388049991 0 0 0 0 279.8570393346472 1240.5369603181944 0 1240.5369603181944 1677.9283041552917 0 0 0 0 2089.3134106855214 1348.6025597815496 0 1348.6025597815496 642.74795102361679 0 0 0 0 -1.0332429807126289 0.84959923718966479 0 0.84959923718966479 5.4184729587491631 0 0 0 0 -1041.9893250840469 -107.72550027130637 0 -107.72550027130637 128.39574076478675 0 0 0 0 -480.05090162171109 -46.492165919778927 0 -46.492165919778927 61.764780410798267 0 0 0 0 -0.0761959789143134 5.8849984135452473 0 5.8849984135452473 21.276851390285458 0 0 0 0 -177.363225036941 53.468091572009143 0 53.468091572009143 82.548778837677673 0 0 0 0 -67.020404687224072 90.969444628284691 0 90.969444628284691 -51.108512500512006 0 0 0 0 1171.8054399348403 1408.6939861698302 0 1408.6939861698302 642.56045284262018 0 0 0 0 15.629082130210008 26.27385663925088 0 26.27385663925088 34.341126502687985 0 0 0 0 46.071331358805764 36.659733959320874 0 36.659733959320874 13.591591896569298 0 0 0 0 19.537139295516397 8.5067358204308903 0 8.5067358204308903 4.4040480806175992 0 0 0 0 -2.1975348528450809 14.538699032049948 0 14.538699032049948 25.349169844783376 0 0 0 0 15.652156775176991 21.552379454311449 0 21.552379454311449 27.915260269146529 0 0 0 0 21.870907059267893 17.229791583001827 0 17.229791583001827 -1.1444643299508357 0 0 0 0 -2.3274687025186438 10.478745330883157 0 10.478745330883157 30.971802980533397 0 0 0 0 32.353997426042042 154.85793246425601 0 154.85793246425601 -165.94033360781032 0 0 0 0 -867.58923750949907 234.01605978798761 0 234.01605978798761 14.845723677062779 0 0 0 0 -1083.0759042985737 91.697014070217847 0 91.697014070217847 155.1211783465551 0 0 0 0 1.7484240279733854 6.6632703419174675 0 6.6632703419174675 3.6433542107911379 0 0 0 0 -742.42927010636777 -218.8392090658599 0 -218.8392090658599 429.0040028614967 0 0 0 0 -401.48473235062556 305.45300558082818 0 305.45300558082818 -48.926541929715313 0 0 0 0 1.5512077637262962 11.920482271424845 0 11.920482271424845 14.346673563576047 0 0 0 0 -737.18704284936393 -145.87609665488344 0 -145.87609665488344 -373.79687722615199 0 0 0 0 -601.42730459681479 226.71589822823444 0 226.71589822823444 -339.53343342713742 0 0 0 0 -172.2184511936066 169.33813939156244 0 169.33813939156244 -340.25254327394941 0 0 0 0 -463.83729909364047 110.7630710327503 0 110.7630710327503 -175.39480694918893 0 0 0 0 -450.27116047478921 87.884119531910983 0 87.884119531910983 -214.29408958157728 0 0 0 0 -482.28231855960621 191.07811946278525 0 191.07811946278525 2.1370141563820653 0 0 0 0 -277.24148393796349 232.71022263560371 0 232.71022263560371 -112.46194361679954 0 0 0 0 -486.40019275982013 176.24223707349483 0 176.24223707349483 -38.767484471827629 0 0 0 0 -699.24879449141736 82.752084595136694 0 82.752084595136694 -51.883525847908459 0 0 0 0 -668.78073506274086 193.1793401647883 0 193.1793401647883 -58.37542488121835 0 0 0 0 -697.61019669552479 150.61374172221258 0 150.61374172221258 109.15247185720364 0 0 0 0 -192.19609234195468 580.26172234799697 0 580.26172234799697 -213.21636640920769 0 0 0 0 -753.55099086310656 192.25099519623473 0 192.25099519623473 117.92625381276412 0 0 0 0 -294.01827014544324 296.36067148073198 0 296.36067148073198 36.191344492617645 0 0 0 0 -969.6907019732007 170.32552892210606 0 170.32552892210606 203.33067403426685 0 0 0 0 -683.38852794041304 286.85388576170953 0 286.85388576170953 185.16424576358986 0 0 0 0 -610.80637112457771 503.28887798453434 0 503.28887798453434 497.31961646123455 0 0 0 0 -306.43600270351453 255.90605687282368 0 255.90605687282368 37.247607350906037 0 0 0 0 -177.20610554619634 334.52122850613887 0 334.52122850613887 -94.390766135104059 0 0 0 0 -173.37970440375466 295.62367478706619 0 295.62367478706619 -129.86329912340443 0 0 0 0 -218.74933452188998 204.26377720377786 0 204.26377720377786 -219.53458848313312 0 0 0 0 -219.73036114196293 256.69592106657365 0 256.69592106657365 -171.75280293976539 0 0 0 0 -134.55895486870577 308.33284794944484 0 308.33284794944484 -179.04826282803697 0 0 0 0 -135.73737976295524 342.79502654396492 0 342.79502654396492 -113.06306245767337 0 0 0 0 -133.65499628988618 309.81355630438338 0 309.81355630438338 -49.623057165823411 0 0 0 0 -112.48080213180219 367.52204005740714 0 367.52204005740714 -114.34235688930494 0 0 0 0 -61.926502737223927 280.84109823425388 0 280.84109823425388 -213.51680066072731 0 0 0 0 -90.147640155708359 359.02716905006491 0 359.02716905006491 215.23496147566766 0 0 0 0 -56.750747701807995 378.98383534715686 0 378.98383534715686 -11.356593953627453 0 0 0 0 -123.8359783549738 288.76943432240307 0 288.76943432240307 205.51004695490701 0 0 0 0 -122.13221006418462 342.28993088345305 0 342.28993088345305 -60.991703385352594 0 0 0 0 -151.54187203143374 404.56932470814354 0 404.56932470814354 -31.592902057222091 0 0 0 0 -170.39600094810521 220.06853493128438 0 220.06853493128438 187.8845556043234 0 0 0 0 -168.41630250245362 211.6450686451135 0 211.6450686451135 218.31670076939918 0 0 0 0 -79.965580180299753 90.529973252979772 0 90.529973252979772 277.64910357703047 0 0 0 0 -162.15697013839963 38.176284975997987 0 38.176284975997987 251.478987575887 0 0 0 0 -162.60969961769297 34.043264159372484 0 34.043264159372484 315.10533414698148 0 0 0 0 -270.53110997425392 41.279190678076702 0 41.279190678076702 428.27800903294701 0 0 0 0 -310.10196547096712 -16.75320422911318 0 -16.75320422911318 346.6058515453733 0 0 0 0 -53.956913454552705 304.51919068784628 0 304.51919068784628 206.46704468183452 0 0 0 0 -162.09358386707027 302.93068724899058 0 302.93068724899058 505.96330913568454 0 0 0 0 769.80754223952317 35.416403402799915 0 35.416403402799915 108.88320466398727 0 0 0 0 285.25968330262549 721.72197587270784 0 721.72197587270784 663.82922430605686 0 0 0 0 -420.5505820146609 225.80554645429766 0 225.80554645429766 849.55325606152473 0 0 0 0 1233.2036888549337 506.28873716513772 0 506.28873716513772 -211.63928860173473 0 0 0 0 -637.34763833185571 -59.765674263795518 0 -59.765674263795518 488.22699329871102 0 0 0 0 0.58088635964603341 3.460141618884407 0 3.460141618884407 13.346927799992102 0 0 0 0 -119.92052904158481 95.314765324303153 0 95.314765324303153 368.32922915366362 0 0 0 0 156.4904082403591 546.82231028844399 0 546.82231028844399 1050.2783251046276 0 0 0 0 -161.43753852364898 -217.88179822116945 0 -217.88179822116945 412.75860914909572 0 0 0 0 277.29246947292995 -322.37195295814308 0 -322.37195295814308 432.67805219458387 0 0 0 0 -337.90316412879656 -329.75487713336679 0 -329.75487713336679 -88.273674680582189 0 0 0 0 -205.5262998775579 146.27929633903113 0 146.27929633903113 -79.445476808301464 0 0 0 0 138.05198456638027 315.94297279977036 0 315.94297279977036 -87.713284827797906 0 0 0 0 202.74735528597375 204.67712715455855 0 204.67712715455855 65.326223257012316 0 0 0 0 -42.683978132597986 49.645879922885797 0 49.645879922885797 -22.978329382138327 0 0 0 0 -228.42351908799901 268.83334943855152 0 268.83334943855152 -80.787304006102204 0 0 0 0 -102.66108313942095 84.784708678020252 0 84.784708678020252 -194.49776085036865 0 0 0 0 -501.99093006750627 99.350841310704709 0 99.350841310704709 -176.64441312964482 0 0 0 0 -654.68902133488155 -410.20134131878149 0 -410.20134131878149 -211.1019999281707 0 0 0 0 -16.294015761015629 14.891534356216738 0 14.891534356216738 66.162589767857696 0 0 0 0 -480.45967702141934 -272.34590395260602 0 -272.34590395260602 -103.12518488853675 0 0 0 0 6.2585133350439719 57.542320174514316 0 57.542320174514316 77.588389097283653 0 0 0 0 -2.0249870718256631 7.3729369681059893 0 7.3729369681059893 -0.6559571471529182 0 0 0 0 20.54519189063177 20.37499614182326 0 20.37499614182326 3.9218936169283509 0 0 0 0 110.35375097983342 35.661395878123585 0 35.661395878123585 75.15732179441693 0 0 0 0 73.422287510329625 100.74641392890589 0 100.74641392890589 64.878502444458718 0 0 0 0 -185.92884427371973 -69.592203225443882 0 -69.592203225443882 -32.608095622774272 0 0 0 0 -794.76338915329325 -422.88189926509222 0 -422.88189926509222 171.69192668523465 0 0 0 0 -48.03738095061999 91.811921699219965 0 91.811921699219965 -35.167267105542123 0 0 0 0 -131.48207858047681 295.53881388141599 0 295.53881388141599 214.49011246484588 0 0 0 0 -180.49610593321268 340.27751104203344 0 340.27751104203344 612.01306643354474 0 0 0 0 -19.063011679500583 14.555721715485902 0 14.555721715485902 72.794648182712734 0 0 0 0 -239.77691890063579 -117.68321511777685 0 -117.68321511777685 179.61072636974859 0 0 0 0 -681.4656487277789 -234.9571906791989 0 -234.9571906791989 189.45767761000025 0 0 0 0 -17.855414317624394 13.221203641353128 0 13.221203641353128 72.791371459263701 0 0 0 0 -166.02140299721214 75.768313218657568 0 75.768313218657568 188.22978767289896 0 0 0 0 21.207803938916186 -26.029025739197095 0 -26.029025739197095 -29.804514148432645 0 0 0 0 -292.52071541219448 -239.34470037584242 0 -239.34470037584242 317.01766942322138 0 0 0 0 -1.7679825571956798 1.6268791662177193 0 1.6268791662177193 -0.40403618315082213 0 0 0 0 225.94731883074564 308.7734878821575 0 308.7734878821575 135.41176341252867 0 0 0 0 -222.97462504681607 403.60151477856562 0 403.60151477856562 2107.1456129256112 0 0 0 0 1.010847038924112 107.97442330938065 0 107.97442330938065 382.20436967133355 0 0 0 0 3.1777203813002046 4.4263320573300717 0 4.4263320573300717 5.75652294990428 0 0 0 0 75.060467888062703 -35.035647033841087 0 -35.035647033841087 99.351674381694465 0 0 0 0 85.162252911148244 -47.547593856463209 0 -47.547593856463209 -539.6975204282644 0 0 0 0 -93.903223852117662 91.792501936357439 0 91.792501936357439 93.745535782771185 0 0 0 0 119.82726438609097 71.352488930706386 0 71.352488930706386 -20.987473066350503 0 0 0 0 105.54366075233702 113.02217571489928 0 113.02217571489928 58.174360664357664 0 0 0 0 0.0032899863581405953 84.658492558839498 0 84.658492558839498 212.71055597453233 0 0 0 0 125.38487315092061 189.20669037558218 0 189.20669037558218 259.28500331104442 0 0 0 0 26.988398768473417 171.75656405454538 0 171.75656405454538 436.84447120413824 0 0 0 0 -32.237176401918987 111.14366707048612 0 111.14366707048612 380.91758115086122 0 0 0 0 -9.8327892408560729 194.45399911504501 0 194.45399911504501 690.47282546840142 0 0 0 0 -31.255600550488452 -34.890839452287764 0 -34.890839452287764 279.48789092291554 0 0 0 0 27.129488388454774 -194.65304929274134 0 -194.65304929274134 239.52780460607028 0 0 0 0 -94.042440315941349 -146.09388032418792 0 -146.09388032418792 673.01394462333792 0 0 0 0 -31.195543863941566 -31.716906923516945 0 -31.716906923516945 434.17857313645072 0 0 0 0 -0.10683638854970923 62.535520560399164 0 62.535520560399164 62.82458604103158 0 0 0 0 96.18676888866321 77.150909581392625 0 77.150909581392625 -227.13404940897453 0 0 0 0 62.567496608098736 45.88954442657996 0 45.88954442657996 -59.583571810871945 0 0 0 0 106.4792652081378 -70.268364960182225 0 -70.268364960182225 -78.914042745876941 0 0 0 0 131.04949972438044 130.0806045525369 0 130.0806045525369 -148.49509053591464 0 0 0 0 7.5683742784021888 83.36939676082693 0 83.36939676082693 -165.64359283673548 0 0 0 0 5.2737320989108412 89.970750577682338 0 89.970750577682338 92.704691298458783 0 0 0 0 1.0505441870872403 1.742998694709172 0 1.742998694709172 2.6528244774205234 0 0 0 0 -63.389560746727511 63.76904443109197 0 63.76904443109197 -28.451203322605579 0 0 0 0 102.82676486585842 7.8691514671627374 0 7.8691514671627374 -288.58825176410755 0 0 0 0 -0.28410838554555085 200.55799979883159 0 200.55799979883159 154.52606495759392 0 0 0 0 73.199909695957103 -24.146741942773588 0 -24.146741942773588 -68.72026970700972 0 0 0 0 -1.0554446630019356 -1.6758026379117723 0 -1.6758026379117723 0.84102556096340209 0 0 0 0 -47.116635614467668 -8.0334523252931831 0 -8.0334523252931831 133.04730031649524 0 0 0 0 -3.1478625163204867 -1.1644509111669628 0 -1.1644509111669628 11.34893144483101 0 0 0 0 -322.85640282585882 -117.48381227310529 0 -117.48381227310529 268.94764319488604 0 0 0 0 -13.514479988776131 22.8804230896408 0 22.8804230896408 80.060364850782548 0 0 0 0 185.8381539143229 -152.56169719783793 0 -152.56169719783793 78.701336488957168 0 0 0 0 -37.472701467042498 97.284015659883153 0 97.284015659883153 -8.5250574322417378 0 0 0 0 -17.713095032207754 -3.5055722857909757 0 -3.5055722857909757 23.12199271940213 0 0 0 0 -20.888964474228843 23.125745738172782 0 23.125745738172782 69.696505763053636 0 0 0 0 -124.49023888805823 -119.43042298066575 0 -119.43042298066575 0.19433140403407378 0 0 0 0 -0.088542045210488141 41.832089544632254 0 41.832089544632254 74.81874870142201 0 0 0 0 -21.919787902690587 27.116685070650419 0 27.116685070650419 65.482952729500539 0 0 0 0 0.10017709804378683 12.249744397300674 0 12.249744397300674 28.163211595223402 0 0 0 0 -41.416263078819611 14.397469863364677 0 14.397469863364677 67.545832637457352 0 0 0 0 -22.571077424450777 -15.742140025573462 0 -15.742140025573462 -6.1258419271180173 0 0 0 0 -81.218390611051291 -93.207424719677874 0 -93.207424719677874 6.9527944035071414 0 0 0 0 -11.645230322342869 0.21642087025695389 0 0.21642087025695389 23.977736468591957 0 0 0 0 -54.286051350158232 -1.846062741607966 0 -1.846062741607966 50.371374537309748 0 0 0 0 -18.823244304809492 23.269328890736546 0 23.269328890736546 67.530234288740587 0 0 0 0 13.61686963095417 70.190733222043491 0 70.190733222043491 20.201421757046774 0 0 0 0 -559.82154584511591 34.48243522397388 0 34.48243522397388 259.0982799121557 0 0 0 0 -117.77199464623845 313.79648953120341 0 313.79648953120341 216.3394701245561 0 0 0 0 236.68650301181333 115.03750418817799 0 115.03750418817799 180.00959765897278 0 0 0 0 68.525323085945274 321.57103717362406 0 321.57103717362406 234.00810710353835 0 0 0 0 160.93693566895672 253.50982423385722 0 253.50982423385722 90.700734126541647 0 0 0 0 596.00004165934661 301.43345403257626 0 301.43345403257626 12.13456865833723 0 0 0 0 163.48140156042791 142.93257054012429 0 142.93257054012429 -48.264254867535783 0 0 0 0 -193.5825832137707 164.20955289244921 0 164.20955289244921 120.88545713521307 0 0 0 0 2.6406175646777257 5.0068117317940306 0 5.0068117317940306 4.7066033137238321 0 0 0 0 303.98731146819773 302.93566566565278 0 302.93566566565278 80.733334305848985 0 0 0 0 -7.2756292625701064 11.542132077848237 0 11.542132077848237 -8.2143475259271668 0 0 0 0 155.49253692326602 191.34423380145017 0 191.34423380145017 177.49004940737359 0 0 0 0 -289.34014829938315 10.827817476088967 0 10.827817476088967 106.00340970377147 0 0 0 0 -8.3291821326201898 180.06304129586715 0 180.06304129586715 57.596487358030572 0 0 0 0 -8.4103497959291431 20.782609794675992 0 20.782609794675992 69.201248816856122 0 0 0 0 254.05851875524058 36.469865067252613 0 36.469865067252613 5.4741716204152908 0 0 0 0 220.14335677280906 105.21550525547354 0 105.21550525547354 -23.374471164264833 0 0 0 0 -4.1790498657007333 10.27349338533061 0 10.27349338533061 -1.9063967422264909 0 0 0 0 -279.52847005367221 -66.190999080390611 0 -66.190999080390611 108.10380764913771 0 0 0 0 -1.6247006186008619 4.4979406072899621 0 4.4979406072899621 0.24550873094864301 0 0 0 0 -540.10517488380174 -291.45422181849062 0 -291.45422181849062 351.7735977917182 0 0 0 0 1150.248807100812 635.62703434482682 0 635.62703434482682 122.9338104011731 0 0 0 0 409.2420234896199 140.11980053565276 0 140.11980053565276 -143.17615001481317 0 0 0 0 2.609693272136937 9.6833915534197104 0 9.6833915534197104 41.034224080661318 0 0 0 0 -617.82349551490643 143.21919036261534 0 143.21919036261534 190.35791084684024 0 0 0 0 -255.42466549482197 184.63623634172836 0 184.63623634172836 -124.40494545652473 0 0 0 0 -198.84769658976074 -4.2807869211101206 0 -4.2807869211101206 126.70828399453603 0 0 0 0 -246.77980141409353 -3.9907588277346804 0 -3.9907588277346804 333.85370716004763 0 0 0 0 -241.81788681392663 -45.022686877057822 0 -45.022686877057822 242.12427881878102 0 0 0 0 -343.13287636385212 -183.1660575421738 0 -183.1660575421738 11.008406846071011 0 0 0 0 -103.27253471937729 -28.643624717100465 0 -28.643624717100465 102.36228874335939 0 0 0 0 -9.2224234636232723 83.833792118042766 0 83.833792118042766 218.89718168993932 0 0 0 0 -5.6706808821909362 145.03340127847332 0 145.03340127847332 130.68407925897645 0 0 0 0 5.5269582932414778 119.46037218081983 0 119.46037218081983 185.49909200200636 0 0 0 0 280.56965008530824 263.57659120453172 0 263.57659120453172 95.957083320485253 0 0 0 0 -45.105683778116628 35.399896138747096 0 35.399896138747096 -28.7942402184689 0 0 0 0 20.003691586600326 268.74028373882356 0 268.74028373882356 278.939352131958 0 0 0 0 -139.28376703066169 14.693293593929411 0 14.693293593929411 -63.825016516006144 0 0 0 0 21.744620077675791 294.11969450980905 0 294.11969450980905 56.801593875969957 0 0 0 0 -266.36903782475565 208.86563201597164 0 208.86563201597164 199.88330172975111 0 0 0 0 -49.236301638320384 59.260709502161745 0 59.260709502161745 -31.615259210293601 0 0 0 0 74.94445169903338 171.98386148051213 0 171.98386148051213 9.4586916997213848 0 0 0 0 39.296544115200959 143.46537518052355 0 143.46537518052355 -7.7353201616933802 0 0 0 0 16.228143124946655 116.28370978301609 0 116.28370978301609 -28.968063254200388 0 0 0 0 7.0482187284651445 127.34001484922192 0 127.34001484922192 -22.013281087500218 0 0 0 0 13.719719010966401 123.15723820733001 0 123.15723820733001 -35.107694841935881 0 0 0 0 2.8097703842777264 137.95472991027236 0 137.95472991027236 -39.504384423984447 0 0 0 0 -73.64848260231156 119.23259203970883 0 119.23259203970883 5.3962733520165784 0 0 0 0 9.8295889403921137 63.169649214046785 0 63.169649214046785 -10.515374421287561 0 0 0 0 16.832526732898259 130.79639369306096 0 130.79639369306096 -18.457195615705132 0 0 0 0 62.212404937810788 117.49840647816018 0 117.49840647816018 -32.292922559994622 0 0 0 0 44.701798084381153 123.37170799343585 0 123.37170799343585 30.545884937891969 0 0 0 0 58.877207671768701 130.58420560612012 0 130.58420560612012 -59.026136024229345 0 0 0 0 61.120650090371782 102.10302083389615 0 102.10302083389615 -37.406393400917295 0 0 0 0 65.152865115461282 163.64568162164414 0 163.64568162164414 82.20469731168123 0 0 0 0 67.030336198658915 119.79426139669522 0 119.79426139669522 29.873121514814557 0 0 0 0 57.953957433792311 101.25703471106681 0 101.25703471106681 2.3888571292918641 0 0 0 0 76.597660061350325 131.56880793817982 0 131.56880793817982 58.003808576715528 0 0 0 0 53.532124055425811 129.78119459156005 0 129.78119459156005 58.21773325043614 0 0 0 0 78.315795418428024 121.47009333400638 0 121.47009333400638 70.371977217859239 0 0 0 0 50.424239455634961 140.57850794993283 0 140.57850794993283 82.672174981940771 0 0 0 0 37.740867834651631 36.24011376098629 0 36.24011376098629 -6.1644498671224213 0 0 0 0 21.763819745625369 75.581331434315871 0 75.581331434315871 -34.613324988294153 0 0 0 0 60.116180055731093 122.40290927565366 0 122.40290927565366 98.444279274073779 0 0 0 0 56.622405444679316 153.4324084543332 0 153.4324084543332 109.82988428957469 0 0 0 0 38.631604279406503 53.475647910188925 0 53.475647910188925 -40.52663025271012 0 0 0 0 116.56759877941658 56.453415591764497 0 56.453415591764497 67.411527961499814 0 0 0 0 30.476183363089149 70.863436862660564 0 70.863436862660564 5.9597539505398229 0 0 0 0 57.592364823343374 103.84928742992406 0 103.84928742992406 -47.718925303979248 0 0 0 0 15.673370850792306 94.227081420174244 0 94.227081420174244 2.0396220433700449 0 0 0 0 13.34002537233755 65.782611884729704 0 65.782611884729704 -34.477228129006107 0 0 0 0 94.63501657442248 148.11132289550733 0 148.11132289550733 76.883710993395653 0 0 0 0 59.971260717728001 119.77378898753886 0 119.77378898753886 59.973508304989082 0 0 0 0 68.350938218158262 124.48936995080658 0 124.48936995080658 30.923818795788975 0 0 0 0 40.029044642316876 129.81098287719942 0 129.81098287719942 78.436185971992018 0 0 0 0 57.262751006699546 131.05011213843682 0 131.05011213843682 59.863918824470602 0 0 0 0 50.499152991105802 127.33947120475932 0 127.33947120475932 59.574909090895744 0 0 0 0 65.275345216767164 121.10173178572586 0 121.10173178572586 29.840393224352738 0 0 0 0 65.998245221693651 136.47700811212417 0 136.47700811212417 14.397153512880323 0 0 0 0 51.359070387872634 139.39977400271164 0 139.39977400271164 38.296571181796025 0 0 0 0 45.582675965776616 97.497022869597004 0 97.497022869597004 0.73000704435980879 0 0 0 0 -12.156121692168199 134.21859426174933 0 134.21859426174933 -67.822373596383841 0 0 0 0 17.027809554370432 74.079869470638698 0 74.079869470638698 13.484730488635307 0 0 0 0 -28.360147686486016 62.401494064411963 0 62.401494064411963 42.478378666346543 0 0 0 0 -54.07663177093491 159.83817154376447 0 159.83817154376447 4.1441059717326425 0 0 0 0 3.5526293852274193 29.470038248274804 0 29.470038248274804 5.3874116620086738 0 0 0 0 37.45974869066049 117.23676985485554 0 117.23676985485554 -85.962042130362533 0 0 0 0 -5.4772521270923704 63.518551851760478 0 63.518551851760478 -42.509982016721949 0 0 0 0 -107.70957161218394 98.919200914373505 0 98.919200914373505 17.990446606854675 0 0 0 0 -31.081964567387473 42.593971948559648 0 42.593971948559648 46.668764396952781 0 0 0 0 -36.578546858247137 100.39373110233282 0 100.39373110233282 10.620650485558144 0 0 0 0 -26.291393580799195 79.37832712637055 0 79.37832712637055 50.734379357745638 0 0 0 0 8.1679802970576816 6.7598146827107541 0 6.7598146827107541 -6.3378453944107989 0 0 0 0 54.967200827391935 71.343498199021269 0 71.343498199021269 25.393188828347775 0 0 0 0 23.051352889990085 70.049902045080671 0 70.049902045080671 29.196124909305581 0 0 0 0 40.613732294205874 114.34033599130953 0 114.34033599130953 -97.581804225483211 0 0 0 0 8.9411575627309503 166.77053672489274 0 166.77053672489274 -86.363334313593441 0 0 0 0 60.661871019368107 53.45604261373358 0 53.45604261373358 20.071607174776318 0 0 0 0 1.7904497986310162 131.46189147545192 0 131.46189147545192 -13.678322343985201 0 0 0 0 -17.595900996806449 111.70493919276487 0 111.70493919276487 33.058639366732677 0 0 0 0 42.203418290999252 123.47826429904671 0 123.47826429904671 23.402271170518361 0 0 0 0 -6.0792286269916076 127.35813955103549 0 127.35813955103549 33.47424541276996 0 0 0 0 -3.6510378564853454 147.50272932519147 0 147.50272932519147 12.705442150654562 0 0 0 0 33.203210955645773 104.78168542483763 0 104.78168542483763 18.314140933478484 0 0 0 0 34.941686939680949 106.1176659148623 0 106.1176659148623 16.287259520144289 0 0 0 0 1.1121970286579561 64.677960794958409 0 64.677960794958409 13.945650385288474 0 0 0 0 113.93921900215355 63.906536258884444 0 63.906536258884444 19.543596739764325 0 0 0 0 98.030793644182268 42.15192553257657 0 42.15192553257657 11.092964202936855 0 0 0 0 98.528952812921489 87.687137777727912 0 87.687137777727912 22.768277870411112 0 0 0 0 45.580410599635798 133.70708458165609 0 133.70708458165609 53.735510591010097 0 0 0 0 139.74006456468487 117.49910472209012 0 117.49910472209012 37.255215726385359 0 0 0 0 101.50895987302647 109.96095187073661 0 109.96095187073661 48.557060938968789 0 0 0 0 98.691663527628407 115.90387985021516 0 115.90387985021516 119.43701278005028 0 0 0 0 172.273083556036 59.456301561673172 0 59.456301561673172 103.46148065067973 0 0 0 0 130.67287210880568 20.659459628550394 0 20.659459628550394 61.589694943919312 0 0 0 0 253.98487734119408 136.76243417609658 0 136.76243417609658 127.08057549869409 0 0 0 0 14.134566359348923 8.7503715040337795 0 8.7503715040337795 3.1883116173089547 0 0 0 0 151.29448161955224 99.300457124627428 0 99.300457124627428 128.32380045110631 0 0 0 0 92.720126170112053 80.234836901335257 0 80.234836901335257 64.170118002322852 0 0 0 0 96.002132437628461 55.425646243529627 0 55.425646243529627 139.28732399041473 0 0 0 0 -27.897304752797936 113.82848433967592 0 113.82848433967592 83.045825653563952 0 0 0 0 -37.911968333122786 127.87308216860401 0 127.87308216860401 31.939688623926486 0 0 0 0 -31.395062682600155 41.830793038557999 0 41.830793038557999 -18.544067065682611 0 0 0 0 -12.386725915352145 133.37457621540307 0 133.37457621540307 75.58426999906078 0 0 0 0 35.706763498135842 150.34850800054846 0 150.34850800054846 64.819414750687201 0 0 0 0 72.392638285193243 54.689049209664518 0 54.689049209664518 -31.44432701729238 0 0 0 0 10.860585064299812 0.30077503965731012 0 0.30077503965731012 60.845381276012631 0 0 0 0 63.730706789006945 131.72585618329686 0 131.72585618329686 657.77588799165096 0 0 0 0 335.39102066382475 -247.49563398541068 0 -247.49563398541068 -180.84422749376972 0 0 0 0 161.38382607092353 135.72202355708941 0 135.72202355708941 -408.25185088416765 0 0 0 0 58.592189301532301 55.747885000119382 0 55.747885000119382 42.671074125110167 0 0 0 0 42.231246774208557 62.587569826826439 0 62.587569826826439 44.075588415689708 0 0 0 0 -3.5362055065479581 108.00954863803099 0 108.00954863803099 5.5850628618500195 0 0 0 0 -63.280795448608842 97.910962542639027 0 97.910962542639027 23.612528914381983 0 0 0 0 11.416540290195343 27.038937363392662 0 27.038937363392662 -11.40533030310138 0 0 0 0 72.645556128245516 50.95408998692271 0 50.95408998692271 27.779771306439358 0 0 0 0 16.125133341911891 15.656211443331784 0 15.656211443331784 4.9965364006325501 0 0 0 0 133.34635658371553 93.358175400364416 0 93.358175400364416 -6.1363529459849815 0 0 0 0 136.78977986302925 33.742176916930475 0 33.742176916930475 9.6308233971776644 0 0 0 0 53.997367244155612 72.324813407427882 0 72.324813407427882 39.147240373189561 0 0 0 0 242.35412051039748 101.3895068473521 0 101.3895068473521 -102.01517130588763 0 0 0 0 31.553745625213196 57.784342202901826 0 57.784342202901826 3.9222834960819455 0 0 0 0 -108.77305694215465 106.93988084823468 0 106.93988084823468 -12.106164269745022 0 0 0 0 -1.7395829043617894 0.42333884582160408 0 0.42333884582160408 -0.48386715274918402 0 0 0 0 26.163832509882923 74.879191658534182 0 74.879191658534182 36.946213169299881 0 0 0 0 6.1598897816584213 82.079636774336905 0 82.079636774336905 27.225965467689093 0 0 0 0 109.20620114868507 61.19335124517238 0 61.19335124517238 30.517475944376201 0 0 0 0 0.44851763135375222 117.79540114112388 0 117.79540114112388 -45.816745501091646 0 0 0 0 87.003793842013692 154.14438278938906 0 154.14438278938906 -30.556315620557143 0 0 0 0 -1.6198774907040701 1.3557943337680172 0 1.3557943337680172 0.90862041990089892 0 0 0 0 188.77711739091319 129.25635735278411 0 129.25635735278411 -26.264384369729669 0 0 0 0 0.018098243504937273 6.9850200151704485 0 6.9850200151704485 6.2185592935566092 0 0 0 0 14.709778007534624 20.95782607232286 0 20.95782607232286 18.329866717485856 0 0 0 0 41.551532645859879 65.204514297947526 0 65.204514297947526 50.336913696384727 0 0 0 0 -34.814940531477987 640.33644783333511 0 640.33644783333511 222.78077535619377 0 0 0 0 72.995527069506352 84.056744748304482 0 84.056744748304482 32.806615940105985 0 0 0 0 50.326649525098844 54.346197051854659 0 54.346197051854659 53.337345816311881 0 0 0 0 -115.27952531714982 -187.11652911711644 0 -187.11652911711644 255.9718180891723 0 0 0 0 0.0070406917776084802 20.55364496662601 0 20.55364496662601 39.767721806405461 0 0 0 0 5.2542875878538524 10.455042326563188 0 10.455042326563188 6.2480676228678931 0 0 0 0 -20.632832838651666 45.705994009957067 0 45.705994009957067 -82.098511652402522 0 0 0 0 -40.292824972588278 -39.721258743862563 0 -39.721258743862563 -6.7592731917102356 0 0 0 0 2.0667632220820735 1.9116466847201821 0 1.9116466847201821 5.2118193574291638 0 0 0 0 -28.678138515146429 126.11687100358927 0 126.11687100358927 581.13247679558117 0 0 0 0 -513.42623091816813 308.36658669846065 0 308.36658669846065 -145.54395233886316 0 0 0 0 -378.01713234559429 278.48462261989334 0 278.48462261989334 -277.01066300673347 0 0 0 0 -5.1847851719932123 16.253524924519887 0 16.253524924519887 0.32421743273525294 0 0 0 0 -505.40774658085093 426.65697903629803 0 426.65697903629803 -190.36856510206417 0 0 0 0 -54.053680320939748 72.023234381871589 0 72.023234381871589 -57.857970915269107 0 0 0 0 -3.8553982913129516 11.601499656177978 0 11.601499656177978 8.5748398815611608 0 0 0 0 -5.7466097618016647 37.726806747945375 0 37.726806747945375 -11.296086809597909 0 0 0 0 -34.297065832150111 58.262094006895495 0 58.262094006895495 -32.918465530354297 0 0 0 0 -96.22425930209647 90.587520992383361 0 90.587520992383361 -14.269805976073258 0 0 0 0 -35.234473471697314 33.590989426037794 0 33.590989426037794 3.26829059953387 0 0 0 0 -59.633858699839038 44.009863553248579 0 44.009863553248579 10.42377355589997 0 0 0 0 -16.554919409609283 24.703170322379265 0 24.703170322379265 -51.466664453531848 0 0 0 0 -23.425014092464401 30.464787833830343 0 30.464787833830343 -11.712439085538051 0 0 0 0 -15.162536046153235 26.887992187372248 0 26.887992187372248 -24.282641580177881 0 0 0 0 -190.42421171201386 50.580244682343618 0 50.580244682343618 60.760443171773659 0 0 0 0 2.7278947651502676 42.929148152208654 0 42.929148152208654 -33.120592648947877 0 0 0 0 -3.7418252011557342 34.46099188188964 0 34.46099188188964 -44.180653657647781 0 0 0 0 -347.1583455518994 -94.860674386305618 0 -94.860674386305618 -56.752978691831231 0 0 0 0 -15.375578475448869 39.428001864898647 0 39.428001864898647 -48.671926432947885 0 0 0 0 49.179381324451242 85.092242474798695 0 85.092242474798695 20.647825784224551 0 0 0 0 47.798537607894104 63.510203633093624 0 63.510203633093624 -32.905101125041256 0 0 0 0 -4.0719417932414217 56.183602680190234 0 56.183602680190234 -14.233109599590534 0 0 0 0 11.695135986919922 65.162444967631018 0 65.162444967631018 -21.827894618385471 0 0 0 0 24.924584352949751 44.591030829455121 0 44.591030829455121 -42.806588955922052 0 0 0 0 -11.502938585181255 45.333427725738147 0 45.333427725738147 -31.247282825293951 0 0 0 0 -2.2524372313200729 41.983272678291542 0 41.983272678291542 -12.848562039777789 0 0 0 0 -2.5055082843173295 41.606867238646373 0 41.606867238646373 20.848179889573657 0 0 0 0 -7.7834131731669913 75.910630347876577 0 75.910630347876577 -11.026628369145328 0 0 0 0 16.812642995690112 79.728553689317778 0 79.728553689317778 7.6805358253186569 0 0 0 0 -38.795165983305196 60.814222306587908 0 60.814222306587908 -8.0792632499651518 0 0 0 0 -28.293240977349342 103.93341241514281 0 103.93341241514281 -51.470861396883265 0 0 0 0 -34.341391820336867 -14.858159920702747 0 -14.858159920702747 -60.956116803248733 0 0 0 0 -137.94652095164929 123.04087577042083 0 123.04087577042083 399.16607709122763 0 0 0 0 -36.830898752225039 30.899153528633178 0 30.899153528633178 104.51861651288345 0 0 0 0 -31.726203725869709 86.759210974472808 0 86.759210974472808 130.58420503167144 0 0 0 0 13.324134525035333 74.497986711605336 0 74.497986711605336 75.051552490855101 0 0 0 0 13.473551275747013 74.276134077401366 0 74.276134077401366 74.708064006670611 0 0 0 0 -24.799569273833185 85.80643786611472 0 85.80643786611472 88.675013592801406 0 0 0 0 38.660872507403838 70.709506426632288 0 70.709506426632288 8.3192725285625784 0 0 0 0 20.459715415505343 56.782757224020315 0 56.782757224020315 87.450184154586168 0 0 0 0 43.904702016450756 153.31982781995612 0 153.31982781995612 2.5655715818866156 0 0 0 0 18.257338628962316 154.69765506393014 0 154.69765506393014 126.574502531701 0 0 0 0 42.230047492193989 233.56597439109464 0 233.56597439109464 50.116482723169611 0 0 0 0 63.507276199685293 241.55682120130223 0 241.55682120130223 -66.823228234105045 0 0 0 0 32.620589274152735 390.4316716029316 0 390.4316716029316 343.13474055259576 0 0 0 0 -5.3858547780400841 281.04458516313025 0 281.04458516313025 74.5832099211475 0 0 0 0 195.20127280252677 88.118295251955828 0 88.118295251955828 -3.4408932819060283 0 0 0 0 183.78231725545265 420.67930156526927 0 420.67930156526927 80.578795737979817 0 0 0 0 -142.05094671838015 6.3874143340690352 0 6.3874143340690352 242.04818250061362 0 0 0 0 285.22196117224667 304.92683075057357 0 304.92683075057357 269.47640481131384 0 0 0 0 0.46150390898667126 0.38785554713051695 0 0.38785554713051695 6.0940363896129952 0 0 0 0 -384.27239276542605 261.94849893094033 0 261.94849893094033 616.61364420117752 0 0 0 0 -205.38892222641516 521.28939080042255 0 521.28939080042255 538.03400642826455 0 0 0 0 -931.83793058129231 188.79214780516486 0 188.79214780516486 288.03119098034222 0 0 0 0 -389.15711829194333 419.30317564628785 0 419.30317564628785 55.780685018995428 0 0 0 0 -905.07231424464953 155.75399558729441 0 155.75399558729441 39.753472402167972 0 0 0 0 -1729.7048609681951 -153.99955118594153 0 -153.99955118594153 363.18261562987755 0 0 0 0 280.8342043273733 73.388726355900872 0 73.388726355900872 124.18207520702708 0 0 0 0 354.33018181718217 302.10286179237482 0 302.10286179237482 -44.271543903712882 0 0 0 0 -2.6407228179829545 1.7611682881581885 0 1.7611682881581885 -0.59327623725437206 0 0 0 0 -48.067709664755967 -57.171643795823911 0 -57.171643795823911 210.43476301299597 0 0 0 0 264.82874223625549 243.73629368103866 0 243.73629368103866 -77.767679173281067 0 0 0 0 -789.33889865197125 -314.92006466381281 0 -314.92006466381281 136.4330276892797 0 0 0 0 -723.32813810954394 358.55999483801133 0 358.55999483801133 319.01780377126488 0 0 0 0 71.779834208537068 170.0166020138131 0 170.0166020138131 283.65742091936409 0 0 0 0 7.8743461206322536 64.654624973722093 0 64.654624973722093 225.42277300468413 0 0 0 0 62.704744479953661 185.12810278531833 0 185.12810278531833 311.16422535770107 0 0 0 0 109.19202450609009 148.30272626610531 0 148.30272626610531 232.79820904935093 0 0 0 0 203.1253711692334 250.08956597250653 0 250.08956597250653 314.34350193012506 0 0 0 0 185.86737955518765 245.67367632829701 0 245.67367632829701 293.06334413893637 0 0 0 0 117.69858072054922 143.82711603413918 0 143.82711603413918 276.568784465926 0 0 0 0 -13.469924116541122 11.884138330364038 0 11.884138330364038 -8.5387219714064884 0 0 0 0 272.85670937396935 432.45390176134242 0 432.45390176134242 411.49782919143036 0 0 0 0 514.18666737545573 257.27592685319541 0 257.27592685319541 -267.32362765120342 0 0 0 0 392.1005112832936 321.99019308685092 0 321.99019308685092 296.49406685614667 0 0 0 0 135.23850049712928 274.77660130147706 0 274.77660130147706 360.12857931660255 0 0 0 0 181.30652999525773 245.68944427432143 0 245.68944427432143 274.40603002706303 0 0 0 0 78.233199397538556 263.04235429856635 0 263.04235429856635 520.79094110822189 0 0 0 0 221.20005894312635 401.10250648506917 0 401.10250648506917 462.24925504409475 0 0 0 0 3.5960565583736752 108.04894796599547 0 108.04894796599547 337.13813530391053 0 0 0 0 367.60098751992336 718.2255861487065 0 718.2255861487065 755.40468703667284 0 0 0 0 433.0396877113235 430.78046064010414 0 430.78046064010414 -76.416298079653643 0 0 0 0 283.25746711017564 499.51030706324673 0 499.51030706324673 412.11058941020747 0 0 0 0 29.578193732224463 867.32928632908443 0 867.32928632908443 1516.9454821912077 0 0 0 0 1027.2859246726148 371.86946472991258 0 371.86946472991258 -598.78064096707385 0 0 0 0 807.17563717521261 1002.4140944327228 0 1002.4140944327228 722.54338718588042 0 0 0 0 2136.0558698789537 1328.2403445327218 0 1328.2403445327218 -788.05501511518378 0 0 0 0 137.17890241469286 100.65830090105737 0 100.65830090105737 129.36588271392975 0 0 0 0 200.86041533012758 345.07734719594009 0 345.07734719594009 261.64609990978352 0 0 0 0 -27.221163743565114 21.67208002638273 0 21.67208002638273 -14.555580768199803 0 0 0 0 167.07008553437481 213.52545418140653 0 213.52545418140653 347.1446919295704 0 0 0 0 258.64265646308195 192.2910755402263 0 192.2910755402263 319.52597310871352 0 0 0 0 128.9689460509253 209.0038023267407 0 209.0038023267407 227.32523046472727 0 0 0 0 121.64227043790743 238.62778414962668 0 238.62778414962668 347.51121841494751 0 0 0 0 196.6062519141924 223.41962738504662 0 223.41962738504662 101.55586691149256 0 0 0 0 4.5232343988151911 8.796292709523776 0 8.796292709523776 7.7466839487726133 0 0 0 0 436.56855321583316 63.022769578727093 0 63.022769578727093 -10.631750983942766 0 0 0 0 232.94253904240486 20.48169651233502 0 20.48169651233502 6.5098112155683339 0 0 0 0 2.8735657717210898 8.5536957678473158 0 8.5536957678473158 1.773824491941582 0 0 0 0 36.130128091630468 47.579533326588717 0 47.579533326588717 10.36444805690553 0 0 0 0 163.92992060246615 97.84093390412454 0 97.84093390412454 -14.308792398893274 0 0 0 0 62.443590896509704 132.15615717338733 0 132.15615717338733 41.107785272251931 0 0 0 0 -465.24006013096368 433.64989530614184 0 433.64989530614184 84.387061863089912 0 0 0 0 -513.49504754058944 573.40917184433783 0 573.40917184433783 -292.56042271073238 0 0 0 0 -593.57217683206545 277.06993406156835 0 277.06993406156835 -97.75443926115895 0 0 0 0 0.97789902712974452 10.680905509725903 0 10.680905509725903 -3.8343842431967801 0 0 0 0 -836.08514169310729 208.8327276330856 0 208.8327276330856 136.66037198193953 0 0 0 0 22.933444233742193 51.685794638235166 0 51.685794638235166 4.8218625288864132 0 0 0 0 -282.33387958323874 161.83991913646605 0 161.83991913646605 -110.21718785974417 0 0 0 0 16.719310440317869 21.301302083278021 0 21.301302083278021 17.087216869910662 0 0 0 0 -421.61315678511892 294.55182795244036 0 294.55182795244036 -95.254612226155587 0 0 0 0 -292.27928825686104 191.25406703692352 0 191.25406703692352 -71.868238697577908 0 0 0 0 16.062479282256859 41.603963749964478 0 41.603963749964478 10.878772395828065 0 0 0 0 26.478451423223305 24.034570460142277 0 24.034570460142277 -4.7324979964214435 0 0 0 0 -6.6444358284097689 75.033534434738613 0 75.033534434738613 -45.369183132708713 0 0 0 0 28.185370060675268 109.42670192348487 0 109.42670192348487 -28.428757052330184 0 0 0 0 -17.404421577740635 59.563351098341329 0 59.563351098341329 -37.025060360302447 0 0 0 0 -3.917588158234139 121.87100695273512 0 121.87100695273512 49.64147447715186 0 0 0 0 39.771326677269258 65.984198704797166 0 65.984198704797166 31.309846731997567 0 0 0 0 84.89560374309076 133.47904588481106 0 133.47904588481106 -94.176635135001561 0 0 0 0 84.710117903778155 148.75601513892616 0 148.75601513892616 -46.771616490535962 0 0 0 0 -39.172175412393699 130.84147438898799 0 130.84147438898799 -18.757407617428726 0 0 0 0 83.652947481787123 39.230455724577041 0 39.230455724577041 -107.59713117695355 0 0 0 0 -1.9870158796256021 3.3416640410240888 0 3.3416640410240888 1.0310764693894612 0 0 0 0 -38.599195200400573 130.16107780586572 0 130.16107780586572 62.394462861695501 0 0 0 0 29.607963226229913 116.07050879646522 0 116.07050879646522 -100.70392805272422 0 0 0 0 37.912686462525016 106.29724523528967 0 106.29724523528967 47.859649027217529 0 0 0 0 20.835017303430504 64.831099853221531 0 64.831099853221531 -52.655440985950918 0 0 0 0 36.887956911674337 146.16966561029403 0 146.16966561029403 87.041830017849861 0 0 0 0 -22.386396965011173 59.928081104387715 0 59.928081104387715 -33.265037409280524 0 0 0 0 -27.701820922812345 49.836286563516012 0 49.836286563516012 -45.375129648299065 0 0 0 0 13.653476439638325 105.60283624411568 0 105.60283624411568 1.414024390569466 0 0 0 0 8.3804343934370991 85.183455507872168 0 85.183455507872168 -21.900549690635671 0 0 0 0 -2.2325244846870191 79.501657954206166 0 79.501657954206166 -39.150136586558801 0 0 0 0 -12.025759265852685 84.909195319603896 0 84.909195319603896 -34.468482626772129 0 0 0 0 1.8444187653331028 72.974500567180257 0 72.974500567180257 -35.675576369460032 0 0 0 0 -5.6186879838242021 101.16615615682531 0 101.16615615682531 6.4370369200551067 0 0 0 0 3.6889601063103328 112.00179420687664 0 112.00179420687664 8.7888281181367347 0 0 0 0 11.981325436634506 96.043093717649754 0 96.043093717649754 5.8824708675219881 0 0 0 0 8.0944961360510206 118.0858550926805 0 118.0858550926805 -35.242490679378534 0 0 0 0 26.383035239625315 103.36091921634488 0 103.36091921634488 -39.279064975959045 0 0 0 0 -33.427166059787851 127.58296757028165 0 127.58296757028165 -18.611620657855383 0 0 0 0 -36.91636178333647 149.91875075370262 0 149.91875075370262 -60.234603039658396 0 0 0 0 54.045274866943188 62.074094055556493 0 62.074094055556493 58.355610945532135 0 0 0 0 -487.12775403802607 264.98907088490887 0 264.98907088490887 -50.213935379651957 0 0 0 0 -562.30497114963146 341.87759662703684 0 341.87759662703684 -50.662576921175514 0 0 0 0 -434.79711643987685 263.80404984872803 0 263.80404984872803 -58.245127229433365 0 0 0 0 -456.93158089376084 244.43992801690911 0 244.43992801690911 -43.637191189060104 0 0 0 0 -411.66863200712123 263.81501602642311 0 263.81501602642311 -73.068450983642833 0 0 0 0 -414.30599573391737 271.72498905038083 0 271.72498905038083 -86.442682241729926 0 0 0 0 -399.7888035083779 264.79410960444511 0 264.79410960444511 -91.589471027869877 0 0 0 0 -395.16436109927236 250.22554129494165 0 250.22554129494165 -92.684236085166049 0 0 0 0 -419.92555695384362 217.20399041360361 0 217.20399041360361 -55.449633834316046 0 0 0 0 -410.95559622461587 235.46228167836671 0 235.46228167836671 -85.176049340232566 0 0 0 0 -404.14424951122055 225.2351537001523 0 225.2351537001523 -120.73618904028262 0 0 0 0 -414.13840759987215 248.1497630911108 0 248.1497630911108 -83.667531206476269 0 0 0 0 -405.89047504761402 377.13666148168704 0 377.13666148168704 -211.62945328017668 0 0 0 0 -57.858778779732461 59.379938139524342 0 59.379938139524342 -32.165614690465404 0 0 0 0 -413.28852261373322 266.79439758387707 0 266.79439758387707 -74.735027070928481 0 0 0 0 -414.21568373898117 276.17586646990821 0 276.17586646990821 -113.0675069240242 0 0 0 0 -409.87399911977991 260.72189135634108 0 260.72189135634108 -101.32676675011317 0 0 0 0 -47.551163701337614 69.08211823380789 0 69.08211823380789 -35.074157126474489 0 0 0 0 -373.95442399344756 296.97943920718899 0 296.97943920718899 -5.442275843131938 0 0 0 0 -357.51612081627536 239.89243886873737 0 239.89243886873737 -141.08658808184236 0 0 0 0 -5.5042964372073939 9.0155534981922472 0 9.0155534981922472 -12.732727550028414 0 0 0 0 83.711471817079655 -42.407925556523878 0 -42.407925556523878 -176.02470239206741 0 0 0 0 -463.81590540931938 60.961343394192227 0 60.961343394192227 215.6970184685415 0 0 0 0 1.0671039430747484 23.410798796695929 0 23.410798796695929 2.2335247618695178 0 0 0 0 144.20139097103583 75.321237059686609 0 75.321237059686609 -456.05090950064186 0 0 0 0 -13.415983197871945 31.00804496421183 0 31.00804496421183 -6.5262903807128509 0 0 0 0 -36.293410527119704 48.583319866163947 0 48.583319866163947 -12.761869987974933 0 0 0 0 -40.371141494761105 47.003784693457419 0 47.003784693457419 -13.228285169810988 0 0 0 0 -23.798295669229589 29.30003649921202 0 29.30003649921202 21.078873853566208 0 0 0 0 -421.62445560331071 261.12415712364782 0 261.12415712364782 -106.14156115088554 0 0 0 0 -519.90636224657646 294.49685966401012 0 294.49685966401012 -91.313881311059959 0 0 0 0 -409.50219248326903 283.12831951853877 0 283.12831951853877 -188.4854293448152 0 0 0 0 -34.604689155148662 29.878130282126222 0 29.878130282126222 0.71535914040578064 0 0 0 0 -15.178702002649075 40.739202997394273 0 40.739202997394273 1.8081304976953732 0 0 0 0 -11.64327080233425 7.991155872581885 0 7.991155872581885 11.454335316198666 0 0 0 0 -178.77034508489305 139.80473990144765 0 139.80473990144765 -121.66683689557249 0 0 0 0 -9.9620345624709046 10.000653889273934 0 10.000653889273934 15.571554686159459 0 0 0 0 -136.27531836092385 334.08646634957404 0 334.08646634957404 -347.93517953646369 0 0 0 0 -429.52803550082172 216.43273885098461 0 216.43273885098461 -72.076284793554805 0 0 0 0 -393.98780940653523 196.97132929033251 0 196.97132929033251 -179.0810926715867 0 0 0 0 -414.10466002625617 224.32360763077668 0 224.32360763077668 -82.518235083727632 0 0 0 0 -405.3680008737465 207.61905040299462 0 207.61905040299462 -48.787834467555513 0 0 0 0 -411.06829506522627 221.82574231978651 0 221.82574231978651 -82.522925774040743 0 0 0 0 -325.89777252027852 214.91600586756977 0 214.91600586756977 -74.611502840649337 0 0 0 0 -267.05330855821376 244.23898104461114 0 244.23898104461114 -120.67330075462814 0 0 0 0 -338.42350567856192 244.74238475069433 0 244.74238475069433 -88.149723019872908 0 0 0 0 -265.39818677022413 206.04382590147725 0 206.04382590147725 -76.023576538209454 0 0 0 0 -258.20262026970158 230.6105617111607 0 230.6105617111607 -91.98696893907254 0 0 0 0 -109.64552088044366 154.21070968382992 0 154.21070968382992 -109.17797386625898 0 0 0 0 -225.30618437091471 201.83171265080455 0 201.83171265080455 -87.103873618863872 0 0 0 0 3.7965532194728198 8.2906741035061113 0 8.2906741035061113 -7.2813698037797394 0 0 0 0 1047.9575487736147 86.245959910287638 0 86.245959910287638 -1454.1770467003516 0 0 0 0 -1579.6612496184025 378.07892145610822 0 378.07892145610822 1057.0972527168196 0 0 0 0 -171.78864010130928 554.33222627038776 0 554.33222627038776 -347.8509363622361 0 0 0 0 4.7509081027455977 126.86594665078883 0 126.86594665078883 86.752354760508751 0 0 0 0 -181.80800260994874 -325.18760699131963 0 -325.18760699131963 639.07897195967598 0 0 0 0 2.862654003028716 15.222071544292177 0 15.222071544292177 23.701604275137612 0 0 0 0 -188.70755285638006 149.53216036188678 0 149.53216036188678 -66.97181594320864 0 0 0 0 -186.33709870117309 164.58384693266999 0 164.58384693266999 -71.998418339342606 0 0 0 0 -217.85789126404416 147.91041038060939 0 147.91041038060939 -40.607230542038451 0 0 0 0 -181.17716532720624 178.28945712753739 0 178.28945712753739 -82.337569705676287 0 0 0 0 -282.05077511730633 192.07511213968974 0 192.07511213968974 -57.305885889887577 0 0 0 0 -295.85973011430178 136.35420151368453 0 136.35420151368453 29.35567234820337 0 0 0 0 -205.37500292642653 166.91337040174403 0 166.91337040174403 -36.565562106537982 0 0 0 0 -208.24854962026438 123.9305547764161 0 123.9305547764161 -12.627180904444685 0 0 0 0 -127.33613474943559 97.687152463811799 0 97.687152463811799 -34.396718535208493 0 0 0 0 -433.91801646168278 205.73016369406832 0 205.73016369406832 -15.10640424459416 0 0 0 0 -359.56315468205867 221.81871046485321 0 221.81871046485321 -57.299883389416209 0 0 0 0 -285.75353979784268 181.24867208824435 0 181.24867208824435 -36.20603764540283 0 0 0 0 -356.73912777650094 208.58504189114137 0 208.58504189114137 -37.976914893515641 0 0 0 0 -380.30558907519298 214.21351774946379 0 214.21351774946379 -7.2498986736754887 0 0 0 0 -379.59848566826986 213.74939362041187 0 213.74939362041187 -36.367095125373453 0 0 0 0 -498.79417756095063 259.36724449563917 0 259.36724449563917 33.696617324712861 0 0 0 0 -415.81118026724653 167.65486541770042 0 167.65486541770042 46.868351982797321 0 0 0 0 -227.85142156438815 128.95725504541042 0 128.95725504541042 50.171832985244691 0 0 0 0 -183.26513537459687 265.77302629380938 0 265.77302629380938 237.5136962520919 0 0 0 0 -380.08567502094047 211.69868962264445 0 211.69868962264445 46.926904519466916 0 0 0 0 -450.67787523258448 238.86929333371882 0 238.86929333371882 204.74499355174703 0 0 0 0 -242.78484446359653 335.89687473474987 0 335.89687473474987 37.130618441624392 0 0 0 0 -213.50363733940321 237.43395110917754 0 237.43395110917754 344.56750765754259 0 0 0 0 -654.40138976849812 285.10701003363101 0 285.10701003363101 88.195456991426909 0 0 0 0 -485.2577429286066 356.57345311020254 0 356.57345311020254 -26.681972629687152 0 0 0 0 -456.87857989035547 373.68548342609938 0 373.68548342609938 -242.14615922708617 0 0 0 0 -195.37279594736356 302.99395487989023 0 302.99395487989023 -30.674616503994912 0 0 0 0 -453.49182602745168 459.31571120156332 0 459.31571120156332 187.88654638898151 0 0 0 0 -258.18337759276619 558.1060739551358 0 558.1060739551358 -28.133220862036978 0 0 0 0 -486.0358738547784 306.61998038290403 0 306.61998038290403 -149.65782435618894 0 0 0 0 -406.24927114805905 786.10921300859036 0 786.10921300859036 -175.50657403925652 0 0 0 0 62.501533028522672 78.945575608672257 0 78.945575608672257 77.747368154121375 0 0 0 0 -731.20917659217957 703.36913902533888 0 703.36913902533888 -86.35817560004125 0 0 0 0 -839.40568064374384 608.12064770973848 0 608.12064770973848 122.39348771872119 0 0 0 0 -237.86296202190715 101.12956080720232 0 101.12956080720232 -203.59216735348969 0 0 0 0 -379.71638506776071 584.37677473846088 0 584.37677473846088 -272.82097309243454 0 0 0 0 61.8292234809254 77.985578662968834 0 77.985578662968834 77.027800143572023 0 0 0 0 670.53849359951869 356.29303865389443 0 356.29303865389443 -143.40584181782651 0 0 0 0 27.612291057899711 -1.5495282476963439 0 -1.5495282476963439 -10.893606584822919 0 0 0 0 29.433092104234674 -0.74816661030422438 0 -0.74816661030422438 -49.648095086761714 0 0 0 0 2.7191905728342647 2.282353766106894 0 2.282353766106894 7.2180493168566429 0 0 0 0 802.8435836243516 119.42235644600851 0 119.42235644600851 186.98736934071894 0 0 0 0 514.24916704685893 523.89679707692721 0 523.89679707692721 258.6503706402209 0 0 0 0 60.76421696621037 491.87724850189352 0 491.87724850189352 124.04688788757085 0 0 0 0 308.69828585999494 211.33117796288343 0 211.33117796288343 -125.81072857773324 0 0 0 0 668.91133534488472 414.75543455674961 0 414.75543455674961 -347.95904600115955 0 0 0 0 -284.34864601080881 113.66713313481557 0 113.66713313481557 278.09894892380908 0 0 0 0 41.539671957740211 33.559406129559648 0 33.559406129559648 -77.011046475719922 0 0 0 0 41.367960555424361 32.370355072217308 0 32.370355072217308 -62.032295008808433 0 0 0 0 65.154469027875166 57.586067530448418 0 57.586067530448418 -164.78800367906661 0 0 0 0 38.976547912083333 62.231468395993943 0 62.231468395993943 -69.551210087551226 0 0 0 0 14.971976333501516 153.62008687058187 0 153.62008687058187 -178.35882717542904 0 0 0 0 86.573378408953431 17.86026213697005 0 17.86026213697005 -97.154958635906951 0 0 0 0 -149.45525410700793 386.74213428764233 0 386.74213428764233 -259.72600544188526 0 0 0 0 271.37813168936555 194.39159990510507 0 194.39159990510507 -359.32777615728082 0 0 0 0 -725.7371188818679 521.24471551283477 0 521.24471551283477 -83.495321074609819 0 0 0 0 59.588112590885117 73.572565629595175 0 73.572565629595175 69.035800191910468 0 0 0 0 -47.09611647532256 147.67555325898456 0 147.67555325898456 -58.986310488427989 0 0 0 0 19.430491438550234 124.9679705851604 0 124.9679705851604 -82.406438008221812 0 0 0 0 20.831274884547383 109.30662705533098 0 109.30662705533098 -67.033756046723283 0 0 0 0 33.274454052494548 103.95316580670169 0 103.95316580670169 -55.322960434241395 0 0 0 0 46.506387732104486 76.996413459967698 0 76.996413459967698 -59.367032959906282 0 0 0 0 39.488361439460277 74.475343501762836 0 74.475343501762836 -38.285150736952346 0 0 0 0 49.348168747732416 75.833366532932814 0 75.833366532932814 -121.23508680353189 0 0 0 0 -10.838157959668024 76.534685344804529 0 76.534685344804529 -26.872244343730927 0 0 0 0 19.03866222169745 78.46758162356673 0 78.46758162356673 -40.174384323547201 0 0 0 0 39.113189135474386 92.103285208690068 0 92.103285208690068 -40.573819300387186 0 0 0 0 35.357839792366576 83.749026016818789 0 83.749026016818789 -17.527212354852963 0 0 0 0 48.625379495941161 76.027489596631312 0 76.027489596631312 -41.678791626653492 0 0 0 0 -18.540641300271091 88.043617028459266 0 88.043617028459266 -49.85416725320465 0 0 0 0 -19.495354404243699 95.203231228502361 0 95.203231228502361 -480.32825999992792 0 0 0 0 46.747751322332199 31.203300328563522 0 31.203300328563522 -2.0301657238855313 0 0 0 0 18.71427956247021 29.423307388730922 0 29.423307388730922 30.073828947258445 0 0 0 0 -37.72213825891231 566.45094887775213 0 566.45094887775213 586.90265960926399 0 0 0 0 1.7180790119217875 1.3995202255471995 0 1.3995202255471995 -1.7438562417346661 0 0 0 0 -8.1403325109858997 -12.059224587696882 0 -12.059224587696882 -678.26211174761102 0 0 0 0 16.58685575147274 12.963082067481423 0 12.963082067481423 4.2231404262464611 0 0 0 0 -263.49052995227248 492.0066888097287 0 492.0066888097287 -2.5294170849776947 0 0 0 0 -279.78676461800933 323.71001926973338 0 323.71001926973338 -578.63799849869326 0 0 0 0 -9.428813512193301 565.33743163587189 0 565.33743163587189 -164.50888040489463 0 0 0 0 -149.29924187337747 20.340366022548665 0 20.340366022548665 -96.735813751816522 0 0 0 0 42.546520914875146 169.53968864352987 0 169.53968864352987 -9.9139913932033323 0 0 0 0 244.16772970580496 125.46126427975651 0 125.46126427975651 248.57519794232167 0 0 0 0 13.092450077077956 218.58294194884434 0 218.58294194884434 217.89468404670424 0 0 0 0 50.420561508341052 49.978702091285413 0 49.978702091285413 -57.777744448093927 0 0 0 0 30.798475927731488 39.439409108443897 0 39.439409108443897 2.4401220585514238 0 0 0 0 32.350996729328472 34.555635482399339 0 34.555635482399339 -50.929543729381294 0 0 0 0 41.236314211382705 42.36695120560853 0 42.36695120560853 -6.6711054043769309 0 0 0 0 40.971905328909969 28.487512753158185 0 28.487512753158185 14.737415211862665 0 0 0 0 115.45948981493711 33.097783167866169 0 33.097783167866169 -125.84837237982492 0 0 0 0 -102.3381207883067 -115.94103985039686 0 -115.94103985039686 189.44497378727579 0 0 0 0 2.6550830717533245 155.54801348047809 0 155.54801348047809 -48.70375809630832 0 0 0 0 22.459242459641246 -0.96644407806707022 0 -0.96644407806707022 3.0694988224298214 0 0 0 0 100.01091561475187 203.62317522886445 0 203.62317522886445 -134.04192006807108 0 0 0 0 32.453675527234253 16.406332217924458 0 16.406332217924458 9.823451195001347 0 0 0 0 253.99357835992123 13.477099130862541 0 13.477099130862541 -21.831958592823604 0 0 0 0 183.29333988970029 219.94449649984944 0 219.94449649984944 33.38156601890114 0 0 0 0 68.577658391706791 43.269340460021709 0 43.269340460021709 -191.11976236608189 0 0 0 0 -302.58439233386162 208.63801645138295 0 208.63801645138295 601.49814990374603 0 0 0 0 394.95420006391942 266.34935188067755 0 266.34935188067755 16.261759453005652 0 0 0 0 450.12676547010778 114.89344858032541 0 114.89344858032541 -53.084158078547148 0 0 0 0 1.7484551482147879 3.5155489057459164 0 3.5155489057459164 5.3924951576900391 0 0 0 0 335.82492312826798 -133.37888627430175 0 -133.37888627430175 -17.957587383366501 0 0 0 0 -412.48385664274974 283.86070975387008 0 283.86070975387008 174.79192821302684 0 0 0 0 -462.65912101398499 136.47818631947132 0 136.47818631947132 202.12913747836001 0 0 0 0 -266.45701384283166 153.8686453832824 0 153.8686453832824 163.07772562883792 0 0 0 0 -225.61395487238406 118.46693418834469 0 118.46693418834469 -32.032882624289783 0 0 0 0 -365.89730771086761 -225.70515503928988 0 -225.70515503928988 -105.71846703617683 0 0 0 0 236.91720644988163 -86.454281179908804 0 -86.454281179908804 -220.07358533236152 0 0 0 0 -16.844958502842928 304.54426332190479 0 304.54426332190479 130.78079902070982 0 0 0 0 246.18085955869901 201.22787146967045 0 201.22787146967045 92.694146154592318 0 0 0 0 -39.306066807792376 188.45196051062541 0 188.45196051062541 136.91383424214416 0 0 0 0 -31.372199739191274 112.61445465780908 0 112.61445465780908 119.69385539284588 0 0 0 0 -351.09567815842456 -9.0616222159758308 0 -9.0616222159758308 73.66506803589084 0 0 0 0 -239.59406977985054 131.91489767004538 0 131.91489767004538 153.20174182660242 0 0 0 0 -250.82128030924287 173.24078215634304 0 173.24078215634304 156.87411436664027 0 0 0 0 188.89223912190937 258.18942211384609 0 258.18942211384609 128.03696073280821 0 0 0 0 -82.230418887451378 163.54119772012081 0 163.54119772012081 177.9833121143609 0 0 0 0 -125.27612258543377 17.746067264511794 0 17.746067264511794 62.259999632016502 0 0 0 0 -98.415742616456555 191.6569809446774 0 191.6569809446774 142.46610073483532 0 0 0 0 -202.5266787363289 69.690189793658419 0 69.690189793658419 91.473536261890644 0 0 0 0 -242.80303462887969 -6.4899386703986011 0 -6.4899386703986011 -22.165078972876472 0 0 0 0 -258.5477582572712 56.993104468413549 0 56.993104468413549 75.587780064771323 0 0 0 0 -154.09334711692645 129.42288739665287 0 129.42288739665287 22.112557088706808 0 0 0 0 -43.769479724382109 127.06991012975169 0 127.06991012975169 11.226465469608684 0 0 0 0 837.53442277948488 449.56890306610285 0 449.56890306610285 160.18566013087093 0 0 0 0 -2.8597709215857634 0.94094939340757833 0 0.94094939340757833 12.338900586896486 0 0 0 0 -325.01923067324969 140.92573205446047 0 140.92573205446047 92.264854938375493 0 0 0 0 -255.58133432531758 51.352866847164478 0 51.352866847164478 28.389057896042573 0 0 0 0 -351.11679572780122 -62.970036729899448 0 -62.970036729899448 -94.502919466672552 0 0 0 0 -643.00239344426518 -160.72579248390389 0 -160.72579248390389 76.569340902428848 0 0 0 0 -449.62702841146165 94.445028226953752 0 94.445028226953752 33.083462917966017 0 0 0 0 -0.44710044781550096 0.35350011678531246 0 0.35350011678531246 3.8105640489195896 0 0 0 0 917.42209322507188 621.99975477292674 0 621.99975477292674 326.6119384180181 0 0 0 0 391.97610276259365 250.71544179148555 0 250.71544179148555 289.33255016781868 0 0 0 0 409.99132011975234 232.44862981209201 0 232.44862981209201 197.60301500512469 0 0 0 0 492.05608426833351 398.99253559666931 0 398.99253559666931 343.26712831736938 0 0 0 0 247.37745416479447 250.55564235466454 0 250.55564235466454 261.55044198670794 0 0 0 0 485.32814107805325 213.19368127806382 0 213.19368127806382 155.71668955994301 0 0 0 0 170.49866321479203 52.85126893910126 0 52.85126893910126 171.14532292438162 0 0 0 0 355.05752574276994 193.86489528440006 0 193.86489528440006 130.65935287744708 0 0 0 0 -50.239194642854272 170.59184296035778 0 170.59184296035778 266.13490830726914 0 0 0 0 -269.00986555523195 133.13870551478362 0 133.13870551478362 156.73593318339363 0 0 0 0 -252.06738357560243 6.0394449182640528 0 6.0394449182640528 216.59583806592946 0 0 0 0 -283.40322786481556 95.834251333462362 0 95.834251333462362 72.345848128105786 0 0 0 0 -149.31841195724701 3.543695829034732 0 3.543695829034732 158.73975267129708 0 0 0 0 -97.105205151936389 239.26530703557728 0 239.26530703557728 114.83094779057683 0 0 0 0 -564.95051264438371 395.73125850464874 0 395.73125850464874 11.142511355855277 0 0 0 0 -409.60104866086112 82.392369794400565 0 82.392369794400565 128.45641114449245 0 0 0 0 -213.38437419493289 154.59791135261943 0 154.59791135261943 301.60372668557466 0 0 0 0 -208.51686944919493 329.21609753144776 0 329.21609753144776 -155.89651724549867 0 0 0 0 300.39897739308071 135.29799204986739 0 135.29799204986739 29.513029911840931 0 0 0 0 442.28912187812966 25.923622953502218 0 25.923622953502218 205.56288030187829 0 0 0 0 789.269869306896 36.899811152858092 0 36.899811152858092 185.6168474689739 0 0 0 0 949.21102223405614 470.92810263381216 0 470.92810263381216 229.28143732229773 0 0 0 0 306.01293993428317 205.90852388028986 0 205.90852388028986 580.40649024390768 0 0 0 0 1409.7911946786044 -51.933818745783356 0 -51.933818745783356 233.55760338206164 0 0 0 0 -2.054462611544281 3.2915415948516369 0 3.2915415948516369 18.99966773365983 0 0 0 0 606.4198798553989 597.86117018770301 0 597.86117018770301 483.92821724393525 0 0 0 0 -413.70653287540154 -153.20584326355373 0 -153.20584326355373 230.56149564426246 0 0 0 0 571.35687645686994 345.317470560532 0 345.317470560532 223.15358630264382 0 0 0 0 -0.21982929031949539 0.52240135682949784 0 0.52240135682949784 5.6367571414331117 0 0 0 0 947.23388330870512 272.85317756136965 0 272.85317756136965 111.31764579622359 0 0 0 0 587.8229933606126 334.54012874715954 0 334.54012874715954 230.15566012486033 0 0 0 0 601.49585795368148 264.13413894188096 0 264.13413894188096 72.678596009812281 0 0 0 0 575.13451030271244 297.47133148826015 0 297.47133148826015 142.67851500925963 0 0 0 0 344.6303700038261 245.05777003470394 0 245.05777003470394 249.94557504823297 0 0 0 0 324.82278793562728 177.25914539467749 0 177.25914539467749 104.55974322936299 0 0 0 0 -5.025546098506311 53.032861959459183 0 53.032861959459183 176.15103911540882 0 0 0 0 10.274776566817309 76.79214950721871 0 76.79214950721871 -21.470641064290248 0 0 0 0 0.019342005965881981 87.7238318725922 0 87.7238318725922 -31.892440684836401 0 0 0 0 10.410561334472732 86.706149711051694 0 86.706149711051694 -26.763449065572786 0 0 0 0 14.70492400607327 82.851366165248692 0 82.851366165248692 -35.793189848585826 0 0 0 0 10.239228981496126 84.891949252090853 0 84.891949252090853 -36.515696064972872 0 0 0 0 13.282349104811146 84.079183034691596 0 84.079183034691596 -46.361782532396319 0 0 0 0 -0.086922885985623352 101.22931665717 0 101.22931665717 -62.703570081568614 0 0 0 0 14.054986851981084 86.388360322309381 0 86.388360322309381 -47.313447494099819 0 0 0 0 30.351911802863469 113.71272647656406 0 113.71272647656406 -57.833048407381284 0 0 0 0 33.716465763134693 107.94412085260683 0 107.94412085260683 -101.93888473450716 0 0 0 0 20.494125335728313 81.94077636381553 0 81.94077636381553 -83.059055973721115 0 0 0 0 12.991549526072049 79.102494496979489 0 79.102494496979489 -53.81053759025599 0 0 0 0 127.83768067511846 124.25171704068271 0 124.25171704068271 -106.50157614243108 0 0 0 0 78.563586574906367 111.79646914729165 0 111.79646914729165 -77.310946855424845 0 0 0 0 94.070159048504138 76.522305750442683 0 76.522305750442683 -70.857259835909645 0 0 0 0 41.758203404388041 110.25735104350861 0 110.25735104350861 -98.463135661409979 0 0 0 0 103.74525270720187 57.415779341503367 0 57.415779341503367 -58.555532764963573 0 0 0 0 37.915776439396723 70.743010330041216 0 70.743010330041216 -39.759347365565191 0 0 0 0 62.015538781924988 77.90952803516484 0 77.90952803516484 -62.076053542211866 0 0 0 0 26.151068390463479 84.735111097841582 0 84.735111097841582 -54.232004394378919 0 0 0 0 18.952553070637805 74.394822684902465 0 74.394822684902465 -28.842731996195653 0 0 0 0 28.52317620163376 77.312506029635188 0 77.312506029635188 -39.55497090916225 0 0 0 0 41.425280510993616 51.884328239128081 0 51.884328239128081 -43.44643105664727 0 0 0 0 2.8453585233130667 22.537344078834352 0 22.537344078834352 -42.026531021802931 0 0 0 0 33.991358712781221 45.871722397258054 0 45.871722397258054 -62.192456733730069 0 0 0 0 53.229847542432253 58.542426228656041 0 58.542426228656041 -41.974803507186152 0 0 0 0 -7.2304948754171861 41.541515925379755 0 41.541515925379755 -51.308476946687144 0 0 0 0 629.45735231125582 33.496743156579669 0 33.496743156579669 -286.07786315945668 0 0 0 0 -9.1865184218040667 16.144741493522815 0 16.144741493522815 -13.42040701525184 0 0 0 0 113.26736975616404 -79.761908361729809 0 -79.761908361729809 -933.93898028236197 0 0 0 0 97.237079663027544 -187.34998768463515 0 -187.34998768463515 -18.300731677537897 0 0 0 0 110.50196060021699 330.02982853347646 0 330.02982853347646 -781.85850635520751 0 0 0 0 32.251268758089282 292.05645378516147 0 292.05645378516147 -182.49769417217453 0 0 0 0 -319.47954915677838 53.780629293813035 0 53.780629293813035 32.785436745759398 0 0 0 0 76.637560069579195 35.150680361480681 0 35.150680361480681 -28.914627470374398 0 0 0 0 -223.36690873404586 279.23940124353794 0 279.23940124353794 -34.775860770314466 0 0 0 0 -3.8740112559125564 55.432192035371472 0 55.432192035371472 -66.357218059177313 0 0 0 0 143.43957847774436 29.653146495184046 0 29.653146495184046 -82.851469798250037 0 0 0 0 -13.418722298802834 10.646793558213403 0 10.646793558213403 -6.5124297244059619 0 0 0 0 116.39169305063842 68.269095743306025 0 68.269095743306025 -119.06965023549856 0 0 0 0 48.945402394165285 149.59201694690273 0 149.59201694690273 -189.04620633886952 0 0 0 0 157.24572460337913 21.663801141041404 0 21.663801141041404 -88.542502449599851 0 0 0 0 -175.83224496271578 -176.34917290702288 0 -176.34917290702288 -190.79805365511311 0 0 0 0 -143.95812246732385 148.29891339264123 0 148.29891339264123 27.777414831944043 0 0 0 0 159.21713267600262 115.24815889347997 0 115.24815889347997 -201.13117619471814 0 0 0 0 93.365637902847084 -47.840035893752074 0 -47.840035893752074 1.1531126267501719 0 0 0 0 174.54796378285937 124.91967275745739 0 124.91967275745739 -213.9913472211266 0 0 0 0 9.0689671539512275 9.3292471166301425 0 9.3292471166301425 -58.412844623448656 0 0 0 0 -175.03740329667926 69.72007524012588 0 69.72007524012588 -41.323514192655693 0 0 0 0 202.33929371994236 78.673124894399166 0 78.673124894399166 -197.36922705111738 0 0 0 0 121.39787158140462 157.90952049414156 0 157.90952049414156 -196.01806077311625 0 0 0 0 45.060739941007512 43.803247707386426 0 43.803247707386426 14.439028013512022 0 0 0 0 -75.055346055160044 -3.6712865547513616 0 -3.6712865547513616 67.729450893793114 0 0 0 0 15.750645120890113 56.59517217145094 0 56.59517217145094 -27.135762698802864 0 0 0 0 8.9558829606357904 140.64429869046637 0 140.64429869046637 -417.96542578304178 0 0 0 0 8.3043238637037575 -118.2377723516616 0 -118.2377723516616 -252.8601178276663 0 0 0 0 -657.79430573673744 447.95737160760586 0 447.95737160760586 -36.522457481559456 0 0 0 0 138.39643346393132 -149.67490415486944 0 -149.67490415486944 -289.41710657587902 0 0 0 0 -1.2762728102695604 0.87717772622063706 0 0.87717772622063706 -19.034540859096168 0 0 0 0 679.82304156945611 -302.2727701698538 0 -302.2727701698538 -1162.4014690799684 0 0 0 0 -2050.118973960838 -966.35222373304271 0 -966.35222373304271 487.10223791165225 0 0 0 0 382.11459458720128 137.26109542356818 0 137.26109542356818 -96.905028564316922 0 0 0 0 4.480544433134213 1.5391408059698364 0 1.5391408059698364 -2.0828966579053469 0 0 0 0 245.04747702993336 364.13753788215035 0 364.13753788215035 313.73109281131565 0 0 0 0 360.05046769397086 285.82129098034386 0 285.82129098034386 155.24844359073177 0 0 0 0 230.02977842825931 234.03081423342121 0 234.03081423342121 91.883326932520959 0 0 0 0 199.76963196047291 222.18278358289592 0 222.18278358289592 176.15319326011013 0 0 0 0 176.69913159460702 224.83983408131292 0 224.83983408131292 254.01864593852935 0 0 0 0 255.84953572758241 264.83730871628586 0 264.83730871628586 102.34222948598017 0 0 0 0 135.2168205549242 144.13169106906321 0 144.13169106906321 105.16976663185096 0 0 0 0 216.4459615371743 66.100173317918575 0 66.100173317918575 20.844283594240551 0 0 0 0 316.90314491768368 193.48796161506237 0 193.48796161506237 74.589548826207903 0 0 0 0 494.29943047607958 394.23248457515854 0 394.23248457515854 112.0474321996773 0 0 0 0 269.97083632053545 258.00609900087983 0 258.00609900087983 61.447286606179887 0 0 0 0 456.3590341950985 148.13706901797775 0 148.13706901797775 -76.846826212357371 0 0 0 0 252.83934443604085 134.50897717564459 0 134.50897717564459 49.960275041654654 0 0 0 0 344.64879348473914 167.85790954535844 0 167.85790954535844 50.051409822141636 0 0 0 0 232.07015516169486 270.91406685902746 0 270.91406685902746 57.410701456514289 0 0 0 0 197.01732479523343 247.77138360556842 0 247.77138360556842 87.329257358750851 0 0 0 0 103.37397845763189 250.0237779322768 0 250.0237779322768 164.13639247413266 0 0 0 0 15.497622783906991 113.91460557285068 0 113.91460557285068 331.99571890860102 0 0 0 0 104.75513793708001 351.00409132622718 0 351.00409132622718 440.20924847739798 0 0 0 0 12.214306543239218 25.578764824853693 0 25.578764824853693 187.89357806053462 0 0 0 0 1238.9308316911629 738.96895849110479 0 738.96895849110479 -621.55610917196077 0 0 0 0 181.13012940228509 438.42756197131024 0 438.42756197131024 938.28948715593378 0 0 0 0 2.1323296572527681 4.1464433031437622 0 4.1464433031437622 2.5345138982708808 0 0 0 0 1478.3803187835147 508.90236924460669 0 508.90236924460669 -123.13840645965483 0 0 0 0 390.10124171456846 94.672531035256512 0 94.672531035256512 -116.38180649661294 0 0 0 0 -34.954328235675348 -31.509101065795221 0 -31.509101065795221 -161.5251142033178 0 0 0 0 -39.402704329171684 -123.89144754552899 0 -123.89144754552899 -191.10412238025083 0 0 0 0 1138.4378040204901 154.19299786720734 0 154.19299786720734 392.21471080897345 0 0 0 0 -518.99928941190956 515.51580057822969 0 515.51580057822969 158.17249736754377 0 0 0 0 0.62600655743909783 2.1806959275024127 0 2.1806959275024127 4.3953934822594931 0 0 0 0 -179.79651231876051 -47.365598165552569 0 -47.365598165552569 -219.08762412652732 0 0 0 0 172.61593042461755 443.91252720086038 0 443.91252720086038 -17.634505260250421 0 0 0 0 -89.099039720138535 -105.10450033402651 0 -105.10450033402651 339.92488083621788 0 0 0 0 0.30378586931065854 0.13738882455885459 0 0.13738882455885459 -1.709607024473728 0 0 0 0 -5.5731358447489683 23.613084447482805 0 23.613084447482805 -70.682727370491293 0 0 0 0 83.591012518945718 -20.711334787245733 0 -20.711334787245733 -105.42597618182481 0 0 0 0 259.62202494142548 93.466459566161689 0 93.466459566161689 -496.70060696255973 0 0 0 0 -27.81086829128617 -69.620161385306176 0 -69.620161385306176 -74.624332860708819 0 0 0 0 188.46629638574086 386.93781058751301 0 386.93781058751301 520.40289572359688 0 0 0 0 31.512221054720158 53.902550982241891 0 53.902550982241891 -92.941552025507008 0 0 0 0 61.913376203359803 -20.748500224885447 0 -20.748500224885447 -145.06522334742476 0 0 0 0 -1.1975107868800876 5.0287611198159254 0 5.0287611198159254 -21.492509324051241 0 0 0 0 -1.0045605797877073 24.092097025465677 0 24.092097025465677 -84.832370036607173 0 0 0 0 30.918319935663021 40.077156612606359 0 40.077156612606359 -114.39269827424505 0 0 0 0 6.4291850520732226 8.8140668581150265 0 8.8140668581150265 -13.436368403761367 0 0 0 0 -94.239584666174778 150.93818230189163 0 150.93818230189163 32.969806262413726 0 0 0 0 5.357309405430172 8.4185880173463943 0 8.4185880173463943 6.2770815313772133 0 0 0 0 262.75434986379332 110.24695533032877 0 110.24695533032877 30.246154674518493 0 0 0 0 278.56439505220624 90.004600405369501 0 90.004600405369501 -23.763074398034519 0 0 0 0 13.556881876173847 29.780872382606645 0 29.780872382606645 -50.5691921832926 0 0 0 0 -322.01078808927559 161.41319787808652 0 161.41319787808652 587.42934796778866 0 0 0 0 18.851861654467825 -4.2725357276297373 0 -4.2725357276297373 -2.9082820860775422 0 0 0 0 542.60631349111645 -252.4903831860729 0 -252.4903831860729 -101.32407215290846 0 0 0 0 274.89710689505591 117.9561731596001 0 117.9561731596001 31.993135012281527 0 0 0 0 34.386780160793933 35.115985430381329 0 35.115985430381329 -65.24839777426314 0 0 0 0 8.7778863752046163 51.016887284401264 0 51.016887284401264 -38.975046188432316 0 0 0 0 -6.798796191993091 30.753154674896436 0 30.753154674896436 -48.782028382638728 0 0 0 0 8.210561430766063 25.524184056313409 0 25.524184056313409 -53.111892308877785 0 0 0 0 19.122233163783676 53.717572673467657 0 53.717572673467657 -40.664846840984524 0 0 0 0 18.625871948783242 53.999094178751875 0 53.999094178751875 -13.705254022963345 0 0 0 0 2.9081392413645517 69.979397613849869 0 69.979397613849869 -29.625664280277306 0 0 0 0 8.1223092065629316 79.550778101793185 0 79.550778101793185 -12.721611948691134 0 0 0 0 -17.918077920810902 78.338087320311388 0 78.338087320311388 9.3455696272103523 0 0 0 0 -15.514072296122322 84.861307689581736 0 84.861307689581736 -12.458370818414551 0 0 0 0 -77.047657923831139 101.04066955478629 0 101.04066955478629 2.8538280383372694 0 0 0 0 30.168554195552133 29.599923325993586 0 29.599923325993586 -41.769716390325812 0 0 0 0 -50.693372408786672 49.895013378773001 0 49.895013378773001 30.756153785773677 0 0 0 0 -5.3029201089352966 -0.1886656684230843 0 -0.1886656684230843 1.4854756501927397 0 0 0 0 -74.1784132746252 68.740939298582816 0 68.740939298582816 -14.702152344048955 0 0 0 0 6.6392670731729595 23.503511862956657 0 23.503511862956657 17.986007425250136 0 0 0 0 -32.334454889525659 56.944868614573352 0 56.944868614573352 -10.328979063171573 0 0 0 0 -9.8910875720612239 -1.7670747552856483 0 -1.7670747552856483 -75.704773315275816 0 0 0 0 48.256306151910394 -0.47165110123205523 0 -0.47165110123205523 -95.216559508004138 0 0 0 0 1.2275788185887109 2.6928459768789708 0 2.6928459768789708 -16.373836336354241 0 0 0 0 419.57170580147067 30.511474149348942 0 30.511474149348942 -734.85633015046187 0 0 0 0 38.653942532022484 -43.137243496710653 0 -43.137243496710653 -71.722673830350686 0 0 0 0 7.3051728005520999 80.007107521192665 0 80.007107521192665 -35.351166495936923 0 0 0 0 -77.576206627956708 102.34997322805157 0 102.34997322805157 -231.85384397229063 0 0 0 0 -80.963007738973829 88.997170384785932 0 88.997170384785932 -185.19547259791398 0 0 0 0 -10.240563926272443 -18.130344897555915 0 -18.130344897555915 -160.72032686466991 0 0 0 0 -103.07950570331013 96.82901378110364 0 96.82901378110364 -107.86300324487365 0 0 0 0 28.714257591163914 105.02278224656402 0 105.02278224656402 -87.269219780142521 0 0 0 0 -41.373084071408812 35.182203352811484 0 35.182203352811484 -246.44653843420383 0 0 0 0 -358.84739939586507 -131.6724201960742 0 -131.6724201960742 356.37417368682509 0 0 0 0 -4.7792758919568428 1.0231570402731762 0 1.0231570402731762 1.2205459661855471 0 0 0 0 -14.296194128717616 145.22718072123098 0 145.22718072123098 -286.18561379960738 0 0 0 0 -2.4306733303144199 -0.34814032387568261 0 -0.34814032387568261 -0.19016532680938525 0 0 0 0 -9.3898834910432925 192.56119888029298 0 192.56119888029298 -771.89040270030364 0 0 0 0 0.0061409688787534833 49.379341680269135 0 49.379341680269135 101.64511524141471 0 0 0 0 54.040847777534509 18.142609720905966 0 18.142609720905966 14.300370274764646 0 0 0 0 13.073867948027328 67.426147345960999 0 67.426147345960999 0.40835539407726174 0 0 0 0 62.64945700498356 61.154441119811054 0 61.154441119811054 -41.93943718432638 0 0 0 0 0.62103261165611912 103.84464748681057 0 103.84464748681057 -28.805094327851293 0 0 0 0 25.401703419516707 89.814883755616393 0 89.814883755616393 -26.03564970465959 0 0 0 0 6.1929441781394416 84.71962424917001 0 84.71962424917001 -25.348506187825478 0 0 0 0 0.043192913365164606 82.290595694773003 0 82.290595694773003 -16.534400419113808 0 0 0 0 0.12660813918773783 535.78680361317447 0 535.78680361317447 -479.23373248547477 0 0 0 0 -99.34951068999726 528.60912440071911 0 528.60912440071911 -447.65045938693402 0 0 0 0 -101.85847719431331 510.75709916235019 0 510.75709916235019 -457.40330111568983 0 0 0 0 -0.12646289064286975 464.97682273861483 0 464.97682273861483 -440.17557751071035 0 0 0 0 -136.19882408919511 410.12845062394808 0 410.12845062394808 -432.18077076323425 0 0 0 0 -0.16706211224867701 369.87642172925115 0 369.87642172925115 -426.45088302914519 0 0 0 0 -156.70689468926867 335.34837718745166 0 335.34837718745166 -396.85920131548664 0 0 0 0 -303.03625738954725 553.56707451540842 0 553.56707451540842 -386.19629425414223 0 0 0 0 -136.18511686684465 414.2309000639209 0 414.2309000639209 -271.95046786780949 0 0 0 0 -184.12043757802167 258.90116796093116 0 258.90116796093116 -188.91573363958923 0 0 0 0 -392.569878470822 364.94088287904378 0 364.94088287904378 -87.530052562832225 0 0 0 0 -167.27869159793818 220.87950125515778 0 220.87950125515778 -134.37783289340587 0 0 0 0 60.19698909795261 63.767971861708247 0 63.767971861708247 -139.38236203213137 0 0 0 0 -32.25161462144024 18.22492209613938 0 18.22492209613938 -107.54976483238715 0 0 0 0 -220.64705824759585 41.566215900188809 0 41.566215900188809 2.7472477987594175 0 0 0 0 3.6472731827447973 3.1696213627313909 0 3.1696213627313909 -13.562161038450721 0 0 0 0 -129.8217033524852 162.00794167749063 0 162.00794167749063 -61.590265783612267 0 0 0 0 94.568334240313561 12.686243707631547 0 12.686243707631547 -103.38399561861297 0 0 0 0 -799.01252722056233 115.99327092251769 0 115.99327092251769 72.075471175694474 0 0 0 0 -447.55669671008945 -17.639910651874743 0 -17.639910651874743 -1.4639200406054442 0 0 0 0 -455.65763092035081 421.55548917498186 0 421.55548917498186 -134.42679892266096 0 0 0 0 -943.00802678920081 662.72191945260352 0 662.72191945260352 -213.92318526163581 0 0 0 0 -849.29380138547276 975.15933845275413 0 975.15933845275413 -840.84320525449766 0 0 0 0 -360.74518857446674 712.13252684676354 0 712.13252684676354 -546.05318004039145 0 0 0 0 -380.83461218750745 561.83148592629823 0 561.83148592629823 -516.96078790383763 0 0 0 0 -578.05361880871351 379.19457951554341 0 379.19457951554341 -844.7404034282855 0 0 0 0 -116.34237052654498 -101.6973490450946 0 -101.6973490450946 108.81080310537072 0 0 0 0 -3.9043488871810297 4.6982751633577635 0 4.6982751633577635 -1.8761254902623037 0 0 0 0 -1613.2824844825518 433.74922149056329 0 433.74922149056329 -34.965503260114019 0 0 0 0 -0.18076410105774698 3.1329120211919985 0 3.1329120211919985 -9.2705480248333707 0 0 0 0 -1324.8214670128145 928.01287071164734 0 928.01287071164734 -665.02709940231762 0 0 0 0 1349.3048621181224 190.16155180890701 0 190.16155180890701 -366.72995457706702 0 0 0 0 1369.352639257595 141.55674677235447 0 141.55674677235447 -260.69827466223524 0 0 0 0 1084.2305958272918 273.07027970800254 0 273.07027970800254 -148.04892057229927 0 0 0 0 1196.3234908303566 104.85532505234642 0 104.85532505234642 101.84213432282468 0 0 0 0 1516.3238410949853 409.83141210571011 0 409.83141210571011 -137.78653868880792 0 0 0 0 1096.7740864990828 352.74053319059271 0 352.74053319059271 90.91445378505523 0 0 0 0 942.77682040425134 264.83587130492629 0 264.83587130492629 -33.183417506017804 0 0 0 0 938.43366253931526 312.05272251376198 0 312.05272251376198 82.088002203666292 0 0 0 0 1031.3821235865471 197.4512812638045 0 197.4512812638045 -7.9149570441659307 0 0 0 0 1053.000138459036 260.37301552865745 0 260.37301552865745 -3.5645649719465382 0 0 0 0 -1.0625257097616583 10.451406689945173 0 10.451406689945173 -23.991472607133662 0 0 0 0 1022.3795930483757 217.45510181896884 0 217.45510181896884 125.50268537373813 0 0 0 0 890.49351702805143 264.67984667823919 0 264.67984667823919 33.117803394368195 0 0 0 0 1067.8224041642825 267.96185757428526 0 267.96185757428526 -67.304278129628017 0 0 0 0 9.5822790801009887 -5.2106273946446464 0 -5.2106273946446464 -9.6027448507358777 0 0 0 0 78.659741507472063 90.364988603160782 0 90.364988603160782 -125.18609429361459 0 0 0 0 187.64313916551691 19.517309759966977 0 19.517309759966977 -189.92122527004813 0 0 0 0 791.62838694959282 332.32086119282593 0 332.32086119282593 -0.075712296419396807 0 0 0 0 -3.5757451933681565 20.241941133026657 0 20.241941133026657 -50.207638726092931 0 0 0 0 148.76151844213018 318.12647227939362 0 318.12647227939362 189.75786973243862 0 0 0 0 586.35644081984356 243.25660132697527 0 243.25660132697527 156.02705614150651 0 0 0 0 125.22190900042187 753.51821208989054 0 753.51821208989054 84.687080295306714 0 0 0 0 539.85972111138108 633.66735464145518 0 633.66735464145518 96.62633436891403 0 0 0 0 708.56474414608965 580.18766993950476 0 580.18766993950476 12.728945185858038 0 0 0 0 850.15098353844314 503.87337928045849 0 503.87337928045849 -218.61597661237283 0 0 0 0 -78.130646237070323 492.47764215472057 0 492.47764215472057 116.8153850427714 0 0 0 0 -59.698875904345186 523.52634136131894 0 523.52634136131894 113.19953966226967 0 0 0 0 681.78985042505974 256.833885856618 0 256.833885856618 -156.12882237152604 0 0 0 0 18.955083422391908 62.683655140338395 0 62.683655140338395 -180.58243593295856 0 0 0 0 -380.70061577930028 227.105731288757 0 227.105731288757 191.40855910187838 0 0 0 0 -103.90254151633053 318.23735043040722 0 318.23735043040722 217.81302304462622 0 0 0 0 -512.4546795214701 361.58226153394651 0 361.58226153394651 227.12841694006079 0 0 0 0 -1047.5658671635028 341.05812971763589 0 341.05812971763589 194.08551036132712 0 0 0 0 -126.96175426794071 561.73487013098315 0 561.73487013098315 160.68947572397519 0 0 0 0 940.72125797318586 806.45649005091832 0 806.45649005091832 -269.09993370730763 0 0 0 0 -53.00742263016582 232.02789660788494 0 232.02789660788494 -667.92344943134594 0 0 0 0 1750.8828033693208 56.8155038040195 0 56.8155038040195 -19.43399035710263 0 0 0 0 2.1197431168279195 6.595037063953356 0 6.595037063953356 1.3573615491812312 0 0 0 0 -340.37499677819142 1244.5302262048715 0 1244.5302262048715 -72.4084702512896 0 0 0 0 3.5664857188817507 8.8607228432535834 0 8.8607228432535834 -1.8557600677799808 0 0 0 0 -346.7516400077584 505.80123263102405 0 505.80123263102405 -746.9481402597462 0 0 0 0 -554.39004964682681 45.671817413918689 0 45.671817413918689 -496.62998218010762 0 0 0 0 -723.89726067769516 781.95979074301658 0 781.95979074301658 -419.17316333441158 0 0 0 0 -1286.7893162427499 315.60865790747675 0 315.60865790747675 32.666256257712121 0 0 0 0 -348.50479151651962 226.03673275294159 0 226.03673275294159 -55.165653590497868 0 0 0 0 5.6069408234690741 17.537638997437767 0 17.537638997437767 -39.432638414064783 0 0 0 0 13.377679495904886 51.512473110522478 0 51.512473110522478 11.614796708268841 0 0 0 0 10.7795335498474 26.286020310416447 0 26.286020310416447 37.723808963852306 0 0 0 0 16.907934242746705 113.10656619216661 0 113.10656619216661 16.862378533232004 0 0 0 0 -533.35523614202248 504.96052318330021 0 504.96052318330021 -44.12659586994414 0 0 0 0 -564.30777192041569 520.53523990438589 0 520.53523990438589 -51.7824161823537 0 0 0 0 11.591393063900654 21.694108047489991 0 21.694108047489991 41.212702093347716 0 0 0 0 450.02272559621633 387.56380485111595 0 387.56380485111595 -267.63209196836124 0 0 0 0 -106.94772835856566 98.366670035916741 0 98.366670035916741 48.020568089943481 0 0 0 0 -97.442621288515511 49.811979625118511 0 49.811979625118511 69.007887326604759 0 0 0 0 3.2736723607667955 79.41374903886026 0 79.41374903886026 23.007540846878783 0 0 0 0 980.0670476164596 1107.9603302501755 0 1107.9603302501755 288.37022059375704 0 0 0 0 133.11340837813623 134.60494151495095 0 134.60494151495095 30.424562152792532 0 0 0 0 -1.1519660352191181 15.743470735574888 0 15.743470735574888 -40.615436789780752 0 0 0 0 104.32993931583042 92.328201118993093 0 92.328201118993093 36.760888480580434 0 0 0 0 2.575966354706452 86.900350408645807 0 86.900350408645807 59.272953689926908 0 0 0 0 -2.518976617178879 14.155577466651607 0 14.155577466651607 -33.040845359975933 0 0 0 0 146.55553952176706 170.12291869833871 0 170.12291869833871 62.518096260266248 0 0 0 0 601.09356691580251 489.76236864947168 0 489.76236864947168 383.7652508375113 0 0 0 0 763.11404133102042 626.98557603221752 0 626.98557603221752 229.58945100304715 0 0 0 0 1265.5751376179905 426.00941759234502 0 426.00941759234502 -63.6074079810478 0 0 0 0 1317.0260070974309 617.24919534693458 0 617.24919534693458 -331.65608403343049 0 0 0 0 1248.6490467778203 287.39911716720508 0 287.39911716720508 -170.15197501033799 0 0 0 0 488.80453192419372 1261.7093517136341 0 1261.7093517136341 -555.35552124064816 0 0 0 0 1095.8253477568614 682.66369954139532 0 682.66369954139532 -826.80093245810531 0 0 0 0 -314.74345029209508 700.12235251850962 0 700.12235251850962 -691.66880455390697 0 0 0 0 -1254.4228221906233 995.54434321690178 0 995.54434321690178 -637.07883354271871 0 0 0 0 -532.49109780382423 264.52446481834249 0 264.52446481834249 -76.739790637465376 0 0 0 0 -334.30313758682314 643.84744603734862 0 643.84744603734862 -562.32623881100153 0 0 0 0 -120.37087493932631 513.46228355500625 0 513.46228355500625 29.173761704496428 0 0 0 0 -98.871436160537996 828.04565805116317 0 828.04565805116317 273.43722735755432 0 0 0 0 -482.79959391491866 383.89619144711833 0 383.89619144711833 495.02869733429998 0 0 0 0 -539.86546697769518 505.24523402219756 0 505.24523402219756 144.62171309154382 0 0 0 0 -79.900207834514731 529.61110464460535 0 529.61110464460535 627.33772301853696 0 0 0 0 395.02042443858954 567.42599184517258 0 567.42599184517258 579.19162457235143 0 0 0 0 -74.482671880003181 550.46200915803411 0 550.46200915803411 537.95840573284477 0 0 0 0 -311.58233086915061 350.17225973367317 0 350.17225973367317 851.29212276306225 0 0 0 0 3.9573250376488431 537.00518752650646 0 537.00518752650646 318.73780975742511 0 0 0 0 -109.95797236166254 148.05044783858909 0 148.05044783858909 697.24453181514878 0 0 0 0 -214.56332170941641 -36.819240387168684 0 -36.819240387168684 1889.0296844860522 0 0 0 0 -110.95125891351199 318.49923832406012 0 318.49923832406012 500.28055504289478 0 0 0 0 0.53215592510241549 611.14301720628282 0 611.14301720628282 815.99378766802511 0 0 0 0 -0.13581902901205467 527.39505151440153 0 527.39505151440153 6.4959989246581245 0 0 0 0 -266.09135086925744 230.48674800613867 0 230.48674800613867 71.88342771871794 0 0 0 0 -162.6864812693384 360.08810965784096 0 360.08810965784096 -523.73779044081607 0 0 0 0 -74.908526218794577 548.20499043092605 0 548.20499043092605 -142.6820091350628 0 0 0 0 11.170137667017116 379.30048427877421 0 379.30048427877421 -297.90143066961718 0 0 0 0 -225.86828741236968 26.605755506057562 0 26.605755506057562 62.465315253576591 0 0 0 0 -81.888554857498093 113.16721420981912 0 113.16721420981912 -80.863410281003326 0 0 0 0 -38.961716490233812 37.967698417860674 0 37.967698417860674 42.597451081367126 0 0 0 0 43.770483719115873 134.6886822858155 0 134.6886822858155 -63.015207897034543 0 0 0 0 -99.987421277000976 115.98660002346082 0 115.98660002346082 -64.842306945426429 0 0 0 0 -72.599626473573153 58.170106953062259 0 58.170106953062259 -109.71136736208473 0 0 0 0 -404.48722164578794 -25.71613088132608 0 -25.71613088132608 -24.266676821662713 0 0 0 0 -302.89873423798781 -143.26421619360252 0 -143.26421619360252 -13.607598256914571 0 0 0 0 -183.73837600117258 -40.739978991062571 0 -40.739978991062571 -58.491008065015421 0 0 0 0 -221.34414156787534 75.378227282097441 0 75.378227282097441 24.80707505140208 0 0 0 0 -175.41264101517299 -8.2487699928998381 0 -8.2487699928998381 168.10453044808878 0 0 0 0 -222.51152314116916 -1.2197003564310762 0 -1.2197003564310762 136.52653316737587 0 0 0 0 -406.62327228905633 -68.741733777512422 0 -68.741733777512422 113.67178326213752 0 0 0 0 -192.22801931527556 -19.474362883600634 0 -19.474362883600634 146.52120863448908 0 0 0 0 -161.56282470983479 109.76901930859367 0 109.76901930859367 207.2382308681581 0 0 0 0 53.010895750790951 18.167464668866842 0 18.167464668866842 168.51518645045326 0 0 0 0 -22.209817781578749 46.922540961030563 0 46.922540961030563 46.95176002393174 0 0 0 0 45.374474814423593 84.579971546703064 0 84.579971546703064 185.47918589587061 0 0 0 0 -34.36801365500105 144.91660217383998 0 144.91660217383998 145.4006643615935 0 0 0 0 45.358785354059364 172.64609725492835 0 172.64609725492835 352.79910933683766 0 0 0 0 257.71356806054973 214.66459901731719 0 214.66459901731719 190.85002591655848 0 0 0 0 23.422087662271224 342.73719897578485 0 342.73719897578485 354.63277513494768 0 0 0 0 162.21504391705821 409.06190656312651 0 409.06190656312651 371.57375735078756 0 0 0 0 262.34936817143716 626.62208088005696 0 626.62208088005696 -340.71116653323747 0 0 0 0 0.18489779570421661 3.6373663653549464 0 3.6373663653549464 2.8337331985173577 0 0 0 0 206.8387405426256 512.06406307287034 0 512.06406307287034 430.56434693691381 0 0 0 0 -150.86849538391107 64.36782552255363 0 64.36782552255363 1026.4216767283617 0 0 0 0 358.04897455104219 287.78891384745634 0 287.78891384745634 182.2848568986434 0 0 0 0 174.20209558677743 219.51229842671069 0 219.51229842671069 116.75889413677727 0 0 0 0 170.46634319157602 162.99613496938775 0 162.99613496938775 387.82522687254686 0 0 0 0 2.728693362341005 7.3294164544618354 0 7.3294164544618354 4.9055999304841871 0 0 0 0 -287.5734228962101 310.36176252846155 0 310.36176252846155 79.930121801679036 0 0 0 0 -29.188894920305756 11.469940792245666 0 11.469940792245666 320.79392180677632 0 0 0 0 -254.79770899488358 178.77512817630964 0 178.77512817630964 427.16739081951494 0 0 0 0 -82.352124723436646 152.94472102173339 0 152.94472102173339 200.27570938598387 0 0 0 0 -309.87524964212207 331.06685859207573 0 331.06685859207573 277.99770489575667 0 0 0 0 -353.69903868084293 239.39152620649077 0 239.39152620649077 92.105225327220069 0 0 0 0 -481.47559763901518 289.03380874896493 0 289.03380874896493 94.273251379697072 0 0 0 0 -1.8525517629095702 365.30550391114161 0 365.30550391114161 24.591661236728442 0 0 0 0 -190.7572868944244 273.42098059676061 0 273.42098059676061 -19.922308554319898 0 0 0 0 -29.281709603150375 369.26666917266084 0 369.26666917266084 -209.89150165609141 0 0 0 0 -183.96680354722776 413.25127660124326 0 413.25127660124326 -200.59866498474503 0 0 0 0 -56.975298011835548 305.87391071485899 0 305.87391071485899 -198.69840950336584 0 0 0 0 -169.49255429658297 326.12043396551149 0 326.12043396551149 -306.78476769649933 0 0 0 0 -361.43065086711431 409.9247516321102 0 409.9247516321102 -207.27694116991461 0 0 0 0 46.875174057189724 85.940961962946403 0 85.940961962946403 126.41945419676556 0 0 0 0 119.30956669617444 209.13331262906513 0 209.13331262906513 -47.019507211909513 0 0 0 0 88.980921104186564 186.28773609866357 0 186.28773609866357 175.75970147494098 0 0 0 0 177.05549343897292 245.76085739225255 0 245.76085739225255 -44.567921108334758 0 0 0 0 -18.307509729907906 242.00616020835196 0 242.00616020835196 290.22569652899222 0 0 0 0 -24.837961904806434 284.3335736949798 0 284.3335736949798 -51.920083266852544 0 0 0 0 2.800260114698176 231.30930191932549 0 231.30930191932549 -145.46974538185896 0 0 0 0 -76.389095344464295 304.78101718277321 0 304.78101718277321 -174.13030851444114 0 0 0 0 10.660526748193661 268.09910126782336 0 268.09910126782336 -218.99030092298926 0 0 0 0 -9.9879438299685717 225.87221178412801 0 225.87221178412801 -144.59722441435497 0 0 0 0 -14.672379902956891 181.67604310000843 0 181.67604310000843 -204.07930917745989 0 0 0 0 144.88162914351415 153.54563489092584 0 153.54563489092584 -113.06606248549815 0 0 0 0 40.445651343226928 176.96807200863987 0 176.96807200863987 -235.59920555827557 0 0 0 0 -19.549003095525677 142.20785859955916 0 142.20785859955916 -250.91717478044848 0 0 0 0 -63.78514187138353 175.99711182945157 0 175.99711182945157 -276.74203170906321 0 0 0 0 -18.221840761347607 216.72293022324368 0 216.72293022324368 -242.86260443502943 0 0 0 0 -102.86644566820178 231.37041826269615 0 231.37041826269615 -226.84073384320072 0 0 0 0 -126.46185125158991 333.80506080735694 0 333.80506080735694 -208.13457874898813 0 0 0 0 -201.18894577409446 295.35095384964239 0 295.35095384964239 -178.25773516725712 0 0 0 0 -185.69939741111011 192.54042420726819 0 192.54042420726819 -250.94432608654552 0 0 0 0 -85.631363924927427 241.75355681723886 0 241.75355681723886 -238.7671999941681 0 0 0 0 -118.84192710461502 142.78611651845108 0 142.78611651845108 -302.62561342478602 0 0 0 0 -150.97270220778591 195.66327104234142 0 195.66327104234142 -252.72746195150808 0 0 0 0 -229.84781154170923 121.43866657866056 0 121.43866657866056 -229.45952789769035 0 0 0 0 -247.79675484637846 106.95990027862172 0 106.95990027862172 -236.1116329932197 0 0 0 0 -39.134199736552546 131.26588343392723 0 131.26588343392723 -311.70834067395208 0 0 0 0 -47.63928560311615 151.21043885348081 0 151.21043885348081 -328.32414701324342 0 0 0 0 -38.310607347098994 157.98272042309236 0 157.98272042309236 -324.81587529527678 0 0 0 0 -27.043456334547955 159.62433841107668 0 159.62433841107668 -326.48706891558231 0 0 0 0 -46.20249280059943 183.78776410841238 0 183.78776410841238 -286.44353696960025 0 0 0 0 -472.83398640617816 514.65132279256659 0 514.65132279256659 -134.56911876646427 0 0 0 0 -511.91898729882087 537.09923884041564 0 537.09923884041564 -133.45771659808855 0 0 0 0 -315.71841229166603 530.19243014568838 0 530.19243014568838 -327.08172820612845 0 0 0 0 -237.62640135490074 390.81027951973999 0 390.81027951973999 -180.09299661562909 0 0 0 0 -233.63842227635905 415.29911531807147 0 415.29911531807147 -201.55149853666535 0 0 0 0 -232.70328892749967 312.55246019336391 0 312.55246019336391 -187.4165892272249 0 0 0 0 -533.69059647358517 388.38011591992745 0 388.38011591992745 124.56578928238741 0 0 0 0 -331.48437275111792 334.3324226209761 0 334.3324226209761 -55.191475755205829 0 0 0 0 -371.60371965440572 258.41427426141945 0 258.41427426141945 -176.71890395184892 0 0 0 0 -640.09559870109661 236.25952290017085 0 236.25952290017085 -86.111983943647374 0 0 0 0 -422.72316796437372 436.52184283248289 0 436.52184283248289 -163.69746171656652 0 0 0 0 -547.60807491702144 486.09077255368129 0 486.09077255368129 -61.281607893434966 0 0 0 0 -422.96334385088267 459.22786806089539 0 459.22786806089539 -73.933137164881373 0 0 0 0 -618.41448324113298 1210.0351492274824 0 1210.0351492274824 -377.66618251390173 0 0 0 0 -1682.4567289599363 257.3301142459336 0 257.3301142459336 110.78920319595045 0 0 0 0 -406.88752534387459 -46.632723858449253 0 -46.632723858449253 -242.41023302305621 0 0 0 0 -619.56273339505969 -250.37258499385609 0 -250.37258499385609 -139.02048811155782 0 0 0 0 -563.57991453525392 -83.43464274112057 0 -83.43464274112057 -169.70530954985952 0 0 0 0 -22.679397785738814 2.931396560099417 0 2.931396560099417 -0.084891931784935704 0 0 0 0 435.15271050202864 1254.4122120779111 0 1254.4122120779111 -1125.6397125197163 0 0 0 0 -1281.4846775105252 1052.4413386793287 0 1052.4413386793287 -188.66014309443426 0 0 0 0 -402.11217612157634 -207.58840524400875 0 -207.58840524400875 -180.81416862888273 0 0 0 0 -105.19110074517084 58.760174659552376 0 58.760174659552376 70.10399088432564 0 0 0 0 12.836234858419814 22.706930356501005 0 22.706930356501005 50.724559494852265 0 0 0 0 110.4111668030564 -1164.8946946464243 0 -1164.8946946464243 -688.13924788192344 0 0 0 0 -39.473877518939844 69.432458197007463 0 69.432458197007463 -305.09478465672328 0 0 0 0 -53.123286703164922 74.86717817503586 0 74.86717817503586 -197.07511160405329 0 0 0 0 -22.67134882931532 159.35405924816172 0 159.35405924816172 -354.10119300124643 0 0 0 0 -18.043653770382662 130.43392535151418 0 130.43392535151418 -317.01023184290534 0 0 0 0 -9.3496614296163898 158.83251051891057 0 158.83251051891057 -283.73493261868771 0 0 0 0 -139.60136141166004 30.385132510827589 0 30.385132510827589 -318.35196797486788 0 0 0 0 4.9401817659963854 111.77478817490851 0 111.77478817490851 -323.32142111309076 0 0 0 0 -82.326780643052189 121.73197841966248 0 121.73197841966248 -309.5583570397248 0 0 0 0 -11.012083577894373 68.77196320616531 0 68.77196320616531 -315.15891502204124 0 0 0 0 -245.74929552859976 9.3540530202208174 0 9.3540530202208174 -236.67132432860046 0 0 0 0 128.03432191578031 -12.509966726060156 0 -12.509966726060156 -305.83074647921092 0 0 0 0 -85.317976260514115 -154.66218895994234 0 -154.66218895994234 -213.67330458951665 0 0 0 0 -194.40080500109616 -58.079054078630179 0 -58.079054078630179 -306.06689169647143 0 0 0 0 117.95890614084783 160.18631130770518 0 160.18631130770518 -270.54772023172927 0 0 0 0 -44.228044781091739 92.770334463242762 0 92.770334463242762 -287.1241936804854 0 0 0 0 417.65461381034584 587.16673194265434 0 587.16673194265434 -1337.7267250909044 0 0 0 0 -4.8689421192832896 9.0848054686991162 0 9.0848054686991162 -21.253070488112638 0 0 0 0 5688.7175321971881 923.78561076617552 0 923.78561076617552 -2683.8025442051185 0 0 0 0 -50.08652994633303 152.10284713786928 0 152.10284713786928 -96.984027638384759 0 0 0 0 -4081.0598600572193 -1449.6597464546167 0 -1449.6597464546167 -307.25583647753774 0 0 0 0 -39.137231422697596 -1.3881218068604106 0 -1.3881218068604106 -0.20755354082565525 0 0 0 0 -687.94418572074574 656.64716520257298 0 656.64716520257298 -73.047136654493897 0 0 0 0 -25.952159650241185 -1.7014412334733229 0 -1.7014412334733229 -0.33282292712487083 0 0 0 0 -58.642860715473944 -80.338685053088398 0 -80.338685053088398 179.75617901174837 0 0 0 0 -76.928227822114422 143.53432328696726 0 143.53432328696726 -391.36111501364729 0 0 0 0 -183.7611762123106 105.76949683942715 0 105.76949683942715 -341.73732817201198 0 0 0 0 -183.27390444287175 104.90496130032217 0 104.90496130032217 -447.69467050927688 0 0 0 0 -67.208727206278127 144.61106001830422 0 144.61106001830422 -325.10732903753978 0 0 0 0 -48.645060580442077 170.62520814852451 0 170.62520814852451 -335.28741547855589 0 0 0 0 -92.418974759712 186.03929585502055 0 186.03929585502055 -388.82208539673184 0 0 0 0 -267.53543125994474 268.1988616293005 0 268.1988616293005 -459.20669775718306 0 0 0 0 -206.15661431379704 146.96752074833717 0 146.96752074833717 -287.86237115713766 0 0 0 0 -250.16322798701731 174.17804470933243 0 174.17804470933243 -184.79971310958945 0 0 0 0 -98.554072852508398 119.39068892440969 0 119.39068892440969 -283.72147787290805 0 0 0 0 -59.559356998535804 170.39554638386107 0 170.39554638386107 -267.16344016471339 0 0 0 0 -60.679517740376468 187.5654855895425 0 187.5654855895425 -323.60475777990985 0 0 0 0 -702.95112359631457 -88.8709355070024 0 -88.8709355070024 3.0132050933596304 0 0 0 0 -235.53281976577955 21.733098604934156 0 21.733098604934156 -69.422467661247538 0 0 0 0 -654.24356632272975 244.90748396002982 0 244.90748396002982 -185.11201098513084 0 0 0 0 -2.3104807552582116 2.1167998900353524 0 2.1167998900353524 -3.6580815075833168 0 0 0 0 133.17133887133605 74.470942436376731 0 74.470942436376731 -266.82904470860217 0 0 0 0 -77.934879245494812 287.83264330816291 0 287.83264330816291 -272.21896299481546 0 0 0 0 -657.78463107432481 85.345826084654163 0 85.345826084654163 -131.35231399585336 0 0 0 0 -634.50996730179395 387.20088524258381 0 387.20088524258381 -511.90836215049103 0 0 0 0 -8.7597290964919807 -0.74458541565439407 0 -0.74458541565439407 -0.50977127032155289 0 0 0 0 47.665788713624352 12.282033594072345 0 12.282033594072345 -380.31285791006678 0 0 0 0 178.44787024641664 385.92195473196148 0 385.92195473196148 -154.90574434468226 0 0 0 0 158.48023043756257 204.48625991017298 0 204.48625991017298 -97.326337207658526 0 0 0 0 227.76910000077623 266.10143007827651 0 266.10143007827651 -127.8556689090633 0 0 0 0 185.51914141203224 248.0558319152581 0 248.0558319152581 -131.60208704547404 0 0 0 0 197.33460318925063 142.35175050060911 0 142.35175050060911 -331.34006822588174 0 0 0 0 159.27880634562462 210.43646834119647 0 210.43646834119647 -156.38336049769134 0 0 0 0 99.925923412265547 209.80047400023636 0 209.80047400023636 -138.98156657319851 0 0 0 0 185.8504077082398 248.4296139348213 0 248.4296139348213 -179.92916597419332 0 0 0 0 171.10585821806126 333.57380478368702 0 333.57380478368702 -62.599008498647436 0 0 0 0 94.463230399574968 214.50991788243084 0 214.50991788243084 9.2882088435685546 0 0 0 0 88.372302165918882 209.99935717535053 0 209.99935717535053 125.18558496710421 0 0 0 0 115.65057182269811 329.11638310110021 0 329.11638310110021 285.66866322261035 0 0 0 0 79.540011548233451 123.59434985601081 0 123.59434985601081 -83.58306344588334 0 0 0 0 71.570811566347402 110.96512780693433 0 110.96512780693433 46.25294616565202 0 0 0 0 42.458582470302645 82.085500237473198 0 82.085500237473198 51.656956334883539 0 0 0 0 -194.12444612726904 68.832695999174348 0 68.832695999174348 -17.116696689337459 0 0 0 0 -4.6233430374881266 8.2441649386378515 0 8.2441649386378515 -6.0516841772238568 0 0 0 0 -110.87435420541442 -97.534834055263445 0 -97.534834055263445 -79.872704484619817 0 0 0 0 -3.0051149691590524 2.973062023031158 0 2.973062023031158 1.1892974311446323 0 0 0 0 29.423553088512563 35.316391009264407 0 35.316391009264407 12.452743505794956 0 0 0 0 -22.460200452314893 18.457013476388283 0 18.457013476388283 25.578807033386965 0 0 0 0 13.127391388608743 17.747276509189966 0 17.747276509189966 3.8771612792019683 0 0 0 0 -17.402657330377693 11.400340400857033 0 11.400340400857033 12.76077394869975 0 0 0 0 33.49901934187983 74.750036422576116 0 74.750036422576116 95.384805229255861 0 0 0 0 14.714368578887473 18.050936014571619 0 18.050936014571619 5.8488255136988876 0 0 0 0 37.415510841485229 123.26626586071626 0 123.26626586071626 263.97264497819924 0 0 0 0 25.712056663614931 75.444109801087095 0 75.444109801087095 113.45333793234951 0 0 0 0 48.076190026713448 115.93958945439203 0 115.93958945439203 252.41295712701185 0 0 0 0 -94.145594433353835 187.254200676859 0 187.254200676859 -126.21278633618022 0 0 0 0 26.240042759423652 16.359261165634138 0 16.359261165634138 -2.7933439211371613 0 0 0 0 12.34358177877948 20.110840129146254 0 20.110840129146254 10.975545503563808 0 0 0 0 12.575924529759504 26.221714034888464 0 26.221714034888464 -7.8825491777990919 0 0 0 0 -247.56345059431351 163.17360577112277 0 163.17360577112277 28.713096073966881 0 0 0 0 20.165575694694105 28.415214250668257 0 28.415214250668257 18.467329155220387 0 0 0 0 28.160551288896386 41.704031937533955 0 41.704031937533955 16.118349378976745 0 0 0 0 7.6992731345089851 216.59166707464374 0 216.59166707464374 -117.86196555654533 0 0 0 0 -265.99697527132685 225.98696450098032 0 225.98696450098032 -17.768351809187152 0 0 0 0 -109.71007279054174 213.13414935262699 0 213.13414935262699 -50.399138360942743 0 0 0 0 5.1452880983888463 364.56883598781678 0 364.56883598781678 0.10902719689329388 0 0 0 0 -348.44321473095624 398.31250381820428 0 398.31250381820428 -56.67891337086985 0 0 0 0 154.10516509364243 122.00888814296377 0 122.00888814296377 -97.129119816418097 0 0 0 0 -33.822309014827624 208.14926918845231 0 208.14926918845231 -201.32098570452399 0 0 0 0 15.127567406094094 12.632786332614486 0 12.632786332614486 7.9298372815161855 0 0 0 0 -598.25634477916901 108.73648296869214 0 108.73648296869214 20.673016987661867 0 0 0 0 -140.52716632536612 58.093620874357839 0 58.093620874357839 54.112658215197143 0 0 0 0 -84.260579751309706 47.587653628342196 0 47.587653628342196 44.564403040850266 0 0 0 0 45.185493303924325 55.473047285023775 0 55.473047285023775 40.170550726883377 0 0 0 0 -218.77267871129152 -1.6465750316199319 0 -1.6465750316199319 126.10357699622529 0 0 0 0 -270.09501015779824 52.550794441039216 0 52.550794441039216 131.01593893547474 0 0 0 0 -185.07336597696121 -34.227605675977998 0 -34.227605675977998 55.877915671208939 0 0 0 0 -73.56945626065135 -25.797979501666305 0 -25.797979501666305 15.168341205342472 0 0 0 0 26.881472125074652 68.73567615936372 0 68.73567615936372 14.520400421794875 0 0 0 0 -2.0462407606725748 22.803982113107082 0 22.803982113107082 11.051465975023422 0 0 0 0 -75.952303342026426 66.953504381617677 0 66.953504381617677 11.043340918174181 0 0 0 0 284.45461452956079 296.56932280621277 0 296.56932280621277 58.484623018336606 0 0 0 0 543.80739447149244 154.9829753502454 0 154.9829753502454 -134.09622777206914 0 0 0 0 -6.1599511985225064 15.983084000038282 0 15.983084000038282 8.4350274782985437 0 0 0 0 -71.247183919930492 37.36768147577672 0 37.36768147577672 -6.3379932888890131 0 0 0 0 -53.065049615783209 42.703455874349856 0 42.703455874349856 -24.532985178051604 0 0 0 0 -316.9709450003138 66.678268684619979 0 66.678268684619979 174.88727173189727 0 0 0 0 -27.720447543644696 68.254091526880075 0 68.254091526880075 -5.5519765169065067 0 0 0 0 -19.803899572339546 9.493263618888335 0 9.493263618888335 -3.3718788953376233 0 0 0 0 -155.60239279203233 -6.3168817536488859 0 -6.3168817536488859 71.443296111363452 0 0 0 0 3.3974006007570026 4.8095827850302086 0 4.8095827850302086 2.7070476985346446 0 0 0 0 -38.927951079816921 94.861547607746616 0 94.861547607746616 22.810992701382929 0 0 0 0 -145.6414724520946 -10.500120573395179 0 -10.500120573395179 356.04023338956722 0 0 0 0 1410.6470133286057 131.43067493119815 0 131.43067493119815 -37.594490650127227 0 0 0 0 518.60927907847145 406.90016709128486 0 406.90016709128486 448.29505489552685 0 0 0 0 302.37821916155372 382.19286531566831 0 382.19286531566831 126.39675779056279 0 0 0 0 298.39017460287869 123.11687897063166 0 123.11687897063166 86.147562748591554 0 0 0 0 163.00414126500618 188.39975183736533 0 188.39975183736533 223.0973118602742 0 0 0 0 191.08487990191497 223.48591336237314 0 223.48591336237314 -97.452276579178942 0 0 0 0 434.87378020465985 207.61844012210395 0 207.61844012210395 -260.12175819727236 0 0 0 0 14.680408043430361 233.4010746302074 0 233.4010746302074 -103.95798270472187 0 0 0 0 210.73768339669914 308.53261744728843 0 308.53261744728843 -103.69863793765728 0 0 0 0 495.91419179175864 77.743747085733048 0 77.743747085733048 9.2504368271202111 0 0 0 0 663.62107555874536 261.86361876695537 0 261.86361876695537 -217.71311480744589 0 0 0 0 415.47206938265299 133.3382354121004 0 133.3382354121004 -477.07886358742689 0 0 0 0 504.87654413857672 320.39537759787891 0 320.39537759787891 -199.45415152549594 0 0 0 0 539.39562405028119 311.41659668683815 0 311.41659668683815 -687.76704800528205 0 0 0 0 699.09110927714846 58.759869440024886 0 58.759869440024886 -894.65704448907854 0 0 0 0 871.08614074933575 -225.91820265584556 0 -225.91820265584556 -556.96301759923335 0 0 0 0 703.53906224648836 -24.256751945830331 0 -24.256751945830331 -391.36608912836891 0 0 0 0 234.93546383840294 -129.07912685512429 0 -129.07912685512429 -265.21076817402172 0 0 0 0 90.459999594146211 104.21607440658318 0 104.21607440658318 -255.12393205739363 0 0 0 0 263.66374729825475 140.70754866352127 0 140.70754866352127 -252.77237790779327 0 0 0 0 101.75077211658208 114.40084540816588 0 114.40084540816588 -249.68305204698873 0 0 0 0 44.094022416444204 176.55814902757277 0 176.55814902757277 585.97556954082506 0 0 0 0 36.708154156312105 7.5504272698444082 0 7.5504272698444082 -3.8109841490613441 0 0 0 0 13.199924656043606 0.7864171689760342 0 0.7864171689760342 0.98452009638698723 0 0 0 0 519.81253275126801 -380.60568968698567 0 -380.60568968698567 -47.177275446276781 0 0 0 0 176.66673097312014 486.37356652261383 0 486.37356652261383 1559.101355251513 0 0 0 0 -329.59778774445658 842.05156312941881 0 842.05156312941881 680.60969866651158 0 0 0 0 628.8396927094218 -436.70326534195397 0 -436.70326534195397 -57.058403632161458 0 0 0 0 741.4729083366401 303.42160443521789 0 303.42160443521789 -1117.4576882539404 0 0 0 0 21.77876613581693 45.759374762281389 0 45.759374762281389 6.0183597385496164 0 0 0 0 6.9742217217265932 10.10468254095764 0 10.10468254095764 -3.3944638975178201 0 0 0 0 -130.86624096324886 70.816126344471741 0 70.816126344471741 -3.839733432662797 0 0 0 0 -197.35324628959643 66.936126519419304 0 66.936126519419304 18.401683127198339 0 0 0 0 -113.35892486015655 24.184022452901445 0 24.184022452901445 -6.5087038316432881 0 0 0 0 -175.79960513494098 18.347654183378722 0 18.347654183378722 18.640563577453577 0 0 0 0 -451.35500181649695 -66.467520576875984 0 -66.467520576875984 205.1223141576786 0 0 0 0 29.91100648413472 47.589025897698328 0 47.589025897698328 23.041365208648664 0 0 0 0 -363.96216020290012 -220.5373485574014 0 -220.5373485574014 202.96926613867981 0 0 0 0 -42.352686825288401 -269.67979086906769 0 -269.67979086906769 115.58659956403039 0 0 0 0 -205.51448906488076 -96.042159220033795 0 -96.042159220033795 81.500157561009132 0 0 0 0 273.48610034956801 496.01441535043659 0 496.01441535043659 358.8162661833619 0 0 0 0 104.02131565510717 175.41153724538913 0 175.41153724538913 426.8157269725391 0 0 0 0 960.64043872987349 639.20190579609948 0 639.20190579609948 303.22450004577331 0 0 0 0 399.35799709973071 91.822445929799301 0 91.822445929799301 -44.371134487649101 0 0 0 0 241.63298968769959 232.83853750707499 0 232.83853750707499 -160.26498216513733 0 0 0 0 203.33213048161269 287.59827302677911 0 287.59827302677911 -26.470369847336769 0 0 0 0 134.45849749010813 253.26458883414398 0 253.26458883414398 -31.777836034982784 0 0 0 0 222.06079103125376 314.111163457972 0 314.111163457972 -254.747356381381 0 0 0 0 -98.764276152647653 69.328116956768099 0 69.328116956768099 -318.86464673824094 0 0 0 0 160.33561068745803 1.9557069714971504 0 1.9557069714971504 -318.17324040024005 0 0 0 0 -13.230259148118051 10.033380924719062 0 10.033380924719062 -4.9269055928947205 0 0 0 0 161.3866209805783 43.702772270473019 0 43.702772270473019 -664.78997704318272 0 0 0 0 41.784405439848342 26.718022358204365 0 26.718022358204365 -343.6660873978617 0 0 0 0 -184.1534548281561 297.38469057308924 0 297.38469057308924 -139.90560334556628 0 0 0 0 127.40357970065998 -282.25913134984063 0 -282.25913134984063 -401.61829877387515 0 0 0 0 119.26109982802154 -57.861642049574655 0 -57.861642049574655 -1114.4271572644357 0 0 0 0 -4.5736957237595277 2.951812546660296 0 2.951812546660296 -1.5933082948954311 0 0 0 0 -303.35025889401732 324.48220366162843 0 324.48220366162843 662.27768326441048 0 0 0 0 -204.8642738523049 271.7584456889569 0 271.7584456889569 116.85349590773103 0 0 0 0 -147.73389989657517 355.75823962039703 0 355.75823962039703 104.33929552814263 0 0 0 0 -14.133924375815695 119.86243107384871 0 119.86243107384871 -32.370448562111051 0 0 0 0 -60.518270975817359 98.570993266037476 0 98.570993266037476 -20.381465523008046 0 0 0 0 31.39097552447771 51.728767313438098 0 51.728767313438098 29.825759779519554 0 0 0 0 -214.15849715812328 245.70470959158956 0 245.70470959158956 -5.1983032940042904 0 0 0 0 31.147040292838938 98.652956526163507 0 98.652956526163507 -45.796075295455921 0 0 0 0 3.7865103957938118 84.562046790243812 0 84.562046790243812 6.5397468875989944 0 0 0 0 -4.6778632505101996 96.632915508023871 0 96.632915508023871 8.8613146701229297 0 0 0 0 13.170723600709607 98.000575428442062 0 98.000575428442062 -0.34030291544786451 0 0 0 0 -1.2571388842989109 97.504465089006771 0 97.504465089006771 35.548413672182505 0 0 0 0 3.6729393185132722 76.009711056589367 0 76.009711056589367 45.333712551541794 0 0 0 0 5.3848633342531684 102.81728941559641 0 102.81728941559641 15.232977912829028 0 0 0 0 1.360524898622316 117.33388480071153 0 117.33388480071153 64.913436691210336 0 0 0 0 -6.7631318255821498 102.97180638094153 0 102.97180638094153 183.66329101526753 0 0 0 0 -18.117288922447187 196.63024031805253 0 196.63024031805253 105.89173510498313 0 0 0 0 2.4963240987827433 -0.013722053801469514 0 -0.013722053801469514 3.5754663243522344 0 0 0 0 -355.90043791557036 118.97998119361682 0 118.97998119361682 206.23078960216935 0 0 0 0 68.981827442952635 209.16028324542594 0 209.16028324542594 -93.912896627174177 0 0 0 0 44.894659488727484 19.188641255661878 0 19.188641255661878 59.112777881950933 0 0 0 0 157.28436176996911 161.55509809714295 0 161.55509809714295 -43.703337394280425 0 0 0 0 166.25798266698621 139.12414676774551 0 139.12414676774551 -26.305794860523747 0 0 0 0 151.1449913304823 136.71767292639379 0 136.71767292639379 -4.822185980164079 0 0 0 0 158.72442627209784 126.75485259239485 0 126.75485259239485 -4.0272274482595094 0 0 0 0 151.38113082826749 127.9739873836952 0 127.9739873836952 11.473644354206044 0 0 0 0 126.80746514655038 152.27568670917481 0 152.27568670917481 3.3807222553259635 0 0 0 0 138.71097556153109 129.1650643886835 0 129.1650643886835 20.436274572357433 0 0 0 0 175.53326338438637 124.88301207935274 0 124.88301207935274 8.4312079805840767 0 0 0 0 151.27675533948059 128.37330389685485 0 128.37330389685485 19.56107750189517 0 0 0 0 -30.817087898633396 97.947562254888538 0 97.947562254888538 15.890136197006996 0 0 0 0 -30.880945170134829 97.973021674691154 0 97.973021674691154 15.732565934013159 0 0 0 0 -18.254009275797216 86.488210908927158 0 86.488210908927158 32.076585885555687 0 0 0 0 146.48450645678895 153.89179093090206 0 153.89179093090206 5.6365904542099088 0 0 0 0 133.42313820304116 149.25580752180122 0 149.25580752180122 12.121554709929114 0 0 0 0 50.171524322526238 175.66101607373639 0 175.66101607373639 19.817574594319012 0 0 0 0 75.653710814251099 200.08452580318135 0 200.08452580318135 -14.550528432367628 0 0 0 0 52.232083564958884 232.26194256146027 0 232.26194256146027 -10.811826220658816 0 0 0 0 73.955625755916117 202.58417917475981 0 202.58417917475981 29.718511682691314 0 0 0 0 13.253374462079591 205.44139603760686 0 205.44139603760686 31.787103015460161 0 0 0 0 4.8415356942023209 137.15620944959483 0 137.15620944959483 22.357293545539505 0 0 0 0 5.4114675189193804 194.18847662545522 0 194.18847662545522 59.10386712066429 0 0 0 0 -31.571059073858805 99.043548400638088 0 99.043548400638088 16.107472957130987 0 0 0 0 73.76865466829986 163.28168731207097 0 163.28168731207097 25.028399613962392 0 0 0 0 -19.953251334360175 116.43738585902611 0 116.43738585902611 44.620462524979303 0 0 0 0 14.307491340458 128.10202933264782 0 128.10202933264782 20.034729891810912 0 0 0 0 20.341902542142634 125.25108023148641 0 125.25108023148641 17.690104564710964 0 0 0 0 18.43992970410909 111.44307663314885 0 111.44307663314885 26.766007644515639 0 0 0 0 -29.011638115168559 96.954047631966503 0 96.954047631966503 15.24233969737034 0 0 0 0 -67.907320945962056 139.73875907178808 0 139.73875907178808 50.15004452611538 0 0 0 0 29.385663364715583 132.86503359634889 0 132.86503359634889 18.822100056014278 0 0 0 0 -34.933030533200508 161.19742403606824 0 161.19742403606824 46.85855554605223 0 0 0 0 -89.312330853223102 118.72167306652682 0 118.72167306652682 33.993196325795452 0 0 0 0 -65.766322404473613 190.82400372724533 0 190.82400372724533 70.942602065801111 0 0 0 0 -22.862768486160348 213.82313849572529 0 213.82313849572529 91.748962697820389 0 0 0 0 -33.371564336779556 164.8377234705431 0 164.8377234705431 38.103536673319468 0 0 0 0 -14.139285551696958 184.89022970583483 0 184.89022970583483 56.88252952979019 0 0 0 0 -193.07291176617582 120.33181345626781 0 120.33181345626781 12.742867047318214 0 0 0 0 -0.19494152309438562 -0.63743420188978206 0 -0.63743420188978206 1.8096369609757765 0 0 0 0 -128.01728685097805 63.465548717657384 0 63.465548717657384 -53.494076910854346 0 0 0 0 -16.5570332336431 8.645318150198829 0 8.645318150198829 7.1701580960894944 0 0 0 0 -164.9024424717627 45.748118083891768 0 45.748118083891768 -18.540549203064074 0 0 0 0 -186.98845026410709 74.71014239636861 0 74.71014239636861 -25.850362376017074 0 0 0 0 -80.747464657353703 16.796897375892058 0 16.796897375892058 -8.2077893427704112 0 0 0 0 13.964802734060868 159.7755492400297 0 159.7755492400297 26.292112595448998 0 0 0 0 -92.14684246671095 60.039439435459826 0 60.039439435459826 -40.864541259782527 0 0 0 0 63.24068751879895 187.60296366641887 0 187.60296366641887 37.801083838931845 0 0 0 0 -40.44803097255317 208.99454060905896 0 208.99454060905896 54.633457080908556 0 0 0 0 55.42873496520599 121.73932269940934 0 121.73932269940934 44.811519733315436 0 0 0 0 19.118610947238267 146.62649244377462 0 146.62649244377462 67.808423473146377 0 0 0 0 155.64680955078711 126.13475060505516 0 126.13475060505516 -21.906540453340313 0 0 0 0 -11.430768611573512 71.336780635890136 0 71.336780635890136 -23.589320544715065 0 0 0 0 24.508571801230573 128.16064136279601 0 128.16064136279601 5.4477531015836576 0 0 0 0 19.12360098886893 100.16807477980137 0 100.16807477980137 -20.711532874215209 0 0 0 0 -34.179489669175211 69.733802092100788 0 69.733802092100788 -40.297476774999993 0 0 0 0 -65.516957707863185 143.39472088154434 0 143.39472088154434 68.176698712653888 0 0 0 0 -158.56360260498332 90.907604622932013 0 90.907604622932013 -58.080907348758274 0 0 0 0 -8.9875782324379543 75.047779669097963 0 75.047779669097963 -43.828602220613902 0 0 0 0 -14.463551246290606 14.889875023544644 0 14.889875023544644 -8.6681485122206681 0 0 0 0 -214.82773864470073 88.058158447169262 0 88.058158447169262 -3.221285076066124 0 0 0 0 -87.172471880541451 36.976623982061049 0 36.976623982061049 2.3814206588233162 0 0 0 0 -160.56542843554053 90.544318913101506 0 90.544318913101506 -16.459625736988528 0 0 0 0 -65.664586814382346 149.68987558939625 0 149.68987558939625 5.3086155840064748 0 0 0 0 -359.72532443152886 165.68712478334601 0 165.68712478334601 86.264418165730604 0 0 0 0 9.2268995605572997 56.9746274721237 0 56.9746274721237 70.956492621900011 0 0 0 0 -92.724919333464641 113.66243330636098 0 113.66243330636098 -19.25645179314597 0 0 0 0 22.117553264343783 34.993600963556439 0 34.993600963556439 60.476990345119901 0 0 0 0 -237.37971870957881 261.66426323499854 0 261.66426323499854 -83.659054495474265 0 0 0 0 -51.939699141327765 234.26044029392415 0 234.26044029392415 -159.19091194656357 0 0 0 0 7.7796580373469624 118.00306657201872 0 118.00306657201872 -123.48025184487051 0 0 0 0 26.653384140332491 132.66215632825333 0 132.66215632825333 -140.66028484624258 0 0 0 0 -51.436115950749809 154.91244626989646 0 154.91244626989646 -83.907034746771387 0 0 0 0 -10.886142358060169 85.537253079335642 0 85.537253079335642 30.978594193518802 0 0 0 0 42.231433121083683 78.055740954248904 0 78.055740954248904 -79.181196963909315 0 0 0 0 41.404508393577999 79.992599309171055 0 79.992599309171055 -41.938256045490562 0 0 0 0 -51.212372360019799 27.537795470478159 0 27.537795470478159 264.59108601394837 0 0 0 0 -30.379998616170255 58.653525407783306 0 58.653525407783306 -47.474913327277648 0 0 0 0 49.561764690628479 6.2566536833510327 0 6.2566536833510327 -78.846863396942354 0 0 0 0 57.779911351177475 174.10546508559889 0 174.10546508559889 -444.88339408714091 0 0 0 0 82.017718140483339 71.1692618282068 0 71.1692618282068 -78.076766708836658 0 0 0 0 70.715498515644867 26.074383745677551 0 26.074383745677551 -171.22053391942245 0 0 0 0 124.57856813913804 63.307435258343503 0 63.307435258343503 -193.20196077582659 0 0 0 0 109.15621391589411 85.938247221768506 0 85.938247221768506 -170.17899337637937 0 0 0 0 238.46797741459341 123.21371859153624 0 123.21371859153624 -159.50410801534599 0 0 0 0 -53.5440922785765 17.882383878188193 0 17.882383878188193 -31.162004886733484 0 0 0 0 14.942723659376497 82.605742082421784 0 82.605742082421784 -146.31831981272262 0 0 0 0 -180.85818148574617 29.802668883299702 0 29.802668883299702 -22.195955240618787 0 0 0 0 47.616071778091282 -126.70538267501615 0 -126.70538267501615 -10.652734805073123 0 0 0 0 157.5200337494316 0.10042942569634761 0 0.10042942569634761 -108.76290302905545 0 0 0 0 206.3692417117054 57.201170155480213 0 57.201170155480213 -80.681073320716678 0 0 0 0 374.09869054176306 205.92508425442793 0 205.92508425442793 -36.38321551583067 0 0 0 0 258.59748275010497 -7.7013961063457828 0 -7.7013961063457828 -1.192925156930869 0 0 0 0 374.97146288918884 135.31224560942428 0 135.31224560942428 41.73133302343922 0 0 0 0 185.95498139067058 113.35784582411725 0 113.35784582411725 -80.443693348002853 0 0 0 0 242.93268167413044 256.26069356288644 0 256.26069356288644 -102.20470956389545 0 0 0 0 122.98587843686983 184.6651589149842 0 184.6651589149842 -6.3173508355903323 0 0 0 0 -1.6874268489082169 289.52570423006364 0 289.52570423006364 172.05630964465672 0 0 0 0 -23.216990577444449 218.29252283303686 0 218.29252283303686 -61.914175671226985 0 0 0 0 -309.62746067753324 265.52289606069644 0 265.52289606069644 15.583330463588936 0 0 0 0 -28.08697880503405 174.31022966850924 0 174.31022966850924 -133.8844068832841 0 0 0 0 164.81719117629109 145.65960550437376 0 145.65960550437376 -153.0794588837889 0 0 0 0 -21.483138702828001 189.61586993756828 0 189.61586993756828 -107.20617428261903 0 0 0 0 -37.641328957283662 39.939955900484065 0 39.939955900484065 -25.465340410412772 0 0 0 0 -13.728878736888873 74.1146258557892 0 74.1146258557892 5.8457663061381027 0 0 0 0 -35.114820998911455 76.873197684716615 0 76.873197684716615 7.645851660918197 0 0 0 0 -9.7886562335006602 80.86866786713972 0 80.86866786713972 0.87285105485352688 0 0 0 0 -10.625871111078595 75.247450872333502 0 75.247450872333502 -15.280427422017965 0 0 0 0 -18.284762708949984 144.28105777112989 0 144.28105777112989 4.1759196553921356 0 0 0 0 -41.913127178697323 145.33817360473222 0 145.33817360473222 12.846095147457163 0 0 0 0 -49.745029206416802 183.60821882231221 0 183.60821882231221 -92.464978238116601 0 0 0 0 -195.46881796116941 141.25025299425943 0 141.25025299425943 39.711637569032973 0 0 0 0 -49.778112935017674 75.576527831976875 0 75.576527831976875 -18.816670921551633 0 0 0 0 -23.577900725913423 90.96004236177032 0 90.96004236177032 14.909074249657351 0 0 0 0 -345.44432046849033 197.86311565985579 0 197.86311565985579 75.509089195809793 0 0 0 0 -21.495343229170629 11.97188027528837 0 11.97188027528837 13.541201877659706 0 0 0 0 -11.078720718913246 54.141755083159296 0 54.141755083159296 -104.6335624645676 0 0 0 0 226.2800382282403 66.70948107631375 0 66.70948107631375 -87.555386626168911 0 0 0 0 -24.314097450011264 70.848181907602282 0 70.848181907602282 -30.10745606235372 0 0 0 0 195.88826709291061 23.469099863636075 0 23.469099863636075 -130.54276225662761 0 0 0 0 -45.069658248507153 104.85385902834103 0 104.85385902834103 17.872286381781535 0 0 0 0 67.594519921758092 133.13351482390669 0 133.13351482390669 24.238006084280642 0 0 0 0 -111.36819843852572 91.426751528431851 0 91.426751528431851 -68.647342495863995 0 0 0 0 -2.2920286544474351 70.677898656224684 0 70.677898656224684 -51.27454617687718 0 0 0 0 -339.47955332362471 526.52710834033496 0 526.52710834033496 41.409636982811207 0 0 0 0 182.13407283829292 -187.40521451384848 0 -187.40521451384848 -192.6582452850198 0 0 0 0 -395.35378559099627 212.44203552124236 0 212.44203552124236 -109.81691034872347 0 0 0 0 -0.33829579061065118 0.93504702392455386 0 0.93504702392455386 -7.4683150141680414 0 0 0 0 -443.81235302151526 8.2559133192089575 0 8.2559133192089575 5.1155011348455446 0 0 0 0 -158.71977932065056 126.57448257128999 0 126.57448257128999 -79.455792015738552 0 0 0 0 -272.25671806072933 -47.923935894263195 0 -47.923935894263195 17.466265616880264 0 0 0 0 -329.42840713054647 46.903182404888867 0 46.903182404888867 38.050881783769 0 0 0 0 -211.45322165377729 49.469029900221358 0 49.469029900221358 37.893293875350537 0 0 0 0 -196.33060715246756 31.156464110603338 0 31.156464110603338 58.937578742516052 0 0 0 0 -402.21914732273581 86.418095032342535 0 86.418095032342535 94.827200476629514 0 0 0 0 -192.98995801926503 -44.021335917877877 0 -44.021335917877877 16.329564682637283 0 0 0 0 -25.431806955693901 38.413828045640912 0 38.413828045640912 -35.050800328946934 0 0 0 0 136.07416356022622 94.112835652145804 0 94.112835652145804 19.893676250940189 0 0 0 0 2.3023102156018709 9.3729758743941289 0 9.3729758743941289 -15.799668569293928 0 0 0 0 146.14431240084377 66.218354970689688 0 66.218354970689688 11.383457510455628 0 0 0 0 126.44690203846039 7.5003590414307837 0 7.5003590414307837 -65.872041263941355 0 0 0 0 -11.254063352788762 100.23547473519557 0 100.23547473519557 2.0887486635292589 0 0 0 0 -24.586560011339316 20.563743450136826 0 20.563743450136826 15.484482025167836 0 0 0 0 135.36097286716358 87.022406994503399 0 87.022406994503399 15.197250856814208 0 0 0 0 -4.8716448495239746 57.417131159183839 0 57.417131159183839 -7.4040728040373693 0 0 0 0 24.622538083043764 52.222209049596131 0 52.222209049596131 -8.7565066735587607 0 0 0 0 -12.735982869673744 22.910919226656517 0 22.910919226656517 9.7749665841695332 0 0 0 0 -68.148575387614983 -41.851245368594391 0 -41.851245368594391 19.603751461474531 0 0 0 0 -39.226529115418558 24.812721250669512 0 24.812721250669512 17.209806151169317 0 0 0 0 -7.7058485060060775 -7.3985127907299102 0 -7.3985127907299102 -8.203256556080305 0 0 0 0 -93.222995222749887 41.97283575225083 0 41.97283575225083 129.69606967662185 0 0 0 0 61.242489003052469 166.22994968420971 0 166.22994968420971 -260.92959225979212 0 0 0 0 76.426419738487311 101.92528744523588 0 101.92528744523588 -2.7000353729999915 0 0 0 0 99.579650476796814 16.093143342308394 0 16.093143342308394 -52.391288439030177 0 0 0 0 72.980951035740873 45.821617810273892 0 45.821617810273892 8.2602360882447101 0 0 0 0 38.755563846132645 28.780354192595041 0 28.780354192595041 3.3954299185788841 0 0 0 0 33.752221817946428 23.622570788083493 0 23.622570788083493 2.7039221207656059 0 0 0 0 -17.312768795626951 44.962113058849198 0 44.962113058849198 7.4539142744018534 0 0 0 0 -51.949388937184267 28.522291549019428 0 28.522291549019428 -5.2973815645746072 0 0 0 0 67.704463349291927 61.972427407341456 0 61.972427407341456 3.4806474059046195 0 0 0 0 145.80645535418444 50.719871530625824 0 50.719871530625824 -32.174662934950902 0 0 0 0 0.36242724245237756 50.362997951618233 0 50.362997951618233 -6.6542235878794713 0 0 0 0 42.803746468281574 89.168719700718057 0 89.168719700718057 -14.631061901615034 0 0 0 0 191.51576899141946 132.60883624708367 0 132.60883624708367 -40.232027660806125 0 0 0 0 43.925425673557555 3.5665482068289744 0 3.5665482068289744 -6.4940516718463499 0 0 0 0 -55.653335079638055 70.6342859352917 0 70.6342859352917 -23.789774372206011 0 0 0 0 -55.083506079539802 57.898475999885704 0 57.898475999885704 32.335474985896326 0 0 0 0 -28.754156649894867 18.50653365830658 0 18.50653365830658 14.825061012335937 0 0 0 0 -48.691265537156141 34.507581688565551 0 34.507581688565551 5.5772113221973996 0 0 0 0 -47.816306122418609 18.92072217988607 0 18.92072217988607 -6.6812912063614931 0 0 0 0 -10.413703667608218 9.4461574106128552 0 9.4461574106128552 -1.2709402649083064 0 0 0 0 -152.14964231828708 180.78342488574708 0 180.78342488574708 -149.65440249966196 0 0 0 0 -98.434009626427724 -68.01946972279984 0 -68.01946972279984 -12.782944241120276 0 0 0 0 -2.8328190862326608 -0.70983886126230544 0 -0.70983886126230544 -0.3155307295437435 0 0 0 0 -102.63122104826311 171.09396369519095 0 171.09396369519095 221.54538873537967 0 0 0 0 -331.60553977945165 31.259163254111627 0 31.259163254111627 148.32958322838385 0 0 0 0 -87.228895042896056 65.905161767478603 0 65.905161767478603 39.859348041121848 0 0 0 0 -10.661658497828284 180.65568108593834 0 180.65568108593834 19.336990824383975 0 0 0 0 -5.2050089169733837 203.31088015095702 0 203.31088015095702 112.61166205195332 0 0 0 0 -34.327921325562784 154.90788578751926 0 154.90788578751926 106.41400481105302 0 0 0 0 -34.646766322749372 86.29949809968204 0 86.29949809968204 -3.9803811301859895 0 0 0 0 -37.438696678870201 86.134718984412302 0 86.134718984412302 -12.636154411047755 0 0 0 0 291.54885198595366 162.94653102655866 0 162.94653102655866 -31.363135078398045 0 0 0 0 -113.63650488149506 79.725067082492387 0 79.725067082492387 41.066525163703773 0 0 0 0 -26.378072041081253 88.116260871676232 0 88.116260871676232 -6.1926593814352913 0 0 0 0 -58.513180880621803 127.60621516359788 0 127.60621516359788 28.732691901292128 0 0 0 0 80.795912135483377 166.9866635826038 0 166.9866635826038 -5.9221426988788153 0 0 0 0 -57.570391411230958 137.79712211665537 0 137.79712211665537 30.623463956519117 0 0 0 0 290.1410940767388 118.10071766915877 0 118.10071766915877 -98.103944414790021 0 0 0 0 539.16461272470406 35.192079415564876 0 35.192079415564876 -34.166502937079713 0 0 0 0 -6.4538737187080812 18.978437915534329 0 18.978437915534329 -33.835218733513528 0 0 0 0 -29.920857989782235 231.72808765171794 0 231.72808765171794 1578.7932238919748 0 0 0 0 0.52948351735463461 8.1177597136815791 0 8.1177597136815791 -6.8421115888870219 0 0 0 0 -37.343772356354748 101.55389095035935 0 101.55389095035935 346.12416519193175 0 0 0 0 -11.028580959921243 21.646581965782367 0 21.646581965782367 8.2914922907840563 0 0 0 0 -133.35777657263679 68.848200575168448 0 68.848200575168448 319.16134014768613 0 0 0 0 -90.502823896622431 133.54485870343524 0 133.54485870343524 135.95530798464461 0 0 0 0 -124.45803878314473 85.358152729028916 0 85.358152729028916 381.81461723797111 0 0 0 0 94.614151943729667 263.64636751994112 0 263.64636751994112 138.82683198474479 0 0 0 0 94.452437717073963 258.97750191762077 0 258.97750191762077 310.28685286283144 0 0 0 0 342.81009968268336 354.60730836116636 0 354.60730836116636 125.03059563589341 0 0 0 0 252.4965008317522 347.6684676460718 0 347.6684676460718 360.04872877055823 0 0 0 0 -35.002214060266851 -27.805958682998607 0 -27.805958682998607 685.05181414828985 0 0 0 0 657.0404580811155 185.41032600170365 0 185.41032600170365 177.33842490203097 0 0 0 0 296.92970967492147 597.87329684118231 0 597.87329684118231 1454.3788322646433 0 0 0 0 179.92057378317986 270.8561323978065 0 270.8561323978065 685.85157536939369 0 0 0 0 -59.574992780544562 67.230200131554739 0 67.230200131554739 1243.730694195634 0 0 0 0 323.14872196411307 512.01175399415661 0 512.01175399415661 741.55296101713429 0 0 0 0 566.42687771227793 37.547966775200621 0 37.547966775200621 -0.61024712242181067 0 0 0 0 392.71722385431349 227.92135951504315 0 227.92135951504315 171.08183629392443 0 0 0 0 123.37537534562216 -32.844307122973987 0 -32.844307122973987 364.0742787640047 0 0 0 0 321.39570776765322 263.58119405620164 0 263.58119405620164 83.180766521156329 0 0 0 0 1129.7045773461432 652.22089933643292 0 652.22089933643292 498.52323628746672 0 0 0 0 437.8365885748608 -14.775179730735545 0 -14.775179730735545 747.53129057568731 0 0 0 0 -120.47221534524215 -149.53750205357028 0 -149.53750205357028 -162.79549847416638 0 0 0 0 69.333812372438842 95.183163827532553 0 95.183163827532553 64.049842713394355 0 0 0 0 -102.51918199960346 333.92044522943252 0 333.92044522943252 127.86156015051529 0 0 0 0 4.8127058063437289 159.39652463517814 0 159.39652463517814 339.79210426405916 0 0 0 0 526.19088994053891 458.22509993555832 0 458.22509993555832 146.39167628748146 0 0 0 0 405.81890630590351 319.20004333013276 0 319.20004333013276 97.942137784208171 0 0 0 0 112.48266672298269 193.26970381007595 0 193.26970381007595 82.836175396350882 0 0 0 0 115.14579393552049 218.61194431692093 0 218.61194431692093 81.99654744511281 0 0 0 0 114.4381686857887 127.25855477102959 0 127.25855477102959 62.070212154800174 0 0 0 0 278.91303866082126 237.59572162724817 0 237.59572162724817 49.793242898573226 0 0 0 0 -6.2407409313450941 15.550713854378074 0 15.550713854378074 -32.520685906139192 0 0 0 0 543.22424969030908 490.879833299864 0 490.879833299864 -435.41274797660662 0 0 0 0 -508.6568775327105 349.05507783098437 0 349.05507783098437 258.50114065297657 0 0 0 0 170.58421114554403 344.69339732089247 0 344.69339732089247 224.39307665007073 0 0 0 0 -27.392851181200967 14.188302921487775 0 14.188302921487775 259.60313584938558 0 0 0 0 -583.80133658284649 -188.50533884438209 0 -188.50533884438209 188.62837046519417 0 0 0 0 -88.053645166182832 -352.87978536794981 0 -352.87978536794981 -227.22581128888032 0 0 0 0 181.3287099901263 -33.285974454135612 0 -33.285974454135612 44.530435749751632 0 0 0 0 6.4072009355080226 -2.2673892545839607 0 -2.2673892545839607 12.150279472519344 0 0 0 0 138.76762738594334 -134.61278948832114 0 -134.61278948832114 -33.277555291257158 0 0 0 0 -330.20894953358948 359.63854776375956 0 359.63854776375956 -75.049201710315174 0 0 0 0 -136.51914458559622 -142.69837840612308 0 -142.69837840612308 339.98204394503409 0 0 0 0 1.672986510794999 23.638668253323821 0 23.638668253323821 9.9479055064302386 0 0 0 0 1033.9632981779578 372.49446965089737 0 372.49446965089737 -1041.2454441029295 0 0 0 0 13.947285478283604 22.124135395541991 0 22.124135395541991 7.2240743690360887 0 0 0 0 -362.42471677308276 417.38043901639685 0 417.38043901639685 345.19935269509369 0 0 0 0 -545.75479256387916 228.23110581657238 0 228.23110581657238 264.90525072246692 0 0 0 0 5.6998452778925355 8.4880401329287523 0 8.4880401329287523 12.678419909410351 0 0 0 0 -314.09832438168814 241.34240681750089 0 241.34240681750089 210.82313529281964 0 0 0 0 -19.9649066328966 -66.597304894941772 0 -66.597304894941772 -343.12774327452212 0 0 0 0 491.18526963228942 924.58904254925983 0 924.58904254925983 -201.38314529023637 0 0 0 0 3.9297423531020854 9.0438049378315952 0 9.0438049378315952 -2.4911585618660013 0 0 0 0 -512.98123740759911 -924.87463346529694 0 -924.87463346529694 188.00186623664013 0 0 0 0 -116.02874307979619 113.77922338434473 0 113.77922338434473 -59.358161343319807 0 0 0 0 22.641739237260481 156.53672615873984 0 156.53672615873984 -318.36067249000189 0 0 0 0 -5.4648505623008532 -37.430207462557519 0 -37.430207462557519 57.096750762899319 0 0 0 0 28.842392088032994 4.4964773423023843 0 4.4964773423023843 0.62597619073524413 0 0 0 0 42.43272767856979 -8.9184320009117073 0 -8.9184320009117073 -50.761150956142956 0 0 0 0 9.8852221810757328 -14.938266066430515 0 -14.938266066430515 23.450756547601486 0 0 0 0 33.870068565680413 -11.120722702919011 0 -11.120722702919011 17.956812110376632 0 0 0 0 52.555408674658338 56.627741111808518 0 56.627741111808518 92.547400363153429 0 0 0 0 79.585301756611443 161.73976911811042 0 161.73976911811042 292.91569910623184 0 0 0 0 -115.79854845778755 -84.45688008567231 0 -84.45688008567231 241.4918078175856 0 0 0 0 237.93937354085938 171.53238638615585 0 171.53238638615585 231.34377276626037 0 0 0 0 181.39498439744966 236.75799054445815 0 236.75799054445815 334.58627677671757 0 0 0 0 117.02183532511845 -84.023685971664236 0 -84.023685971664236 -121.13262618621957 0 0 0 0 239.40795855422039 368.31356581251475 0 368.31356581251475 422.57244625467138 0 0 0 0 18.204828054160316 59.719758812258078 0 59.719758812258078 -322.45753968869394 0 0 0 0 22.311031181976432 100.19708590134906 0 100.19708590134906 -223.8603455996672 0 0 0 0 100.79892476705936 22.103783319475042 0 22.103783319475042 -112.19908939328161 0 0 0 0 19.989232717961784 2.3331178187446469 0 2.3331178187446469 -0.19550534366033645 0 0 0 0 -25.864534239550267 194.15133576087464 0 194.15133576087464 219.69470978917525 0 0 0 0 171.36022496086298 391.19994318003955 0 391.19994318003955 219.44026098796894 0 0 0 0 725.35302210063674 76.104516095030704 0 76.104516095030704 272.79066566086112 0 0 0 0 779.94069148209019 428.65593952319978 0 428.65593952319978 284.83781078229003 0 0 0 0 932.6583527445764 332.8862492522203 0 332.8862492522203 47.806436000277245 0 0 0 0 1060.4382888047039 178.58831309807829 0 178.58831309807829 108.78511970439286 0 0 0 0 8.0372131734482366 -0.083661262320781304 0 -0.083661262320781304 -0.3086553404782677 0 0 0 0 711.04857806587347 42.590052794250141 0 42.590052794250141 -362.68590194034914 0 0 0 0 736.80858528711542 496.78370089854798 0 496.78370089854798 -124.23977958565229 0 0 0 0 106.57037060329822 397.82284861534208 0 397.82284861534208 459.48338385145325 0 0 0 0 89.193493662653054 508.52944763679625 0 508.52944763679625 91.049656311239232 0 0 0 0 116.44217729078082 300.68968816041524 0 300.68968816041524 -185.23323460943175 0 0 0 0 100.38786191716827 269.89451351679782 0 269.89451351679782 -223.70968155282753 0 0 0 0 449.96196474324097 66.218478232753114 0 66.218478232753114 -203.74004364408029 0 0 0 0 356.74623081418395 -47.724716460883428 0 -47.724716460883428 -330.00795700933668 0 0 0 0 16.900738109343365 239.92724413371616 0 239.92724413371616 -224.22280819551884 0 0 0 0 145.96692904483643 -19.741642946382854 0 -19.741642946382854 48.975743861716182 0 0 0 0 -372.13934887966366 428.48312184487963 0 428.48312184487963 -144.34251689451776 0 0 0 0 26.441704932265566 142.92165791168736 0 142.92165791168736 -272.42026670826817 0 0 0 0 1.6034960781251577 3.3977358143082839 0 3.3977358143082839 -3.4937570687689572 0 0 0 0 -3.6644323072578118 185.47758086006434 0 185.47758086006434 -289.4543535291923 0 0 0 0 398.60096779280138 -109.30879421013196 0 -109.30879421013196 -240.1847866350945 0 0 0 0 -28.391430502193543 -37.800312301245867 0 -37.800312301245867 -29.845904483085178 0 0 0 0 8.3012058564563631 150.26053367310305 0 150.26053367310305 -194.37441026405577 0 0 0 0 59.457153285375171 -13.257220195495847 0 -13.257220195495847 -28.057325720692461 0 0 0 0 214.16002726863098 113.86827388141319 0 113.86827388141319 -129.16187011590227 0 0 0 0 1.9148807179893268 4.202745222896759 0 4.202745222896759 -5.4326577691968936 0 0 0 0 -126.32221024182581 143.72159920668673 0 143.72159920668673 4.2191393360590155 0 0 0 0 7.5988670478509448 -10.836354813598518 0 -10.836354813598518 25.668653203290887 0 0 0 0 52.890730860210169 -30.132701804735916 0 -30.132701804735916 -7.3877115794366546 0 0 0 0 -62.420733217293673 183.90878233163676 0 183.90878233163676 -122.77428407190382 0 0 0 0 -79.332115480017819 191.18579995286655 0 191.18579995286655 -118.0759523116285 0 0 0 0 -262.58688390732641 391.98749596237576 0 391.98749596237576 -157.52795607269991 0 0 0 0 58.210459533379456 71.766545265541296 0 71.766545265541296 68.501325624015735 0 0 0 0 -368.56606989139618 199.88507818322012 0 199.88507818322012 75.466962955928466 0 0 0 0 54.318992837788343 63.300452986990052 0 63.300452986990052 54.860629274524406 0 0 0 0 -204.93034265770984 290.48695571409007 0 290.48695571409007 -84.465142927678244 0 0 0 0 -169.55091114097377 243.71819583954311 0 243.71819583954311 -55.543798463193525 0 0 0 0 -171.93348365163183 92.855274863333079 0 92.855274863333079 54.141248393837486 0 0 0 0 1.7103449223037224 4.6853395119215406 0 4.6853395119215406 -3.7862103946810635 0 0 0 0 93.114746784609451 -61.71807265802272 0 -61.71807265802272 15.013207909581979 0 0 0 0 -54.746582950519951 142.8834682192537 0 142.8834682192537 -71.741767306219117 0 0 0 0 -244.33292592232465 146.85026126194498 0 146.85026126194498 -19.645396861807967 0 0 0 0 -376.5746525593695 159.53410275693386 0 159.53410275693386 -6.8796169185516192 0 0 0 0 -306.70721535260236 248.5930912946842 0 248.5930912946842 -46.040723959235038 0 0 0 0 -370.25299643058315 172.86279641474994 0 172.86279641474994 -144.82349860962495 0 0 0 0 1.2937698616032804 4.1539182138125597 0 4.1539182138125597 -1.9425775523048685 0 0 0 0 88.625226854743232 96.093340909933431 0 96.093340909933431 108.04404216534749 0 0 0 0 163.36587850659271 78.569402963659741 0 78.569402963659741 0.35687926139507908 0 0 0 0 216.84647919962299 -7.1723702315630362 0 -7.1723702315630362 109.3718433882641 0 0 0 0 296.74324461912693 102.96279954381589 0 102.96279954381589 79.844002193491178 0 0 0 0 365.06369643469952 -14.100195474846259 0 -14.100195474846259 22.430586276565919 0 0 0 0 226.03159709006286 88.170931827535242 0 88.170931827535242 0.4113217748090392 0 0 0 0 407.26978736049205 177.68184522879528 0 177.68184522879528 -97.000416676632085 0 0 0 0 391.3973903979786 -68.841583137089401 0 -68.841583137089401 389.67973652728824 0 0 0 0 706.91179892519358 10.640562031844638 0 10.640562031844638 -9.2379590829186782 0 0 0 0 -48.464731117419433 298.60205698625577 0 298.60205698625577 417.77872621316328 0 0 0 0 525.23290944949258 388.84391998471438 0 388.84391998471438 51.618624718927094 0 0 0 0 -48.604197294320329 188.81357235263931 0 188.81357235263931 -21.465190616776454 0 0 0 0 -271.00716086707689 374.06640735674591 0 374.06640735674591 87.050919358491228 0 0 0 0 -71.869190039367822 137.77007940130716 0 137.77007940130716 -11.662078524026583 0 0 0 0 341.18430224775511 207.54639766555738 0 207.54639766555738 -142.79383877599139 0 0 0 0 244.41090423182322 230.09582097686507 0 230.09582097686507 -112.1118137772155 0 0 0 0 14.534455915908126 24.693135818393209 0 24.693135818393209 36.762749603158284 0 0 0 0 -341.74134750807207 399.24767157657016 0 399.24767157657016 -136.31566323857987 0 0 0 0 -385.98627834306171 113.98180284760565 0 113.98180284760565 -2.7765664068938349 0 0 0 0 1282.1285904753349 -65.577703207002742 0 -65.577703207002742 -155.26058250401911 0 0 0 0 313.1196856644965 178.0514238883934 0 178.0514238883934 -100.1865077573857 0 0 0 0 259.94031238295429 245.96547410098174 0 245.96547410098174 63.023240516602982 0 0 0 0 -370.27193766454548 85.718602201794056 0 85.718602201794056 84.54168957498041 0 0 0 0 14.9030181715043 62.870670506778424 0 62.870670506778424 5.6556886698890594 0 0 0 0 332.6608543379175 151.9820872296865 0 151.9820872296865 -95.061523201740783 0 0 0 0 324.26718489217819 184.7804433499814 0 184.7804433499814 -110.1956979053648 0 0 0 0 
</DataArray>
<DataArray type="Float64" Name="cross_section_updated" format="ascii">
1 1 1 1 1 0.0085619591812677968 1 1 1 1 1 1 1 1 1 1 0.0067254405267658766 1 1 0.0089330124597856685 1 0.010460509940386069 1 1 1 1 0.0066707340799295484 1 1 1 1 1 1 0.010185949421952206 1 1 1 1 1 1 0.0069996834382552936 0.010265857868131306 1 1 0.010358171564091571 0.0071370281011040584 1 1 1 1 1 1 1 1 1 1 0.0072432060772184793 0.011810321203117702 1 1 1 0.010453603010322499 1 1 1 1 0.010214183711124168 1 1 1 1 1 1 1 1 1 1 1 0.0030938453446583917 1 1 1 0.0015477150333095702 1 1 1 0.0073057089041086848 1 1 1 1 0.0082944669738437143 1 1 1 1 1 1 0.0090977674477437757 1 1 0.0097114782345899611 1 1 1 1 0.0047103433445675937 1 1 1 1 1 0.0098003200139409954 1 1 1 1 1 1 1 1 1 1 1 1 1 1 1 1 1 1 1 1 1 1 0.0091845594955001827 1 1 1 0.01063146126248684 1 1 1 1 1 1 0.0090647523047133385 1 1 1 1 1 1 1 1 1 1 1 1 1 1 1 1 1 1 1 1 1 1 1 0.0091989445785288452 1 0.0083835040740290207 1 1 1 1 1 1 1 1 1 1 1 1 0.0098089510036899405 1 1 1 1 1 1 1 1 1 1 1 1 0.011584760611620698 1 1 1 1 1 1 1 1 1 1 1 1 0.0086716380659603506 1 1 1 0.0099868476547907929 0.011642115246409179 1 1 1 1 1 1 1 0.009609271017630934 1 1 1 1 1 1 1 1 1 0.0069659106525896807 1 1 0.0089484764595073891 1 1 1 1 1 1 1 1 1 1 1 1 1 1 1 1 1 1 0.0087111431870352564 1 1 1 1 1 1 1 1 1 0.007229943197533624 1 1 1 1 1 1 1 1 1 1 1 1 1 1 1 0.010295412405501789 1 1 1 1 1 1 1 1 1 1 1 1 1 1 1 1 1 1 0.0079010860851337333 1 1 1 1 0.0097872270834416953 1 1 1 1 1 1 1 1 0.0096018300802298093 1 1 0.0093822860746353379 1 1 1 1 1 1 1 1 1 1 1 1 1 1 1 1 1 1 1 1 1 1 1 2.8751989504527398e-11 1 1 1 1 9.0275686231988672e-12 1 1 1 1 1 0.015641970603369817 0.010587919897030881 1 1 0.01216942184257359 -8.323149981726008e-11 1 1 1 1 1 1 1 0.011823509319466435 1 1 1 1 1 1 1 1 0.011044018200230633 1 1 1 1 1 1 1 1 0.0099612561023180984 1 1 1 1 0.009912374776698759 1 1 1 1 1 1 0.0099498640303599117 1 1 1 1 1 1 1 1 1 1 1 1 1 1 1 1 1 1 1 1 1 1 1 1 1 1 1 1 1 0.010299736412975397 1 1 1 1 1 1 1 1 0.010949757043819158 1 1 1 0.0088320865046521719 1 1 0.010003149641701422 1 1 1 1 1 1 1 1 0.010046499190897276 1 1 1 0.010300554550356604 1 0.006638914986839984 1 1 1 1 0.0032715044478518517 1 1 0.0076780375192026344 1 1 0.00017673854221120743 1 1 1 0.0090276794996719395 1 1 1 1 1 1 1 1 1 1 1 1 1 1 1 1 1 1 1 1 1 1 1 0.0095395552491645014 1 1 1 1 1 1 1 1 0.014808621535888477 1 1 1 1 1 1 1 1 1 1 1 1 1 0.0089277723490228424 1 1 1 1 1 1 1 1 1 1 1 1 1 1 1 1 1 1 1 1 1 0.0091475437234185102 1 1 1 0.0099537154368756452 1 1 0.0068695663775770015 1 1 1 1 0.0099956171739462515 1 1 1 1 1 1 1 0.0099757670157257106 1 0.01053923315090393 1 1 1 1 1 1 1 1 1 1 1 1 1 1 1 1 1 1 1 1 1 1 0.010152529956494613 1 0.0091877744446218785 1 0.01087106423541789 1 1 0.016350157929310431 0.011087686267365619 1 1 1 1 1 1 1 1 1 1 1 1 1 1 1 1 1 0.010251678165434588 1 1 1 1 0.010014207904844358 1 1 1 1 0.010050436835291492 0.011308685256881654 1 0.015060917895085343 1 1 1 1 1 1 1 1 1 1 1 1 1 1 1 1 1 1 1 1 1 1 1 1 1 1 0.011278041945225876 1 1 1 1 1 1 1 1 1 1 1 1 0.019041483437156448 1 1 1 0.018609658206646118 1 0.0090355439082108607 1 1 1 1 1 1 1 1 1 1 0.010066165454237237 1 1 1 0.011471720796491156 1 1 1 1 1 1 1 1 1 0.021319261449859767 1 1 1 1 0.025037359214381071 1 1 1 1 1 1 1 1 1 0.01086045633191688 1 1 0.0096684183779840189 1 1 1 1 1 0.011138916462279488 1 1 1 1 0.0077280675749138959 1 1 1 1 1 1 1 0.009354835991921516 0.014071387157167558 1 1 1 1 1 1 0.010076776712193168 1 0.010370600411281046 1 1 0.015402736710581268 1 0.011000915016209169 1 1 1 0.010273896628112565 1 1 1 1 0.0093767271771107025 1 1 0.0040155880097030808 1 0.010906507144482044 0.011045468860775357 1 0.010186499014566251 0.01166935515925642 1 1 0.0084798012209318929 1 0.0059627449095280352 1 1 1 0.011831056529704054 0.010452619492839658 1 1 1 1 1 0.015183108331601729 1 1 1 1 1 1 1 1 0.01386201332005153 1 0.011339601400213846 1 1 1 1 0.008820469827613784 0.011960282133346958 1 1 0.010053411562009314 1 1 1 1 1 0.017328401708194101 1 1 0.010150528611359372 1 0.0056494017699283208 1 0.015277484308378299 0.011698749440473605 1 0.011344866175720024 1 0.01623476644769492 0.0081665761331499841 0.0098136023989042892 1 1 0.014385504478872843 1 0.012790452665248007 1 1 0.012394240587286469 1 1 1 1 1 0.01558160619569501 1 1 0.0034076676558286207 1 1 1 1 0.0052344616643089223 1 1 1 1 1 1 1 0.0072275248113264166 1 0.0086699602404290022 1 1 1 0.0070331866842245072 1 1 1 1 1 1 1 1 1 1 1 1 1 1 1 1 1 1 0.0089687378316978487 1 1 1 1 1 1 1 1 1 0.0096510153506265267 1 1 1 1 1 1 1 1 1 1 1 1 1 0.0099743163014342356 1 1 1 1 1 1 1 1 1 1 1 1 1 1 1 1 1 1 1 1 1 1 1 1 1 1 1 1 1 1 1 1 1 1 1 1 1 1 1 1 0.0084960761729143981 1 1 1 1 1 1 1 1 1 1 1 1 1 1 1 0.0070055768501674463 0.010116857376633488 1 1 0.0076055422543821194 1 1 1 1 1 1 1 1 1 1 1 1 1 1 1 1 1 1 1 1 0.010111614328999033 1 0.0099689986796032051 1 1 1 1 1 0.0098271374236080702 0.010155676151239603 1 1 1 1 1 1 1 1 1 1 1 1 1 1 1 1 1 1 1 1 1 1 1 1 1 1 1 1 1 1 1 1 1 1 1 1 1 1 1 1 1 1 1 1 1 1 1 1 1 1 1 1 1 1 1 1 0.010016267930552158 1 1 1 1 1 1 1 0.0070290974054643338 1 1 1 1 0.0087093678989507567 1 1 1 1 1 1 1 1 1 1 1 1 1 1 1 0.0081573241437449488 1 1 1 1 0.0054435185455058398 1 1 1 1 0.0047170918251345541 1 1 0.0058648738226431459 1 1 0.010239149443193919 1 1 1 1 0.0053174717708231343 1 1 1 1 1 1 1 1 1 1 1 1 1 1 1 1 1 1 1 1 1 1 1 1 0.0029143908545430598 1 0.018458991206163816 1 1 1 1 1 1 1 1 1 1 1 1 0.0094498689661921178 1 1 1 1 1 0.0084529793830068201 1 1 1 1 1 1 1 1 1 1 1 0.0073439003219598967 0.011313699220929315 1 1 0.0096898795784809422 1 1 1 1 0.010079984660269799 1 1 0.010555806228114927 1 1 1 1 1 1 0.010640634361163703 1 1 1 1 1 1 1 1 1 1 1 1 1 1 1 1 1 0.0089438152441426461 1 1 0.010007157079815376 1 1 1 0.0075620505874836666 1 0.010230819375824122 1 1 1 1 0.011723455156926047 1 1 1 1 1 1 1 0.011733324130631157 1 1 1 1 0.0091620608001790876 0.010467871338740092 1 1 0.010002592834750766 1 1 1 0.010126167739367187 1 1 0.0097482735684950271 1 1 0.010031750047423776 1 1 0.011621657006668314 1 1 1 0.0084823600637983203 1 1 1 1 1 1 1 1 1 1 1 0.011357068521961378 1 1 1 0.010601382592139934 0.0080348359373395677 1 1 0.010004580666118522 1 1 0.008942391588954636 1 1 0.0099362757739527765 1 0.011372422264624885 1 1 1 0.0061712222625923858 0.0055598041108273428 0.0099765395995952827 1 1 0.012354803206335124 1 1 1 1 1 0.0099362616989191917 1 1 1 1 0.0094982125858224693 1 1 0.0099803235211597587 1 1 0.002530356971816021 0.0071256681904731008 1 1 1 1 0.0099971977520205372 1 1 1 0.0058651258926595475 1 0.0090707199359287005 1 1 1 1 1 1 1 1 0.0098519462850161863 1 1 1 0.0036664531307402312 1 1 1 1 1 1 1 1 1 1 1 0.010028325577117853 1 1 1 1 1 0.0083709337788530659 0.0056955028737347355 1 0.02104094463940576 0.0026406649447492658 1 1 1 0.0014063870396534405 1 0.0098978011599461287 1 1 0.013903449987580051 1 1 1 1 1 1 1 1 1 0.011643401598560549 1 1 1 1 0.0047647327983279843 1 1 1 1 1 1 1 1 1 0.0061955894622388197 1 1 1 1 1 0.0089255985602464984 0.012815971216697223 1 1 0.0099240842684741315 1 1 1 1 1 0.011923587307213162 1 0.003238150959710407 1 1 1 0.0050660049788385994 1 1 1 1 1 1 1 1 1 0.012429212439023968 0.01119717681081369 1 1 1 0.0099944333442554857 1 1 0.0065823056209506486 0.0099966584736936419 1 1 1 0.013672143885694453 1 1 1 1 1 1 0.0097922079576868576 1 1 1 0.0092345978130841683 0.009427868039492018 1 1 1 0.0055270494474858201 0.015100619275453402 1 1 0.0055875279307287268 1 1 1 0.017101282673568804 1 0.013702261903134902 1 1 1 0.010245485892646206 1 1 1 1 1 1 0.012360085598377084 0.0092744077115725389 1 0.0088499266091184841 1 1 0.012073633643111044 1 0.0073455752085311932 0.0099545033534443744 1 1 0.010698922788298452 1 1 1 1 1 0.0064403614173471659 1 1 1 1 0.007243682859617618 1 1 1 1 1 1 1 0.010041979070069575 1 1 1 1 0.0085465534739467483 1 1 1 1 1 1 1 1 1 1 0.020667336801093512 1 1 0.0085992860704611346 0.019090224654342146 1 1 1 1 1 1 1 0.011193788365090544 1 1 1 0.0099680277849896071 0.018662284929845809 1 1 1 1 1 1 1 1 0.01037987566493126 1 1 1 1 0.017402886006677144 1 1 1 1 1 0.0096216063875728779 1 1 1 1 1 1 1 1 1 1 1 1 1 1 1 1 1 1 1 1 1 0.008690232162849169 1 1 0.0055034684811623436 1 1 1 1 0.0068610313977302793 1 1 1 1 1 1 1 1 1 1 1 1 1 1 1 1 1 1 1 1 1 1 1 1 1 1 1 1 1 1 1 1 1 1 1 1 1 1 1 1 1 1 1 1 1 1 1 1 1 0.0076150839111750034 1 1 1 1 1 1 0.0075650533967251713 1 1 1 1 0.0090185952608264584 1 0.0083346550108281854 1 1 0.0086528020773469078 1 1 1 1 1 1 1 1 1 1 1 1 1 0.0065772146343728733 1 1 0.0066711212348836094 1 1 0.014848593206943391 1 0.011823913551397487 1 1 1 1 1 1 1 1 1 1 1 1 1 1 1 1 1 1 1 1 1 1 0.011604439291946803 1 1 1 1 1 1 1 1 1 1 1 1 1 1 1 1 1 1 1 1 1 1 1 1 1 1 1 1 1 1 1 1 1 1 0.0090814721798184207 1 1 1 1 1 1 0.0101128109029552 1 1 0.0059884893452166032 0.012276435001778259 1 1 1 1 1 1 1 0.013046824277714229 1 1 0.0048492054929266202 1 1 1 1 1 1 0.0065986124561731377 1 1 1 0.0095610384187534911 1 0.0087695235835375581 1 1 1 0.0089531810576063148 1 1 1 0.0073819046339087726 1 1 1 1 1 0.0059321969703089597 1 1 0.0072237089749698259 1 0.010062731318106082 0.0045481929234495906 1 1 0.0071935891237375586 1 0.01076890175623052 1 1 1 1 1 0.0093603059172186372 1 1 0.001577462552524069 1 0.0099881783976551505 1 1 0.00087611613324813618 1 1 1 1 1 0.01193120350831754 0.012987587555122491 0.0099162789183876096 1 1 1 1 1 1 1 1 1 1 0.010006610451740425 1 1 0.0073531334203020063 1 1 0.013898158999622653 0.0035723866985705142 0.011553466641145059 1 0.010522477984491543 1 1 1 1 0.0062549356229302383 1 0.0099986983111392171 1 1 1 0.0066481774412297402 1 0.0047820074694369342 1 0.0088578138554589528 1 1 1 0.014150271406725264 1 1 0.010032218895564077 1 0.00906696778365167 0.010688279752967107 0.012971117596193611 1 1 0.0038473816241934751 1 0.0043817124044811971 0.0040016730434400943 1 1 1 1 1 1 1 1 1 1 1 1 0.0053214893603675886 1 1 1 1 0.0057712534086207558 1 1 1 0.0066151266104644852 0.0095892681863424551 0.013447242065500697 1 1 1 0.0047228679406616497 1 0.0054456269440594281 1 0.015717794109121202 1 1 1 1 1 1 0.0099346586436164144 1 1 0.011123511349529717 0.0054192718880644239 0.010692736509341936 1 1 1 1.306034100312381e-10 1 0.0099704749077340858 1 1 1 1 1 1 1 0.0085019015736473164 1 1 1 1 0.010325462898055898 1 1 1 0.0046428877857245168 1 0.0045452670695495228 0.014633260277916522 1 0.00063546461529867581 1 1 1 1 1 1 1 1 1 1 1 1 1 1 0.0069322990071771159 1 1 1 1 1 1 1 1 1 1 1 0.0052348658610939878 1 1 1 1 1 1 1 1 1 1 1 1 1 1 1 1 1 0.01370732186264164 1 1 1 1 0.0098934698748859851 1 1 1 1 1 1 1 1 1 1 1 1 1 1 1 1 0.010120043695152009 1 0.0089555235124791077 1 1 1 1 0.009335897018992019 1 1 0.014216817258224167 1 1 0.011185679559684872 1 1 0.010005342420714934 0.011232769383026687 1 1 0.011939542248288164 1 1 0.0096812052741578475 1 1 1 0.0091928372072949752 1 1 1 1 0.01160224173683626 1 0.011506583273005728 1 1 1 1 1 1 1 1 1 1 1 1 1 1 1 1 1 1 1 1 1 1 1 1 1 0.010569792896090315 1 1 0.0099825625859263564 1 1 1 1 1 1 1 1 1 1 1 0.0098832903276100739 1 1 1 1 0.01016191668935309 1 1 0.0093732247195289203 1 1 1 1 1 0.010763535118738943 1 0.011760506450020258 1 1 1 1 1 1 1 1 1 1 1 1 1 1 1 1 1 1 1 1 1 1 1 1 1 0.013520012222352861 1 0.0094284682590999765 1 0.016146780206653555 0.0032378414472691609 1 1 1 1 1 0.01383455619618279 1 1 1 1 1 1 0.014485124026266734 1 1 1 1 1 1 0.0084262919306933581 0.0090319478758759762 1 1 1 1 0.015165096287732148 1 1 1 1 1 1 1 1 1 1 1 1 1 1 1 1 1 1 0.014190875048798145 1 0.0082500553538391239 0.011381845089323083 1 1 1 1 1 1 1 0.010325606165812358 1 1 1 0.012613838467023498 0.010212639878511655 1 1 1 1 1 1 1 1 1 1 1 1 1 1 1 1 1 1 1 1 1 1 1 1 1 1 1 1 0.0028303297101534824 1 1 1 1 0.0073964108678112456 1 1 1 1 1 1 1 1 1 1 1 1 1 1 1 1 1 1 0.008881952478938351 1 1 1 1 1 1 1 1 0.0022373217363101244 0.010015844057015444 1 0.01009597631218272 1 1 1 1 1 1 1 1 1 1 1 0.0059541848950918717 1 0.0069466297503354736 1 1 1 1 1 1 1 1 1 0.0070003146384418607 1 1 1 0.0074796532040104502 0.0078101155226051669 1 1 1 0.009527759915665757 0.0098583111388954384 1 0.0098795934186843258 1 1 1 1 1 1 1 1 1 0.013774584137285757 1 1 1 1 1 1 1 0.0052646247786011834 1 1 1 1 1 1 0.0081782614282756988 1 1 1 1 1 1 0.01125953298271234 1 1 1 1 1 1 1 1 1 1 1 1 1 1 1 0.0096904691131970248 1 1 1 1 1 1 1 1 1 1 1 1 1 1 1 0.010004898828733795 1 1 1 1 1 1 1 1 1 1 0.010280479109314317 1 1 1 0.0099794720061268244 1 1 1 1 1 1 1 0.012183865901860817 1 1 1 0.0068604058078208102 1 1 0.012895539644571092 1 1 1 0.007776748696608415 0.0082676511603090915 1 1 1 0.0090147797062378257 1 1 1 1 1 1 1 0.0074112007636824313 1 1 1 1 1 0.0098229078751293341 1 1 1 1 0.0097538436964226729 1 1 1 1 1 1 1 1 0.0088309180150232241 1 1 1 1 1 1 1 1 1 1 1 1 1 1 1 1 1 1 1 1 1 1 1 1 1 1 1 1 1 1 1 1 1 0.010988834494734126 1 1 0.0069681317588720752 1 1 1 0.011128781864532155 0.0099057766501610932 1 1 1 1 0.0099720199967652558 0.0085818457607083534 1 1 1 1 1 0.0094871794233144079 1 1 1 1 1 1 1 0.010207168155974061 1 1 1 1 1 0.011257628312491436 1 1 1 0.01043893433329123 1 1 1 1 1 0.012305697149973961 0.0097109410589578463 1 1 1 1 1 1 1 1 1 1 1 0.0089490891267315839 1 1 0.0085758279086528867 1 1 1 1 1 1 1 1 1 1 1 1 1 0.0089513161318821501 0.0075106656959425463 1 1 1 1 1 1 1 1 1 1 1 1 1 1 0.0070539510550601606 1 1 1 0.0097088380597128571 1 1 1 1 1 1 1 1 1 1 1 1 1 1 0.0071094668598806372 1 0.010029927042535709 1 0.0092371321436109689 1 1 1 1 1 0.0098431437829131115 0.0088387924809308505 1 1 1 1 1 0.010636211071426061 1 1 1 1 1 1 1 1 1 1 0.010249746910978842 1 1 1 1 1 1 1 1 1 1 1 1 1 1 1 1 1 1 1 1 0.0096035003095949548 1 1 1 1 1 1 1 1 1 1 1 1 1 1 1 1 1 1 1 1 1 1 1 1 1 0.0099609759508897094 1 1 1 1 1 1 1 0.012763534066810054 1 1 1 0.011168184881975279 1 1 1 1 0.013219139930866285 1 0.011051030328526688 1 1 1 1 1 1 0.010231602811772669 1 1 1 0.014612794601817738 1 1 1 1 0.010075715535562281 1 0.010204458586487688 1 0.0093402981319373052 1 1 1 0.0116626535242176 1 0.011245777531565635 1 1 1 1 1 1 1 1 0.010037005314518666 1 1 1 1 1 1 0.010019996156341493 1 1 1 1 1 0.0099284223036933232 0.0099527520300461067 0.0067733385895878285 1 1 1 1 1 1 1 1 1 1 1 1 1 0.009708615691871236 1 0.009852409865053452 1 1 1 1 1 1 1 1 1 0.0099790243915299174 1 1 0.011142803870789281 0.010519127142494072 1 1 0.0099263434325712156 1 1 1 1 0.01018604175551918 1 1 1 1 0.010261164247695284 1 1 1 1 1 0.0097667217309984986 1 1 1 1 0.0099075806031899451 1 1 1 0.0091929942236644024 1 1 1 1 1 0.0079003432866657716 1 1 1 1 1 1 1 1 1 0.0098349167653038055 1 1 1 1 1 1 1 1 1 0.0089810175432778767 1 1 1 1 1 1 1 1 1 1 0.024529521089083 1 1 0.010056294669479118 1 0.0068333862782696004 1 1 1 1 1 1 1 1 1 1 0.021725632214648422 1 0.023266122398555973 1 1 1 1 1 1 1 1 1 1 1 0.009218218325116016 1 1 1 0.0091612004497389626 1 1 1 1 0.010187581669228122 1 1 0.011731407558052761 1 1 1 1 1 1 1 1 1 1 1 1 1 1 1 1 1 1 1 1 1 1 1 1 1 1 1 0.013389411073389762 1 1 1 1 0.011001376066959339 1 0.010011452522311403 0.018488888882342052 1 1 1 1 1 0.013961467976082676 0.013943728048230438 1 1 1 1 1 1 1 1 1 1 1 1 1 1 1 1 1 1 1 0.0200884562145691 1 1 1 1 0.0099140142553742899 1 1 1 1 1 1 1 0.010134843907419047 0.0090016248780925429 1 1 0.0099956588349975756 1 1 0.0099649523839752622 1 0.009579502091465901 1 0.0096550298508771212 1 1 1 1 1 0.0099508555936810277 1 1 0.0098028366907263621 1 0.0099920206502057754 1 1 1 1 1 1 1 1 1 1 1 1 1 1 1 1 0.0099104871506111164 1 0.0099874419250877266 1 1 1 1 1 1 1 1 1 1 1 1 1 1 1 1 1 1 1 1 1 1 1 1 1 1 1 1 1 1 1 1 1 1 1 0.010060283907724314 1 1 1 1 0.010140087102800441 1 1 1 1 1 1 1 1 1 1 1 1 1 0.0163723219442127 1 0.011355607165372523 1 1 1 0.011693147383712932 0.011800244634010483 1 1 1 1 1 0.012660492510137325 1 1 1 1 0.011991411841933411 1 1 0.015076157721583945 1 1 1 1 1 1 1 1 1 1 1 1 1 1 1 1 1 1 1 1 1 1 1 1 1 1 1 1 1 1 1 1 1 1 1 1 0.010104291845961698 1 1 1 1 1 1 1 1 1 1 1 1 1 1 1 1 1 1 1 1 1 1 1 1 1 1 1 1 1 1 1 1 0.0098423222865342049 1 0.011458206832930348 1 1 1 1 0.0099742636289594944 1 1 1 1 0.010542139284472864 1 1 1 1 1 1 1 1 1 1 1 1 1 1 1 1 1 1 1 0.010372908420619281 1 1 1 1 1 1 0.013934171536820075 1 1 1 1 1 0.010028037563664868 1 1 1 1 1 1 1 1 1 1 1 0.010510059484761344 1 1 1 1 1 1 1 1 0.011212175058761252 1 1 1 1 1 1 1 0.010393071469706005 1 1 1 1 1 1 1 1 1 1 1 1 1 1 1 1 1 1 1 1 0.0099287149024936232 1 0.011742604146939017 1 1 1 1 1 1 1 1 1 0.011063363825637426 0.013315153136574781 1 1 0.011168695438787308 1 1 1 0.009508222056607965 1 1 1 1 0.0066944932963399449 1 1 1 0.0090219153284819414 1 1 1 1 1 1 1 1 1 1 1 0.011538565092090152 1 1 0.011435485382615551 1 1 1 1 0.013545617023460325 1 1 0.016646503922115315 1 1 1 1 1 1 1 1 1 1 1 1 1 0.010614329714220758 1 1 1 1 1 1 0.0098050881813347545 1 1 1 0.0092412114564716652 1 1 1 1 1 1 1 1 0.0079643524622928161 1 1 1 0.011458560982903859 1 1 1 0.011601485727214384 1 0.010032216716587002 1 1 1 1 1 1 1 1 1 1 0.009788626692014267 1 0.012581765521795886 1 0.017074298363085598 1 0.0046175950971148565 1 1 1 1 1 1 1 1 0.011673271259103973 1 0.012513780554234501 1 1 1 1 0.012877105185519915 1 1 1 1 1 0.011924343544342797 1 1 1 1 0.010770363106318091 1 1 1 1 1 0.011129810967398387 1 0.010650951513186305 1 0.0095472426340795814 0.012759490860013489 1 1 1 1 0.010031592355405936 1 1 1 1 1 1 1 1 1 1 1 1 1 1 1 1 1 1 1 1 1 1 0.010666262111609001 1 0.0092185691642789475 1 0.010929379816395898 1 1 1 0.01074983283777088 1 0.010060840879503459 1 1 1 0.0081810228639538525 1 1 1 1 1 1 1 1 1 1 1 1 1 1 1 1 1 1 1 1 1 1 1 1 1 1 1 1 1 1 1 1 1 1 1 1 1 1 1 1 1 1 1 1 1 1 1 1 1 1 1 1 1 1 1 1 1 1 1 1 1 1 1 1 1 1 1 1 1 1 1 1 1 1 1 1 1 1 1 0.0098352387407368708 1 1 1 1 1 1 0.0098898286496267394 1 1 1 1 1 1 0.014206417062710456 1 1 1 1 1 0.010451810132511383 1 1 1 0.013031413457973616 1 1 1 1 1 1 0.0098166509296482019 1 1 0.010762739161042615 1 0.013468485946398486 0.011559640625061724 1 1 1 0.01131523606229066 1 1 1 1 1 1 1 1 1 1 1 1 1 1 1 1 1 1 1 1 1 1 1 1 1 1 1 1 1 1 1 1 1 1 1 1 0.010068976769319928 1 1 1 1 1 0.010143709370402281 1 1 1 1 1 1 1 1 1 0.0096328248660972372 0.0093032466386996533 1 1 0.01133150004578605 1 0.011829952390531924 1 1 0.0099087681403680593 0.0091701816627758823 1 1 0.011972466650183974 1 1 1 1 1 1 1 1 1 1 1 1 1 0.011361975001936045 1 1 1 1 1 1 1 1 1 1 1 1 1 1 1 1 1 1 1 1 0.0093692055271989497 1 1 1 1 0.010566115186832325 1 1 0.010296840303417581 1 1 1 1 1 1 1 1 1 1 1 0.0096035699749000055 1 1 1 1 1 1 1 1 1 1 1 1 1 1 0.0093336623651878465 1 1 1 1 0.0084892571062464076 1 1 1 1 1 0.0082329984747657979 1 1 1 1 1 1 1 1 1 1 1 1 1 0.0090509914066780363 1 1 1 1 1 1 1 1 1 1 1 1 1 1 1 1 1 1 0.010624895354879619 0.01004118976863525 1 1 1 1 1 1 1 1 1 1 0.0098293000407865677 1 1 1 1 1 1 1 1 1 1 1 0.011243374717045996 1 1 1 1 0.011100231363801314 1 1 1 1 1 1 1 1 1 1 1 1 0.010767835936814884 1 1 1 1 1 1 1 1 1 1 1 1 1 1 1 1 1 1 1 1 1 0.0091501775249819128 0.0095486296614087571 1 1 1 1 1 1 1 1 1 1 1 0.012228646146175531 0.0099902054747080301 1 1 1 1 1 0.012831576717019844 1 1 1 1 0.0093018412753948024 0.010096614208934509 1 0.009789874607879806 1 1 0.0099982353390694195 1 0.014805336957526782 1 1 1 0.010049986385327779 1 1 1 1 0.01000428438847302 1 1 1 1 1 0.017439161523588848 1 1 1 0.012594404661888364 1 1 1 1 1 0.010097833839687761 1 1 1 1 1 0.010305297302541393 1 1 0.013215478820950801 1 1 0.012515396350483324 1 1 1 0.013110316251333805 1 1 1 0.012431029807681911 1 1 1 0.012260590287008905 1 1 1 0.010464287910318091 1 0.010016022414227048 1 1 1 1 1 1 1 0.013203010502746217 1 1 1 0.010475538780231091 1 1 1 1 1 1 1 1 1 1 1 1 1 1 1 1 1 1 1 1 1 1 1 1 1 1 1 1 1 1 1 1 1 1 1 1 1 1 1 1 1 1 1 1 1 1 1 1 1 1 1 1 1 1 1 1 1 1 1 1 1 1 1 1 1 1 1 1 1 1 1 1 1 1 1 1 1 1 0.007958738955347917 1 1 0.0069247700459165711 1 1 1 1 1 1 1 1 1 1 1 1 1 1 0.010183007880319181 1 1 0.0099739085115938715 1 1 0.011297933716180118 1 1 1 1 1 1 1 1 1 1 1 1 1 1 1 1 1 1 1 1 1 1 1 1 1 1 1 1 1 1 1 1 1 0.0092489289392874621 1 1 1 1 1 1 1 1 1 1 1 1 1 1 1 1 1 1 1 1 1 1 1 1 1 1 1 1 1 1 1 1 1 1 1 1 1 0.0096625216147299409 1 1 1 1 1 1 1 1 1 1 1 1 1 1 1 1 1 1 1 1 1 1 1 1 1 1 1 1 1 1 1 1 1 1 1 1 1 1 1 1 1 1 1 1 1 1 1 1 1 1 1 1 1 1 1 1 1 1 0.011746443165826036 1 1 1 1 1 1 1 1 1 1 1 1 1 1 1 1 0.010287725585012087 1 1 0.010164525304303191 1 0.014848983637082591 0.010800806836516342 1 1 1 1 1 1 1 1 1 1 1 1 1 1 1 1 1 1 1 1 1 1 1 1 1 1 1 1 1 1 1 1 1 1 1 1 1 1 1 1 0.0094128613142260686 1 1 1 1 0.0062315064346511861 1 1 1 1 1 0.0049912943221528602 0.015559843563897773 1 1 1 0.0052621474221611324 0.014733068346858676 0.014182378101170753 1 1 1 1 1 1 1 0.014965982458611608 1 1 0.015584157906331261 1 1 0.017262744678557377 1 1 0.0080070889939828291 1 1 1 1 1 1 0.010311983542897075 1 1 0.010976726035987197 1 1 1 1 1 1 1 1 1 1 1 1 1 1 1 1 1 1 1 1 1 1 1 1 1 1 0.0084685552087676932 1 1 1 1 1 1 1 1 1 1 1 1 1 1 1 1 1 1 1 1 1 1 1 1 1 1 1 1 1 1 1 1 1 1 1 1 1 1 1 1 1 1 1 1 1 1 1 1 1 1 1 1 1 1 1 1 0.011328367787857528 1 1 0.0098008677009499851 0.011200148140689986 1 1 0.010022775005883855 0.012050157977954097 1 1 1 0.014179859271343759 1 0.010148352224132439 1 1 1 0.019545708909072597 1 1 1 1 1 1 1 1 1 1 1 1 1 1 0.012696733626190943 1 1 1 1 1 0.010505951395608247 1 1 1 1 1 1 1 1 0.0088084371378899344 1 1 1 1 1 0.016037455272053767 1 1 1 1 1 1 1 1 1 1 1 1 1 1 0.0095478545528170627 1 1 1 0.016260342576802332 0.018898838641364379 1 1 1 1 1 1 1 1 0.012665448738996511 1 0.018344880898262837 1 0.0099689393028440793 1 0.0082677884531842973 1 1 0.0083071287415575241 1 0.010379627276564149 1 1 1 1 1 1 1 1 1 1 1 0.0095009772216057171 1 1 1 1 1 1 1 1 1 1 0.0094848830948534128 1 1 1 1 1 1 1 1 1 1 1 1 1 1 1 0.010132799325785022 1 1 1 1 1 1 1 1 0.0099601441028153107 1 1 0.010860676386022353 0.012152425299977593 1 0.016956842303002324 0.011075159071299082 1 0.013736950098468025 1 1 0.012329088278972127 1 0.010666107833690064 1 0.012708642921140127 1 0.00997289290885605 1 1 1 1 1 0.010025400750771515 1 1 1 0.010670512571676597 1 1 1 1 1 1 1 1 1 0.011863650614072997 1 1 1 1 1 1 1 1 1 1 1 1 1 1 1 1 1 1 1 0.010514179129839384 1 1 1 1 1 1 1 0.011309492859672407 1 0.0071009559484203413 1 1 1 1 0.013574566391321954 1 1 1 1 1 1 0.013229798145317991 1 1 1 1 1 1 1 1 1 1 1 1 1 1 1 1 1 0.0098149418451820656 1 1 1 1 0.0077146842370831459 1 0.010055513921865582 1 1 1 0.010719538827925123 0.01000578261160334 1 1 1 1 1 0.0098252001639413458 1 1 1 0.010063367778817807 1 1 1 0.012730378218316052 0.0067708379417920489 1 1 1 1 1 0.0077339390464340636 0.0097179322952327812 1 0.011734013220245336 1 1 1 1 1 1 1 1 1 1 1 1 1 1 1 1 0.0091489276758520768 1 1 1 1 0.010554146857074079 1 1 0.010129899974327537 1 1 1 1 1 1 1 1 1 1 1 1 1 1 1 1 1 1 0.0095904282589943067 1 1 1 1 1 1 1 1 0.008088092234482893 1 1 0.0093103013420561438 1 1 1 1 0.0097220303553636131 1 1 1 1 1 1 0.011279841715514176 0.0099586910691909086 1 1 1 1 1 0.013467862112586403 1 1 1 1 0.023341453850531935 1 1 0.021916314397397635 1 1 1 1 0.0141113055485415 0.014820297305665683 1 1 1 1 0.015100880631262338 0.010157525955133223 1 1 1 1 1 1 1 1 1 1 0.013830606920152097 1 1 1 1 1 0.013317251528093354 0.0099859067627246778 1 1 1 1 1 1 1 1 1 1 1 1 0.011494072388649593 1 1 1 1 1 1 1 1 0.010594379998558756 1 1 1 0.010694902787843269 1 1 1 1 0.011797716926151391 1 1 0.012116393507860323 1 1 1 1 1 1 1 1 1 1 1 1 1 1 1 1 1 1 1 1 1 1 1 1 0.011208381085542236 1 1 1 1 1 1 1 1 1 1 1 1 1 1 1 1 1 1 1 1 1 1 1 1 1 1 1 1 0.0085140662678634196 1 1 0.0068865640020273483 1 1 0.00998887626468066 1 1 1 1 0.011013579369552204 1 1 1 1 1 0.0077173947497108496 1 1 1 1 1 1 0.012746260262586507 1 1 1 1 1 1 1 1 0.010095830148206706 1 1 1 1 1 1 1 1 1 1 1 1 1 1 1 1 1 1 0.016901750788194402 1 1 0.025719971926142338 1 0.010019405235018645 1 1 0.025754262340149194 1 1 1 1 1 1 1 1 1 1 1 1 1 1 1 1 1 1 1 1 1 1 1 1 1 1 1 1 1 1 1 0.01086165515168132 1 1 0.008352433179411865 1 1 0.010185167340837981 0.01422059397209937 1 1 1 1 1 1 1 1 1 1 1 1 1 1 1 1 1 1 1 1 1 1 1 1 1 1 1 1 1 1 1 1 1 0.010042579708392103 1 0.0092779259733659393 1 0.011681457362030466 1 1 1 1 1 0.011820877895642642 1 1 1 1 1 0.01008534035420477 1 0.013865499781573518 1 0.012489457330769518 1 1 1 1 1 1 1 1 0.012942740233588799 1 0.012485094984054793 1 1 0.015022584255617494 1 1 1 1 1 1 0.013560937063075488 1 0.010828371565365112 0.0099743633080808039 1 1 1 1 1 1 1 1 0.013389658955238196 1 1 0.0060821549976858031 1 1 0.013506319731090115 1 0.011020922360706771 1 1 1 0.0067287329151642719 0.013973658204060851 1 0.017081569055883358 1 1 1 1 1 1 1 1 1 1 1 1 1 1 1 1 1 1 1 0.0085336938070376626 1 1 1 1 1 1 1 1 1 1 1 1 1 1 1 1 1 1 1 1 1 1 1 1 1 1 1 1 1 1 1 1 1 1 1 1 1 1 1 1 1 1 1 1 1 1 1 1 1 1 1 1 1 1 0.0034010101740719646 1 1 1 1 0.0075513608077345286 1 1 1 1 1 1 1 1 1 1 1 1 1 1 1 1 0.011922602921452466 1 0.013676436996009277 1 1 1 1 1 1 1 0.0099979611810700007 0.016485899278388661 0.0099895675967364497 1 1 1 1 0.0081576620189899533 0.013571184411731992 0.0076099895348616074 0.012980182246095501 0.013421964381235652 1 1 0.0057040486876858516 1 1 1 1 0.0027488365234118965 1 1 1 1 1 1 1 0.015182459456553863 1 1 0.014908923731558723 0.016812393385769005 1 1 1 1 1 1 0.014618623076509057 1 0.012944654334856561 0.01300339621272411 1 0.011693473210691502 0.0055170972057589241 1 1 1 1 0.0046392146939028892 1 0.005111979491303726 1 1 0.0099815541209946606 1 1 0.012529476215828067 1 0.011058355279748236 1 1 0.0040138431140323075 1 0.010645266844870256 1 1 1 1 0.0093580812708645641 1 1 1 1 0.0097823349213436734 1 1 0.0029617762325440094 1 1 1 1 1 1 0.010210846303446144 1 1 1 1 1 1 1 1 1 0.01182039198625421 1 0.012012624525428787 1 1 1 1 1 1 1 0.010029582678606236 1 1 1 1 1 1 1 1 1 1 1 0.0090253270976812985 0.013555773757648645 1 1 0.010068965858490127 0.010435254005417036 1 1 0.011121142252601969 1 1 1 0.010828636649549302 1 0.012466063386868065 0.013321391383139506 1 1 1 0.010087056584695048 0.0088099490069372 1 1 0.013270627104471817 1 1 0.0099975495803960659 1 0.012472817842579793 1 0.0099875627798000251 1 1 1 1 1 0.011645620365397768 1 1 0.0086800025414186903 1 0.011719361832713434 0.0080928464362597183 1 0.011135496569583023 0.0099955198614032036 1 1 1 1 1 1 0.0116798758446621 0.012665323074754535 1 0.0099695218964744887 1 1 1 1 0.010013775880387866 1 1 1 1 1 1 1 1 1 1 1 1 1 1 1 1 1 1 1 1 1 1 1 1 1 1 1 1 1 1 1 1 1 1 1 1 1 1 1 1 1 1 1 1 1 1 1 1 1 1 1 1 1 1 1 1 1 1 1 1 1 1 1 1 1 1 1 1 1 1 1 1 1 1 1 1 1 1 1 1 1 0.0093622071019339205 1 1 1 1 1 1 0.010921823769257091 1 1 1 1 1 1 0.0099198109722994591 1 1 0.0084478868542439828 1 1 1 1 1 1 1 1 1 1 1 1 1 1 0.0043652756104818665 1 1 1 1 1 0.0098036488124235242 1 1 1 1 0.005854025453213044 1 1 1 1 1 1 1 1 1 1 1 1 1 1 1 1 1 1 1 1 1 1 1 1 1 1 1 1 1 1 1 1 1 1 1 0.0034348301969842551 1 1 1 1 1 1 1 1 1 1 1 1 1 1 1 1 1 1 1 1 1 1 1 1 1 1 1 1 1 1 1 1 1 1 1 1 1 1 1 1 1 1 1 1 1 1 1 1 1 1 1 1 1 1 1 1 1 1 1 1 1 1 1 1 1 1 1 1 1 1 1 1 1 1 1 1 1 1 1 1 1 1 1 1 1 1 1 1 1 1 1 1 1 1 1 1 1 1 1 1 0.010220357245468492 1 1 1 1 1 1 1 1 1 1 1 1 1 1 1 1 1 1 1 1 1 1 0.0098784504231202892 1 0.01110579566528218 1 1 1 1 1 0.010348205923869517 0.0079981079181446046 1 1 0.010657275529580682 1 0.0075799395690576369 1 1 0.0095093979645011501 1 1 1 1 1 1 1 1 1 1 1 1 1 1 1 1 1 1 0.0080198808267499203 1 1 1 0.0060059494649885633 1 1 1 0.013308741985842636 1 0.010072970113742138 1 1 1 1 1 1 1 1 1 1 0.012437978959856504 1 1 1 1 0.010172210126361658 0.0077478934680021974 0.011152914138545772 1 1 1 1 1 1 1 1 0.0098624091835320706 1 1 1 1 1 1 1 1 0.0097662213562157846 1 1 0.010903906210690123 1 1 1 1 1 0.010034023160937003 1 0.014751951841955111 1 0.009972928232664725 0.008590163230640796 1 0.010199502321875298 1 1 0.0097464920653579489 1 0.0074957194755255769 1 1 1 1 1 1 1 1 0.011227861009638542 1 0.0077415330386552995 0.010014555447691618 1 0.01273318497657471 1 0.0063793672327602047 1 1 1 0.010763281065851402 0.009566943519884746 1 1 0.0078812750078830068 1 0.009999181218007528 1 0.01003343681498404 1 1 1 1 1 0.0099107564989547436 1 1 1 1 1 1 1 1 1 0.0096362603514608906 1 0.0093108637953603982 1 1 1 1 1 1 1 0.010026311227437495 1 1 1 0.0098996440396431698 1 0.0083098004205951481 0.0097055598291055332 1 1 1 1 1 0.010246179016397823 0.011979949501403197 1 1 1 1 1 1 1 1 0.0098877501466673439 1 0.010085489479386792 1 0.010729445136893955 1 1 1 1 1 0.010192632293142701 1 1 1 1 1 1 1 1 1 1 1 1 1 1 1 1 1 1 1 1 1 1 0.0083319993022641595 1 1 1 1 1 0.0090412154585185634 1 1 1 1 0.0081235288083543172 1 1 1 1 1 1 1 0.0095941808290210678 1 1 0.010599396251946109 1 1 1 1 1 1 1 1 1 1 1 1 1 0.010123355495998623 1 0.0055290557981693689 1 1 1 1 1 1 1 1 1 1 1 1 1 0.012883324730247236 1 1 1 0.0099882316568281771 1 1 0.009994543063048934 1 0.011007263177113926 1 1 1 1 1 1 0.0097919145065064293 1 1 1 1 1 1 1 0.0068765164908384593 1 1 0.0088130054363107276 1 0.013174303940228938 1 0.0087180236499933058 0.010151290711970058 0.011557984734634194 1 1 1 0.0095566284914754343 1 1 0.0091750304824805267 1 0.010806927136275386 1 1 1 1 1 1 1 1 1 1 1 1 1 1 1 1 0.011239371579441824 1 0.010096787306973949 1 1 1 1 1 1 1 1 1 1 1 1 1 1 1 1 0.010218016837987646 1 1 1 1 0.0098387247098595913 1 1 1 1 1 1 1 1 1 1 1 1 1 1 1 1 1 1 1 1 -4.9278129970672935e-10 1 1 1 1 1.9376922809344332e-10 1 1 1 1 1 1 0.0002598194451552808 1 1 1 1 1 1 1 1 1 1 1 1 1 1 0.0095920479505949025 0.0097878947721355605 1 1 1 1 0.00065504472645433291 1 1 1 1 0.0012982072552930241 0.0098754182663422941 1 1 1 1 1 1 1 1 1 1 1 1 1 1 0.0099342141512203299 1 0.0027866547822431994 1 1 1 1 1 1 1 1 1 1 1 1 1 1 1 1 1 1 1 1 1 1 1 1 1 1 1 1 1 1 1 1 1 1 1 1 1 1 1 1 1 0.0084445204517696795 1 1 1 1 1 1 1 1 1 1 0.0083926605741715798 1 1 1 1 1 1 1 1 1 1 1 1 1 1 1 1 0.0093063518095341906 1 1 0.010076122576930295 1 0.009756347712189771 1 1 1 1 1 0.010683935548813944 1 0.011878256092829361 1 1 0.01000105468170354 1 1 1 1 1 1 1 1 1 1 1 1 1 1 1 1 0.0092640659384339453 1 1 0.0097630887168282301 1 1 1 1 1 1 1 1 1 1 1 1 1 1 1 1 1 1 1 1 1 1 1 1 1 1 1 1 1 1 1 1 1 1 1 0.0098842157315941828 1 1 1 0.0099991325631729709 1 1 1 1 1 1 1 1 0.009388686000946507 1 1 1 0.010196278067255312 1 1 0.012617290355154673 1 1 1 1 0.0088780868638472631 0.012275705262986228 1 0.0068165757748951967 1 1 1 1 1 0.010021073939188467 1 0.012136511422901862 1 0.0072915305070472367 1 1 1 1 1 1 1 0.009992621874472812 1 1 1 1 1 0.0086541027801555065 1 1 1 0.0094947295389776146 1 1 1 0.0096132196634331583 1 1 0.010384753932003362 1 1 0.010671351245546575 1 1 1 1 1 1 1 1 1 0.010139125819185593 1 1 1 1 1 1 0.017802833563433804 1 1 1 0.0096267613507166477 0.010212686145714871 1 1 1 1 1 1 1 1 1 1 1 1 1 1 1 1 1 1 1 1 0.014611344078709138 1 1 1 1 1 1 1 1 0.011506072766032398 1 1 1 1 1 1 1 1 1 1 1 1 1 0.0094220736537384952 1 1 0.0095395439605649793 1 1 1 1 1 1 1 1 1 1 1 1 1 1 1 1 1 1 1 1 1 1 1 1 1 1 1 1 1 1 1 1 1 1 1 1 1 1 1 1 1 1 1 1 1 1 1 1 1 1 1 1 1 0.0092333347111562131 1 1 1 1 1 1 1 1 1 1 1 1 1 1 1 1 1 1 1 1 1 1 1 1 1 1 1 1 1 1 1 1 1 1 1 1 1 1 1 1 1 1 1 1 1 1 1 1 1 1 1 1 1 1 1 1 1 1 1 1 1 0.0096201150477230532 1 1 1 1 1 1 1 1 1 0.0097984727512684076 1 1 1 1 1 1 1 0.0097166829663393323 1 1 1 1 1 1 1 1 0.010640487141868259 1 1 1 1 1 1 1 0.010071760618557846 0.0097733549260624348 1 1 1 1 1 1 1 1 1 1 1 1 1 1 1 1 1 1 1 1 1 1 0.0095335497714922803 1 1 1 1 1 1 1 1 1 1 1 1 1 1 1 1 1 1 1 1 1 1 1 1 1 1 1 1 1 1 1 1 1 1 1 1 1 1 1 1 1 1 1 0.0066628655374618585 1 1 1 1 1 1 1 1 1 0.01640261860538289 1 1 1 1 1 1 0.012200099739505895 1 1 1 1 1 1 1 0.0091814654423500106 1 0.010152761722868432 1 1 0.0087045552599399351 1 1 1 1 0.010654839273934045 1 0.011430833051123976 1 0.01047762216052639 1 1 0.0096306648988736376 1 1 1 1 1 1 1 1 1 1 1 1 0.0093405202627293796 1 1 1 1 1 1 1 1 1 1 1 1 1 1 1 1 1 1 1 1 1 1 1 1 1 1 1 1 1 1 0.009842067976228908 1 1 1 1 1 1 1 1 1 1 1 1 1 0.011624672392284664 1 1 0.011793209986231722 1 1 1 0.009101581261679063 0.012292818681191231 1 1 0.0089569174654838719 0.013134321458346344 1 1 1 1 1 1 1 1 1 1 1 1 1 0.01233234268465697 1 1 1 1 0.0097584113798981232 1 0.011399118850112872 1 1 0.0074440151681985731 0.010270560400819787 1 1 1 1 0.0099931923641436785 1 1 1 0.0068374769666883321 1 1 1 1 1 1 1 1 1 1 1 1 1 1 0.010000791766262809 0.011936896999142733 1 1 1 1 1 1 1 0.013268944043319507 1 1 0.010024227119754677 1 0.0062507413179483176 1 1 1 1 1 0.011256544395425267 0.0090413193220339298 1 1 0.011575132852899623 1 1 0.0063008831407467599 1 0.011312446612989262 1 1 1 1 1 0.012019046890949766 0.01169778189733354 1 1 1 1 1 0.0097963537836176333 1 0.010584159649721033 1 1 1 1 0.010209778612992203 1 1 1 1 0.0097412712983107434 1 1 1 1 1 1 1 1 0.0096484811734432983 1 1 0.010391780594217383 1 1 1 1 1 1 1 1 1 0.0091290187958701571 1 1 1 1 1 1 1 1 1 1 1 1 1 0.011656511899508112 1 1 1 1 0.011475040483464632 1 1 1 1 1 1 0.0035223396178736613 1 1 1 0.010194866547288999 1 0.01183569903926761 0.0093340196694337001 1 1 1 1 1 1 1 1 1 1 1 1 0.010179755332836032 1 1 1 1 1 0.010040226783860871 1 0.01050073943069009 1 1 1 1 1 1 0.010197703150172842 1 1 1 1 1 1 1 1 1 1 1 1 1 1 1 1 0.010512984536683184 1 1 1 1 1 1 1 1 1 1 0.011551017390780004 1 1 1 0.0089686113882379882 0.0095334498292551605 1 1 1 1 1 0.010077136253411619 0.0026024768133045672 1 0.00062078737572795334 1 1 0.012637850474853687 1 1 1 1 0.0024987531785698944 1 1 1 1 1 1 1 1 1 1 1 1 0.014528981918936543 1 1 1 1 0.01466925976420155 1 1 1 0.010618449225799262 1 1 1 0.0061697480415839646 1 1 1 0.010411584705128226 1 1 1 0.010176979703870751 1 1 1 1 1 1 1 1 1 1 1 1 1 0.013496201991843933 1 1 1 0.0099916692549344207 1 1 1 1 1 1 0.012449031251559753 1 1 1 1 1 1 1 1 1 1 1 1 0.010940118538743944 1 1 1 1 1 0.0080111190198735409 1 1 1 1 0.0089712038228107402 1 1 1 1 1 1 1 1 1 1 1 0.01018252964284996 1 1 1 1 1 1 0.0070656442097736319 1 1 1 1 1 1 1 1 1 1 1 1 1 1 1 1 1 1 1 1 1 0.0073091204694678349 1 1 1 1 0.0082260514727899702 1 1 1 1 1 1 1 1 1 1 0.010316916269219299 1 0.00018142810704021347 1 1 1 1 0.010131248189937405 1 1 1 1 1 1 1 1 0.020203278199845444 1 1 1 1 1 4.0198283911621613e-09 1 1 1 -5.2003310381867895e-09 1 1 1 1 1 0.0028962147036081833 1 1 1 1 1 1 0.010393318914594265 0.0060161238364909112 1 1 1 0.0097790735008784976 1 1 0.0063873910031842368 0.012638605145297752 0.0048335097472022009 1 1 1 0.0094107108167301654 1 1 1 0.0059436091962073003 1 1 1 1 1 1 1 1 1 1 1 0.007237219554666963 0.0055105522086053762 1 1 1 1 0.0097776578402086686 1 1 1 1 1 1 1 1 1 1 1 1 1 0.0093204596934306581 1 1 1 0.0094287096405039038 1 1 1 1 1 1 1 1 0.010139707045383542 1 1 0.0084287609681009384 1 1 1 1 1 1 0.0099227387285214658 1 1 1 1 0.0095410180249545541 1 1 0.009995319678837199 0.009284366277876141 1 0.0097590268848605846 0.010160184964240078 1 1 0.010083325537415651 1 1 0.0097256280345640427 1 1 1 1 1 1 1 1 0.0095541151196653264 1 1 1 0.0095428018532219862 1 1 1 1 1 1 1 1 1 1 1 1 1 1 1 1 1 1 1 1 1 1 1 1 1 1 1 1 1 1 1 1 1 0.0096664138110232976 1 1 1 1 1 1 1 1 1 1 1 1 1 1 1 1 1 0.0053861368510397705 1 1 1 1 1 1 1 1 1 0.0032935439021858168 1 1 1 1 1 0.0013953627423787624 1 0.0099755126309133621 1 1 1 1 1 1 1 1 1 1 1 1 1 1 1 1 1 1 1 1 1 0.0097533045110048174 1 1 1 1 1 1 1 1 1 1 1 0.010324589694316551 0.011191243075899686 1 1 1 0.01072941007508027 1 1 1 1 1 1 1 1 1 0.01038514413660848 1 1 1 1 1 1 1 0.010404820380763714 1 0.010077925734869903 1 1 1 1 1 1 1 1 1 1 1 1 1 1 1 1 1 1 1 1 1 1 0.008252834516559648 1 1 1 1 1 1 1 1 1 1 1 1 1 1 1 1 1 1 1 0.010275348680640339 1 1 1 1 1 1 1 1 1 1 1 1 1 1 1 1 1 1 1 1 1 1 1 1 1 1 1 1 1 1 1 1 1 1 1 1 1 1 1 1 1 1 1 1 1 1 1 1 1 1 1 1 1 1 1 1 1 1 1 1 1 1 1 1 1 1 1 1 1 1 1 1 1 1 1 1 1 1 1 1 1 1 1 1 1 1 1 1 1 1 1 1 1 1 1 1 1 1 1 1 1 1 1 1 1 1 1 0.0101856659505438 0.010453206134279629 1 1 1 1 1 1 0.010474495457933889 0.010178639812063201 1 1 1 1 1 1 1 1 1 1 1 1 1 1 0.010289173888406146 1 1 1 1 1 1 1 1 1 1 1 1 1 1 1 1 1 0.0089181358854824901 1 1 1 1 1 1 1 1 1 1 0.008401489627495316 1 1 1 0.0073203638242733578 1 1 1 1 1 1 1 1 1 1 1 1 1 1 1 0.0098880438507701444 1 1 0.016867135569964855 1 1 1 1 1 1 1 1 1 1 1 1 1 1 1 1 0.011030010212331461 1 1 0.010456580705298917 1 1 1 1 1 0.010103954062823143 1 1 1 1 1 1 0.010532364431843865 0.0093386934082832981 1 1 1 0.0095657900545187951 1 1 0.0046106217163575589 0.01315356974700029 1 1 1 1 0.01261602690205388 0.0046013559258892833 1 1 1 0.012904091693312122 1 1 1 1 1 1 0.0084448817977839617 0.0097689380204104455 1 1 0.0099945440860930261 1 0.0011670915647571051 0.010894266008845341 1 1 1 1 0.011767492405451236 1 1 0.01110073578356067 1 1 1 1 0.017936964048804221 1 1 1 1 1 1 1 0.010384232826445659 1 1 1 1 1 1 1 1 1 1 1 1 1 1 1 1 1 1 1 0.0096178448964907154 1 1 1 1 0.01534557773311601 1 1 1 1 1 0.0021153767312317049 1 1 1 1 0.010829073876448714 1 1 1 1 0.010239124573072489 1 1 1 1 1 0.0094970921884326744 1 1 1 1 0.0005131031734060057 1 1 1 1 1 1 0.0017704878657407285 1 1 0.013121098472829404 0.010302381811097062 1 1 0.012929761862950251 1 1 1 1 0.0044685632594765341 1 0.012429709595316909 1 1 1 0.0012243425401671495 0.0052247475120981851 0.0084778695157226493 1 1 1 1 1 0.017413806860549684 1 1 0.0099508516143888611 1 1 1 1 1 1 1 1 1 1 1 0.0091713204844391851 1 1 1 1 1 0.010145137630463697 1 0.015731158524844961 7.8552521258490327e-11 1 1 1 0.017099608486123304 1.0648616884101347e-10 1 1 0.0070086313171317033 1 1 1 0.02024892379092574 1 0.0050313316198404316 1 1 1 -1.346985318423366e-10 1 1 1 0.0096664075589904461 0.0045189817814942756 1 1 1 1 1 1 1 1 1 1 1 1 1 1 1 1 1 1 1 1 1 1 1 1 1 1 1 1 1 1 1 1 1 1 1 1 1 1 1 1 1 1 1 1 1 1 1 1 1 0.007574264262251669 1 1 0.011493951348960451 1 1 1 0.01001256536593426 1 1 1 1 0.0077916922271923216 1 1 1 0.0050518472296179435 1 1 0.012506880969973959 1 1 1 0.014825677181344176 1 0.0036600943910863127 1 0.012431364658288275 1 1 1 1 1 0.011254360263526775 1 1 1 1 1 1 1 1 1 1 1 1 1 1 1 1 0.0087078161096179624 1 1 0.010726140932541751 1 1 1 1 1 1 0.0086245943788020724 1 1 0.010923800323417249 1 1 1 1 0.010587394192649383 0.0092394221950351501 0.0097385386658904016 0.011659605738786766 1 1 1 1 1 1 1 1 0.010085596783831363 0.012359759203573163 1 1 1 1 0.011794296785533587 1 1 1 1 1 1 1 0.0094518795389178841 1 1 1 1 1 1 1 1 1 1 1 1 1 1 1 1 1 1 1 1 1 1 1 1 1 1 1 1 1 1 1 1 1 1 1 1 1 1 1 1 1 1 1 1 1 1 1 1 1 1 1 1 1 1 1 1 1 1 1 1 1 1 0.010614595338412901 1 1 1 1 1 0.0072177769525396682 0.0087991735239370972 1 1 1 0.011986321671886978 1 1 0.0064397544051381945 1 0.013456964857202033 1 1 0.0084995662551939147 1 1 1 1 1 1 1 1 1 1 1 1 1 1 1 1 1 1 1 1 1 1 1 1 1 1 1 1 1 1 0.0096008134310236748 1 1 1 1 1 1 0.014049449562872858 1 1 1 0.0060632317478533622 1 1 1 1 1 1 1 0.0098362165319087654 1 1 1 1 1 1 1 1 0.012953234280863271 1 1 0.011866518822317308 1 1 1 1 1 1 1 1 1 1 1 1 1 1 1 1 1 1 1 1 1 1 1 1 1 1 0.010661020773043633 1 1 1 1 1 1 1 1 1 0.010044216761422418 1 1 1 1 1 1 1 1 1 0.0082635042415825505 1 0.0077015409016103487 1 1 0.0094149647164358339 1 0.0095827531230741406 1 1 1 1 1 1 1 0.010899139246834518 1 1 1 1 1 1 1 1 1 1 1 1 1 1 1 0.0081268434691947281 1 1 0.0095119986845174035 1 1 1 1 1 0.010593380298576044 1 1 0.010297196587621403 1 1 0.011011883936522028 0.0063437483729859648 1 1 0.0086574583160581239 1 1 1 0.0075287246489595446 1 0.011636811026912016 1 1 1 1 0.0063639915237838109 1 1 1 1 1 1 1 1 1 0.0099654589883691573 1 1 1 1 1 1 1 1 0.01004822852228658 1 1 1 1 0.010833675892552012 1 0.0089316284385075259 1 1 1 1 1 0.010149325927033855 1 0.008821581516293045 0.0073098198552422559 1 1 0.0074771652507628246 1 1 1 1 1 0.0098030989686652033 1 0.0089863550306344131 1 1 1 1 1 0.0094554359637049924 1 1 0.010837087028787721 1 0.0097103310867067832 1 1 1 1 1 1 0.010505844779547788 1 1 1 1 0.009926293087901758 1 1 0.0099492658784571877 0.009978449799371597 1 1 1 1 1 1 0.010136014974385744 1 1 1 1 1 1 1 1 1 1 0.010635651523840692 1 1 1 0.009346185559756361 1 1 1 1 1 1 1 1 1 1 0.0097999759862421945 1 1 1 1 1 1 1 1 1 1 1 1 1 1 1 1 1 1 0.010734803021498297 1 1 1 1 1 0.011029782166187264 1 0.010560666761693552 1 1 1 1 1 1 1 1 1 1 0.021668044256903524 1 1 1 0.019754787583785908 1 1 1 1 1 1 1 1 1 1 1 1 1 1 1 1 0.010011785689926844 1 1 1 1 1 1 1 0.0088440786856987634 1 1 1 1 0.011938773600097614 1 1 1 1 0.010188772185985843 1 1 0.01087137817434914 1 1 0.011825384681866854 1 1 1 1 0.0088729737135831484 0.010037262816481566 1 1 1 1 1 1 1 1 1 1 1 1 1 1 1 1 1 1 1 1 1 0.0094774204637745468 1 1 1 1 0.010662989896780727 1 1 1 1 1 1 1 1 0.010005997415475731 1 0.0077256691835588323 0.012397492048309811 1 1 1 0.010188959975527958 1 1 1 1 1 1 1 1 1 0.0098466361095661814 1 0.00025116820078859708 1 1 1 0.010001266527765689 1 1 0.0089040882906531518 1 0.0056919441674542388 1 1 1 1 0.0018566444096760996 0.0084914367919114407 1 1 1 1 0.020603864163286096 1 0.019117934330546787 0.010299906731462855 1 1 1 1 1 1 1 1 1 1 1 1 1 1 1 1 0.022594183927223024 1 1 1 1 1 1 1 1 1 1 1 1 1 1 1 1 1 1 1 1 1 1 1 1 1 1 1 1 1 1 1 1 1 1 1 1 1 0.010052250374326421 1 1 1 1 1 0.0041010052905847885 1 1 1 0.0089604689180839171 1 1 1 1 1 1 0.009844678696778195 0.0055236614280138735 1 1 1 1 0.0085604808160926037 1 1 1 1 1 1 1 0.0071547105596947505 1 1 1 1 1 0.0064106070897719178 1 1 1 0.0060726080324453383 1 1 1 1 0.010756837448815056 1 1 1 1 1 1 0.010166788922037359 1 1 1 1 1 1 1 1 1 1 1 0.008223620053367544 1 1 1 1 1 1 1 1 1 1 1 1 1 1 0.0072960262388939382 1 1 0.012994105464152488 1 0.009891574471046145 0.010463274201416769 1 1 1 1 1 1 1 1 1 1 1 1 1 1 1 1 1 1 1 1 1 0.010374758053653774 1 1 1 1 1 1 1 1 1 1 1 1 1 1 1 1 1 1 1 1 1 1 1 1 1 1 1 1 1 1 1 1 1 1 1 1 1 1 1 1 1 1 1 1 1 1 1 1 1 1 1 1 1 1 1 1 1 1 1 1 1 1 1 1 1 1 0.0093770335526270517 1 1 1 1 0.0050175860081860882 0.0047271677662724283 1 1 1 1 0.0025038357628570825 1 1 1 1 1 1 1 1 1 1 1 1 0.0085514131494467127 1 1 1 1 1 1 1 1 1 1 1 1 0.0026542433298247237 1 1 1 1 1 1 1 1 1 1 0.0045865159652050472 1 1 0.0072327099927525784 1 1 1 1 1 1 1 1 1 1 1 1 1 1 1 1 1 1 1 1 1 1 1 1 1 0.014931773113238109 1 1 0.017478999196335047 1 1 0.010265687617004585 1 1 1 1 1 1 0.011790219791885393 1 1 1 1 0.0097730189266813164 1 1 1 1 1 1 1 1 1 1 1 1 1 1 1 1 1 1 1 1 1 0.009103804305910991 1 1 1 1 1 1 1 1 1 1 1 1 1 1 1 0.0099701984927731274 1 0.0099702281688320502 1 1 1 1 1 1 1 1 1 1 1 1 1 0.0099636912177573939 1 1 1 1 1 1 0.009990183016366597 1 1 0.0100264917986092 1 1 1 1 1 1 1 1 0.0098702705855145106 1 1 1 1 1 1 0.0099597727108362653 1 1 1 1 1 1 1 1 1 1 1 1 1 1 1 1 1 1 1 1 1 1 0.0090719643207121115 1 1 1 1 1 1 1 1 1 1 1 1 1 1 1 1 1 1 1 1 1 1 0.0099104978746782299 1 1 1 1 0.01050408913699289 1 1 0.010351126207342527 1 1 0.011254427282089079 1 1 1 1 1 0.011484256300260978 0.010861248571514381 1 0.01126408106134881 0.012145871331650682 1 1 1 0.0098965503401117066 1 1 0.0096573569687337275 1 1 1 1 1 1 1 1 1 1 1 1 1 1 1 1 1 1 1 1 1 1 1 1 1 1 1 1 1 1 1 1 1 1 1 1 1 1 1 1 1 1 1 1 1 1 0.011380875893457036 1 1 1 1 1 1 1 1 1 1 1 1 1 0.014918947672377558 1 1 0.0093274491650119987 0.010962322141735821 1 1 1 1 1 1 1 0.015509732487536537 1 1 0.015600772636565331 1 1 1 0.009805291374257584 1 1 1 0.010747662220278561 1 1 1 1 1 1 1 1 1 1 1 1 1 1 1 1 1 1 1 1 1 0.010030587216947551 1 1 1 1 0.0099876054417308985 1 0.010024873259802992 1 0.015723726270952296 1 1 0.01198277986825518 0.014702119602668175 1 1 1 1 1 1 1 0.012246247405277961 1 0.014518545359191393 1 1 1 1 1 1 1 1 1 0.010669062385366601 1 0.0086588254756757854 1 1 1 0.01719694100880792 1 1 0.0093297485786941053 1 0.0098097808779864654 1 1 1 0.014231014997132673 1 1 1 1 1 1 1 1 1 1 1 0.0027343309490934775 1 1 1 1 2.8901136345238498e-10 1 1 1 1 1 1 1 1 1 1 1 1 1 1 1 1 1 1 1 1 0.014081177900523623 1 1 1 0.0080578320059873226 1 0.0069342167276224571 0.02210344477663418 0.011683012462719862 1 1 1 1 1 1 1 1 1 1 1 1 0.012506882382215759 1 1 0.0099645272226662925 1 0.0045504015737258853 1 0.01322501942923719 1 1 0.0099945317512771716 1 1 1 1 0.019751970365758029 1 1 1 1 1 1 1 0.012396194240489242 1 1 1 1 1 1 1 1 1 1 0.010014475191506889 1 1 1 1 1 1 1 1 1 1 1 1 1 0.020517752768843746 1 1 1 0.007754694090923147 0.020587321887413093 0.0098485556396679975 1 1 1 1 1 1 0.009925494702249113 1 1 1 1 1 0.0099852744126303489 1 1 1 1 1 1 0.020145763665792085 1 1 0.0099924884590990876 1 1 0.010569177856578986 1 1 1 0.011401149172938198 1 1 0.011488836420534387 1 1 1 0.0045636379739218656 1 1 0.0060262400694096538 0.0062362821963654336 1 1 1 1 0.0025910135364730254 1 1 1 1 1 1 1 1 1 1 1 1 1 1 1 1 1 1 1 1 1 1 1 1 1 1 1 1 1 1 1 0.010557355648227226 1 1 1 1 1 1 1 1 0.0098273429634158568 1 1 1 1 1 1 1 1 1 1 1 0.0077019788604094086 1 1 1 1 1 1 1 1 1 1 1 1 1 1 1 1 1 0.0057196328044579955 1 1 1 1 1 0.011456267537348519 1 1 0.0097173711005092006 1 1 1 1 1 1 0.0090703042453300943 1 1 1 0.013545683920985482 1 1 0.014823583425194417 1 1 1 0.0031403990100071048 1 0.019061858788302698 1 1 1 1 0.009895170646177294 1 1 1 1 1 0.002785004189966479 0.0029219513399507385 1 1 1 1 1 1 1 1 1 1 1 1 0.021107505459664444 1 1 1 1 1 1 1 1 1 1 1 1 1 -2.2210911772985176e-09 1 1 1 1.6894327464767045e-09 1 1 0.0081929839815579261 1 1 0.0118327380215248 1 0.011404085715881314 1 1 0.012994083554642101 1 1 1 1 0.0064034762215818743 0.009961796063110118 1 0.011397384738392951 1 1 1 1 1 1 1 1 1 1 1 1 1 0.010002941700977756 1 1 1 1 1 0.012942582659844413 1 1 1 1 1 1 1 1 1 1 1 1 1 1 1 1 1 1 1 1 1 1 1 1 1 1 1 1 1 1 1 0.024234904288408392 1 1 1 1 0.024080928885283084 1 1 1 0.010481557604044425 1 1 1 1 1 1 1 1 1 1 1 1 1 1 1 0.023043361711182257 1 1 1 1 1 1 1 1 1 1 1 1 1 1 0.014179609077435221 0.014939841552740961 1 0.0099638956714597979 1 0.011999781129629955 1 1 1 1 1 1 1 1 1 1 1 0.015919385901257698 1 1 1 1 1 0.014062757766249096 1 1 1 1 1 1 0.010751623410027349 1 1 1 1 1 1 1 1 1 1 1 1 1 1 1 1 1 1 1 1 1 1 1 1 0.010919931392247392 1 1 1 1 1 0.010286496176072338 1 1 1 1 1 1 1 1 1 1 1 1 1 1 1 1 1 1 1 1 1 1 1 1 0.011318895301989883 1 1 1 0.010206949211828567 1 1 1 1 1 1 1 1 1 1 1 1 1 1 1 1 1 1 1 1 1 1 1 1 1 1 1 1 1 1 0.0054022881313830796 1 1 0.0066063435352502961 1 1 1 1 1 1 1 1 1 0.0023469984089107641 1 0.009726207500026977 1 1 1 1 1 1 1 1 0.0043456777956860683 1 1 1 0.017607711664841239 1 1 1 1 1 1 0.0081211187882224527 1 1 1 0.010150409059427474 1 1 1 1 1 1 1 1 1 1 1 1 1 1 1 1 1 1 1 1 1 1 0.010493369695803518 1 1 1 1 1 1 0.010508081285648705 1 1 1 0.0098421306790945681 0.0025350469144299454 1 1 1 1 1 1 0.008936538505213594 0.0011286055164610852 1 0.010007357317848742 1 0.01094307308944654 1 1 0.0063095762833669531 1 0.011710658453065004 1 1 1 1 0.0045643919688248668 0.0070746418671453308 1 1 1 1 1 1 1 1 1 0.0096559801623994114 1 1 1 1 1 0.009836717583790365 1 1 1 1 1 1 1 1 1 1 0.0095144598661669917 1 0.0097936336196765769 1 1 1 1 1 1 1 1 1 1 1 1 1 1 1 1 1 1 1 1 1 1 1 1 0.0086322005231537161 1 1 1 1 1 1 1 1 1 1 1 0.0094998747568805619 1 0.0090207446369150873 1 1 1 1 1 1 1 1 1 1 1 0.0074196685908671407 1 1 1 0.0095679547417540887 1 1 1 0.004630442702926868 1 1 1 1 1 1 1 1 1 1 1 1 1 1 1 1 1 1 0.010679149371870846 1 0.0091633786411342115 1 1 1 1 1 0.0058232584685496136 1 0.015337034230179998 1 1 1 0.015264524682317772 1 1 1 1 1 1 0.00569908221353101 1 1 0.0063281030783150748 1 1 1 1 1 1 1 1 1 1 1 1 1 1 1 1 1 1 1 1 1 1 1 1 1 1 1 1 1 1 1 1 1 1 1 1 1 1 1 1 1 1 1 1 1 1 1 1 1 1 1 1 1 1 0.010293132329730408 1 1 1 1 1 0.010786502025533934 1 1 1 1 1 1 1 1 1 1 1 1 1 1 1 1 1 1 1 1 1 1 1 1 1 1 1 1 1 1 1 1 1 1 1 1 1 1 1 1 1 1 1 1 1 1 1 1 1 1 1 1 1 1 1 1 1 1 1 1 1 1 0.0078214319401525012 1 1 1 1 0.016131039020847664 1 1 1 1 1 1 1 1 1 1 1 1 1 1 1 1 1 0.0074851460755244823 1 1 1 0.0061019135952499626 1 0.0073981446150388173 1 1 1 1 1 1 1 1 1 1 1 1 1 1 1 1 0.0094802526469611077 1 1 1 1 0.0091176629599413438 1 1 1 1 1 1 1 1 1 1 1 1 1 1 1 1 1 0.0086776900241806107 1 0.009779313113972142 1 1 0.011736255418884881 0.0092949714490534845 1 0.011899841327139962 1 1 1 1 0.011866051455141481 1 1 1 0.014352031606470535 1 1 1 1 1 1 1 1 0.0098482935667881747 1 1 1 0.018950564156687291 1 1 1 1 1 0.0085966221954794936 1 1 1 0.011664631012742213 0.0011750257400364832 1 1 1 0.010089784064167492 1 0.01057010892836701 1 1 1 1 1 1 1 1 1 1 1 1 1 1 1 1 1 1 1 1 1 1 1 1 0.013794933950425921 0.011320516264021628 1 1 1 1 1 0.013545047671658227 0.0097969527660818467 1 1 1 1 1 0.015267028845722517 1 1 1 1 1 1 1 1 1 1 1 1 1 0.0081932057590449019 1 1 1 1 1 0.0094047454191032945 1 1 1 1 1 0.016142457716980058 1 1 1 1 1 1 1 1 1 1 1 0.010342043307891432 1 1 1 1 1 1 1 1 1 1 1 1 0.0084785266499884191 0.0084622152039884185 1 1 1 1 1 1 1 1 1 1 0.0084643784879345953 1 1 1 1 1 0.0084500491584986997 1 1 1 1 1 1 1 1 1 0.010088782960097532 1 0.010987574402226251 1 1 1 1 1 1 1 1 1 1 1 1 1 0.0014006460259586712 1 1 1 0.010214520441882298 1 -2.187712806051012e-10 1 1 1 0.020427523593162387 1 0.018085051441597354 1 1 1 1 1 1 1 1 1 0.0024152872669968382 1 1 1 1 1 1 1 1 1 1 1 1 1 1 1 1 1 1 1 1 1 1 1 1 1 0.0035157146403159336 1 1 1 1 1 1 1 1 3.2710986697104261e-13 1 1 0.0099049961897380023 1 1 0.0048343543964455716 1 0.0084263568339082735 1 1 0.0038439842058646291 1 1 1 0.0093136681079195299 1 1 1 1 1 1 1 1 1 1 0.0080276602788374174 1 1 1 1 1 0.0075080169500965892 1 0.0089252775353769534 1 0.0089794710156095511 1 1 1 1 1 1 1 0.013864928386009055 0.0093095613402442642 1 1 1 0.0055372469672485911 0.016204816866716279 1 0.010015989238749523 1 1 1 1 1 0.0091818444436488865 1 1 0.0097040158386679665 1 1 1 1 1 1 0.00688654945561748 1 1 1 0.0066348649228079853 1 1 1 1 1 0.0056786998537317473 1 0.010346668672351145 1 0.0098427809511003311 1 1 1 1 1 1 1 1 1 1 1 1 1 1 1 1 1 1 1 1 1 1 1 1 1 1 1 1 1 0.0060346881305003014 1 1 1 1 1 1 1 0.011279722777096657 1 1 1 0.011146530033288847 1 0.012250933947119805 1 1 0.011809401811254297 1 1 1 0.0091505572145362465 1 1 1 1 0.01294637195372348 1 1 1 1 1 1 1 1 1 1 1 1 1 0.012008061672174917 1 1 1 1 1 1 0.010765601303860964 1 1 1 1 1 1 1 1 1 1 1 1 0.0097853864237269494 1 1 1 1 1 1 0.0096267097264022203 1 1 1 1 1 1 0.022812257964258988 1 0.020958733308920206 1 1 1 0.0098023827101073428 1 1 1 1 1 1 0.0099610594074320599 1 1 1 1 1 1 1 1 1 1 1 1 1 1 1 1 0.015212520271772962 1 1 1 1 1 1 1 1 1 
</DataArray>
</CellData>
</Piece>
</UnstructuredGrid>
</VTKFile>
