<?xml version="1.0"?>
<VTKFile type="UnstructuredGrid" version="0.1" byte_order="LittleEndian">
<UnstructuredGrid>
<Piece NumberOfPoints="31355" NumberOfCells="11071">
<Points>
<DataArray type="Float64" NumberOfComponents="3" format="ascii">
-0.5 -0.5 0 -0.45958308316422031 -0.46313497537055559 0 -0.5 -0.43609587328940957 0 -0.5 -0.5 0 -0.43948332050027639 -0.5 0 -0.45958308316422031 -0.46313497537055559 0 -0.43948332050027639 -0.5 0 -0.45958308316422031 -0.46313497537055559 0 -0.43483942381830942 -0.47095861062616828 0 -0.45958308316422031 -0.46313497537055559 0 -0.45988857403832928 -0.42958946337785658 0 -0.43361905554292629 -0.44349290162707689 0 -0.45958308316422031 -0.46313497537055559 0 -0.43483942381830942 -0.47095861062616828 0 -0.43361905554292629 -0.44349290162707689 0 -0.45958308316422031 -0.46313497537055559 0 -0.5 -0.43609587328940957 0 -0.45988857403832928 -0.42958946337785658 0 -0.5 -0.43609587328940957 0 -0.47665499501968439 -0.40501195629073661 0 -0.49999999999999578 -0.35634566018095459 0 -0.5 -0.43609587328940957 0 -0.47665499501968439 -0.40501195629073661 0 -0.45988857403832928 -0.42958946337785658 0 -0.47665499501968439 -0.40501195629073661 0 -0.47221694618287913 -0.37814995947898972 0 -0.49999999999999578 -0.35634566018095459 0 -0.47221694618287913 -0.37814995947898972 0 -0.45705965164909329 -0.39495203827286068 0 -0.45233943568405932 -0.3746812337852139 0 -0.47665499501968439 -0.40501195629073661 0 -0.47221694618287913 -0.37814995947898972 0 -0.45705965164909329 -0.39495203827286068 0 -0.47665499501968439 -0.40501195629073661 0 -0.45705965164909329 -0.39495203827286068 0 -0.45296274945778919 -0.41102105771276731 0 -0.45705965164909329 -0.39495203827286068 0 -0.43783659947816211 -0.40293077367182251 0 -0.45296274945778919 -0.41102105771276731 0 -0.45705965164909329 -0.39495203827286068 0 -0.43783659947816211 -0.40293077367182251 0 -0.44422097740446759 -0.39054190110878573 0 -0.42964822280655579 -0.38960355870524571 0 -0.43877887423894152 -0.36513860005734078 0 -0.45233943568405932 -0.3746812337852139 0 -0.42964822280655579 -0.38960355870524571 0 -0.45233943568405932 -0.3746812337852139 0 -0.45705965164909329 -0.39495203827286068 0 -0.44422097740446759 -0.39054190110878573 0 -0.45233943568405932 -0.3746812337852139 0 -0.44422097740446759 -0.39054190110878573 0 -0.42964822280655579 -0.38960355870524571 0 -0.45233943568405932 -0.3746812337852139 0 -0.47665499501968439 -0.40501195629073661 0 -0.45988857403832928 -0.42958946337785658 0 -0.45296274945778919 -0.41102105771276731 0 -0.43783659947816211 -0.40293077367182251 0 -0.44076263358592388 -0.42078003597220093 0 -0.45296274945778919 -0.41102105771276731 0 -0.45988857403832928 -0.42958946337785658 0 -0.44076263358592388 -0.42078003597220093 0 -0.45296274945778919 -0.41102105771276731 0 -0.45988857403832928 -0.42958946337785658 0 -0.44076263358592388 -0.42078003597220093 0 -0.43361905554292629 -0.44349290162707689 0 -0.42350418307205051 -0.42150146822855838 0 -0.43361905554292629 -0.44349290162707689 0 -0.40917176666593891 -0.44007216278529437 0 -0.44076263358592388 -0.42078003597220093 0 -0.42350418307205051 -0.42150146822855838 0 -0.43361905554292629 -0.44349290162707689 0 -0.43783659947816211 -0.40293077367182251 0 -0.42350418307205051 -0.42150146822855838 0 -0.43783659947816211 -0.40293077367182251 0 -0.44076263358592388 -0.42078003597220093 0 -0.42350418307205051 -0.42150146822855838 0 -0.43783659947816211 -0.40293077367182251 0 -0.42350418307205051 -0.42150146822855838 0 -0.42250991718058051 -0.40591806287612608 0 -0.42350418307205051 -0.42150146822855838 0 -0.40735795351873039 -0.42088958510141339 0 -0.42250991718058051 -0.40591806287612608 0 -0.40735795351873039 -0.42088958510141339 0 -0.42250991718058051 -0.40591806287612608 0 -0.40695700992905232 -0.40452588362527742 0 -0.42350418307205051 -0.42150146822855838 0 -0.40917176666593891 -0.44007216278529437 0 -0.42350418307205051 -0.42150146822855838 0 -0.40735795351873039 -0.42088958510141339 0 -0.40917176666593891 -0.44007216278529437 0 -0.42964822280655579 -0.38960355870524571 0 -0.4135267553246692 -0.37765324302611292 0 -0.43877887423894152 -0.36513860005734078 0 -0.43783659947816211 -0.40293077367182251 0 -0.42964822280655579 -0.38960355870524571 0 -0.42250991718058051 -0.40591806287612608 0 -0.43783659947816211 -0.40293077367182251 0 -0.44422097740446759 -0.39054190110878573 0 -0.42964822280655579 -0.38960355870524571 0 -0.42964822280655579 -0.38960355870524571 0 -0.42250991718058051 -0.40591806287612608 0 -0.40695700992905232 -0.40452588362527742 0 -0.42964822280655579 -0.38960355870524571 0 -0.40695700992905232 -0.40452588362527742 0 -0.42964822280655579 -0.38960355870524571 0 -0.40695700992905232 -0.40452588362527742 0 -0.4135267553246692 -0.37765324302611292 0 -0.40695700992905232 -0.40452588362527742 0 -0.4135267553246692 -0.37765324302611292 0 -0.3977462633808177 -0.38767850019735278 0 -0.4135267553246692 -0.37765324302611292 0 -0.3977462633808177 -0.38767850019735278 0 -0.3910921140873343 -0.37085154459948622 0 -0.40695700992905232 -0.40452588362527742 0 -0.3977462633808177 -0.38767850019735278 0 -0.39156082734317399 -0.40059903742071362 0 -0.3977462633808177 -0.38767850019735278 0 -0.39156082734317399 -0.40059903742071362 0 -0.37664428964660751 -0.39119637113985251 0 -0.39156082734317399 -0.40059903742071362 0 -0.37664428964660751 -0.39119637113985251 0 -0.38426579705154718 -0.41944820854530679 0 -0.37664428964660751 -0.39119637113985251 0 -0.38426579705154718 -0.41944820854530679 0 -0.3977462633808177 -0.38767850019735278 0 -0.37664428964660751 -0.39119637113985251 0 -0.3910921140873343 -0.37085154459948622 0 -0.39773904721321329 -0.43387172454791773 0 -0.38426579705154718 -0.41944820854530679 0 -0.39142840627115272 -0.4459989760404649 0 -0.40735795351873039 -0.42088958510141339 0 -0.39773904721321329 -0.43387172454791773 0 -0.38426579705154718 -0.41944820854530679 0 -0.40735795351873039 -0.42088958510141339 0 -0.39773904721321329 -0.43387172454791773 0 -0.40917176666593891 -0.44007216278529437 0 -0.40735795351873039 -0.42088958510141339 0 -0.40695700992905232 -0.40452588362527742 0 -0.38426579705154718 -0.41944820854530679 0 -0.40695700992905232 -0.40452588362527742 0 -0.38426579705154718 -0.41944820854530679 0 -0.40695700992905232 -0.40452588362527742 0 -0.39156082734317399 -0.40059903742071362 0 -0.38426579705154718 -0.41944820854530679 0 -0.37664428964660751 -0.39119637113985251 0 -0.38426579705154718 -0.41944820854530679 0 -0.37289078110535862 -0.41436197883334552 0 -0.38426579705154718 -0.41944820854530679 0 -0.37674159639830712 -0.4194098326634994 0 -0.37289078110535862 -0.41436197883334552 0 -0.38426579705154718 -0.41944820854530679 0 -0.37674159639830712 -0.4194098326634994 0 -0.37927839917958772 -0.42469629489405247 0 -0.37674159639830712 -0.4194098326634994 0 -0.37927839917958772 -0.42469629489405247 0 -0.37289093194205702 -0.42600722256956858 0 -0.38426579705154718 -0.41944820854530679 0 -0.38267770885978591 -0.43020472099993617 0 -0.39142840627115272 -0.4459989760404649 0 -0.37927839917958772 -0.42469629489405247 0 -0.38267770885978591 -0.43020472099993617 0 -0.37289093194205702 -0.42600722256956858 0 -0.38426579705154718 -0.41944820854530679 0 -0.37927839917958772 -0.42469629489405247 0 -0.38267770885978591 -0.43020472099993617 0 -0.38426579705154718 -0.41944820854530679 0 -0.39142840627115272 -0.4459989760404649 0 -0.38267770885978591 -0.43020472099993617 0 -0.37498697932785813 -0.43665479546504382 0 -0.37289093194205702 -0.42600722256956858 0 -0.38267770885978591 -0.43020472099993617 0 -0.38274481376531078 -0.44033996738161357 0 -0.37498697932785813 -0.43665479546504382 0 -0.39142840627115272 -0.4459989760404649 0 -0.36940631651393169 -0.45437748399902161 0 -0.38274481376531078 -0.44033996738161357 0 -0.36940631651393169 -0.45437748399902161 0 -0.37498697932785813 -0.43665479546504382 0 -0.39142840627115272 -0.4459989760404649 0 -0.39483935025982653 -0.45864285734202981 0 -0.36940631651393169 -0.45437748399902161 0 -0.38274481376531078 -0.44033996738161357 0 -0.39142840627115272 -0.4459989760404649 0 -0.36940631651393169 -0.45437748399902161 0 -0.38267770885978591 -0.43020472099993617 0 -0.38274481376531078 -0.44033996738161357 0 -0.39142840627115272 -0.4459989760404649 0 -0.39490861364955421 -0.44467489891886441 0 -0.39483935025982653 -0.45864285734202981 0 -0.40917176666593891 -0.44007216278529437 0 -0.39483935025982653 -0.45864285734202981 0 -0.40917176666593891 -0.44007216278529437 0 -0.39773904721321329 -0.43387172454791773 0 -0.39490861364955421 -0.44467489891886441 0 -0.39142840627115272 -0.4459989760404649 0 -0.39490861364955421 -0.44467489891886441 0 -0.39142840627115272 -0.4459989760404649 0 -0.39483935025982653 -0.45864285734202981 0 -0.39142840627115272 -0.4459989760404649 0 -0.39483935025982653 -0.45864285734202981 0 -0.39490861364955421 -0.44467489891886441 0 -0.39142840627115272 -0.4459989760404649 0 -0.39773904721321329 -0.43387172454791773 0 -0.39490861364955421 -0.44467489891886441 0 -0.40917176666593891 -0.44007216278529437 0 -0.39483935025982653 -0.45864285734202981 0 -0.39885015285817521 -0.47351032867723297 0 -0.41482637202655781 -0.46066129084723439 0 -0.39483935025982653 -0.45864285734202981 0 -0.39885015285817521 -0.47351032867723297 0 -0.39483935025982653 -0.45864285734202981 0 -0.37888012514495523 -0.47932142867101452 0 -0.36940631651393169 -0.45437748399902161 0 -0.39483935025982653 -0.45864285734202981 0 -0.37888012514495523 -0.47932142867101452 0 -0.38775261308638909 -0.48824191147213641 0 -0.3952509319422064 -0.5 0 -0.36292090003008348 -0.49999999999999889 0 -0.37888012514495523 -0.47932142867101452 0 -0.38775261308638909 -0.48824191147213641 0 -0.39885015285817521 -0.47351032867723297 0 -0.37888012514495523 -0.47932142867101452 0 -0.38775261308638909 -0.48824191147213641 0 -0.36292090003008348 -0.49999999999999889 0 -0.38775261308638909 -0.48824191147213641 0 -0.3952509319422064 -0.5 0 -0.40286095545652539 -0.4883778000124358 0 -0.39483935025982653 -0.45864285734202981 0 -0.37888012514495523 -0.47932142867101452 0 -0.39885015285817521 -0.47351032867723297 0 -0.38775261308638909 -0.48824191147213641 0 -0.40286095545652539 -0.4883778000124358 0 -0.39885015285817521 -0.47351032867723297 0 -0.40286095545652539 -0.4883778000124358 0 -0.39885015285817521 -0.47351032867723297 0 -0.43948332050027639 -0.5 0 -0.3952509319422064 -0.5 0 -0.40286095545652539 -0.4883778000124358 0 -0.40286095545652539 -0.4883778000124358 0 -0.39885015285817521 -0.47351032867723297 0 -0.41817204493196891 -0.4787016060326143 0 -0.39885015285817521 -0.47351032867723297 0 -0.41817204493196891 -0.4787016060326143 0 -0.41482637202655781 -0.46066129084723439 0 -0.43948332050027639 -0.5 0 -0.40286095545652539 -0.4883778000124358 0 -0.41817204493196891 -0.4787016060326143 0 -0.43948332050027639 -0.5 0 -0.41817204493196891 -0.4787016060326143 0 -0.43483942381830942 -0.47095861062616828 0 -0.41817204493196891 -0.4787016060326143 0 -0.43483942381830942 -0.47095861062616828 0 -0.41482637202655781 -0.46066129084723439 0 -0.43483942381830942 -0.47095861062616828 0 -0.43361905554292629 -0.44349290162707689 0 -0.41482637202655781 -0.46066129084723439 0 -0.43361905554292629 -0.44349290162707689 0 -0.40917176666593891 -0.44007216278529437 0 -0.41482637202655781 -0.46066129084723439 0 -0.39483935025982653 -0.45864285734202981 0 -0.40917176666593891 -0.44007216278529437 0 -0.41482637202655781 -0.46066129084723439 0 -0.44171914672769302 -0.25415451347903623 0 -0.45899654916787758 -0.27399962423614632 0 -0.44171914672769302 -0.25415451347903623 0 -0.45899654916787758 -0.27399962423614632 0 -0.43286821841645279 -0.27598839482715892 0 -0.44171914672769302 -0.25415451347903623 0 -0.45899654916787758 -0.27399962423614632 0 -0.46682899131119288 -0.25102815300489301 0 -0.45899654916787758 -0.27399962423614632 0 -0.46682899131119288 -0.25102815300489301 0 -0.48264419941968267 -0.26973440616221361 0 -0.46682899131119288 -0.25102815300489301 0 -0.48264419941968267 -0.26973440616221361 0 -0.48481247171057978 -0.24408474157918181 0 -0.5 -0.25354434351800498 0 -0.48264419941968267 -0.26973440616221361 0 -0.48481247171057978 -0.24408474157918181 0 -0.5 -0.25354434351800498 0 -0.5 -0.27936456702520568 0 -0.48264419941968267 -0.26973440616221361 0 -0.5 -0.27936456702520568 0 -0.48264419941968267 -0.26973440616221361 0 -0.49049390101519852 -0.29236366889268972 0 -0.45899654916787758 -0.27399962423614632 0 -0.48264419941968267 -0.26973440616221361 0 -0.47627395160806207 -0.29384473499325642 0 -0.48264419941968267 -0.26973440616221361 0 -0.47627395160806207 -0.29384473499325642 0 -0.49049390101519852 -0.29236366889268972 0 -0.5 -0.27936456702520568 0 -0.49049390101519852 -0.29236366889268972 0 -0.50000000000000122 -0.30518479053240638 0 -0.47627395160806207 -0.29384473499325642 0 -0.49355135404824668 -0.31368984575036651 0 -0.49049390101519852 -0.29236366889268972 0 -0.50000000000000122 -0.30518479053240638 0 -0.49355135404824668 -0.31368984575036651 0 -0.47627395160806207 -0.29384473499325642 0 -0.49049390101519852 -0.29236366889268972 0 -0.49355135404824668 -0.31368984575036651 0 -0.50000000000000122 -0.30518479053240638 0 -0.49355135404824668 -0.31368984575036651 0 -0.47627395160806207 -0.29384473499325642 0 -0.46841675271649902 -0.31450512446093309 0 -0.49355135404824668 -0.31368984575036651 0 -0.47627395160806207 -0.29384473499325642 0 -0.44749164464121061 -0.29750245703680928 0 -0.46841675271649902 -0.31450512446093309 0 -0.44749164464121061 -0.29750245703680928 0 -0.44926209036331338 -0.31760531820007759 0 -0.46841675271649902 -0.31450512446093309 0 -0.45899654916787758 -0.27399962423614632 0 -0.47627395160806207 -0.29384473499325642 0 -0.45899654916787758 -0.27399962423614632 0 -0.47627395160806207 -0.29384473499325642 0 -0.44749164464121061 -0.29750245703680928 0 -0.45899654916787758 -0.27399962423614632 0 -0.44749164464121061 -0.29750245703680928 0 -0.43286821841645279 -0.27598839482715892 0 -0.44749164464121061 -0.29750245703680928 0 -0.44926209036331338 -0.31760531820007759 0 -0.43290953976899282 -0.31340376749048088 0 -0.44926209036331338 -0.31760531820007759 0 -0.43545114458754358 -0.33074279413750762 0 -0.43290953976899282 -0.31340376749048088 0 -0.44926209036331338 -0.31760531820007759 0 -0.45538231245673833 -0.33559600481613888 0 -0.43545114458754358 -0.33074279413750762 0 -0.45538231245673833 -0.33559600481613888 0 -0.44241897489514309 -0.34908887970098812 0 -0.43545114458754358 -0.33074279413750762 0 -0.45538231245673833 -0.33559600481613888 0 -0.47907194166918249 -0.33278659919734332 0 -0.46403099315321389 -0.35262395708856892 0 -0.44926209036331338 -0.31760531820007759 0 -0.45538231245673833 -0.33559600481613888 0 -0.46841675271649902 -0.31450512446093309 0 -0.45538231245673833 -0.33559600481613888 0 -0.46841675271649902 -0.31450512446093309 0 -0.47907194166918249 -0.33278659919734332 0 -0.46841675271649902 -0.31450512446093309 0 -0.49355135404824668 -0.31368984575036651 0 -0.47907194166918249 -0.33278659919734332 0 -0.50000000000000122 -0.30518479053240638 0 -0.49999999999999811 -0.32109686735496867 0 -0.49355135404824668 -0.31368984575036651 0 -0.49355135404824668 -0.31368984575036651 0 -0.47907194166918249 -0.33278659919734332 0 -0.49355135404824668 -0.31368984575036651 0 -0.4910582850963825 -0.32915181720151998 0 -0.47907194166918249 -0.33278659919734332 0 -0.49999999999999811 -0.32109686735496867 0 -0.49355135404824668 -0.31368984575036651 0 -0.4910582850963825 -0.32915181720151998 0 -0.49999999999999811 -0.32109686735496867 0 -0.49355135404824668 -0.31368984575036651 0 -0.50000000000000044 -0.3347981548199741 0 -0.4910582850963825 -0.32915181720151998 0 -0.48266812976448581 -0.34338761888494679 0 -0.50000000000000044 -0.3347981548199741 0 -0.48266812976448581 -0.34338761888494679 0 -0.50000000000000044 -0.3347981548199741 0 -0.48266812976448581 -0.34338761888494679 0 -0.49173399961186193 -0.347957508560722 0 -0.49999999999999811 -0.32109686735496867 0 -0.50000000000000044 -0.3347981548199741 0 -0.4910582850963825 -0.32915181720151998 0 -0.48266812976448581 -0.34338761888494679 0 -0.47907194166918249 -0.33278659919734332 0 -0.46403099315321389 -0.35262395708856892 0 -0.47907194166918249 -0.33278659919734332 0 -0.46403099315321389 -0.35262395708856892 0 -0.4910582850963825 -0.32915181720151998 0 -0.48266812976448581 -0.34338761888494679 0 -0.47907194166918249 -0.33278659919734332 0 -0.48266812976448581 -0.34338761888494679 0 -0.48266812976448331 -0.35416137156543698 0 -0.46403099315321389 -0.35262395708856892 0 -0.48266812976448331 -0.35416137156543698 0 -0.46403099315321389 -0.35262395708856892 0 -0.48266812976448331 -0.35416137156543698 0 -0.4750306485615628 -0.35975890886518219 0 -0.46403099315321389 -0.35262395708856892 0 -0.48266812976448581 -0.34338761888494679 0 -0.46403099315321389 -0.35262395708856892 0 -0.48266812976448581 -0.34338761888494679 0 -0.48266812976448331 -0.35416137156543698 0 -0.49173399961186193 -0.347957508560722 0 -0.48266812976448331 -0.35416137156543698 0 -0.49999999999999578 -0.35634566018095459 0 -0.49173399961186193 -0.347957508560722 0 -0.50000000000000044 -0.3347981548199741 0 -0.49999999999999578 -0.35634566018095459 0 -0.49173399961186193 -0.347957508560722 0 -0.48266812976448331 -0.35416137156543698 0 -0.49999999999999578 -0.35634566018095459 0 -0.48266812976448331 -0.35416137156543698 0 -0.49999999999999578 -0.35634566018095459 0 -0.4750306485615628 -0.35975890886518219 0 -0.47221694618287913 -0.37814995947898972 0 -0.49999999999999578 -0.35634566018095459 0 -0.4750306485615628 -0.35975890886518219 0 -0.4750306485615628 -0.35975890886518219 0 -0.46163189939132371 -0.35578809806802258 0 -0.45233943568405932 -0.3746812337852139 0 -0.4750306485615628 -0.35975890886518219 0 -0.45233943568405932 -0.3746812337852139 0 -0.47221694618287913 -0.37814995947898972 0 -0.4750306485615628 -0.35975890886518219 0 -0.45233943568405932 -0.3746812337852139 0 -0.4750306485615628 -0.35975890886518219 0 -0.46403099315321389 -0.35262395708856892 0 -0.46163189939132371 -0.35578809806802258 0 -0.45538231245673833 -0.33559600481613888 0 -0.46403099315321389 -0.35262395708856892 0 -0.44241897489514309 -0.34908887970098812 0 -0.46403099315321389 -0.35262395708856892 0 -0.44241897489514309 -0.34908887970098812 0 -0.46403099315321389 -0.35262395708856892 0 -0.46163189939132371 -0.35578809806802258 0 -0.43877887423894152 -0.36513860005734078 0 -0.46403099315321389 -0.35262395708856892 0 -0.46163189939132371 -0.35578809806802258 0 -0.46403099315321389 -0.35262395708856892 0 -0.43877887423894152 -0.36513860005734078 0 -0.46403099315321389 -0.35262395708856892 0 -0.44241897489514309 -0.34908887970098812 0 -0.43877887423894152 -0.36513860005734078 0 -0.46163189939132371 -0.35578809806802258 0 -0.43877887423894152 -0.36513860005734078 0 -0.45233943568405932 -0.3746812337852139 0 -0.4135267553246692 -0.37765324302611292 0 -0.43877887423894152 -0.36513860005734078 0 -0.42425301298673468 -0.35929057003963838 0 -0.4135267553246692 -0.37765324302611292 0 -0.43877887423894152 -0.36513860005734078 0 -0.44241897489514309 -0.34908887970098812 0 -0.42024542050016622 -0.34629440675765388 0 -0.44241897489514309 -0.34908887970098812 0 -0.43877887423894152 -0.36513860005734078 0 -0.42425301298673468 -0.35929057003963838 0 -0.44241897489514309 -0.34908887970098812 0 -0.42425301298673468 -0.35929057003963838 0 -0.42024542050016622 -0.34629440675765388 0 -0.42024542050016622 -0.34629440675765388 0 -0.40629503997475319 -0.35827772065609642 0 -0.40204564029203399 -0.34139155434071933 0 -0.42425301298673468 -0.35929057003963838 0 -0.42024542050016622 -0.34629440675765388 0 -0.40629503997475319 -0.35827772065609642 0 -0.4135267553246692 -0.37765324302611292 0 -0.42425301298673468 -0.35929057003963838 0 -0.40629503997475319 -0.35827772065609642 0 -0.4135267553246692 -0.37765324302611292 0 -0.40629503997475319 -0.35827772065609642 0 -0.3910921140873343 -0.37085154459948622 0 -0.3910921140873343 -0.37085154459948622 0 -0.38646827771226289 -0.34786902154149091 0 -0.36902278224166851 -0.36294453373439789 0 -0.37664428964660751 -0.39119637113985251 0 -0.3910921140873343 -0.37085154459948622 0 -0.36902278224166851 -0.36294453373439789 0 -0.40629503997475319 -0.35827772065609642 0 -0.38646827771226289 -0.34786902154149091 0 -0.40204564029203399 -0.34139155434071933 0 -0.40629503997475319 -0.35827772065609642 0 -0.3910921140873343 -0.37085154459948622 0 -0.38646827771226289 -0.34786902154149091 0 -0.38646827771226289 -0.34786902154149091 0 -0.40204564029203399 -0.34139155434071933 0 -0.38723208749828453 -0.33035435010497899 0 -0.40204564029203399 -0.34139155434071933 0 -0.38723208749828453 -0.33035435010497899 0 -0.41136356223569692 -0.32265700123525493 0 -0.38646827771226289 -0.34786902154149091 0 -0.38723208749828453 -0.33035435010497899 0 -0.36140127483673029 -0.33469269632894322 0 -0.38723208749828453 -0.33035435010497899 0 -0.38913600481141841 -0.31474850160647788 0 -0.37297776510156422 -0.32076732557698828 0 -0.38913600481141841 -0.31474850160647788 0 -0.37172307290782658 -0.30500105152910761 0 -0.37297776510156422 -0.32076732557698828 0 -0.38913600481141841 -0.31474850160647788 0 -0.41136356223569692 -0.32265700123525493 0 -0.4032466841557355 -0.30617714178070049 0 -0.38723208749828453 -0.33035435010497899 0 -0.38913600481141841 -0.31474850160647788 0 -0.41136356223569692 -0.32265700123525493 0 -0.42024542050016622 -0.34629440675765388 0 -0.40204564029203399 -0.34139155434071933 0 -0.41136356223569692 -0.32265700123525493 0 -0.44241897489514309 -0.34908887970098812 0 -0.42024542050016622 -0.34629440675765388 0 -0.43545114458754358 -0.33074279413750762 0 -0.42024542050016622 -0.34629440675765388 0 -0.41136356223569692 -0.32265700123525493 0 -0.43545114458754358 -0.33074279413750762 0 -0.41136356223569692 -0.32265700123525493 0 -0.43545114458754358 -0.33074279413750762 0 -0.43290953976899282 -0.31340376749048088 0 -0.44749164464121061 -0.29750245703680928 0 -0.43290953976899282 -0.31340376749048088 0 -0.4209792570171994 -0.29851126684275481 0 -0.44749164464121061 -0.29750245703680928 0 -0.4209792570171994 -0.29851126684275481 0 -0.43286821841645279 -0.27598839482715892 0 -0.4209792570171994 -0.29851126684275481 0 -0.41432728048357542 -0.27690903574521519 0 -0.43286821841645279 -0.27598839482715892 0 -0.4209792570171994 -0.29851126684275481 0 -0.39943949320787842 -0.28676716965572879 0 -0.41432728048357542 -0.27690903574521519 0 -0.41136356223569692 -0.32265700123525493 0 -0.4209792570171994 -0.29851126684275481 0 -0.4032466841557355 -0.30617714178070049 0 -0.41136356223569692 -0.32265700123525493 0 -0.43290953976899282 -0.31340376749048088 0 -0.4209792570171994 -0.29851126684275481 0 -0.4209792570171994 -0.29851126684275481 0 -0.4032466841557355 -0.30617714178070049 0 -0.39943949320787842 -0.28676716965572879 0 -0.4032466841557355 -0.30617714178070049 0 -0.38778418045527979 -0.29972626251757611 0 -0.39943949320787842 -0.28676716965572879 0 -0.38913600481141841 -0.31474850160647788 0 -0.4032466841557355 -0.30617714178070049 0 -0.38778418045527979 -0.29972626251757611 0 -0.38913600481141841 -0.31474850160647788 0 -0.38778418045527979 -0.29972626251757611 0 -0.37172307290782658 -0.30500105152910761 0 -0.38778418045527979 -0.29972626251757611 0 -0.37973970708924049 -0.28546896814063449 0 -0.39943949320787842 -0.28676716965572879 0 -0.38778418045527979 -0.29972626251757611 0 -0.37973970708924049 -0.28546896814063449 0 -0.37172307290782658 -0.30500105152910761 0 -0.39943949320787842 -0.28676716965572879 0 -0.40160182677153938 -0.26672042941192281 0 -0.38841788639160318 -0.2712480099356892 0 -0.39943949320787842 -0.28676716965572879 0 -0.40160182677153938 -0.26672042941192281 0 -0.41432728048357542 -0.27690903574521519 0 -0.37973970708924049 -0.28546896814063449 0 -0.39943949320787842 -0.28676716965572879 0 -0.38841788639160318 -0.2712480099356892 0 -0.37973970708924049 -0.28546896814063449 0 -0.38841788639160318 -0.2712480099356892 0 -0.37316382666053671 -0.25968387109586161 0 -0.37973970708924049 -0.28546896814063449 0 -0.37316382666053671 -0.25968387109586161 0 -0.38100293632462362 -0.25057896254278189 0 -0.37316382666053671 -0.25968387109586161 0 -0.3756643166546676 -0.24119391028490669 0 -0.38100293632462362 -0.25057896254278189 0 -0.38814457822882109 -0.25759961137429832 0 -0.37316382666053671 -0.25968387109586161 0 -0.38841788639160318 -0.2712480099356892 0 -0.38814457822882109 -0.25759961137429832 0 -0.37316382666053671 -0.25968387109586161 0 -0.38100293632462362 -0.25057896254278189 0 -0.38814457822882109 -0.25759961137429832 0 -0.38703902375446902 -0.24383845741606119 0 -0.38814457822882109 -0.25759961137429832 0 -0.3999403531778139 -0.25255777809320151 0 -0.38703902375446902 -0.24383845741606119 0 -0.40160182677153938 -0.26672042941192281 0 -0.3999403531778139 -0.25255777809320151 0 -0.41674760700480662 -0.25655791798851102 0 -0.40160182677153938 -0.26672042941192281 0 -0.38814457822882109 -0.25759961137429832 0 -0.3999403531778139 -0.25255777809320151 0 -0.40160182677153938 -0.26672042941192281 0 -0.38841788639160318 -0.2712480099356892 0 -0.38814457822882109 -0.25759961137429832 0 -0.40160182677153938 -0.26672042941192281 0 -0.41674760700480662 -0.25655791798851102 0 -0.41432728048357542 -0.27690903574521519 0 -0.41674760700480662 -0.25655791798851102 0 -0.41432728048357542 -0.27690903574521519 0 -0.43286821841645279 -0.27598839482715892 0 -0.44171914672769302 -0.25415451347903623 0 -0.41674760700480662 -0.25655791798851102 0 -0.43286821841645279 -0.27598839482715892 0 -0.32702568788228947 -0.26319602787905277 0 -0.32398828001488078 -0.25232987534048379 0 -0.31610842544640022 -0.25968105533738128 0 -0.32398828001488078 -0.25232987534048379 0 -0.31352607005286259 -0.25036143285104001 0 -0.31610842544640022 -0.25968105533738128 0 -0.32702568788228947 -0.26319602787905277 0 -0.31610842544640022 -0.25968105533738128 0 -0.31248016883321461 -0.27130840787043808 0 -0.32021430202903362 -0.28191142345830578 0 -0.3105646220953559 -0.29004079181112169 0 -0.31248016883321461 -0.27130840787043808 0 -0.33036060179926252 -0.275772638941927 0 -0.32021430202903362 -0.28191142345830578 0 -0.31248016883321461 -0.27130840787043808 0 -0.32702568788228947 -0.26319602787905277 0 -0.33036060179926252 -0.275772638941927 0 -0.31248016883321461 -0.27130840787043808 0 -0.32702568788228947 -0.26319602787905277 0 -0.33036060179926252 -0.275772638941927 0 -0.33808476988758462 -0.26553968653190801 0 -0.33036060179926252 -0.275772638941927 0 -0.34505614110802879 -0.27410362438571922 0 -0.33818440007690698 -0.28892527605983881 0 -0.33036060179926252 -0.275772638941927 0 -0.33808476988758462 -0.26553968653190801 0 -0.34505614110802879 -0.27410362438571922 0 -0.33808476988758462 -0.26553968653190801 0 -0.33785940386562507 -0.25340916090029658 0 -0.35012201478271721 -0.26121698055254461 0 -0.32702568788228947 -0.26319602787905277 0 -0.33808476988758462 -0.26553968653190801 0 -0.33785940386562507 -0.25340916090029658 0 -0.32398828001488078 -0.25232987534048379 0 -0.33785940386562507 -0.25340916090029658 0 -0.33050674820977688 -0.24431234086603379 0 -0.32702568788228947 -0.26319602787905277 0 -0.32398828001488078 -0.25232987534048379 0 -0.33785940386562507 -0.25340916090029658 0 -0.33785940386562507 -0.25340916090029658 0 -0.35012201478271721 -0.26121698055254461 0 -0.35236755769683781 -0.2481117759650866 0 -0.35012201478271721 -0.26121698055254461 0 -0.35955994354002557 -0.25703975774410298 0 -0.3628430666301044 -0.2668427827571625 0 -0.35955994354002557 -0.25703975774410298 0 -0.36233147867638649 -0.2477992409525154 0 -0.35236755769683781 -0.2481117759650866 0 -0.35012201478271721 -0.26121698055254461 0 -0.35955994354002557 -0.25703975774410298 0 -0.35236755769683781 -0.2481117759650866 0 -0.35955994354002557 -0.25703975774410298 0 -0.37316382666053671 -0.25968387109586161 0 -0.36233147867638649 -0.2477992409525154 0 -0.35955994354002557 -0.25703975774410298 0 -0.37316382666053671 -0.25968387109586161 0 -0.3628430666301044 -0.2668427827571625 0 -0.3628430666301044 -0.2668427827571625 0 -0.35749346781124142 -0.28360980012142267 0 -0.37973970708924049 -0.28546896814063449 0 -0.37316382666053671 -0.25968387109586161 0 -0.3628430666301044 -0.2668427827571625 0 -0.37973970708924049 -0.28546896814063449 0 -0.3628430666301044 -0.2668427827571625 0 -0.35749346781124142 -0.28360980012142267 0 -0.35012201478271721 -0.26121698055254461 0 -0.3628430666301044 -0.2668427827571625 0 -0.34505614110802879 -0.27410362438571922 0 -0.3628430666301044 -0.2668427827571625 0 -0.34505614110802879 -0.27410362438571922 0 -0.35749346781124142 -0.28360980012142267 0 -0.33808476988758462 -0.26553968653190801 0 -0.35012201478271721 -0.26121698055254461 0 -0.34505614110802879 -0.27410362438571922 0 -0.35749346781124142 -0.28360980012142267 0 -0.36354166568024698 -0.29477642370848139 0 -0.35214386899237859 -0.30037681748568301 0 -0.34505614110802879 -0.27410362438571922 0 -0.35749346781124142 -0.28360980012142267 0 -0.35214386899237859 -0.30037681748568301 0 -0.34505614110802879 -0.27410362438571922 0 -0.35214386899237859 -0.30037681748568301 0 -0.33818440007690698 -0.28892527605983881 0 -0.35749346781124142 -0.28360980012142267 0 -0.35214386899237859 -0.30037681748568301 0 -0.34505614110802879 -0.27410362438571922 0 -0.35214386899237859 -0.30037681748568301 0 -0.37973970708924049 -0.28546896814063449 0 -0.35749346781124142 -0.28360980012142267 0 -0.36354166568024698 -0.29477642370848139 0 -0.37973970708924049 -0.28546896814063449 0 -0.36354166568024698 -0.29477642370848139 0 -0.37172307290782658 -0.30500105152910761 0 -0.37172307290782658 -0.30500105152910761 0 -0.35214386899237859 -0.30037681748568301 0 -0.35677257191455419 -0.31753475690731309 0 -0.36354166568024698 -0.29477642370848139 0 -0.37172307290782658 -0.30500105152910761 0 -0.35214386899237859 -0.30037681748568301 0 -0.35214386899237859 -0.30037681748568301 0 -0.33590957309656411 -0.30384944427612842 0 -0.34409726460486212 -0.32559694334130013 0 -0.35214386899237859 -0.30037681748568301 0 -0.35677257191455419 -0.31753475690731309 0 -0.35214386899237859 -0.30037681748568301 0 -0.33590957309656411 -0.30384944427612842 0 -0.33818440007690698 -0.28892527605983881 0 -0.33590957309656411 -0.30384944427612842 0 -0.32272459645753582 -0.3020231034240603 0 -0.32793141210410659 -0.31709945638820508 0 -0.33590957309656411 -0.30384944427612842 0 -0.32745181538830148 -0.29052385520973639 0 -0.32272459645753582 -0.3020231034240603 0 -0.33036060179926252 -0.275772638941927 0 -0.33818440007690698 -0.28892527605983881 0 -0.32745181538830148 -0.29052385520973639 0 -0.33590957309656411 -0.30384944427612842 0 -0.33818440007690698 -0.28892527605983881 0 -0.32745181538830148 -0.29052385520973639 0 -0.32745181538830148 -0.29052385520973639 0 -0.32272459645753582 -0.3020231034240603 0 -0.3105646220953559 -0.29004079181112169 0 -0.32745181538830148 -0.29052385520973639 0 -0.32021430202903362 -0.28191142345830578 0 -0.3105646220953559 -0.29004079181112169 0 -0.33036060179926252 -0.275772638941927 0 -0.32745181538830148 -0.29052385520973639 0 -0.32021430202903362 -0.28191142345830578 0 -0.32272459645753582 -0.3020231034240603 0 -0.31176555960335128 -0.30860196943510981 0 -0.3105646220953559 -0.29004079181112169 0 -0.32272459645753582 -0.3020231034240603 0 -0.32793141210410659 -0.31709945638820508 0 -0.31176555960335128 -0.30860196943510981 0 -0.32793141210410659 -0.31709945638820508 0 -0.30938471444588628 -0.32494651211652409 0 -0.31176555960335128 -0.30860196943510981 0 -0.32793141210410659 -0.31709945638820508 0 -0.32649136350680341 -0.33232890979204682 0 -0.30938471444588628 -0.32494651211652409 0 -0.32793141210410659 -0.31709945638820508 0 -0.31176555960335128 -0.30860196943510981 0 -0.31388923542340141 -0.34100049319485831 0 -0.32649136350680341 -0.33232890979204682 0 -0.30938471444588628 -0.32494651211652409 0 -0.31388923542340141 -0.34100049319485831 0 -0.32649136350680341 -0.33232890979204682 0 -0.32667638194466297 -0.34502285893923967 0 -0.32649136350680341 -0.33232890979204682 0 -0.33926295477141799 -0.34074891261342388 0 -0.34409726460486212 -0.32559694334130013 0 -0.32649136350680341 -0.33232890979204682 0 -0.33926295477141799 -0.34074891261342388 0 -0.32667638194466297 -0.34502285893923967 0 -0.33926295477141799 -0.34074891261342388 0 -0.34409726460486212 -0.32559694334130013 0 -0.33590957309656411 -0.30384944427612842 0 -0.32793141210410659 -0.31709945638820508 0 -0.34409726460486212 -0.32559694334130013 0 -0.32793141210410659 -0.31709945638820508 0 -0.32649136350680341 -0.33232890979204682 0 -0.34409726460486212 -0.32559694334130013 0 -0.32793141210410659 -0.31709945638820508 0 -0.34409726460486212 -0.32559694334130013 0 -0.35677257191455419 -0.31753475690731309 0 -0.36140127483673029 -0.33469269632894322 0 -0.35677257191455419 -0.31753475690731309 0 -0.34409726460486212 -0.32559694334130013 0 -0.36140127483673029 -0.33469269632894322 0 -0.35214386899237859 -0.30037681748568301 0 -0.34409726460486212 -0.32559694334130013 0 -0.35214386899237859 -0.30037681748568301 0 -0.35677257191455419 -0.31753475690731309 0 -0.34409726460486212 -0.32559694334130013 0 -0.37172307290782658 -0.30500105152910761 0 -0.35677257191455419 -0.31753475690731309 0 -0.37297776510156422 -0.32076732557698828 0 -0.35677257191455419 -0.31753475690731309 0 -0.37297776510156422 -0.32076732557698828 0 -0.36140127483673029 -0.33469269632894322 0 -0.38646827771226289 -0.34786902154149091 0 -0.36140127483673029 -0.33469269632894322 0 -0.38723208749828453 -0.33035435010497899 0 -0.37297776510156422 -0.32076732557698828 0 -0.36140127483673029 -0.33469269632894322 0 -0.34409726460486212 -0.32559694334130013 0 -0.36140127483673029 -0.33469269632894322 0 -0.33926295477141799 -0.34074891261342388 0 -0.36140127483673029 -0.33469269632894322 0 -0.35108552649587921 -0.35313179738813277 0 -0.33926295477141799 -0.34074891261342388 0 -0.34409726460486212 -0.32559694334130013 0 -0.36140127483673029 -0.33469269632894322 0 -0.38646827771226289 -0.34786902154149091 0 -0.36140127483673029 -0.33469269632894322 0 -0.36902278224166851 -0.36294453373439789 0 -0.36140127483673029 -0.33469269632894322 0 -0.35108552649587921 -0.35313179738813277 0 -0.36902278224166851 -0.36294453373439789 0 -0.36140127483673029 -0.33469269632894322 0 -0.36902278224166851 -0.36294453373439789 0 -0.35108552649587921 -0.35313179738813277 0 -0.36902278224166851 -0.36294453373439789 0 -0.3455164314731487 -0.3707883653923234 0 -0.3455164314731487 -0.3707883653923234 0 -0.33442864493797231 -0.3559008818855473 0 -0.32688977381803058 -0.37018208547104359 0 -0.35108552649587921 -0.35313179738813277 0 -0.3455164314731487 -0.3707883653923234 0 -0.33442864493797231 -0.3559008818855473 0 -0.33926295477141799 -0.34074891261342388 0 -0.35108552649587921 -0.35313179738813277 0 -0.33442864493797231 -0.3559008818855473 0 -0.33926295477141799 -0.34074891261342388 0 -0.33442864493797231 -0.3559008818855473 0 -0.33926295477141799 -0.34074891261342388 0 -0.33442864493797231 -0.3559008818855473 0 -0.32667638194466297 -0.34502285893923967 0 -0.33442864493797231 -0.3559008818855473 0 -0.32667638194466297 -0.34502285893923967 0 -0.31930971108372003 -0.35513509721032238 0 -0.31388923542340141 -0.34100049319485831 0 -0.32667638194466297 -0.34502285893923967 0 -0.31930971108372003 -0.35513509721032238 0 -0.32688977381803058 -0.37018208547104359 0 -0.31040525594364388 -0.36740942470759319 0 -0.31592849657657712 -0.38215615333539432 0 -0.31930971108372003 -0.35513509721032238 0 -0.32688977381803058 -0.37018208547104359 0 -0.31040525594364388 -0.36740942470759319 0 -0.33442864493797231 -0.3559008818855473 0 -0.31930971108372003 -0.35513509721032238 0 -0.32688977381803058 -0.37018208547104359 0 -0.31040525594364388 -0.36740942470759319 0 -0.30392930741822588 -0.35253776991133617 0 -0.29329781028295682 -0.36399006337634232 0 -0.31040525594364388 -0.36740942470759319 0 -0.29329781028295682 -0.36399006337634232 0 -0.29931463517772072 -0.3787126702367723 0 -0.31930971108372003 -0.35513509721032238 0 -0.31040525594364388 -0.36740942470759319 0 -0.30392930741822588 -0.35253776991133617 0 -0.31388923542340141 -0.34100049319485831 0 -0.31930971108372003 -0.35513509721032238 0 -0.30392930741822588 -0.35253776991133617 0 -0.31388923542340141 -0.34100049319485831 0 -0.30392930741822588 -0.35253776991133617 0 -0.29865400739376002 -0.33808167723819299 0 -0.30392930741822588 -0.35253776991133617 0 -0.28849446468521789 -0.35039526863465231 0 -0.29865400739376002 -0.33808167723819299 0 -0.30392930741822588 -0.35253776991133617 0 -0.28849446468521789 -0.35039526863465231 0 -0.29329781028295682 -0.36399006337634232 0 -0.28849446468521789 -0.35039526863465231 0 -0.29329781028295682 -0.36399006337634232 0 -0.27915206356962391 -0.36263245586594128 0 -0.29329781028295682 -0.36399006337634232 0 -0.29931463517772072 -0.3787126702367723 0 -0.28122506305057432 -0.37677672309087479 0 -0.29329781028295682 -0.36399006337634232 0 -0.27915206356962391 -0.36263245586594128 0 -0.28122506305057432 -0.37677672309087479 0 -0.27915206356962391 -0.36263245586594128 0 -0.26423990634011429 -0.37008717358033638 0 -0.28122506305057432 -0.37677672309087479 0 -0.27915206356962391 -0.36263245586594128 0 -0.26423990634011429 -0.37008717358033638 0 -0.27154720677328881 -0.34998988232699679 0 -0.26423990634011429 -0.37008717358033638 0 -0.25356398932983287 -0.35281739151350128 0 -0.24190245769781621 -0.37180080852581121 0 -0.25356398932983287 -0.35281739151350128 0 -0.27154720677328881 -0.34998988232699679 0 -0.26242969499215502 -0.34293184120876041 0 -0.25356398932983287 -0.35281739151350128 0 -0.26242969499215502 -0.34293184120876041 0 -0.2542411799230469 -0.33588014060137672 0 -0.26423990634011429 -0.37008717358033638 0 -0.25356398932983287 -0.35281739151350128 0 -0.27154720677328881 -0.34998988232699679 0 -0.28849446468521789 -0.35039526863465231 0 -0.27915206356962391 -0.36263245586594128 0 -0.27154720677328881 -0.34998988232699679 0 -0.28849446468521789 -0.35039526863465231 0 -0.27154720677328881 -0.34998988232699679 0 -0.28361708290950188 -0.33523683642425101 0 -0.27154720677328881 -0.34998988232699679 0 -0.26856290724685722 -0.33228045366193909 0 -0.26242969499215502 -0.34293184120876041 0 -0.27154720677328881 -0.34998988232699679 0 -0.26856290724685722 -0.33228045366193909 0 -0.28361708290950188 -0.33523683642425101 0 -0.26856290724685722 -0.33228045366193909 0 -0.27745551396385432 -0.32029936858514091 0 -0.28361708290950188 -0.33523683642425101 0 -0.26856290724685722 -0.33228045366193909 0 -0.26242969499215502 -0.34293184120876041 0 -0.2542411799230469 -0.33588014060137672 0 -0.26856290724685722 -0.33228045366193909 0 -0.2542411799230469 -0.33588014060137672 0 -0.25967865116451072 -0.32082587120965822 0 -0.2542411799230469 -0.33588014060137672 0 -0.25967865116451072 -0.32082587120965822 0 -0.24473123317309911 -0.32890389190738051 0 -0.25967865116451072 -0.32082587120965822 0 -0.26865073799373268 -0.30793511178162458 0 -0.2442836160094537 -0.31771734852563338 0 -0.26865073799373268 -0.30793511178162458 0 -0.2442836160094537 -0.31771734852563338 0 -0.26856290724685722 -0.33228045366193909 0 -0.25967865116451072 -0.32082587120965822 0 -0.26858695259223858 -0.32033520130959059 0 -0.27745551396385432 -0.32029936858514091 0 -0.28626453567313082 -0.31273311619392108 0 -0.26865073799373268 -0.30793511178162458 0 -0.25967865116451072 -0.32082587120965822 0 -0.26858695259223858 -0.32033520130959059 0 -0.26865073799373268 -0.30793511178162458 0 -0.26858695259223858 -0.32033520130959059 0 -0.27745551396385432 -0.32029936858514091 0 -0.26865073799373268 -0.30793511178162458 0 -0.26856290724685722 -0.33228045366193909 0 -0.26858695259223858 -0.32033520130959059 0 -0.27745551396385432 -0.32029936858514091 0 -0.27745551396385432 -0.32029936858514091 0 -0.28626453567313082 -0.31273311619392108 0 -0.29223901972875299 -0.32374129878294289 0 -0.28626453567313082 -0.31273311619392108 0 -0.29223901972875299 -0.32374129878294289 0 -0.29853433788582667 -0.31363515431322281 0 -0.27745551396385432 -0.32029936858514091 0 -0.29223901972875299 -0.32374129878294289 0 -0.28361708290950188 -0.33523683642425101 0 -0.28849446468521789 -0.35039526863465231 0 -0.28361708290950188 -0.33523683642425101 0 -0.29865400739376002 -0.33808167723819299 0 -0.29223901972875299 -0.32374129878294289 0 -0.28361708290950188 -0.33523683642425101 0 -0.29865400739376002 -0.33808167723819299 0 -0.31388923542340141 -0.34100049319485831 0 -0.29865400739376002 -0.33808167723819299 0 -0.30938471444588628 -0.32494651211652409 0 -0.29223901972875299 -0.32374129878294289 0 -0.29865400739376002 -0.33808167723819299 0 -0.30938471444588628 -0.32494651211652409 0 -0.29223901972875299 -0.32374129878294289 0 -0.30938471444588628 -0.32494651211652409 0 -0.29853433788582667 -0.31363515431322281 0 -0.30938471444588628 -0.32494651211652409 0 -0.29853433788582667 -0.31363515431322281 0 -0.31176555960335128 -0.30860196943510981 0 -0.29853433788582667 -0.31363515431322281 0 -0.31176555960335128 -0.30860196943510981 0 -0.29301785997801177 -0.29815287503761578 0 -0.31176555960335128 -0.30860196943510981 0 -0.3105646220953559 -0.29004079181112169 0 -0.29301785997801177 -0.29815287503761578 0 -0.3105646220953559 -0.29004079181112169 0 -0.29301785997801177 -0.29815287503761578 0 -0.29358508250495718 -0.28034970912273788 0 -0.29301785997801177 -0.29815287503761578 0 -0.27563538659937459 -0.29009373104912761 0 -0.29358508250495718 -0.28034970912273788 0 -0.28626453567313082 -0.31273311619392108 0 -0.29301785997801177 -0.29815287503761578 0 -0.26865073799373268 -0.30793511178162458 0 -0.28626453567313082 -0.31273311619392108 0 -0.29853433788582667 -0.31363515431322281 0 -0.29301785997801177 -0.29815287503761578 0 -0.29301785997801177 -0.29815287503761578 0 -0.26865073799373268 -0.30793511178162458 0 -0.26865073799373268 -0.30793511178162458 0 -0.27563538659937459 -0.29009373104912761 0 -0.26593292328389928 -0.2965832396898177 0 -0.29301785997801177 -0.29815287503761578 0 -0.26865073799373268 -0.30793511178162458 0 -0.27563538659937459 -0.29009373104912761 0 -0.26865073799373268 -0.30793511178162458 0 -0.25798462174260928 -0.30513169097613058 0 -0.2442836160094537 -0.31771734852563338 0 -0.26865073799373268 -0.30793511178162458 0 -0.25798462174260928 -0.30513169097613058 0 -0.26593292328389928 -0.2965832396898177 0 -0.25798462174260928 -0.30513169097613058 0 -0.2484058214503109 -0.29293501674903999 0 -0.2445979568743985 -0.30292672892464573 0 -0.25798462174260928 -0.30513169097613058 0 -0.26593292328389928 -0.2965832396898177 0 -0.25880019644146801 -0.28094624205305069 0 -0.25798462174260928 -0.30513169097613058 0 -0.25880019644146801 -0.28094624205305069 0 -0.2484058214503109 -0.29293501674903999 0 -0.25798462174260928 -0.30513169097613058 0 -0.25880019644146801 -0.28094624205305069 0 -0.27563538659937459 -0.29009373104912761 0 -0.26593292328389928 -0.2965832396898177 0 -0.25880019644146801 -0.28094624205305069 0 -0.27563538659937459 -0.29009373104912761 0 -0.27502744922789513 -0.26795188421010918 0 -0.25880019644146801 -0.28094624205305069 0 -0.25880019644146801 -0.28094624205305069 0 -0.25961577114032658 -0.2567607931299708 0 -0.25880019644146801 -0.28094624205305069 0 -0.25146340277487977 -0.26507489417853108 0 -0.23985923772846071 -0.26606577945759913 0 -0.27502744922789513 -0.26795188421010918 0 -0.25880019644146801 -0.28094624205305069 0 -0.25961577114032658 -0.2567607931299708 0 -0.25880019644146801 -0.28094624205305069 0 -0.25146340277487977 -0.26507489417853108 0 -0.25961577114032658 -0.2567607931299708 0 -0.25961577114032658 -0.2567607931299708 0 -0.24757840578926399 -0.25652676207350378 0 -0.24966206634667409 -0.24400955986671949 0 -0.25146340277487977 -0.26507489417853108 0 -0.25961577114032658 -0.2567607931299708 0 -0.24757840578926399 -0.25652676207350378 0 -0.27502744922789513 -0.26795188421010918 0 -0.25961577114032658 -0.2567607931299708 0 -0.26772939753353958 -0.25026361420850018 0 -0.27502744922789513 -0.26795188421010918 0 -0.26772939753353958 -0.25026361420850018 0 -0.27502744922789513 -0.26795188421010918 0 -0.26772939753353958 -0.25026361420850018 0 -0.28220785034157359 -0.25446673289743471 0 -0.26772939753353958 -0.25026361420850018 0 -0.28220785034157359 -0.25446673289743471 0 -0.27745322421201168 -0.24544522856295259 0 -0.28220785034157359 -0.25446673289743471 0 -0.29294132617956792 -0.25294672078684138 0 -0.28757158230071878 -0.2433662660545364 0 -0.27502744922789513 -0.26795188421010918 0 -0.28220785034157359 -0.25446673289743471 0 -0.29327349000075842 -0.26356996834656782 0 -0.28220785034157359 -0.25446673289743471 0 -0.29294132617956792 -0.25294672078684138 0 -0.29327349000075842 -0.26356996834656782 0 -0.27502744922789513 -0.26795188421010918 0 -0.29327349000075842 -0.26356996834656782 0 -0.29358508250495718 -0.28034970912273788 0 -0.27563538659937459 -0.29009373104912761 0 -0.27502744922789513 -0.26795188421010918 0 -0.29358508250495718 -0.28034970912273788 0 -0.29327349000075842 -0.26356996834656782 0 -0.29358508250495718 -0.28034970912273788 0 -0.31248016883321461 -0.27130840787043808 0 -0.3105646220953559 -0.29004079181112169 0 -0.29358508250495718 -0.28034970912273788 0 -0.31248016883321461 -0.27130840787043808 0 -0.29327349000075842 -0.26356996834656782 0 -0.31248016883321461 -0.27130840787043808 0 -0.30474039183049878 -0.25544372680981631 0 -0.31610842544640022 -0.25968105533738128 0 -0.31248016883321461 -0.27130840787043808 0 -0.30474039183049878 -0.25544372680981631 0 -0.31352607005286259 -0.25036143285104001 0 -0.31610842544640022 -0.25968105533738128 0 -0.30474039183049878 -0.25544372680981631 0 -0.29294132617956792 -0.25294672078684138 0 -0.29327349000075842 -0.26356996834656782 0 -0.30474039183049878 -0.25544372680981631 0 -0.29294132617956792 -0.25294672078684138 0 -0.30474039183049878 -0.25544372680981631 0 -0.2983230382578394 -0.2445925140318079 0 -0.32814860380010541 -0.44655711221797978 0 -0.32536213699949063 -0.47113449991613698 0 -0.34738422675671082 -0.46275599195757838 0 -0.32536213699949063 -0.47113449991613698 0 -0.34738422675671082 -0.46275599195757838 0 -0.32814860380010541 -0.44655711221797978 0 -0.34738422675671082 -0.46275599195757838 0 -0.35331864897312371 -0.44085807759581558 0 -0.32814860380010541 -0.44655711221797978 0 -0.35331864897312371 -0.44085807759581558 0 -0.33817201027559413 -0.42789178668400007 0 -0.32814860380010541 -0.44655711221797978 0 -0.31939433728099748 -0.43254904288372292 0 -0.30690798573548439 -0.45274632167467382 0 -0.32536213699949063 -0.47113449991613698 0 -0.30690798573548439 -0.45274632167467382 0 -0.30967252450826682 -0.47710375826416668 0 -0.32814860380010541 -0.44655711221797978 0 -0.32536213699949063 -0.47113449991613698 0 -0.32814860380010541 -0.44655711221797978 0 -0.32536213699949063 -0.47113449991613698 0 -0.30690798573548439 -0.45274632167467382 0 -0.32536213699949063 -0.47113449991613698 0 -0.30896673211881848 -0.49112253212614287 0 -0.30967252450826682 -0.47710375826416668 0 -0.32536213699949063 -0.47113449991613698 0 -0.30967252450826682 -0.47710375826416668 0 -0.32536213699949063 -0.47113449991613698 0 -0.32208950450271678 -0.50000000000000289 0 -0.30896673211881848 -0.49112253212614287 0 -0.32536213699949063 -0.47113449991613698 0 -0.32208950450271678 -0.50000000000000289 0 -0.32208950450271678 -0.50000000000000289 0 -0.34250520226640008 -0.5 0 -0.33846915908159891 -0.48330121719407432 0 -0.32536213699949063 -0.47113449991613698 0 -0.32208950450271678 -0.50000000000000289 0 -0.33846915908159891 -0.48330121719407432 0 -0.32536213699949063 -0.47113449991613698 0 -0.33846915908159891 -0.48330121719407432 0 -0.34738422675671082 -0.46275599195757838 0 -0.33846915908159891 -0.48330121719407432 0 -0.35500472488267498 -0.48261559409665289 0 -0.34738422675671082 -0.46275599195757838 0 -0.35500472488267498 -0.48261559409665289 0 -0.36260501704148929 -0.46960893386920249 0 -0.34738422675671082 -0.46275599195757838 0 -0.34250520226640008 -0.5 0 -0.33846915908159891 -0.48330121719407432 0 -0.35500472488267498 -0.48261559409665289 0 -0.34250520226640008 -0.5 0 -0.35500472488267498 -0.48261559409665289 0 -0.36292090003008348 -0.49999999999999889 0 -0.37888012514495523 -0.47932142867101452 0 -0.36292090003008348 -0.49999999999999889 0 -0.37888012514495523 -0.47932142867101452 0 -0.35500472488267498 -0.48261559409665289 0 -0.36292090003008348 -0.49999999999999889 0 -0.37888012514495523 -0.47932142867101452 0 -0.35500472488267498 -0.48261559409665289 0 -0.36260501704148929 -0.46960893386920249 0 -0.37888012514495523 -0.47932142867101452 0 -0.36260501704148929 -0.46960893386920249 0 -0.36940631651393169 -0.45437748399902161 0 -0.36260501704148929 -0.46960893386920249 0 -0.36940631651393169 -0.45437748399902161 0 -0.34738422675671082 -0.46275599195757838 0 -0.36940631651393169 -0.45437748399902161 0 -0.34738422675671082 -0.46275599195757838 0 -0.36940631651393169 -0.45437748399902161 0 -0.34738422675671082 -0.46275599195757838 0 -0.35331864897312371 -0.44085807759581558 0 -0.36940631651393169 -0.45437748399902161 0 -0.37498697932785813 -0.43665479546504382 0 -0.36469301056325021 -0.43312282805673352 0 -0.36940631651393169 -0.45437748399902161 0 -0.35331864897312371 -0.44085807759581558 0 -0.36469301056325021 -0.43312282805673352 0 -0.37498697932785813 -0.43665479546504382 0 -0.36469301056325021 -0.43312282805673352 0 -0.37289093194205702 -0.42600722256956858 0 -0.36469301056325021 -0.43312282805673352 0 -0.37289093194205702 -0.42600722256956858 0 -0.35871435563278059 -0.42318369786652799 0 -0.35970246981538151 -0.40674575530762758 0 -0.37289078110535862 -0.41436197883334552 0 -0.35871435563278059 -0.42318369786652799 0 -0.37289093194205702 -0.42600722256956858 0 -0.37289078110535862 -0.41436197883334552 0 -0.35871435563278059 -0.42318369786652799 0 -0.37674159639830712 -0.4194098326634994 0 -0.37289093194205702 -0.42600722256956858 0 -0.37289078110535862 -0.41436197883334552 0 -0.34574199115368531 -0.41128568470073562 0 -0.35871435563278059 -0.42318369786652799 0 -0.33817201027559413 -0.42789178668400007 0 -0.35970246981538151 -0.40674575530762758 0 -0.34574199115368531 -0.41128568470073562 0 -0.35871435563278059 -0.42318369786652799 0 -0.35331864897312371 -0.44085807759581558 0 -0.35871435563278059 -0.42318369786652799 0 -0.33817201027559413 -0.42789178668400007 0 -0.35331864897312371 -0.44085807759581558 0 -0.36469301056325021 -0.43312282805673352 0 -0.35871435563278059 -0.42318369786652799 0 -0.37664428964660751 -0.39119637113985251 0 -0.36902278224166851 -0.36294453373439789 0 -0.37664428964660751 -0.39119637113985251 0 -0.36902278224166851 -0.36294453373439789 0 -0.35498469877473182 -0.39130816240292338 0 -0.37664428964660751 -0.39119637113985251 0 -0.35970246981538151 -0.40674575530762758 0 -0.35498469877473182 -0.39130816240292338 0 -0.37664428964660751 -0.39119637113985251 0 -0.35970246981538151 -0.40674575530762758 0 -0.37289078110535862 -0.41436197883334552 0 -0.35970246981538151 -0.40674575530762758 0 -0.34574199115368531 -0.41128568470073562 0 -0.35498469877473182 -0.39130816240292338 0 -0.34574199115368531 -0.41128568470073562 0 -0.35498469877473182 -0.39130816240292338 0 -0.33575010289312163 -0.3897025902950807 0 -0.3455164314731487 -0.3707883653923234 0 -0.35498469877473182 -0.39130816240292338 0 -0.33575010289312163 -0.3897025902950807 0 -0.36902278224166851 -0.36294453373439789 0 -0.3455164314731487 -0.3707883653923234 0 -0.35498469877473182 -0.39130816240292338 0 -0.3455164314731487 -0.3707883653923234 0 -0.32688977381803058 -0.37018208547104359 0 -0.33575010289312163 -0.3897025902950807 0 -0.34574199115368531 -0.41128568470073562 0 -0.33575010289312163 -0.3897025902950807 0 -0.32068223758707942 -0.40962993373340739 0 -0.31592849657657712 -0.38215615333539432 0 -0.32068223758707942 -0.40962993373340739 0 -0.30376817377309501 -0.39536815281994708 0 -0.33575010289312163 -0.3897025902950807 0 -0.31592849657657712 -0.38215615333539432 0 -0.32068223758707942 -0.40962993373340739 0 -0.32688977381803058 -0.37018208547104359 0 -0.33575010289312163 -0.3897025902950807 0 -0.31592849657657712 -0.38215615333539432 0 -0.32814860380010541 -0.44655711221797978 0 -0.33817201027559413 -0.42789178668400007 0 -0.31939433728099748 -0.43254904288372292 0 -0.34574199115368531 -0.41128568470073562 0 -0.33817201027559413 -0.42789178668400007 0 -0.32068223758707942 -0.40962993373340739 0 -0.32068223758707942 -0.40962993373340739 0 -0.31939433728099748 -0.43254904288372292 0 -0.30306084900672442 -0.42592006010855371 0 -0.33817201027559413 -0.42789178668400007 0 -0.32068223758707942 -0.40962993373340739 0 -0.31939433728099748 -0.43254904288372292 0 -0.31939433728099748 -0.43254904288372292 0 -0.30306084900672442 -0.42592006010855371 0 -0.30690798573548439 -0.45274632167467382 0 -0.32068223758707942 -0.40962993373340739 0 -0.30306084900672442 -0.42592006010855371 0 -0.29932458003036899 -0.40955694507569801 0 -0.30306084900672442 -0.42592006010855371 0 -0.29932458003036899 -0.40955694507569801 0 -0.28374437551606918 -0.41977403112151263 0 -0.29932458003036899 -0.40955694507569801 0 -0.28374437551606918 -0.41977403112151263 0 -0.28536726426887699 -0.39709254759506929 0 -0.28374437551606918 -0.41977403112151263 0 -0.27236356336683498 -0.43654832500377699 0 -0.29118913797384882 -0.44127650607302549 0 -0.30306084900672442 -0.42592006010855371 0 -0.28374437551606918 -0.41977403112151263 0 -0.29118913797384882 -0.44127650607302549 0 -0.31040525594364388 -0.36740942470759319 0 -0.31592849657657712 -0.38215615333539432 0 -0.29931463517772072 -0.3787126702367723 0 -0.31592849657657712 -0.38215615333539432 0 -0.29931463517772072 -0.3787126702367723 0 -0.30376817377309501 -0.39536815281994708 0 -0.32068223758707942 -0.40962993373340739 0 -0.29932458003036899 -0.40955694507569801 0 -0.30376817377309501 -0.39536815281994708 0 -0.29932458003036899 -0.40955694507569801 0 -0.30376817377309501 -0.39536815281994708 0 -0.28536726426887699 -0.39709254759506929 0 -0.29931463517772072 -0.3787126702367723 0 -0.28536726426887699 -0.39709254759506929 0 -0.28122506305057432 -0.37677672309087479 0 -0.29931463517772072 -0.3787126702367723 0 -0.30376817377309501 -0.39536815281994708 0 -0.28536726426887699 -0.39709254759506929 0 -0.26423990634011429 -0.37008717358033638 0 -0.26862606748358459 -0.38945321137224098 0 -0.28122506305057432 -0.37677672309087479 0 -0.28536726426887699 -0.39709254759506929 0 -0.26862606748358459 -0.38945321137224098 0 -0.28122506305057432 -0.37677672309087479 0 -0.28536726426887699 -0.39709254759506929 0 -0.26862606748358459 -0.38945321137224098 0 -0.26155388904173088 -0.41328597919956722 0 -0.26862606748358459 -0.38945321137224098 0 -0.25074421471662678 -0.39002363339535739 0 -0.26155388904173088 -0.41328597919956722 0 -0.25074421471662678 -0.39002363339535739 0 -0.26155388904173088 -0.41328597919956722 0 -0.26423990634011429 -0.37008717358033638 0 -0.26862606748358459 -0.38945321137224098 0 -0.25074421471662678 -0.39002363339535739 0 -0.26423990634011429 -0.37008717358033638 0 -0.25074421471662678 -0.39002363339535739 0 -0.24190245769781621 -0.37180080852581121 0 -0.27236356336683498 -0.43654832500377699 0 -0.26155388904173088 -0.41328597919956722 0 -0.28374437551606918 -0.41977403112151263 0 -0.27236356336683498 -0.43654832500377699 0 -0.26155388904173088 -0.41328597919956722 0 -0.28374437551606918 -0.41977403112151263 0 -0.28536726426887699 -0.39709254759506929 0 -0.26155388904173088 -0.41328597919956722 0 -0.27236356336683498 -0.43654832500377699 0 -0.26155388904173088 -0.41328597919956722 0 -0.24411245222672981 -0.44021398672708412 0 -0.27236356336683498 -0.43654832500377699 0 -0.26239787146121513 -0.45755467307489323 0 -0.24411245222672981 -0.44021398672708412 0 -0.26239787146121513 -0.45755467307489323 0 -0.27664641428734099 -0.47350233349751619 0 -0.25715997455084122 -0.47182342759753321 0 -0.26239787146121513 -0.45755467307489323 0 -0.25715997455084122 -0.47182342759753321 0 -0.2409315866436044 -0.46342929481546219 0 -0.26239787146121513 -0.45755467307489323 0 -0.28317323769193897 -0.45981067080798682 0 -0.27664641428734099 -0.47350233349751619 0 -0.27236356336683498 -0.43654832500377699 0 -0.26239787146121513 -0.45755467307489323 0 -0.28317323769193897 -0.45981067080798682 0 -0.27236356336683498 -0.43654832500377699 0 -0.28317323769193897 -0.45981067080798682 0 -0.27236356336683498 -0.43654832500377699 0 -0.29118913797384882 -0.44127650607302549 0 -0.28317323769193897 -0.45981067080798682 0 -0.29118913797384882 -0.44127650607302549 0 -0.28317323769193897 -0.45981067080798682 0 -0.30690798573548439 -0.45274632167467382 0 -0.28317323769193897 -0.45981067080798682 0 -0.29803632838505573 -0.46799071641719819 0 -0.30690798573548439 -0.45274632167467382 0 -0.29803632838505573 -0.46799071641719819 0 -0.30690798573548439 -0.45274632167467382 0 -0.30967252450826682 -0.47710375826416668 0 -0.30306084900672442 -0.42592006010855371 0 -0.29118913797384882 -0.44127650607302549 0 -0.30690798573548439 -0.45274632167467382 0 -0.32208950450271678 -0.50000000000000289 0 -0.29809407247920511 -0.5 0 -0.30896673211881848 -0.49112253212614287 0 -0.29809407247920511 -0.5 0 -0.30896673211881848 -0.49112253212614287 0 -0.29565480718066173 -0.48667092366053011 0 -0.30896673211881848 -0.49112253212614287 0 -0.30967252450826682 -0.47710375826416668 0 -0.29565480718066173 -0.48667092366053011 0 -0.30967252450826682 -0.47710375826416668 0 -0.29398291201704302 -0.48307301661219659 0 -0.29565480718066173 -0.48667092366053011 0 -0.29803632838505573 -0.46799071641719819 0 -0.30967252450826682 -0.47710375826416668 0 -0.29398291201704302 -0.48307301661219659 0 -0.30967252450826682 -0.47710375826416668 0 -0.29398291201704302 -0.48307301661219659 0 -0.29398291201704302 -0.48307301661219659 0 -0.28325663501193948 -0.48715392801723312 0 -0.27664641428734099 -0.47350233349751619 0 -0.28317323769193897 -0.45981067080798682 0 -0.29803632838505573 -0.46799071641719819 0 -0.29398291201704302 -0.48307301661219659 0 -0.28317323769193897 -0.45981067080798682 0 -0.29398291201704302 -0.48307301661219659 0 -0.27664641428734099 -0.47350233349751619 0 -0.28317323769193897 -0.45981067080798682 0 -0.29398291201704302 -0.48307301661219659 0 -0.29398291201704302 -0.48307301661219659 0 -0.28325663501193948 -0.48715392801723312 0 -0.29809407247920511 -0.5 0 -0.28325663501193948 -0.48715392801723312 0 -0.27409864045569338 -0.5 0 -0.29809407247920511 -0.5 0 -0.28325663501193948 -0.48715392801723312 0 -0.29565480718066173 -0.48667092366053011 0 -0.29398291201704302 -0.48307301661219659 0 -0.28325663501193948 -0.48715392801723312 0 -0.29565480718066173 -0.48667092366053011 0 -0.29398291201704302 -0.48307301661219659 0 -0.29565480718066173 -0.48667092366053011 0 -0.28325663501193948 -0.48715392801723312 0 -0.27409864045569338 -0.5 0 -0.26377912077346488 -0.48589195621452408 0 -0.27664641428734099 -0.47350233349751619 0 -0.25715997455084122 -0.47182342759753321 0 -0.26377912077346488 -0.48589195621452408 0 -0.28325663501193948 -0.48715392801723312 0 -0.27664641428734099 -0.47350233349751619 0 -0.26377912077346488 -0.48589195621452408 0 -0.25715997455084122 -0.47182342759753321 0 -0.26377912077346488 -0.48589195621452408 0 -0.24290750200282149 -0.48304463099722111 0 -0.27409864045569338 -0.5 0 -0.26377912077346488 -0.48589195621452408 0 -0.25010320843218181 -0.5 0 -0.26377912077346488 -0.48589195621452408 0 -0.25010320843218181 -0.5 0 -0.24290750200282149 -0.48304463099722111 0 -0.25010320843218181 -0.5 0 -0.24290750200282149 -0.48304463099722111 0 -0.22610777640867019 -0.49999999999999911 0 -0.24290750200282149 -0.48304463099722111 0 -0.2229577054482367 -0.4775373061294661 0 -0.2409315866436044 -0.46342929481546219 0 -0.25715997455084122 -0.47182342759753321 0 -0.24290750200282149 -0.48304463099722111 0 -0.2409315866436044 -0.46342929481546219 0 -0.24290750200282149 -0.48304463099722111 0 -0.2229577054482367 -0.4775373061294661 0 -0.22610777640867019 -0.49999999999999911 0 -0.2229577054482367 -0.4775373061294661 0 -0.22610777640867019 -0.49999999999999911 0 -0.24411245222672981 -0.44021398672708412 0 -0.2409315866436044 -0.46342929481546219 0 -0.21980763448780299 -0.45507461225893309 0 -0.26239787146121513 -0.45755467307489323 0 -0.24411245222672981 -0.44021398672708412 0 -0.2409315866436044 -0.46342929481546219 0 -0.2229577054482367 -0.4775373061294661 0 -0.21980763448780299 -0.45507461225893309 0 -0.2229577054482367 -0.4775373061294661 0 -0.2409315866436044 -0.46342929481546219 0 -0.21980763448780299 -0.45507461225893309 0 -0.24411245222672981 -0.44021398672708412 0 -0.21980763448780299 -0.45507461225893309 0 -0.2166575635273694 -0.43261191838840007 0 -0.21980763448780299 -0.45507461225893309 0 -0.2166575635273694 -0.43261191838840007 0 -0.21980763448780299 -0.45507461225893309 0 -0.20068356461422179 -0.44541947860785291 0 -0.2166575635273694 -0.43261191838840007 0 -0.2229577054482367 -0.4775373061294661 0 -0.21980763448780299 -0.45507461225893309 0 -0.1974822178269347 -0.47326947554065729 0 -0.21980763448780299 -0.45507461225893309 0 -0.20068356461422179 -0.44541947860785291 0 -0.1974822178269347 -0.47326947554065729 0 -0.20068356461422179 -0.44541947860785291 0 -0.1974822178269347 -0.47326947554065729 0 -0.18514287977510099 -0.45722207374860818 0 -0.20068356461422179 -0.44541947860785291 0 -0.18514287977510099 -0.45722207374860818 0 -0.18575869516187921 -0.43511169199507782 0 -0.2229577054482367 -0.4775373061294661 0 -0.22610777640867019 -0.49999999999999911 0 -0.2033846631223574 -0.5 0 -0.2229577054482367 -0.4775373061294661 0 -0.2033846631223574 -0.5 0 -0.1974822178269347 -0.47326947554065729 0 -0.2033846631223574 -0.5 0 -0.1974822178269347 -0.47326947554065729 0 -0.18066154983604449 -0.5 0 -0.18066154983604449 -0.5 0 -0.15793843654973169 -0.50000000000000067 0 -0.16929999319288691 -0.47785249484471798 0 -0.15793843654973169 -0.50000000000000067 0 -0.16929999319288691 -0.47785249484471798 0 -0.14580427977266749 -0.47040721093746568 0 -0.1974822178269347 -0.47326947554065729 0 -0.16929999319288691 -0.47785249484471798 0 -0.18514287977510099 -0.45722207374860818 0 -0.1974822178269347 -0.47326947554065729 0 -0.18066154983604449 -0.5 0 -0.16929999319288691 -0.47785249484471798 0 -0.18514287977510099 -0.45722207374860818 0 -0.15927132508066219 -0.45507042360758582 0 -0.18514287977510099 -0.45722207374860818 0 -0.1710412086422255 -0.44248833125615122 0 -0.18575869516187921 -0.43511169199507782 0 -0.1710412086422255 -0.44248833125615122 0 -0.15927132508066219 -0.45507042360758582 0 -0.16150275176297799 -0.4281406120173481 0 -0.18514287977510099 -0.45722207374860818 0 -0.1710412086422255 -0.44248833125615122 0 -0.15927132508066219 -0.45507042360758582 0 -0.16929999319288691 -0.47785249484471798 0 -0.18514287977510099 -0.45722207374860818 0 -0.15927132508066219 -0.45507042360758582 0 -0.16929999319288691 -0.47785249484471798 0 -0.15927132508066219 -0.45507042360758582 0 -0.14580427977266749 -0.47040721093746568 0 -0.15927132508066219 -0.45507042360758582 0 -0.13339977038622339 -0.45291877346656317 0 -0.14580427977266749 -0.47040721093746568 0 -0.15927132508066219 -0.45507042360758582 0 -0.13339977038622339 -0.45291877346656317 0 -0.15927132508066219 -0.45507042360758582 0 -0.13339977038622339 -0.45291877346656317 0 -0.14202848093077711 -0.43555946639308918 0 -0.15927132508066219 -0.45507042360758582 0 -0.14202848093077711 -0.43555946639308918 0 -0.16150275176297799 -0.4281406120173481 0 -0.14202848093077711 -0.43555946639308918 0 -0.1225542100985763 -0.44297832076883009 0 -0.13339977038622339 -0.45291877346656317 0 -0.14202848093077711 -0.43555946639308918 0 -0.1225542100985763 -0.44297832076883009 0 -0.13339977038622339 -0.45291877346656317 0 -0.1307687261585217 -0.46778345343049782 0 -0.14580427977266749 -0.47040721093746568 0 -0.13339977038622339 -0.45291877346656317 0 -0.1307687261585217 -0.46778345343049782 0 -0.1197536107712632 -0.4603846222227676 0 -0.1307687261585217 -0.46778345343049782 0 -0.13582373032455619 -0.48735854341737339 0 -0.1137090240993809 -0.47471708683474562 0 -0.1307687261585217 -0.46778345343049782 0 -0.13582373032455619 -0.48735854341737339 0 -0.14580427977266749 -0.47040721093746568 0 -0.1352964182094325 -0.5 0 -0.13582373032455619 -0.48735854341737339 0 -0.1126543998691333 -0.5 0 -0.15793843654973169 -0.50000000000000067 0 -0.13582373032455619 -0.48735854341737339 0 -0.15793843654973169 -0.50000000000000067 0 -0.1352964182094325 -0.5 0 -0.13582373032455619 -0.48735854341737339 0 -0.15793843654973169 -0.50000000000000067 0 -0.13582373032455619 -0.48735854341737339 0 -0.14580427977266749 -0.47040721093746568 0 -0.14815820246943501 -0.38862434508841293 0 -0.13820369649585121 -0.39936786319616852 0 -0.14893509359103921 -0.41354355943300569 0 -0.14815820246943501 -0.38862434508841293 0 -0.14893509359103921 -0.41354355943300569 0 -0.15868543423353421 -0.3929060338687464 0 -0.14893509359103921 -0.41354355943300569 0 -0.15868543423353421 -0.3929060338687464 0 -0.14629003136845831 -0.38366487186701009 0 -0.14022921479688971 -0.36757509429221658 0 -0.14629003136845831 -0.38366487186701009 0 -0.16843577487603181 -0.37226850830448821 0 -0.15320018995237381 -0.37000292891013942 0 -0.14815820246943501 -0.38862434508841293 0 -0.14629003136845831 -0.38366487186701009 0 -0.13820369649585121 -0.39936786319616852 0 -0.14815820246943501 -0.38862434508841293 0 -0.14629003136845831 -0.38366487186701009 0 -0.15868543423353421 -0.3929060338687464 0 -0.14815820246943501 -0.38862434508841293 0 -0.14629003136845831 -0.38366487186701009 0 -0.14629003136845831 -0.38366487186701009 0 -0.12889758925109701 -0.38102998034298241 0 -0.11965770675951989 -0.39737006328019292 0 -0.14629003136845831 -0.38366487186701009 0 -0.11965770675951989 -0.39737006328019292 0 -0.14629003136845831 -0.38366487186701009 0 -0.12889758925109701 -0.38102998034298241 0 -0.14022921479688971 -0.36757509429221658 0 -0.14629003136845831 -0.38366487186701009 0 -0.13820369649585121 -0.39936786319616852 0 -0.11965770675951989 -0.39737006328019292 0 -0.13820369649585121 -0.39936786319616852 0 -0.12954850123323461 -0.41175179961510788 0 -0.11965770675951989 -0.39737006328019292 0 -0.12954850123323461 -0.41175179961510788 0 -0.12818919803011231 -0.42850087913262958 0 -0.14893509359103921 -0.41354355943300569 0 -0.13820369649585121 -0.39936786319616852 0 -0.12954850123323461 -0.41175179961510788 0 -0.14893509359103921 -0.41354355943300569 0 -0.12818919803011231 -0.42850087913262958 0 -0.14202848093077711 -0.43555946639308918 0 -0.1225542100985763 -0.44297832076883009 0 -0.12818919803011231 -0.42850087913262958 0 -0.14202848093077711 -0.43555946639308918 0 -0.14893509359103921 -0.41354355943300569 0 -0.14202848093077711 -0.43555946639308918 0 -0.16150275176297799 -0.4281406120173481 0 -0.14202848093077711 -0.43555946639308918 0 -0.14893509359103921 -0.41354355943300569 0 -0.16150275176297799 -0.4281406120173481 0 -0.16611168185800959 -0.40903668601634491 0 -0.16150275176297799 -0.4281406120173481 0 -0.17611876105181309 -0.42241441327879209 0 -0.14893509359103921 -0.41354355943300569 0 -0.16611168185800959 -0.40903668601634491 0 -0.16150275176297799 -0.4281406120173481 0 -0.1710412086422255 -0.44248833125615122 0 -0.16150275176297799 -0.4281406120173481 0 -0.17611876105181309 -0.42241441327879209 0 -0.17611876105181309 -0.42241441327879209 0 -0.18575869516187921 -0.43511169199507782 0 -0.19673219926974631 -0.42049220771211088 0 -0.1710412086422255 -0.44248833125615122 0 -0.17611876105181309 -0.42241441327879209 0 -0.18575869516187921 -0.43511169199507782 0 -0.16611168185800959 -0.40903668601634491 0 -0.17611876105181309 -0.42241441327879209 0 -0.18039779705664899 -0.40543882441377171 0 -0.17611876105181309 -0.42241441327879209 0 -0.18039779705664899 -0.40543882441377171 0 -0.19673219926974631 -0.42049220771211088 0 -0.18039779705664899 -0.40543882441377171 0 -0.17828018271768231 -0.38954163684889143 0 -0.1949212565791632 -0.39737567732128748 0 -0.18039779705664899 -0.40543882441377171 0 -0.1708687739664688 -0.39923079528693861 0 -0.17828018271768231 -0.38954163684889143 0 -0.16611168185800959 -0.40903668601634491 0 -0.18039779705664899 -0.40543882441377171 0 -0.1708687739664688 -0.39923079528693861 0 -0.1708687739664688 -0.39923079528693861 0 -0.15868543423353421 -0.3929060338687464 0 -0.17828018271768231 -0.38954163684889143 0 -0.16611168185800959 -0.40903668601634491 0 -0.1708687739664688 -0.39923079528693861 0 -0.15868543423353421 -0.3929060338687464 0 -0.14893509359103921 -0.41354355943300569 0 -0.16611168185800959 -0.40903668601634491 0 -0.15868543423353421 -0.3929060338687464 0 -0.14629003136845831 -0.38366487186701009 0 -0.15868543423353421 -0.3929060338687464 0 -0.16843577487603181 -0.37226850830448821 0 -0.15868543423353421 -0.3929060338687464 0 -0.16843577487603181 -0.37226850830448821 0 -0.14629003136845831 -0.38366487186701009 0 -0.16843577487603181 -0.37226850830448821 0 -0.15868543423353421 -0.3929060338687464 0 -0.17828018271768231 -0.38954163684889143 0 -0.16843577487603181 -0.37226850830448821 0 -0.17828018271768231 -0.38954163684889143 0 -0.19055098658591391 -0.3787247394538551 0 -0.16843577487603181 -0.37226850830448821 0 -0.19055098658591391 -0.3787247394538551 0 -0.1949212565791632 -0.39737567732128748 0 -0.2084980129989466 -0.38586214231331711 0 -0.19055098658591391 -0.3787247394538551 0 -0.2084980129989466 -0.38586214231331711 0 -0.20439723017142469 -0.36771274822236633 0 -0.17828018271768231 -0.38954163684889143 0 -0.19055098658591391 -0.3787247394538551 0 -0.1949212565791632 -0.39737567732128748 0 -0.2084980129989466 -0.38586214231331711 0 -0.2135074925669358 -0.41014922451786712 0 -0.22829807904621649 -0.3909315811694436 0 -0.1949212565791632 -0.39737567732128748 0 -0.2084980129989466 -0.38586214231331711 0 -0.2135074925669358 -0.41014922451786712 0 -0.20068356461422179 -0.44541947860785291 0 -0.18575869516187921 -0.43511169199507782 0 -0.19673219926974631 -0.42049220771211088 0 -0.18039779705664899 -0.40543882441377171 0 -0.1949212565791632 -0.39737567732128748 0 -0.19673219926974631 -0.42049220771211088 0 -0.1949212565791632 -0.39737567732128748 0 -0.19673219926974631 -0.42049220771211088 0 -0.2135074925669358 -0.41014922451786712 0 -0.19673219926974631 -0.42049220771211088 0 -0.2135074925669358 -0.41014922451786712 0 -0.2166575635273694 -0.43261191838840007 0 -0.2135074925669358 -0.41014922451786712 0 -0.2166575635273694 -0.43261191838840007 0 -0.20068356461422179 -0.44541947860785291 0 -0.19673219926974631 -0.42049220771211088 0 -0.2166575635273694 -0.43261191838840007 0 -0.24411245222672981 -0.44021398672708412 0 -0.2166575635273694 -0.43261191838840007 0 -0.2358122818542682 -0.41286938723295319 0 -0.2135074925669358 -0.41014922451786712 0 -0.2166575635273694 -0.43261191838840007 0 -0.2358122818542682 -0.41286938723295319 0 -0.26155388904173088 -0.41328597919956722 0 -0.24411245222672981 -0.44021398672708412 0 -0.2358122818542682 -0.41286938723295319 0 -0.22829807904621649 -0.3909315811694436 0 -0.24190245769781621 -0.37180080852581121 0 -0.2219914235710439 -0.37116445816684202 0 -0.2084980129989466 -0.38586214231331711 0 -0.22829807904621649 -0.3909315811694436 0 -0.2219914235710439 -0.37116445816684202 0 -0.2135074925669358 -0.41014922451786712 0 -0.2358122818542682 -0.41286938723295319 0 -0.22829807904621649 -0.3909315811694436 0 -0.25074421471662678 -0.39002363339535739 0 -0.2358122818542682 -0.41286938723295319 0 -0.22829807904621649 -0.3909315811694436 0 -0.25074421471662678 -0.39002363339535739 0 -0.26155388904173088 -0.41328597919956722 0 -0.2358122818542682 -0.41286938723295319 0 -0.25074421471662678 -0.39002363339535739 0 -0.22829807904621649 -0.3909315811694436 0 -0.24190245769781621 -0.37180080852581121 0 -0.25356398932983287 -0.35281739151350128 0 -0.24190245769781621 -0.37180080852581121 0 -0.23258090176840651 -0.35553226824568962 0 -0.24190245769781621 -0.37180080852581121 0 -0.2219914235710439 -0.37116445816684202 0 -0.23258090176840651 -0.35553226824568962 0 -0.2219914235710439 -0.37116445816684202 0 -0.23258090176840651 -0.35553226824568962 0 -0.21627185974345281 -0.35514720052442422 0 -0.23258090176840651 -0.35553226824568962 0 -0.22376254042618879 -0.34412612393841258 0 -0.21627185974345281 -0.35514720052442422 0 -0.23258090176840651 -0.35553226824568962 0 -0.22376254042618879 -0.34412612393841258 0 -0.23841202626438801 -0.33988787478207622 0 -0.25356398932983287 -0.35281739151350128 0 -0.23258090176840651 -0.35553226824568962 0 -0.23841202626438801 -0.33988787478207622 0 -0.25356398932983287 -0.35281739151350128 0 -0.2542411799230469 -0.33588014060137672 0 -0.23841202626438801 -0.33988787478207622 0 -0.2542411799230469 -0.33588014060137672 0 -0.23841202626438801 -0.33988787478207622 0 -0.24473123317309911 -0.32890389190738051 0 -0.24473123317309911 -0.32890389190738051 0 -0.2442836160094537 -0.31771734852563338 0 -0.2199164940251746 -0.32749958526964218 0 -0.25967865116451072 -0.32082587120965822 0 -0.24473123317309911 -0.32890389190738051 0 -0.2442836160094537 -0.31771734852563338 0 -0.2442836160094537 -0.31771734852563338 0 -0.23017816798247639 -0.31509820347828499 0 -0.234170676235752 -0.30518604116860287 0 -0.2199164940251746 -0.32749958526964218 0 -0.23017816798247639 -0.31509820347828499 0 -0.21009133838106619 -0.31203635794350187 0 -0.2442836160094537 -0.31771734852563338 0 -0.2199164940251746 -0.32749958526964218 0 -0.2442836160094537 -0.31771734852563338 0 -0.2199164940251746 -0.32749958526964218 0 -0.23017816798247639 -0.31509820347828499 0 -0.23017816798247639 -0.31509820347828499 0 -0.21009133838106619 -0.31203635794350187 0 -0.22376254042618879 -0.34412612393841258 0 -0.23841202626438801 -0.33988787478207622 0 -0.2199164940251746 -0.32749958526964218 0 -0.23841202626438801 -0.33988787478207622 0 -0.24473123317309911 -0.32890389190738051 0 -0.2199164940251746 -0.32749958526964218 0 -0.2199164940251746 -0.32749958526964218 0 -0.20138931567169049 -0.32443245243117802 0 -0.19554937204089551 -0.33728182201365098 0 -0.2199164940251746 -0.32749958526964218 0 -0.19554937204089551 -0.33728182201365098 0 -0.2199164940251746 -0.32749958526964218 0 -0.2116314203295219 -0.34256369087023059 0 -0.19554937204089551 -0.33728182201365098 0 -0.22376254042618879 -0.34412612393841258 0 -0.2199164940251746 -0.32749958526964218 0 -0.2116314203295219 -0.34256369087023059 0 -0.2199164940251746 -0.32749958526964218 0 -0.20138931567169049 -0.32443245243117802 0 -0.21009133838106619 -0.31203635794350187 0 -0.19185117133773519 -0.31774128874531338 0 -0.21009133838106619 -0.31203635794350187 0 -0.19000450877965619 -0.30897451240871698 0 -0.20138931567169049 -0.32443245243117802 0 -0.19185117133773519 -0.31774128874531338 0 -0.21009133838106619 -0.31203635794350187 0 -0.20138931567169049 -0.32443245243117802 0 -0.189538202573581 -0.32760320818378119 0 -0.19185117133773519 -0.31774128874531338 0 -0.19185117133773519 -0.31774128874531338 0 -0.19000450877965619 -0.30897451240871698 0 -0.189538202573581 -0.32760320818378119 0 -0.19554937204089551 -0.33728182201365098 0 -0.19076202898078809 -0.34750315793413511 0 -0.20138931567169049 -0.32443245243117802 0 -0.189538202573581 -0.32760320818378119 0 -0.19554937204089551 -0.33728182201365098 0 -0.2116314203295219 -0.34256369087023059 0 -0.19554937204089551 -0.33728182201365098 0 -0.20181805749633039 -0.3522565029678954 0 -0.19554937204089551 -0.33728182201365098 0 -0.19076202898078809 -0.34750315793413511 0 -0.20181805749633039 -0.3522565029678954 0 -0.19076202898078809 -0.34750315793413511 0 -0.20181805749633039 -0.3522565029678954 0 -0.188710995883588 -0.36183472946868223 0 -0.20181805749633039 -0.3522565029678954 0 -0.188710995883588 -0.36183472946868223 0 -0.20439723017142469 -0.36771274822236633 0 -0.19055098658591391 -0.3787247394538551 0 -0.188710995883588 -0.36183472946868223 0 -0.20439723017142469 -0.36771274822236633 0 -0.2219914235710439 -0.37116445816684202 0 -0.20439723017142469 -0.36771274822236633 0 -0.21627185974345281 -0.35514720052442422 0 -0.2084980129989466 -0.38586214231331711 0 -0.2219914235710439 -0.37116445816684202 0 -0.20439723017142469 -0.36771274822236633 0 -0.22376254042618879 -0.34412612393841258 0 -0.2116314203295219 -0.34256369087023059 0 -0.21627185974345281 -0.35514720052442422 0 -0.2116314203295219 -0.34256369087023059 0 -0.20181805749633039 -0.3522565029678954 0 -0.21627185974345281 -0.35514720052442422 0 -0.20181805749633039 -0.3522565029678954 0 -0.20439723017142469 -0.36771274822236633 0 -0.21627185974345281 -0.35514720052442422 0 -0.22463764297864169 -0.25957013295895209 0 -0.23985923772846071 -0.26606577945759913 0 -0.23562107515302921 -0.24938861089824399 0 -0.22463764297864169 -0.25957013295895209 0 -0.2170457079486674 -0.24720300742873891 0 -0.23562107515302921 -0.24938861089824399 0 -0.24757840578926399 -0.25652676207350378 0 -0.23985923772846071 -0.26606577945759913 0 -0.23562107515302921 -0.24938861089824399 0 -0.25146340277487977 -0.26507489417853108 0 -0.24757840578926399 -0.25652676207350378 0 -0.23985923772846071 -0.26606577945759913 0 -0.25880019644146801 -0.28094624205305069 0 -0.23985923772846071 -0.26606577945759913 0 -0.23903163002898489 -0.2822334906684974 0 -0.23985923772846071 -0.26606577945759913 0 -0.22262882728634739 -0.27250734897309548 0 -0.23903163002898489 -0.2822334906684974 0 -0.22262882728634739 -0.27250734897309548 0 -0.2258283058908146 -0.2869511125113493 0 -0.23903163002898489 -0.2822334906684974 0 -0.22463764297864169 -0.25957013295895209 0 -0.23985923772846071 -0.26606577945759913 0 -0.22262882728634739 -0.27250734897309548 0 -0.22262882728634739 -0.27250734897309548 0 -0.2258283058908146 -0.2869511125113493 0 -0.2112004361958425 -0.28807981623867668 0 -0.2258283058908146 -0.2869511125113493 0 -0.2234950011485618 -0.30034956097513671 0 -0.2112004361958425 -0.28807981623867668 0 -0.2258283058908146 -0.2869511125113493 0 -0.23572008058892299 -0.29455395741082502 0 -0.2234950011485618 -0.30034956097513671 0 -0.2258283058908146 -0.2869511125113493 0 -0.23903163002898489 -0.2822334906684974 0 -0.23572008058892299 -0.29455395741082502 0 -0.25880019644146801 -0.28094624205305069 0 -0.23903163002898489 -0.2822334906684974 0 -0.2484058214503109 -0.29293501674903999 0 -0.2484058214503109 -0.29293501674903999 0 -0.23572008058892299 -0.29455395741082502 0 -0.2445979568743985 -0.30292672892464573 0 -0.23903163002898489 -0.2822334906684974 0 -0.2484058214503109 -0.29293501674903999 0 -0.23572008058892299 -0.29455395741082502 0 -0.23572008058892299 -0.29455395741082502 0 -0.2445979568743985 -0.30292672892464573 0 -0.234170676235752 -0.30518604116860287 0 -0.25798462174260928 -0.30513169097613058 0 -0.2442836160094537 -0.31771734852563338 0 -0.2445979568743985 -0.30292672892464573 0 -0.2442836160094537 -0.31771734852563338 0 -0.2445979568743985 -0.30292672892464573 0 -0.234170676235752 -0.30518604116860287 0 -0.23017816798247639 -0.31509820347828499 0 -0.234170676235752 -0.30518604116860287 0 -0.2234950011485618 -0.30034956097513671 0 -0.23017816798247639 -0.31509820347828499 0 -0.2234950011485618 -0.30034956097513671 0 -0.21009133838106619 -0.31203635794350187 0 -0.23572008058892299 -0.29455395741082502 0 -0.234170676235752 -0.30518604116860287 0 -0.2234950011485618 -0.30034956097513671 0 -0.2234950011485618 -0.30034956097513671 0 -0.21197034995116251 -0.30088926728797238 0 -0.21009133838106619 -0.31203635794350187 0 -0.21197034995116251 -0.30088926728797238 0 -0.20135950202062711 -0.30190099960312272 0 -0.2112004361958425 -0.28807981623867668 0 -0.21197034995116251 -0.30088926728797238 0 -0.21009133838106619 -0.31203635794350187 0 -0.20135950202062711 -0.30190099960312272 0 -0.21009133838106619 -0.31203635794350187 0 -0.19000450877965619 -0.30897451240871698 0 -0.19000450877965619 -0.30897451240871698 0 -0.19000424819106099 -0.29482790513326668 0 -0.1866364852001724 -0.29298528400933038 0 -0.21009133838106619 -0.31203635794350187 0 -0.19000450877965619 -0.30897451240871698 0 -0.20135950202062711 -0.30190099960312272 0 -0.19000450877965619 -0.30897451240871698 0 -0.1866364852001724 -0.29298528400933038 0 -0.19000450877965619 -0.30897451240871698 0 -0.19444584205301699 -0.30044302990133542 0 -0.19000424819106099 -0.29482790513326668 0 -0.19000450877965619 -0.30897451240871698 0 -0.19444584205301699 -0.30044302990133542 0 -0.20135950202062711 -0.30190099960312272 0 -0.19444584205301699 -0.30044302990133542 0 -0.19641510922072311 -0.29606870246023542 0 -0.19000424819106099 -0.29482790513326668 0 -0.19444584205301699 -0.30044302990133542 0 -0.20135950202062711 -0.30190099960312272 0 -0.19641510922072311 -0.29606870246023542 0 -0.20035531510569829 -0.29086164045443408 0 -0.19641510922072311 -0.29606870246023542 0 -0.19261048192947569 -0.28613947310569099 0 -0.20135950202062711 -0.30190099960312272 0 -0.20035531510569829 -0.29086164045443408 0 -0.19641510922072311 -0.29606870246023542 0 -0.19000424819106099 -0.29482790513326668 0 -0.19261048192947569 -0.28613947310569099 0 -0.1866364852001724 -0.29298528400933038 0 -0.19641510922072311 -0.29606870246023542 0 -0.19000424819106099 -0.29482790513326668 0 -0.19261048192947569 -0.28613947310569099 0 -0.19000424819106099 -0.29482790513326668 0 -0.1866364852001724 -0.29298528400933038 0 -0.20035531510569829 -0.29086164045443408 0 -0.2112004361958425 -0.28807981623867668 0 -0.19693324174275961 -0.27816482245543039 0 -0.20035531510569829 -0.29086164045443408 0 -0.19261048192947569 -0.28613947310569099 0 -0.19693324174275961 -0.27816482245543039 0 -0.20135950202062711 -0.30190099960312272 0 -0.20035531510569829 -0.29086164045443408 0 -0.2112004361958425 -0.28807981623867668 0 -0.2234950011485618 -0.30034956097513671 0 -0.21197034995116251 -0.30088926728797238 0 -0.2112004361958425 -0.28807981623867668 0 -0.2112004361958425 -0.28807981623867668 0 -0.19693324174275961 -0.27816482245543039 0 -0.20544116280817529 -0.26502159791948299 0 -0.22262882728634739 -0.27250734897309548 0 -0.2112004361958425 -0.28807981623867668 0 -0.20544116280817529 -0.26502159791948299 0 -0.22463764297864169 -0.25957013295895209 0 -0.22262882728634739 -0.27250734897309548 0 -0.20544116280817529 -0.26502159791948299 0 -0.19693324174275961 -0.27816482245543039 0 -0.20544116280817529 -0.26502159791948299 0 -0.18153301423792209 -0.26875725801147737 0 -0.19261048192947569 -0.28613947310569099 0 -0.19693324174275961 -0.27816482245543039 0 -0.18153301423792209 -0.26875725801147737 0 -0.18913519041805449 -0.25412740646705079 0 -0.2023768832660017 -0.25097279894461488 0 -0.20544116280817529 -0.26502159791948299 0 -0.18913519041805449 -0.25412740646705079 0 -0.20544116280817529 -0.26502159791948299 0 -0.18153301423792209 -0.26875725801147737 0 -0.2023768832660017 -0.25097279894461488 0 -0.20544116280817529 -0.26502159791948299 0 -0.2170457079486674 -0.24720300742873891 0 -0.22463764297864169 -0.25957013295895209 0 -0.20544116280817529 -0.26502159791948299 0 -0.2170457079486674 -0.24720300742873891 0 -0.1647536502557389 -0.26521682517304201 0 -0.1680929605241295 -0.25474777188350262 0 -0.18153301423792209 -0.26875725801147737 0 -0.15732428354340641 -0.25302835223868969 0 -0.16241980729389349 -0.25844401723742783 0 -0.1680929605241295 -0.25474777188350262 0 -0.15732428354340641 -0.25302835223868969 0 -0.1680929605241295 -0.25474777188350262 0 -0.16263472847473401 -0.2428724329714736 0 -0.15732428354340641 -0.25302835223868969 0 -0.15671343046709449 -0.25973743758482681 0 -0.16241980729389349 -0.25844401723742783 0 -0.15671343046709449 -0.25973743758482681 0 -0.1647536502557389 -0.26521682517304201 0 -0.15067355395008911 -0.26656157379805012 0 -0.15671343046709449 -0.25973743758482681 0 -0.16241980729389349 -0.25844401723742783 0 -0.1647536502557389 -0.26521682517304201 0 -0.16241980729389349 -0.25844401723742783 0 -0.1647536502557389 -0.26521682517304201 0 -0.1680929605241295 -0.25474777188350262 0 -0.18913519041805449 -0.25412740646705079 0 -0.18153301423792209 -0.26875725801147737 0 -0.1764295432756699 -0.2445292320136247 0 -0.18153301423792209 -0.26875725801147737 0 -0.1764295432756699 -0.2445292320136247 0 -0.1680929605241295 -0.25474777188350262 0 -0.18153301423792209 -0.26875725801147737 0 -0.1764295432756699 -0.2445292320136247 0 -0.18153301423792209 -0.26875725801147737 0 -0.16544975604126089 -0.28139328219659421 0 -0.1866364852001724 -0.29298528400933038 0 -0.18153301423792209 -0.26875725801147737 0 -0.1866364852001724 -0.29298528400933038 0 -0.1647536502557389 -0.26521682517304201 0 -0.16544975604126089 -0.28139328219659421 0 -0.15067355395008911 -0.26656157379805012 0 -0.1647536502557389 -0.26521682517304201 0 -0.18153301423792209 -0.26875725801147737 0 -0.16544975604126089 -0.28139328219659421 0 -0.16544975604126089 -0.28139328219659421 0 -0.1670583664777345 -0.3054768204014795 0 -0.14411222417581321 -0.30197912839424002 0 -0.16544975604126089 -0.28139328219659421 0 -0.1866364852001724 -0.29298528400933038 0 -0.19261048192947569 -0.28613947310569099 0 -0.18153301423792209 -0.26875725801147737 0 -0.1866364852001724 -0.29298528400933038 0 -0.16544975604126089 -0.28139328219659421 0 -0.1866364852001724 -0.29298528400933038 0 -0.1670583664777345 -0.3054768204014795 0 -0.19000450877965619 -0.30897451240871698 0 -0.1670583664777345 -0.3054768204014795 0 -0.19000450877965619 -0.30897451240871698 0 -0.1670583664777345 -0.3054768204014795 0 -0.17683774400362101 -0.31942230544739908 0 -0.19000450877965619 -0.30897451240871698 0 -0.1866364852001724 -0.29298528400933038 0 -0.1670583664777345 -0.3054768204014795 0 -0.1670583664777345 -0.3054768204014795 0 -0.14411222417581321 -0.30197912839424002 0 -0.15990930131163419 -0.31807708746679858 0 -0.16544975604126089 -0.28139328219659421 0 -0.14411222417581321 -0.30197912839424002 0 -0.13347981841798129 -0.28475764727324498 0 -0.1670583664777345 -0.3054768204014795 0 -0.14411222417581321 -0.30197912839424002 0 -0.14411222417581321 -0.30197912839424002 0 -0.13096826870341979 -0.3096802622929965 0 -0.14255816167999891 -0.3234628400499131 0 -0.14411222417581321 -0.30197912839424002 0 -0.1211660818738917 -0.29848143638700059 0 -0.14411222417581321 -0.30197912839424002 0 -0.13096826870341979 -0.3096802622929965 0 -0.1211660818738917 -0.29848143638700059 0 -0.14411222417581321 -0.30197912839424002 0 -0.13347981841798129 -0.28475764727324498 0 -0.1211660818738917 -0.29848143638700059 0 -0.16544975604126089 -0.28139328219659421 0 -0.13347981841798129 -0.28475764727324498 0 -0.14426302688235071 -0.26980128038385542 0 -0.16544975604126089 -0.28139328219659421 0 -0.15067355395008911 -0.26656157379805012 0 -0.14426302688235071 -0.26980128038385542 0 -0.16544975604126089 -0.28139328219659421 0 -0.14426302688235071 -0.26980128038385542 0 -0.15067355395008911 -0.26656157379805012 0 -0.14426302688235071 -0.26980128038385542 0 -0.14257400975171869 -0.26154908970557372 0 -0.13347981841798129 -0.28475764727324498 0 -0.14426302688235071 -0.26980128038385542 0 -0.1230762977234405 -0.25820927857111697 0 -0.1510077136628947 -0.25398390283359468 0 -0.1230762977234405 -0.25820927857111697 0 -0.13520422189713291 -0.2421257222954841 0 -0.14257400975171869 -0.26154908970557372 0 -0.1510077136628947 -0.25398390283359468 0 -0.1230762977234405 -0.25820927857111697 0 -0.1510077136628947 -0.25398390283359468 0 -0.1230762977234405 -0.25820927857111697 0 -0.14426302688235071 -0.26980128038385542 0 -0.1230762977234405 -0.25820927857111697 0 -0.14426302688235071 -0.26980128038385542 0 -0.14257400975171869 -0.26154908970557372 0 -0.1230762977234405 -0.25820927857111697 0 -0.15067355395008911 -0.26656157379805012 0 -0.14257400975171869 -0.26154908970557372 0 -0.1510077136628947 -0.25398390283359468 0 -0.15671343046709449 -0.25973743758482681 0 -0.15067355395008911 -0.26656157379805012 0 -0.1510077136628947 -0.25398390283359468 0 -0.15067355395008911 -0.26656157379805012 0 -0.1510077136628947 -0.25398390283359468 0 -0.15732428354340641 -0.25302835223868969 0 -0.15671343046709449 -0.25973743758482681 0 -0.1510077136628947 -0.25398390283359468 0 -0.15732428354340641 -0.25302835223868969 0 -0.1510077136628947 -0.25398390283359468 0 -0.1686704947434477 -0.34424306249697723 0 -0.16347817731942371 -0.35883661090702301 0 -0.1789869887248052 -0.34993585824413409 0 -0.1686704947434477 -0.34424306249697723 0 -0.15992947021905729 -0.35045270591908001 0 -0.16347817731942371 -0.35883661090702301 0 -0.15992947021905729 -0.35045270591908001 0 -0.15890962005105019 -0.34182366084041721 0 -0.15087644433376399 -0.35053346593323259 0 -0.1686704947434477 -0.34424306249697723 0 -0.15992947021905729 -0.35045270591908001 0 -0.15890962005105019 -0.34182366084041721 0 -0.15992947021905729 -0.35045270591908001 0 -0.16347817731942371 -0.35883661090702301 0 -0.15147611878769021 -0.35978900669309 0 -0.16347817731942371 -0.35883661090702301 0 -0.16843577487603181 -0.37226850830448821 0 -0.1789869887248052 -0.34993585824413409 0 -0.16347817731942371 -0.35883661090702301 0 -0.16843577487603181 -0.37226850830448821 0 -0.15320018995237381 -0.37000292891013942 0 -0.188710995883588 -0.36183472946868223 0 -0.16843577487603181 -0.37226850830448821 0 -0.1789869887248052 -0.34993585824413409 0 -0.19055098658591391 -0.3787247394538551 0 -0.188710995883588 -0.36183472946868223 0 -0.16843577487603181 -0.37226850830448821 0 -0.16843577487603181 -0.37226850830448821 0 -0.1789869887248052 -0.34993585824413409 0 -0.188710995883588 -0.36183472946868223 0 -0.16843577487603181 -0.37226850830448821 0 -0.19076202898078809 -0.34750315793413511 0 -0.188710995883588 -0.36183472946868223 0 -0.1789869887248052 -0.34993585824413409 0 -0.189538202573581 -0.32760320818378119 0 -0.1789869887248052 -0.34993585824413409 0 -0.189538202573581 -0.32760320818378119 0 -0.1789869887248052 -0.34993585824413409 0 -0.17450770206785979 -0.33379591424852861 0 -0.1686704947434477 -0.34424306249697723 0 -0.1789869887248052 -0.34993585824413409 0 -0.17450770206785979 -0.33379591424852861 0 -0.189538202573581 -0.32760320818378119 0 -0.19076202898078809 -0.34750315793413511 0 -0.1789869887248052 -0.34993585824413409 0 -0.19185117133773519 -0.31774128874531338 0 -0.19000450877965619 -0.30897451240871698 0 -0.17683774400362101 -0.31942230544739908 0 -0.189538202573581 -0.32760320818378119 0 -0.19185117133773519 -0.31774128874531338 0 -0.17683774400362101 -0.31942230544739908 0 -0.189538202573581 -0.32760320818378119 0 -0.17450770206785979 -0.33379591424852861 0 -0.17683774400362101 -0.31942230544739908 0 -0.17450770206785979 -0.33379591424852861 0 -0.17683774400362101 -0.31942230544739908 0 -0.16789889199243579 -0.3258415379856438 0 -0.17683774400362101 -0.31942230544739908 0 -0.16789889199243579 -0.3258415379856438 0 -0.15990930131163419 -0.31807708746679858 0 -0.1670583664777345 -0.3054768204014795 0 -0.17683774400362101 -0.31942230544739908 0 -0.15990930131163419 -0.31807708746679858 0 -0.16789889199243579 -0.3258415379856438 0 -0.15990930131163419 -0.31807708746679858 0 -0.1603408205866283 -0.33207084477984899 0 -0.1686704947434477 -0.34424306249697723 0 -0.17450770206785979 -0.33379591424852861 0 -0.1603408205866283 -0.33207084477984899 0 -0.17450770206785979 -0.33379591424852861 0 -0.16789889199243579 -0.3258415379856438 0 -0.1603408205866283 -0.33207084477984899 0 -0.1686704947434477 -0.34424306249697723 0 -0.1603408205866283 -0.33207084477984899 0 -0.15890962005105019 -0.34182366084041721 0 -0.1603408205866283 -0.33207084477984899 0 -0.15890962005105019 -0.34182366084041721 0 -0.15007535211468931 -0.34118924614675972 0 -0.15007535211468931 -0.34118924614675972 0 -0.14255816167999891 -0.3234628400499131 0 -0.13818895890073399 -0.3402611072919951 0 -0.1603408205866283 -0.33207084477984899 0 -0.15007535211468931 -0.34118924614675972 0 -0.14255816167999891 -0.3234628400499131 0 -0.15990930131163419 -0.31807708746679858 0 -0.1603408205866283 -0.33207084477984899 0 -0.14255816167999891 -0.3234628400499131 0 -0.14411222417581321 -0.30197912839424002 0 -0.15990930131163419 -0.31807708746679858 0 -0.14255816167999891 -0.3234628400499131 0 -0.13067042051203859 -0.32054912994338181 0 -0.12719081665269971 -0.33296178375977459 0 -0.1202132350800718 -0.3144382508021285 0 -0.13096826870341979 -0.3096802622929965 0 -0.14255816167999891 -0.3234628400499131 0 -0.13067042051203859 -0.32054912994338181 0 -0.14255816167999891 -0.3234628400499131 0 -0.13067042051203859 -0.32054912994338181 0 -0.12719081665269971 -0.33296178375977459 0 -0.13096826870341979 -0.3096802622929965 0 -0.13067042051203859 -0.32054912994338181 0 -0.1202132350800718 -0.3144382508021285 0 -0.14255816167999891 -0.3234628400499131 0 -0.13818895890073399 -0.3402611072919951 0 -0.12719081665269971 -0.33296178375977459 0 -0.12719081665269971 -0.33296178375977459 0 -0.13416839822532439 -0.35148531671742189 0 -0.13818895890073399 -0.3402611072919951 0 -0.12719081665269971 -0.33296178375977459 0 -0.13416839822532439 -0.35148531671742189 0 -0.13416839822532439 -0.35148531671742189 0 -0.14157005660463351 -0.35169421551710939 0 -0.14022921479688971 -0.36757509429221658 0 -0.13416839822532439 -0.35148531671742189 0 -0.14157005660463351 -0.35169421551710939 0 -0.13818895890073399 -0.3402611072919951 0 -0.13416839822532439 -0.35148531671742189 0 -0.14157005660463351 -0.35169421551710939 0 -0.15007535211468931 -0.34118924614675972 0 -0.13818895890073399 -0.3402611072919951 0 -0.14157005660463351 -0.35169421551710939 0 -0.15007535211468931 -0.34118924614675972 0 -0.14157005660463351 -0.35169421551710939 0 -0.15087644433376399 -0.35053346593323259 0 -0.14157005660463351 -0.35169421551710939 0 -0.15087644433376399 -0.35053346593323259 0 -0.15147611878769021 -0.35978900669309 0 -0.15992947021905729 -0.35045270591908001 0 -0.15087644433376399 -0.35053346593323259 0 -0.15147611878769021 -0.35978900669309 0 -0.15890962005105019 -0.34182366084041721 0 -0.15007535211468931 -0.34118924614675972 0 -0.15087644433376399 -0.35053346593323259 0 -0.14629003136845831 -0.38366487186701009 0 -0.15320018995237381 -0.37000292891013942 0 -0.14022921479688971 -0.36757509429221658 0 -0.14157005660463351 -0.35169421551710939 0 -0.15147611878769021 -0.35978900669309 0 -0.14022921479688971 -0.36757509429221658 0 -0.16347817731942371 -0.35883661090702301 0 -0.15320018995237381 -0.37000292891013942 0 -0.15147611878769021 -0.35978900669309 0 -0.15320018995237381 -0.37000292891013942 0 -0.15147611878769021 -0.35978900669309 0 -0.14022921479688971 -0.36757509429221658 0 -0.13416839822532439 -0.35148531671742189 0 -0.14022921479688971 -0.36757509429221658 0 -0.13416839822532439 -0.35148531671742189 0 -0.14022921479688971 -0.36757509429221658 0 -0.13066310477351001 -0.36658532474748717 0 -0.12889758925109701 -0.38102998034298241 0 -0.14022921479688971 -0.36757509429221658 0 -0.13066310477351001 -0.36658532474748717 0 -0.13416839822532439 -0.35148531671742189 0 -0.13066310477351001 -0.36658532474748717 0 -0.11935721682072881 -0.36625090763732798 0 -0.12889758925109701 -0.38102998034298241 0 -0.13066310477351001 -0.36658532474748717 0 -0.11935721682072881 -0.36625090763732798 0 -0.11935721682072881 -0.36625090763732798 0 -0.096545230004300056 -0.36757531451045422 0 -0.10161114746934941 -0.38408870307324328 0 -0.11935721682072881 -0.36625090763732798 0 -0.096545230004300056 -0.36757531451045422 0 -0.10540241470889759 -0.35067344738754769 0 -0.13416839822532439 -0.35148531671742189 0 -0.10540241470889759 -0.35067344738754769 0 -0.13416839822532439 -0.35148531671742189 0 -0.11935721682072881 -0.36625090763732798 0 -0.10540241470889759 -0.35067344738754769 0 -0.12719081665269971 -0.33296178375977459 0 -0.13416839822532439 -0.35148531671742189 0 -0.10540241470889759 -0.35067344738754769 0 -0.12719081665269971 -0.33296178375977459 0 -0.10540241470889759 -0.35067344738754769 0 -0.1056390333882781 -0.32961136112902512 0 -0.12719081665269971 -0.33296178375977459 0 -0.1202132350800718 -0.3144382508021285 0 -0.12719081665269971 -0.33296178375977459 0 -0.1202132350800718 -0.3144382508021285 0 -0.1128626144798494 -0.32037008012786222 0 -0.12719081665269971 -0.33296178375977459 0 -0.1128626144798494 -0.32037008012786222 0 -0.1056390333882781 -0.32961136112902512 0 -0.1202132350800718 -0.3144382508021285 0 -0.1128626144798494 -0.32037008012786222 0 -0.1105639095327733 -0.30986966324987109 0 -0.1128626144798494 -0.32037008012786222 0 -0.10234914655790769 -0.31389410460291328 0 -0.1056390333882781 -0.32961136112902512 0 -0.10234914655790769 -0.31389410460291328 0 -0.1056390333882781 -0.32961136112902512 0 -0.090453213225100831 -0.32200647057478998 0 -0.1128626144798494 -0.32037008012786222 0 -0.10234914655790769 -0.31389410460291328 0 -0.1105639095327733 -0.30986966324987109 0 -0.10234914655790769 -0.31389410460291328 0 -0.090453213225100831 -0.32200647057478998 0 -0.091333810189710873 -0.30641211044299488 0 -0.10540241470889759 -0.35067344738754769 0 -0.1056390333882781 -0.32961136112902512 0 -0.090841581513406502 -0.33666300905290109 0 -0.1056390333882781 -0.32961136112902512 0 -0.090841581513406502 -0.33666300905290109 0 -0.090453213225100831 -0.32200647057478998 0 -0.090841581513406502 -0.33666300905290109 0 -0.076076815052285196 -0.33116218811547082 0 -0.076636431192470766 -0.34986157805767221 0 -0.090841581513406502 -0.33666300905290109 0 -0.090453213225100831 -0.32200647057478998 0 -0.076076815052285196 -0.33116218811547082 0 -0.090453213225100831 -0.32200647057478998 0 -0.076076815052285196 -0.33116218811547082 0 -0.077083995483234038 -0.30874024323451271 0 -0.076076815052285196 -0.33116218811547082 0 -0.077083995483234038 -0.30874024323451271 0 -0.062328020054012709 -0.32255128637316188 0 -0.077083995483234038 -0.30874024323451271 0 -0.063456477994186231 -0.30931765152422241 0 -0.062328020054012709 -0.32255128637316188 0 -0.076076815052285196 -0.33116218811547082 0 -0.076636431192470766 -0.34986157805767221 0 -0.058122185781438532 -0.33493853208753122 0 -0.076076815052285196 -0.33116218811547082 0 -0.058122185781438532 -0.33493853208753122 0 -0.062328020054012709 -0.32255128637316188 0 -0.078498534134579717 -0.37377528235856078 0 -0.06213406998535722 -0.37115011931220071 0 -0.076636431192470766 -0.34986157805767221 0 -0.078498534134579717 -0.37377528235856078 0 -0.06213406998535722 -0.37115011931220071 0 -0.096545230004300056 -0.36757531451045422 0 -0.076636431192470766 -0.34986157805767221 0 -0.078498534134579717 -0.37377528235856078 0 -0.10540241470889759 -0.35067344738754769 0 -0.076636431192470766 -0.34986157805767221 0 -0.096545230004300056 -0.36757531451045422 0 -0.10540241470889759 -0.35067344738754769 0 -0.076636431192470766 -0.34986157805767221 0 -0.10540241470889759 -0.35067344738754769 0 -0.090841581513406502 -0.33666300905290109 0 -0.076636431192470766 -0.34986157805767221 0 -0.084819037538815312 -0.26399671517363721 0 -0.098598209298187994 -0.2448164587889948 0 -0.099517985831804864 -0.2418500915779096 0 -0.10394766763112789 -0.26110299687237742 0 -0.084819037538815312 -0.26399671517363721 0 -0.10394766763112789 -0.26110299687237742 0 -0.084819037538815312 -0.26399671517363721 0 -0.098598209298187994 -0.2448164587889948 0 -0.10394766763112789 -0.26110299687237742 0 -0.1230762977234405 -0.25820927857111697 0 -0.098598209298187994 -0.2448164587889948 0 -0.1230762977234405 -0.25820927857111697 0 -0.098598209298187994 -0.2448164587889948 0 -0.10394766763112789 -0.26110299687237742 0 -0.1230762977234405 -0.25820927857111697 0 -0.10394766763112789 -0.26110299687237742 0 -0.1230762977234405 -0.25820927857111697 0 -0.1127504376086176 -0.27913710493942762 0 -0.13347981841798129 -0.28475764727324498 0 -0.1230762977234405 -0.25820927857111697 0 -0.1127504376086176 -0.27913710493942762 0 -0.10394766763112789 -0.26110299687237742 0 -0.1127504376086176 -0.27913710493942762 0 -0.094514924678929788 -0.27625391352140749 0 -0.10394766763112789 -0.26110299687237742 0 -0.094514924678929788 -0.27625391352140749 0 -0.084819037538815312 -0.26399671517363721 0 -0.1127504376086176 -0.27913710493942762 0 -0.094514924678929788 -0.27625391352140749 0 -0.098219939571970061 -0.29498374437976221 0 -0.098219939571970061 -0.29498374437976221 0 -0.1211660818738917 -0.29848143638700059 0 -0.1127504376086176 -0.27913710493942762 0 -0.098219939571970061 -0.29498374437976221 0 -0.1211660818738917 -0.29848143638700059 0 -0.13347981841798129 -0.28475764727324498 0 -0.1127504376086176 -0.27913710493942762 0 -0.1211660818738917 -0.29848143638700059 0 -0.098219939571970061 -0.29498374437976221 0 -0.1211660818738917 -0.29848143638700059 0 -0.1191746119740683 -0.30566213633668832 0 -0.13096826870341979 -0.3096802622929965 0 -0.1211660818738917 -0.29848143638700059 0 -0.1191746119740683 -0.30566213633668832 0 -0.13096826870341979 -0.3096802622929965 0 -0.1202132350800718 -0.3144382508021285 0 -0.1191746119740683 -0.30566213633668832 0 -0.1202132350800718 -0.3144382508021285 0 -0.1191746119740683 -0.30566213633668832 0 -0.1105639095327733 -0.30986966324987109 0 -0.098219939571970061 -0.29498374437976221 0 -0.1191746119740683 -0.30566213633668832 0 -0.1105639095327733 -0.30986966324987109 0 -0.10234914655790769 -0.31389410460291328 0 -0.098219939571970061 -0.29498374437976221 0 -0.091333810189710873 -0.30641211044299488 0 -0.098219939571970061 -0.29498374437976221 0 -0.1191746119740683 -0.30566213633668832 0 -0.10234914655790769 -0.31389410460291328 0 -0.098219939571970061 -0.29498374437976221 0 -0.1105639095327733 -0.30986966324987109 0 -0.090453213225100831 -0.32200647057478998 0 -0.091333810189710873 -0.30641211044299488 0 -0.077083995483234038 -0.30874024323451271 0 -0.098219939571970061 -0.29498374437976221 0 -0.091333810189710873 -0.30641211044299488 0 -0.08828393588273159 -0.29346919434209129 0 -0.091333810189710873 -0.30641211044299488 0 -0.077083995483234038 -0.30874024323451271 0 -0.08828393588273159 -0.29346919434209129 0 -0.077083995483234038 -0.30874024323451271 0 -0.075642629659835897 -0.29460923645086978 0 -0.08828393588273159 -0.29346919434209129 0 -0.077083995483234038 -0.30874024323451271 0 -0.063456477994186231 -0.30931765152422241 0 -0.063553993795949199 -0.29603634890338698 0 -0.077083995483234038 -0.30874024323451271 0 -0.075642629659835897 -0.29460923645086978 0 -0.063553993795949199 -0.29603634890338698 0 -0.075642629659835897 -0.29460923645086978 0 -0.063553993795949199 -0.29603634890338698 0 -0.07283754104411827 -0.28204900624183288 0 -0.063553993795949199 -0.29603634890338698 0 -0.07283754104411827 -0.28204900624183288 0 -0.063553993795949199 -0.29603634890338698 0 -0.06298459392333608 -0.28558396661188018 0 -0.07283754104411827 -0.28204900624183288 0 -0.098219939571970061 -0.29498374437976221 0 -0.07283754104411827 -0.28204900624183288 0 -0.094514924678929788 -0.27625391352140749 0 -0.098219939571970061 -0.29498374437976221 0 -0.07283754104411827 -0.28204900624183288 0 -0.098219939571970061 -0.29498374437976221 0 -0.07283754104411827 -0.28204900624183288 0 -0.08828393588273159 -0.29346919434209129 0 -0.075642629659835897 -0.29460923645086978 0 -0.07283754104411827 -0.28204900624183288 0 -0.08828393588273159 -0.29346919434209129 0 -0.098219939571970061 -0.29498374437976221 0 -0.08828393588273159 -0.29346919434209129 0 -0.094514924678929788 -0.27625391352140749 0 -0.07283754104411827 -0.28204900624183288 0 -0.084819037538815312 -0.26399671517363721 0 -0.07283754104411827 -0.28204900624183288 0 -0.084819037538815312 -0.26399671517363721 0 -0.066541660463870222 -0.26676165862675238 0 -0.070856176904452534 -0.2729995184871053 0 -0.084819037538815312 -0.26399671517363721 0 -0.07283754104411827 -0.28204900624183288 0 -0.070856176904452534 -0.2729995184871053 0 -0.084819037538815312 -0.26399671517363721 0 -0.07283754104411827 -0.28204900624183288 0 -0.070856176904452534 -0.2729995184871053 0 -0.061887461326094552 -0.2745413579278746 0 -0.07283754104411827 -0.28204900624183288 0 -0.061887461326094552 -0.2745413579278746 0 -0.06005412634454501 -0.27553464466696947 0 -0.06298459392333608 -0.28558396661188018 0 -0.07283754104411827 -0.28204900624183288 0 -0.06005412634454501 -0.27553464466696947 0 -0.07283754104411827 -0.28204900624183288 0 -0.06005412634454501 -0.27553464466696947 0 -0.066541660463870222 -0.26676165862675238 0 -0.070856176904452534 -0.2729995184871053 0 -0.061887461326094552 -0.2745413579278746 0 -0.066541660463870222 -0.26676165862675238 0 -0.084819037538815312 -0.26399671517363721 0 -0.072633096569996461 -0.25231433365624389 0 -0.056182934724786388 -0.2579007550064667 0 -0.06073814619030448 -0.24598109428459611 0 -0.066541660463870222 -0.26676165862675238 0 -0.072633096569996461 -0.25231433365624389 0 -0.056182934724786388 -0.2579007550064667 0 -0.066541660463870222 -0.26676165862675238 0 -0.072633096569996461 -0.25231433365624389 0 -0.084819037538815312 -0.26399671517363721 0 -0.072633096569996461 -0.25231433365624389 0 -0.084819037538815312 -0.26399671517363721 0 -0.086362519757149495 -0.24803654749965709 0 -0.084819037538815312 -0.26399671517363721 0 -0.086362519757149495 -0.24803654749965709 0 -0.099517985831804864 -0.2418500915779096 0 -0.084819037538815312 -0.26399671517363721 0 -0.099517985831804864 -0.2418500915779096 0 -0.04333166838545123 -0.25587103745628742 0 -0.026008002787897441 -0.25818491736150839 0 -0.03749998534272686 -0.24645163551448299 0 -0.04333166838545123 -0.25587103745628742 0 -0.048264283388925008 -0.26952660207986712 0 -0.026008002787897441 -0.25818491736150839 0 -0.048264283388925008 -0.26952660207986712 0 -0.026008002787897441 -0.25818491736150839 0 -0.04333166838545123 -0.25587103745628742 0 -0.056182934724786388 -0.2579007550064667 0 -0.048954136784397161 -0.24677205084299511 0 -0.066541660463870222 -0.26676165862675238 0 -0.056182934724786388 -0.2579007550064667 0 -0.048264283388925008 -0.26952660207986712 0 -0.056182934724786388 -0.2579007550064667 0 -0.06073814619030448 -0.24598109428459611 0 -0.048954136784397161 -0.24677205084299511 0 -0.04333166838545123 -0.25587103745628742 0 -0.056182934724786388 -0.2579007550064667 0 -0.048264283388925008 -0.26952660207986712 0 -0.066541660463870222 -0.26676165862675238 0 -0.048264283388925008 -0.26952660207986712 0 -0.048264283388925008 -0.26952660207986712 0 -0.06005412634454501 -0.27553464466696947 0 -0.066541660463870222 -0.26676165862675238 0 -0.048264283388925008 -0.26952660207986712 0 -0.061887461326094552 -0.2745413579278746 0 -0.048264283388925008 -0.26952660207986712 0 -0.06005412634454501 -0.27553464466696947 0 -0.037756109620498461 -0.28761553798041101 0 -0.048264283388925008 -0.26952660207986712 0 -0.061887461326094552 -0.2745413579278746 0 -0.06005412634454501 -0.27553464466696947 0 -0.061887461326094552 -0.2745413579278746 0 -0.06005412634454501 -0.27553464466696947 0 -0.0437893823857839 -0.27020355086640502 0 -0.027954527386523039 -0.27446801751595312 0 -0.026008002787897441 -0.25818491736150839 0 -0.048264283388925008 -0.26952660207986712 0 -0.0437893823857839 -0.27020355086640502 0 -0.037756109620498461 -0.28761553798041101 0 -0.0437893823857839 -0.27020355086640502 0 -0.037756109620498461 -0.28761553798041101 0 -0.027954527386523039 -0.27446801751595312 0 -0.048264283388925008 -0.26952660207986712 0 -0.0437893823857839 -0.27020355086640502 0 -0.026008002787897441 -0.25818491736150839 0 -0.048264283388925008 -0.26952660207986712 0 -0.0437893823857839 -0.27020355086640502 0 -0.06005412634454501 -0.27553464466696947 0 -0.037756109620498461 -0.28761553798041101 0 -0.054907628896754379 -0.28916300804981931 0 -0.037756109620498461 -0.28761553798041101 0 -0.054907628896754379 -0.28916300804981931 0 -0.050189320799445131 -0.30104454208644471 0 -0.06005412634454501 -0.27553464466696947 0 -0.037756109620498461 -0.28761553798041101 0 -0.06298459392333608 -0.28558396661188018 0 -0.06005412634454501 -0.27553464466696947 0 -0.054907628896754379 -0.28916300804981931 0 -0.063553993795949199 -0.29603634890338698 0 -0.054907628896754379 -0.28916300804981931 0 -0.050189320799445131 -0.30104454208644471 0 -0.063553993795949199 -0.29603634890338698 0 -0.06298459392333608 -0.28558396661188018 0 -0.054907628896754379 -0.28916300804981931 0 -0.063456477994186231 -0.30931765152422241 0 -0.050189320799445131 -0.30104454208644471 0 -0.047066945361674883 -0.31914620485107009 0 -0.063456477994186231 -0.30931765152422241 0 -0.063553993795949199 -0.29603634890338698 0 -0.050189320799445131 -0.30104454208644471 0 -0.037756109620498461 -0.28761553798041101 0 -0.037217216485105571 -0.30670689251819599 0 -0.027560617545667531 -0.30445417516927198 0 -0.050189320799445131 -0.30104454208644471 0 -0.037217216485105571 -0.30670689251819599 0 -0.047066945361674883 -0.31914620485107009 0 -0.037756109620498461 -0.28761553798041101 0 -0.050189320799445131 -0.30104454208644471 0 -0.037217216485105571 -0.30670689251819599 0 -0.037217216485105571 -0.30670689251819599 0 -0.030565610590850081 -0.31142764263038658 0 -0.027560617545667531 -0.30445417516927198 0 -0.037217216485105571 -0.30670689251819599 0 -0.030565610590850081 -0.31142764263038658 0 -0.037500275595947222 -0.3161458182703738 0 -0.037756109620498461 -0.28761553798041101 0 -0.027560617545667531 -0.30445417516927198 0 -0.01545809289645643 -0.2996964312938607 0 -0.02509127964785254 -0.31115435659590102 0 -0.027560617545667531 -0.30445417516927198 0 -0.021193744439298449 -0.30847357355690452 0 -0.02509127964785254 -0.31115435659590102 0 -0.030565610590850081 -0.31142764263038658 0 -0.027560617545667531 -0.30445417516927198 0 -0.027560617545667531 -0.30445417516927198 0 -0.021193744439298449 -0.30847357355690452 0 -0.01545809289645643 -0.2996964312938607 0 -0.01545809289645643 -0.2996964312938607 0 -0.01811004293999097 -0.31261226474241688 0 -0.021193744439298449 -0.30847357355690452 0 -0.01545809289645643 -0.2996964312938607 0 -0.01811004293999097 -0.31261226474241688 0 -0.021193744439298449 -0.30847357355690452 0 -0.01811004293999097 -0.31261226474241688 0 -0.020228660721467361 -0.31359189968424239 0 -0.02509127964785254 -0.31115435659590102 0 -0.021193744439298449 -0.30847357355690452 0 -0.020228660721467361 -0.31359189968424239 0 -0.0063596629264112857 -0.30462589040891103 0 -0.01545809289645643 -0.2996964312938607 0 -0.01811004293999097 -0.31261226474241688 0 -0.0063596629264112857 -0.30462589040891103 0 -0.01811004293999097 -0.31261226474241688 0 -0.0063596629264112857 -0.30462589040891103 0 -0.01545809289645643 -0.2996964312938607 0 -0.0017353971264607181 -0.28860223348569658 0 -0.0063596629264112857 -0.30462589040891103 0 -0.01811004293999097 -0.31261226474241688 0 -0.0063767584182884453 -0.31267072953001079 0 -0.0063596629264112857 -0.30462589040891103 0 -0.0063767584182884453 -0.31267072953001079 0 0.0069218991655704901 -0.31182173821255171 0 -0.0063596629264112857 -0.30462589040891103 0 -0.01545809289645643 -0.2996964312938607 0 -0.01545809289645643 -0.2996964312938607 0 -0.0017353971264607181 -0.28860223348569658 0 -0.010305792251711691 -0.27429525117709919 0 -0.01545809289645643 -0.2996964312938607 0 -0.010305792251711691 -0.27429525117709919 0 -0.037756109620498461 -0.28761553798041101 0 -0.01545809289645643 -0.2996964312938607 0 -0.037756109620498461 -0.28761553798041101 0 -0.01545809289645643 -0.2996964312938607 0 -0.022868630538797521 -0.284018809491831 0 -0.01545809289645643 -0.2996964312938607 0 -0.022868630538797521 -0.284018809491831 0 -0.010305792251711691 -0.27429525117709919 0 -0.037756109620498461 -0.28761553798041101 0 -0.022868630538797521 -0.284018809491831 0 -0.027954527386523039 -0.27446801751595312 0 -0.022868630538797521 -0.284018809491831 0 -0.027954527386523039 -0.27446801751595312 0 -0.010305792251711691 -0.27429525117709919 0 -0.027954527386523039 -0.27446801751595312 0 -0.010305792251711691 -0.27429525117709919 0 -0.026008002787897441 -0.25818491736150839 0 -0.010305792251711691 -0.27429525117709919 0 -0.026008002787897441 -0.25818491736150839 0 -0.0037517221868697478 -0.24684323264315031 0 -0.010305792251711691 -0.27429525117709919 0 -0.0037517221868697478 -0.24684323264315031 0 0.01217519740530776 -0.2668565954612736 0 -0.026008002787897441 -0.25818491736150839 0 -0.0037517221868697478 -0.24684323264315031 0 -0.047870447676044189 -0.34904970872779562 0 -0.02533978476910894 -0.3484138203638405 0 -0.036895247149196307 -0.35793982586866452 0 -0.047870447676044189 -0.34904970872779562 0 -0.02533978476910894 -0.3484138203638405 0 -0.036895247149196307 -0.35793982586866452 0 -0.045501608712330603 -0.36848196456507237 0 -0.047870447676044189 -0.34904970872779562 0 -0.047870447676044189 -0.34904970872779562 0 -0.039403578638212838 -0.33593093160072868 0 -0.02533978476910894 -0.3484138203638405 0 -0.045501608712330603 -0.36848196456507237 0 -0.0288691474393034 -0.36581380981794798 0 -0.033751437652646842 -0.38988382079798939 0 -0.045501608712330603 -0.36848196456507237 0 -0.0288691474393034 -0.36581380981794798 0 -0.036895247149196307 -0.35793982586866452 0 -0.045501608712330603 -0.36848196456507237 0 -0.0288691474393034 -0.36581380981794798 0 -0.045501608712330603 -0.36848196456507237 0 -0.06213406998535722 -0.37115011931220071 0 -0.045501608712330603 -0.36848196456507237 0 -0.06213406998535722 -0.37115011931220071 0 -0.047870447676044189 -0.34904970872779562 0 -0.045501608712330603 -0.36848196456507237 0 -0.06213406998535722 -0.37115011931220071 0 -0.050556586925527239 -0.38332022825225959 0 -0.06213406998535722 -0.37115011931220071 0 -0.047870447676044189 -0.34904970872779562 0 -0.076636431192470766 -0.34986157805767221 0 -0.047870447676044189 -0.34904970872779562 0 -0.058122185781438532 -0.33493853208753122 0 -0.076636431192470766 -0.34986157805767221 0 -0.06213406998535722 -0.37115011931220071 0 -0.047870447676044189 -0.34904970872779562 0 -0.076636431192470766 -0.34986157805767221 0 -0.047870447676044189 -0.34904970872779562 0 -0.047870447676044189 -0.34904970872779562 0 -0.058122185781438532 -0.33493853208753122 0 -0.039403578638212838 -0.33593093160072868 0 -0.058122185781438532 -0.33493853208753122 0 -0.047066945361674883 -0.31914620485107009 0 -0.039403578638212838 -0.33593093160072868 0 -0.058122185781438532 -0.33493853208753122 0 -0.062328020054012709 -0.32255128637316188 0 -0.047066945361674883 -0.31914620485107009 0 -0.063456477994186231 -0.30931765152422241 0 -0.062328020054012709 -0.32255128637316188 0 -0.047066945361674883 -0.31914620485107009 0 -0.047066945361674883 -0.31914620485107009 0 -0.039403578638212838 -0.33593093160072868 0 -0.030936709600379891 -0.32281215447366279 0 -0.047066945361674883 -0.31914620485107009 0 -0.037500275595947222 -0.3161458182703738 0 -0.030936709600379891 -0.32281215447366279 0 -0.037217216485105571 -0.30670689251819599 0 -0.047066945361674883 -0.31914620485107009 0 -0.037500275595947222 -0.3161458182703738 0 -0.037500275595947222 -0.3161458182703738 0 -0.02590776494197929 -0.31782449193869949 0 -0.030936709600379891 -0.32281215447366279 0 -0.030565610590850081 -0.31142764263038658 0 -0.037500275595947222 -0.3161458182703738 0 -0.02590776494197929 -0.31782449193869949 0 -0.047870447676044189 -0.34904970872779562 0 -0.039403578638212838 -0.33593093160072868 0 -0.039403578638212838 -0.33593093160072868 0 -0.030936709600379891 -0.32281215447366279 0 -0.039403578638212838 -0.33593093160072868 0 -0.021859278484043228 -0.33125469609289349 0 -0.030936709600379891 -0.32281215447366279 0 -0.021859278484043228 -0.33125469609289349 0 -0.0040619637084774382 -0.34781329125918142 0 -0.02533978476910894 -0.3484138203638405 0 -0.039403578638212838 -0.33593093160072868 0 -0.021859278484043228 -0.33125469609289349 0 -0.02533978476910894 -0.3484138203638405 0 -0.021859278484043228 -0.33125469609289349 0 -0.02533978476910894 -0.3484138203638405 0 -0.021859278484043228 -0.33125469609289349 0 -0.01837877219897803 -0.31409557182194647 0 -0.021859278484043228 -0.33125469609289349 0 -0.02590776494197929 -0.31782449193869949 0 -0.01837877219897803 -0.31409557182194647 0 -0.02509127964785254 -0.31115435659590102 0 -0.030565610590850081 -0.31142764263038658 0 -0.02590776494197929 -0.31782449193869949 0 -0.02509127964785254 -0.31115435659590102 0 -0.02590776494197929 -0.31782449193869949 0 -0.020228660721467361 -0.31359189968424239 0 -0.021859278484043228 -0.33125469609289349 0 -0.02590776494197929 -0.31782449193869949 0 -0.030936709600379891 -0.32281215447366279 0 -0.01811004293999097 -0.31261226474241688 0 -0.01837877219897803 -0.31409557182194647 0 -0.01811004293999097 -0.31261226474241688 0 -0.01837877219897803 -0.31409557182194647 0 -0.020228660721467361 -0.31359189968424239 0 -0.01837877219897803 -0.31409557182194647 0 -0.020228660721467361 -0.31359189968424239 0 -0.02590776494197929 -0.31782449193869949 0 -0.01837877219897803 -0.31409557182194647 0 -0.020228660721467361 -0.31359189968424239 0 -0.021859278484043228 -0.33125469609289349 0 -0.01837877219897803 -0.31409557182194647 0 -0.0060755731424686037 -0.33147489451578949 0 -0.01837877219897803 -0.31409557182194647 0 0.0040119165157269498 -0.32019192082489051 0 -0.01837877219897803 -0.31409557182194647 0 -0.0060755731424686037 -0.33147489451578949 0 0.0040119165157269498 -0.32019192082489051 0 -0.01837877219897803 -0.31409557182194647 0 -0.0063767584182884453 -0.31267072953001079 0 0.0040119165157269498 -0.32019192082489051 0 -0.01811004293999097 -0.31261226474241688 0 -0.01837877219897803 -0.31409557182194647 0 -0.0063767584182884453 -0.31267072953001079 0 -0.021859278484043228 -0.33125469609289349 0 -0.0060755731424686037 -0.33147489451578949 0 -0.0040619637084774382 -0.34781329125918142 0 -0.0040619637084774382 -0.34781329125918142 0 -0.02533978476910894 -0.3484138203638405 0 -0.0040619637084774382 -0.34781329125918142 0 -0.02533978476910894 -0.3484138203638405 0 -0.0092315767869633469 -0.36266357988516268 0 -0.0040619637084774382 -0.34781329125918142 0 -0.0092315767869633469 -0.36266357988516268 0 0.01040599386537659 -0.3595133499523766 0 -0.036895247149196307 -0.35793982586866452 0 -0.02533978476910894 -0.3484138203638405 0 -0.0288691474393034 -0.36581380981794798 0 -0.02533978476910894 -0.3484138203638405 0 -0.0288691474393034 -0.36581380981794798 0 -0.0092315767869633469 -0.36266357988516268 0 -0.02533978476910894 -0.3484138203638405 0 -0.0288691474393034 -0.36581380981794798 0 -0.0288691474393034 -0.36581380981794798 0 -0.0092315767869633469 -0.36266357988516268 0 -0.0288691474393034 -0.36581380981794798 0 -0.014974135974081841 -0.37040648199687171 0 -0.0092315767869633469 -0.36266357988516268 0 -0.0288691474393034 -0.36581380981794798 0 -0.014974135974081841 -0.37040648199687171 0 -0.01463002609816925 -0.38004033416110861 0 -0.005499767600076394 -0.36862719476803352 0 -0.01463002609816925 -0.38004033416110861 0 0.004491385456308495 -0.3701968475242281 0 -0.014974135974081841 -0.37040648199687171 0 -0.0092315767869633469 -0.36266357988516268 0 -0.005499767600076394 -0.36862719476803352 0 -0.014974135974081841 -0.37040648199687171 0 -0.005499767600076394 -0.36862719476803352 0 -0.01463002609816925 -0.38004033416110861 0 -0.0092315767869633469 -0.36266357988516268 0 -0.005499767600076394 -0.36862719476803352 0 0.0070312487209461139 -0.36560911810176072 0 -0.01463002609816925 -0.38004033416110861 0 -0.0082329305185383367 -0.39318065125541718 0 0.004491385456308495 -0.3701968475242281 0 -0.01463002609816925 -0.38004033416110861 0 0.004491385456308495 -0.3701968475242281 0 -0.0082329305185383367 -0.39318065125541718 0 0.004491385456308495 -0.3701968475242281 0 -0.01463002609816925 -0.38004033416110861 0 -0.0082329305185383367 -0.39318065125541718 0 -0.02145081128026502 -0.39508215510512867 0 -0.003501012975338088 -0.40606038485500778 0 -0.0082329305185383367 -0.39318065125541718 0 -0.020957246493385921 -0.41616445498660581 0 -0.0082329305185383367 -0.39318065125541718 0 -0.020957246493385921 -0.41616445498660581 0 -0.003501012975338088 -0.40606038485500778 0 -0.0082329305185383367 -0.39318065125541718 0 0.0078814430085241416 -0.39648342802442182 0 -0.02145081128026502 -0.39508215510512867 0 -0.028131946300283001 -0.40543025254472131 0 -0.020957246493385921 -0.41616445498660581 0 -0.0082329305185383367 -0.39318065125541718 0 -0.02145081128026502 -0.39508215510512867 0 -0.020957246493385921 -0.41616445498660581 0 -0.02145081128026502 -0.39508215510512867 0 -0.030111276010447309 -0.39781564402659192 0 -0.033751437652646842 -0.38988382079798939 0 -0.02145081128026502 -0.39508215510512867 0 -0.030111276010447309 -0.39781564402659192 0 -0.028131946300283001 -0.40543025254472131 0 -0.0288691474393034 -0.36581380981794798 0 -0.01463002609816925 -0.38004033416110861 0 -0.033751437652646842 -0.38988382079798939 0 -0.01463002609816925 -0.38004033416110861 0 -0.02145081128026502 -0.39508215510512867 0 -0.033751437652646842 -0.38988382079798939 0 -0.01463002609816925 -0.38004033416110861 0 -0.033751437652646842 -0.38988382079798939 0 -0.045501608712330603 -0.36848196456507237 0 -0.033751437652646842 -0.38988382079798939 0 -0.050556586925527239 -0.38332022825225959 0 -0.033751437652646842 -0.38988382079798939 0 -0.050321885952906847 -0.39841410037207009 0 -0.050556586925527239 -0.38332022825225959 0 -0.0288691474393034 -0.36581380981794798 0 -0.033751437652646842 -0.38988382079798939 0 -0.033751437652646842 -0.38988382079798939 0 -0.034804764250733977 -0.39507679001399543 0 -0.050321885952906847 -0.39841410037207009 0 -0.030111276010447309 -0.39781564402659192 0 -0.033751437652646842 -0.38988382079798939 0 -0.034804764250733977 -0.39507679001399543 0 -0.033751437652646842 -0.38988382079798939 0 -0.034804764250733977 -0.39507679001399543 0 -0.033751437652646842 -0.38988382079798939 0 -0.050321885952906847 -0.39841410037207009 0 -0.030111276010447309 -0.39781564402659192 0 -0.028131946300283001 -0.40543025254472131 0 -0.036381968952787801 -0.40303388109320643 0 -0.030111276010447309 -0.39781564402659192 0 -0.034804764250733977 -0.39507679001399543 0 -0.036381968952787801 -0.40303388109320643 0 -0.034804764250733977 -0.39507679001399543 0 -0.036381968952787801 -0.40303388109320643 0 -0.050321885952906847 -0.39841410037207009 0 -0.036381968952787801 -0.40303388109320643 0 -0.050321885952906847 -0.39841410037207009 0 -0.042532353304072679 -0.40852092064233569 0 -0.050321885952906847 -0.39841410037207009 0 -0.066892334253167068 -0.4069443799461504 0 -0.050321885952906847 -0.39841410037207009 0 -0.061073932324394682 -0.38867113621396499 0 -0.066892334253167068 -0.4069443799461504 0 -0.050321885952906847 -0.39841410037207009 0 -0.052218954073636553 -0.40985561714323532 0 -0.066892334253167068 -0.4069443799461504 0 -0.050321885952906847 -0.39841410037207009 0 -0.052218954073636553 -0.40985561714323532 0 -0.042532353304072679 -0.40852092064233569 0 -0.06213406998535722 -0.37115011931220071 0 -0.061073932324394682 -0.38867113621396499 0 -0.050556586925527239 -0.38332022825225959 0 -0.050321885952906847 -0.39841410037207009 0 -0.061073932324394682 -0.38867113621396499 0 -0.050556586925527239 -0.38332022825225959 0 -0.039760732932703657 -0.43848563751973868 0 -0.066393057541642403 -0.42478044610655669 0 -0.048718985698284749 -0.42493206143147749 0 -0.039760732932703657 -0.43848563751973868 0 -0.066393057541642403 -0.42478044610655669 0 -0.039760732932703657 -0.43848563751973868 0 -0.066393057541642403 -0.42478044610655669 0 -0.064008215436665752 -0.43699804329512049 0 -0.048718985698284749 -0.42493206143147749 0 -0.057599414774954547 -0.41793042321710983 0 -0.066393057541642403 -0.42478044610655669 0 -0.057599414774954547 -0.41793042321710983 0 -0.052218954073636553 -0.40985561714323532 0 -0.066892334253167068 -0.4069443799461504 0 -0.057599414774954547 -0.41793042321710983 0 -0.052218954073636553 -0.40985561714323532 0 -0.043748782083081597 -0.41746826153851058 0 -0.048718985698284749 -0.42493206143147749 0 -0.057599414774954547 -0.41793042321710983 0 -0.043748782083081597 -0.41746826153851058 0 -0.043748782083081597 -0.41746826153851058 0 -0.042532353304072679 -0.40852092064233569 0 -0.034371862090522939 -0.41265991867056517 0 -0.052218954073636553 -0.40985561714323532 0 -0.043748782083081597 -0.41746826153851058 0 -0.042532353304072679 -0.40852092064233569 0 -0.028131946300283001 -0.40543025254472131 0 -0.036381968952787801 -0.40303388109320643 0 -0.034371862090522939 -0.41265991867056517 0 -0.036381968952787801 -0.40303388109320643 0 -0.042532353304072679 -0.40852092064233569 0 -0.034371862090522939 -0.41265991867056517 0 -0.043748782083081597 -0.41746826153851058 0 -0.034371862090522939 -0.41265991867056517 0 -0.036092941159041568 -0.42599553877547158 0 -0.048718985698284749 -0.42493206143147749 0 -0.043748782083081597 -0.41746826153851058 0 -0.036092941159041568 -0.42599553877547158 0 -0.048718985698284749 -0.42493206143147749 0 -0.036092941159041568 -0.42599553877547158 0 -0.039760732932703657 -0.43848563751973868 0 -0.036092941159041568 -0.42599553877547158 0 -0.039760732932703657 -0.43848563751973868 0 -0.033681562468233527 -0.43914825871779439 0 -0.019086535611000141 -0.43332240730699229 0 -0.020957246493385921 -0.41616445498660581 0 -0.033681562468233527 -0.43914825871779439 0 -0.036092941159041568 -0.42599553877547158 0 -0.020957246493385921 -0.41616445498660581 0 -0.033681562468233527 -0.43914825871779439 0 -0.020957246493385921 -0.41616445498660581 0 -0.033681562468233527 -0.43914825871779439 0 -0.028131946300283001 -0.40543025254472131 0 -0.034371862090522939 -0.41265991867056517 0 -0.020957246493385921 -0.41616445498660581 0 -0.034371862090522939 -0.41265991867056517 0 -0.036092941159041568 -0.42599553877547158 0 -0.020957246493385921 -0.41616445498660581 0 -0.003501012975338088 -0.40606038485500778 0 -0.020957246493385921 -0.41616445498660581 0 -9.0866128732218672e-05 -0.41964567598439279 0 -0.019086535611000141 -0.43332240730699229 0 -9.0866128732218672e-05 -0.41964567598439279 0 -0.0080631752659889987 -0.44280792394436369 0 -9.0866128732218672e-05 -0.41964567598439279 0 -0.0080631752659889987 -0.44280792394436369 0 -0.019086535611000141 -0.43332240730699229 0 -0.020957246493385921 -0.41616445498660581 0 -9.0866128732218672e-05 -0.41964567598439279 0 -0.0080631752659889987 -0.44280792394436369 0 -0.02270360505793385 -0.44813511994719329 0 -0.0080631752659889987 -0.44280792394436369 0 -0.017468276640195249 -0.47013291678740449 0 0.00035831223976342429 -0.46213143315566829 0 -0.0080631752659889987 -0.44280792394436369 0 -0.017468276640195249 -0.47013291678740449 0 -0.02785552416579665 -0.45949330001320038 0 -0.02270360505793385 -0.44813511994719329 0 -0.017468276640195249 -0.47013291678740449 0 -0.02785552416579665 -0.45949330001320038 0 -0.017468276640195249 -0.47013291678740449 0 -0.033906180115179048 -0.46624284736818061 0 -0.0080631752659889987 -0.44280792394436369 0 -0.02270360505793385 -0.44813511994719329 0 -0.017468276640195249 -0.47013291678740449 0 -0.02785552416579665 -0.45949330001320038 0 -0.02270360505793385 -0.44813511994719329 0 -0.037344034849878451 -0.45346231595002351 0 -0.02270360505793385 -0.44813511994719329 0 -0.033681562468233527 -0.43914825871779439 0 -0.037344034849878451 -0.45346231595002351 0 -0.02270360505793385 -0.44813511994719329 0 -0.037344034849878451 -0.45346231595002351 0 -0.019086535611000141 -0.43332240730699229 0 -0.02270360505793385 -0.44813511994719329 0 -0.033681562468233527 -0.43914825871779439 0 -0.019086535611000141 -0.43332240730699229 0 -0.0080631752659889987 -0.44280792394436369 0 -0.02270360505793385 -0.44813511994719329 0 -0.010740055448653699 -0.5 0 -0.01360138984163909 -0.48721658585321947 0 0.00067615073669454514 -0.48127551699502819 0 -0.01360138984163909 -0.48721658585321947 0 -0.017468276640195249 -0.47013291678740449 0 0.00067615073669454514 -0.48127551699502819 0 -0.017468276640195249 -0.47013291678740449 0 0.00035831223976342429 -0.46213143315566829 0 0.00067615073669454514 -0.48127551699502819 0 -0.017468276640195249 -0.47013291678740449 0 -0.036924533379089061 -0.47903542565980223 0 -0.033906180115179048 -0.46624284736818061 0 -0.017468276640195249 -0.47013291678740449 0 -0.034778565259708683 -0.48915342368854542 0 -0.036924533379089061 -0.47903542565980223 0 -0.017468276640195249 -0.47013291678740449 0 -0.026873378014401959 -0.49745790963044539 0 -0.010740055448653699 -0.5 0 -0.01360138984163909 -0.48721658585321947 0 -0.026873378014401959 -0.49745790963044539 0 -0.010740055448653699 -0.5 0 -0.026873378014401959 -0.49745790963044539 0 -0.038158171415419197 -0.49999999999999889 0 -0.017468276640195249 -0.47013291678740449 0 -0.026873378014401959 -0.49745790963044539 0 -0.034778565259708683 -0.48915342368854542 0 -0.01360138984163909 -0.48721658585321947 0 -0.017468276640195249 -0.47013291678740449 0 -0.026873378014401959 -0.49745790963044539 0 -0.034778565259708683 -0.48915342368854542 0 -0.036924533379089061 -0.47903542565980223 0 -0.059130194417929167 -0.48511586618017161 0 -0.038158171415419197 -0.49999999999999889 0 -0.034778565259708683 -0.48915342368854542 0 -0.059130194417929167 -0.48511586618017161 0 -0.026873378014401959 -0.49745790963044539 0 -0.038158171415419197 -0.49999999999999889 0 -0.034778565259708683 -0.48915342368854542 0 -0.036924533379089061 -0.47903542565980223 0 -0.044091696588819528 -0.47313155041428451 0 -0.059130194417929167 -0.48511586618017161 0 -0.036924533379089061 -0.47903542565980223 0 -0.044091696588819528 -0.47313155041428451 0 -0.033906180115179048 -0.46624284736818061 0 -0.050957352413595197 -0.47035334401985018 0 -0.067731395556540563 -0.46386344047678357 0 -0.063124746064515042 -0.47340787327758249 0 -0.044091696588819528 -0.47313155041428451 0 -0.050957352413595197 -0.47035334401985018 0 -0.059130194417929167 -0.48511586618017161 0 -0.050957352413595197 -0.47035334401985018 0 -0.059130194417929167 -0.48511586618017161 0 -0.063124746064515042 -0.47340787327758249 0 -0.050957352413595197 -0.47035334401985018 0 -0.059130194417929167 -0.48511586618017161 0 -0.038158171415419197 -0.49999999999999889 0 -0.059130194417929167 -0.48511586618017161 0 -0.067370363188534968 -0.50000000000000289 0 -0.038158171415419197 -0.49999999999999889 0 -0.059130194417929167 -0.48511586618017161 0 -0.033681562468233527 -0.43914825871779439 0 -0.046405878443081187 -0.46213206244898319 0 -0.047552416813713118 -0.44946809480926908 0 -0.033681562468233527 -0.43914825871779439 0 -0.037344034849878451 -0.45346231595002351 0 -0.046405878443081187 -0.46213206244898319 0 -0.033681562468233527 -0.43914825871779439 0 -0.046405878443081187 -0.46213206244898319 0 -0.039760732932703657 -0.43848563751973868 0 -0.033681562468233527 -0.43914825871779439 0 -0.047552416813713118 -0.44946809480926908 0 -0.02785552416579665 -0.45949330001320038 0 -0.037344034849878451 -0.45346231595002351 0 -0.033906180115179048 -0.46624284736818061 0 -0.044091696588819528 -0.47313155041428451 0 -0.033906180115179048 -0.46624284736818061 0 -0.046405878443081187 -0.46213206244898319 0 -0.037344034849878451 -0.45346231595002351 0 -0.033906180115179048 -0.46624284736818061 0 -0.046405878443081187 -0.46213206244898319 0 -0.050957352413595197 -0.47035334401985018 0 -0.057374765531416717 -0.45842120668937369 0 -0.067731395556540563 -0.46386344047678357 0 -0.046405878443081187 -0.46213206244898319 0 -0.057374765531416717 -0.45842120668937369 0 -0.047552416813713118 -0.44946809480926908 0 -0.050957352413595197 -0.47035334401985018 0 -0.067731395556540563 -0.46386344047678357 0 -0.050957352413595197 -0.47035334401985018 0 -0.046405878443081187 -0.46213206244898319 0 -0.057374765531416717 -0.45842120668937369 0 -0.050957352413595197 -0.47035334401985018 0 -0.046405878443081187 -0.46213206244898319 0 -0.044091696588819528 -0.47313155041428451 0 -0.050957352413595197 -0.47035334401985018 0 -0.046405878443081187 -0.46213206244898319 0 -0.039760732932703657 -0.43848563751973868 0 -0.060659156225640568 -0.44686918137342457 0 -0.047552416813713118 -0.44946809480926908 0 -0.039760732932703657 -0.43848563751973868 0 -0.060659156225640568 -0.44686918137342457 0 -0.064008215436665752 -0.43699804329512049 0 -0.057374765531416717 -0.45842120668937369 0 -0.060659156225640568 -0.44686918137342457 0 -0.047552416813713118 -0.44946809480926908 0 -0.060659156225640568 -0.44686918137342457 0 -0.074428370483700532 -0.44117719835749319 0 -0.081869547746008048 -0.44863317825899829 0 -0.060659156225640568 -0.44686918137342457 0 -0.070652889872351521 -0.45267894507383127 0 -0.081869547746008048 -0.44863317825899829 0 -0.060659156225640568 -0.44686918137342457 0 -0.081869547746008048 -0.44863317825899829 0 -0.060659156225640568 -0.44686918137342457 0 -0.074428370483700532 -0.44117719835749319 0 -0.064008215436665752 -0.43699804329512049 0 -0.070652889872351521 -0.45267894507383127 0 -0.076152021385188243 -0.45389188241651202 0 -0.081869547746008048 -0.44863317825899829 0 -0.057374765531416717 -0.45842120668937369 0 -0.060659156225640568 -0.44686918137342457 0 -0.070652889872351521 -0.45267894507383127 0 -0.067731395556540563 -0.46386344047678357 0 -0.083927907157882786 -0.45769327051248793 0 -0.057374765531416717 -0.45842120668937369 0 -0.070652889872351521 -0.45267894507383127 0 -0.067731395556540563 -0.46386344047678357 0 -0.067731395556540563 -0.46386344047678357 0 -0.083927907157882786 -0.45769327051248793 0 -0.075362256146068854 -0.47359574821614758 0 -0.067731395556540563 -0.46386344047678357 0 -0.081608415390150763 -0.45636737659479237 0 -0.083927907157882786 -0.45769327051248793 0 -0.070652889872351521 -0.45267894507383127 0 -0.067731395556540563 -0.46386344047678357 0 -0.076152021385188243 -0.45389188241651202 0 -0.067731395556540563 -0.46386344047678357 0 -0.076152021385188243 -0.45389188241651202 0 -0.081608415390150763 -0.45636737659479237 0 -0.091594317874205133 -0.46207563025211862 0 -0.075362256146068854 -0.47359574821614758 0 -0.083927907157882786 -0.45769327051248793 0 -0.091594317874205133 -0.46207563025211862 0 -0.1030799392663756 -0.45039717514457173 0 -0.083927907157882786 -0.45769327051248793 0 -0.091594317874205133 -0.46207563025211862 0 -0.075362256146068854 -0.47359574821614758 0 -0.083927907157882786 -0.45769327051248793 0 -0.085896273399716103 -0.45279002216506792 0 -0.1030799392663756 -0.45039717514457173 0 -0.083927907157882786 -0.45769327051248793 0 -0.1030799392663756 -0.45039717514457173 0 -0.081608415390150763 -0.45636737659479237 0 -0.083927907157882786 -0.45769327051248793 0 -0.085896273399716103 -0.45279002216506792 0 -0.081608415390150763 -0.45636737659479237 0 -0.083927907157882786 -0.45769327051248793 0 -0.083927907157882786 -0.45769327051248793 0 -0.091594317874205133 -0.46207563025211862 0 -0.081869547746008048 -0.44863317825899829 0 -0.085896273399716103 -0.45279002216506792 0 -0.1030799392663756 -0.45039717514457173 0 -0.093068570882393023 -0.44251615224307211 0 -0.081869547746008048 -0.44863317825899829 0 -0.1030799392663756 -0.45039717514457173 0 -0.081869547746008048 -0.44863317825899829 0 -0.1030799392663756 -0.45039717514457173 0 -0.093068570882393023 -0.44251615224307211 0 -0.084807514268863293 -0.44023735524342961 0 -0.081869547746008048 -0.44863317825899829 0 -0.093068570882393023 -0.44251615224307211 0 -0.084807514268863293 -0.44023735524342961 0 -0.093949265458286912 -0.43178544703781019 0 -0.074428370483700532 -0.44117719835749319 0 -0.084807514268863293 -0.44023735524342961 0 -0.078799759999641575 -0.43367775311838919 0 -0.074428370483700532 -0.44117719835749319 0 -0.084807514268863293 -0.44023735524342961 0 -0.081869547746008048 -0.44863317825899829 0 -0.076152021385188243 -0.45389188241651202 0 -0.081608415390150763 -0.45636737659479237 0 -0.081869547746008048 -0.44863317825899829 0 -0.081608415390150763 -0.45636737659479237 0 -0.081869547746008048 -0.44863317825899829 0 -0.085896273399716103 -0.45279002216506792 0 -0.059130194417929167 -0.48511586618017161 0 -0.067370363188534968 -0.50000000000000289 0 -0.07869137235868226 -0.48901498358786549 0 -0.059130194417929167 -0.48511586618017161 0 -0.067370363188534968 -0.50000000000000289 0 -0.059130194417929167 -0.48511586618017161 0 -0.075362256146068854 -0.47359574821614758 0 -0.07869137235868226 -0.48901498358786549 0 -0.059130194417929167 -0.48511586618017161 0 -0.075362256146068854 -0.47359574821614758 0 -0.059130194417929167 -0.48511586618017161 0 -0.063124746064515042 -0.47340787327758249 0 -0.075362256146068854 -0.47359574821614758 0 -0.067731395556540563 -0.46386344047678357 0 -0.063124746064515042 -0.47340787327758249 0 -0.075362256146068854 -0.47359574821614758 0 -0.075362256146068854 -0.47359574821614758 0 -0.092910395219098399 -0.48112570615517197 0 -0.07869137235868226 -0.48901498358786549 0 -0.091594317874205133 -0.46207563025211862 0 -0.075362256146068854 -0.47359574821614758 0 -0.092910395219098399 -0.48112570615517197 0 -0.092910395219098399 -0.48112570615517197 0 -0.07869137235868226 -0.48901498358786549 0 -0.090012381528834173 -0.5 0 -0.067370363188534968 -0.50000000000000289 0 -0.07869137235868226 -0.48901498358786549 0 -0.090012381528834173 -0.5 0 -0.092910395219098399 -0.48112570615517197 0 -0.1137090240993809 -0.47471708683474562 0 -0.1126543998691333 -0.5 0 -0.092910395219098399 -0.48112570615517197 0 -0.090012381528834173 -0.5 0 -0.1126543998691333 -0.5 0 -0.091594317874205133 -0.46207563025211862 0 -0.092910395219098399 -0.48112570615517197 0 -0.1137090240993809 -0.47471708683474562 0 -0.13582373032455619 -0.48735854341737339 0 -0.1137090240993809 -0.47471708683474562 0 -0.13582373032455619 -0.48735854341737339 0 -0.1137090240993809 -0.47471708683474562 0 -0.1126543998691333 -0.5 0 -0.1030799392663756 -0.45039717514457173 0 -0.1075282156917844 -0.45076712332554209 0 -0.1115937340963991 -0.44715378777602149 0 -0.1030799392663756 -0.45039717514457173 0 -0.1115937340963991 -0.44715378777602149 0 -0.1030799392663756 -0.45039717514457173 0 -0.1075282156917844 -0.45076712332554209 0 -0.1030799392663756 -0.45039717514457173 0 -0.10065700757320201 -0.44084509933916888 0 -0.1087686671047117 -0.43606079915631712 0 -0.1030799392663756 -0.45039717514457173 0 -0.1115937340963991 -0.44715378777602149 0 -0.1087686671047117 -0.43606079915631712 0 -0.093068570882393023 -0.44251615224307211 0 -0.1030799392663756 -0.45039717514457173 0 -0.10065700757320201 -0.44084509933916888 0 -0.093068570882393023 -0.44251615224307211 0 -0.10065700757320201 -0.44084509933916888 0 -0.093949265458286912 -0.43178544703781019 0 -0.091594317874205133 -0.46207563025211862 0 -0.1137090240993809 -0.47471708683474562 0 -0.1075282156917844 -0.45076712332554209 0 -0.091594317874205133 -0.46207563025211862 0 -0.1075282156917844 -0.45076712332554209 0 -0.091594317874205133 -0.46207563025211862 0 -0.1030799392663756 -0.45039717514457173 0 -0.1075282156917844 -0.45076712332554209 0 -0.091594317874205133 -0.46207563025211862 0 -0.1137090240993809 -0.47471708683474562 0 -0.13339977038622339 -0.45291877346656317 0 -0.1075282156917844 -0.45076712332554209 0 -0.1197536107712632 -0.4603846222227676 0 -0.1307687261585217 -0.46778345343049782 0 -0.1137090240993809 -0.47471708683474562 0 -0.1197536107712632 -0.4603846222227676 0 -0.1137090240993809 -0.47471708683474562 0 -0.1075282156917844 -0.45076712332554209 0 -0.1197536107712632 -0.4603846222227676 0 -0.13339977038622339 -0.45291877346656317 0 -0.1075282156917844 -0.45076712332554209 0 -0.1115937340963991 -0.44715378777602149 0 -0.13339977038622339 -0.45291877346656317 0 -0.1075282156917844 -0.45076712332554209 0 -0.13339977038622339 -0.45291877346656317 0 -0.1115937340963991 -0.44715378777602149 0 -0.1225542100985763 -0.44297832076883009 0 -0.1075282156917844 -0.45076712332554209 0 -0.1115937340963991 -0.44715378777602149 0 -0.1115937340963991 -0.44715378777602149 0 -0.1225542100985763 -0.44297832076883009 0 -0.1087686671047117 -0.43606079915631712 0 -0.1115937340963991 -0.44715378777602149 0 -0.1225542100985763 -0.44297832076883009 0 -0.12818919803011231 -0.42850087913262958 0 -0.1087686671047117 -0.43606079915631712 0 -0.1127568112896505 -0.41997663303354332 0 -0.12818919803011231 -0.42850087913262958 0 -0.1225542100985763 -0.44297832076883009 0 -0.1087686671047117 -0.43606079915631712 0 -0.1087686671047117 -0.43606079915631712 0 -0.093949265458286912 -0.43178544703781019 0 -0.1127568112896505 -0.41997663303354332 0 -0.10065700757320201 -0.44084509933916888 0 -0.1087686671047117 -0.43606079915631712 0 -0.093949265458286912 -0.43178544703781019 0 -0.093949265458286912 -0.43178544703781019 0 -0.1127568112896505 -0.41997663303354332 0 -0.093025382150581162 -0.4110752546933748 0 -0.1127568112896505 -0.41997663303354332 0 -0.11965770675951989 -0.39737006328019292 0 -0.093025382150581162 -0.4110752546933748 0 -0.12954850123323461 -0.41175179961510788 0 -0.12818919803011231 -0.42850087913262958 0 -0.1127568112896505 -0.41997663303354332 0 -0.12954850123323461 -0.41175179961510788 0 -0.1127568112896505 -0.41997663303354332 0 -0.11965770675951989 -0.39737006328019292 0 -0.12889758925109701 -0.38102998034298241 0 -0.11935721682072881 -0.36625090763732798 0 -0.10161114746934941 -0.38408870307324328 0 -0.12889758925109701 -0.38102998034298241 0 -0.11965770675951989 -0.39737006328019292 0 -0.10161114746934941 -0.38408870307324328 0 -0.11965770675951989 -0.39737006328019292 0 -0.10161114746934941 -0.38408870307324328 0 -0.093025382150581162 -0.4110752546933748 0 -0.11965770675951989 -0.39737006328019292 0 -0.093025382150581162 -0.4110752546933748 0 -0.075296373164639191 -0.39154411868981043 0 -0.066892334253167068 -0.4069443799461504 0 -0.093025382150581162 -0.4110752546933748 0 -0.10161114746934941 -0.38408870307324328 0 -0.075296373164639191 -0.39154411868981043 0 -0.093025382150581162 -0.4110752546933748 0 -0.078498534134579717 -0.37377528235856078 0 -0.10161114746934941 -0.38408870307324328 0 -0.075296373164639191 -0.39154411868981043 0 -0.096545230004300056 -0.36757531451045422 0 -0.078498534134579717 -0.37377528235856078 0 -0.10161114746934941 -0.38408870307324328 0 -0.06213406998535722 -0.37115011931220071 0 -0.061073932324394682 -0.38867113621396499 0 -0.075296373164639191 -0.39154411868981043 0 -0.078498534134579717 -0.37377528235856078 0 -0.06213406998535722 -0.37115011931220071 0 -0.075296373164639191 -0.39154411868981043 0 -0.06213406998535722 -0.37115011931220071 0 -0.075296373164639191 -0.39154411868981043 0 -0.061073932324394682 -0.38867113621396499 0 -0.075296373164639191 -0.39154411868981043 0 -0.066892334253167068 -0.4069443799461504 0 -0.066892334253167068 -0.4069443799461504 0 -0.066393057541642403 -0.42478044610655669 0 -0.093025382150581162 -0.4110752546933748 0 -0.057599414774954547 -0.41793042321710983 0 -0.066892334253167068 -0.4069443799461504 0 -0.066393057541642403 -0.42478044610655669 0 -0.066393057541642403 -0.42478044610655669 0 -0.064008215436665752 -0.43699804329512049 0 -0.078799759999641575 -0.43367775311838919 0 -0.074428370483700532 -0.44117719835749319 0 -0.064008215436665752 -0.43699804329512049 0 -0.078799759999641575 -0.43367775311838919 0 -0.066393057541642403 -0.42478044610655669 0 -0.078799759999641575 -0.43367775311838919 0 -0.093025382150581162 -0.4110752546933748 0 -0.093949265458286912 -0.43178544703781019 0 -0.078799759999641575 -0.43367775311838919 0 -0.093025382150581162 -0.4110752546933748 0 -0.084807514268863293 -0.44023735524342961 0 -0.093949265458286912 -0.43178544703781019 0 -0.078799759999641575 -0.43367775311838919 0 -0.066393057541642403 -0.42478044610655669 0 -0.093025382150581162 -0.4110752546933748 0 -0.084139594312111751 -0.08821032915893541 0 -0.091466188814141217 -0.085389860497376804 0 -0.07217788267634509 -0.080654821260108839 0 -0.091466188814141217 -0.085389860497376804 0 -0.07217788267634509 -0.080654821260108839 0 -0.095860611258913681 -0.078884241245923165 0 -0.07217788267634509 -0.080654821260108839 0 -0.095860611258913681 -0.078884241245923165 0 -0.080267008321735722 -0.092079472553861397 0 -0.084139594312111751 -0.08821032915893541 0 -0.07217788267634509 -0.080654821260108839 0 -0.080267008321735722 -0.092079472553861397 0 -0.084139594312111751 -0.08821032915893541 0 -0.084139594312111751 -0.08821032915893541 0 -0.091466188814141217 -0.085389860497376804 0 -0.095326340672506407 -0.091905499039564853 0 -0.080267008321735722 -0.092079472553861397 0 -0.084139594312111751 -0.08821032915893541 0 -0.095326340672506407 -0.091905499039564853 0 -0.091674602759490215 -0.071985953158439961 0 -0.07217788267634509 -0.080654821260108839 0 -0.095860611258913681 -0.078884241245923165 0 -0.091674602759490215 -0.071985953158439961 0 -0.07584038624253811 -0.071406142048815083 0 -0.077019822231796403 -0.064825298916883545 0 -0.091674602759490215 -0.071985953158439961 0 -0.070222994285262103 -0.078554559141748276 0 -0.091674602759490215 -0.071985953158439961 0 -0.07584038624253811 -0.071406142048815083 0 -0.070222994285262103 -0.078554559141748276 0 -0.091674602759490215 -0.071985953158439961 0 -0.099374040229604499 -0.061712481686637947 0 -0.086687283469392445 -0.060462795065124052 0 -0.091674602759490215 -0.071985953158439961 0 -0.077019822231796403 -0.064825298916883545 0 -0.086687283469392445 -0.060462795065124052 0 -0.091674602759490215 -0.071985953158439961 0 -0.070222994285262103 -0.078554559141748276 0 -0.07217788267634509 -0.080654821260108839 0 -0.07584038624253811 -0.071406142048815083 0 -0.069372172491717038 -0.072005081927491582 0 -0.070222994285262103 -0.078554559141748276 0 -0.07584038624253811 -0.071406142048815083 0 -0.069730535052410031 -0.06792787403204685 0 -0.069372172491717038 -0.072005081927491582 0 -0.077019822231796403 -0.064825298916883545 0 -0.069730535052410031 -0.06792787403204685 0 -0.065504653852761899 -0.061919906881131463 0 -0.07584038624253811 -0.071406142048815083 0 -0.077019822231796403 -0.064825298916883545 0 -0.069730535052410031 -0.06792787403204685 0 -0.069730535052410031 -0.06792787403204685 0 -0.065504653852761899 -0.061919906881131463 0 -0.05980388735943417 -0.067360643579411517 0 -0.069730535052410031 -0.06792787403204685 0 -0.069372172491717038 -0.072005081927491582 0 -0.05980388735943417 -0.067360643579411517 0 -0.069372172491717038 -0.072005081927491582 0 -0.070222994285262103 -0.078554559141748276 0 -0.05980388735943417 -0.067360643579411517 0 -0.067806199498569752 -0.080981659227097144 0 -0.070222994285262103 -0.078554559141748276 0 -0.05980388735943417 -0.067360643579411517 0 -0.070222994285262103 -0.078554559141748276 0 -0.05980388735943417 -0.067360643579411517 0 -0.067806199498569752 -0.080981659227097144 0 -0.060516880947652812 -0.0815266269109651 0 -0.067806199498569752 -0.080981659227097144 0 -0.062116995395680573 -0.092932277458986412 0 -0.060516880947652812 -0.0815266269109651 0 -0.080267008321735722 -0.092079472553861397 0 -0.067806199498569752 -0.080981659227097144 0 -0.062116995395680573 -0.092932277458986412 0 -0.067806199498569752 -0.080981659227097144 0 -0.070222994285262103 -0.078554559141748276 0 -0.07217788267634509 -0.080654821260108839 0 -0.067806199498569752 -0.080981659227097144 0 -0.07217788267634509 -0.080654821260108839 0 -0.067806199498569752 -0.080981659227097144 0 -0.070222994285262103 -0.078554559141748276 0 -0.080267008321735722 -0.092079472553861397 0 -0.067806199498569752 -0.080981659227097144 0 -0.07217788267634509 -0.080654821260108839 0 -0.070222994285262103 -0.078554559141748276 0 -0.07217788267634509 -0.080654821260108839 0 -0.080267008321735722 -0.092079472553861397 0 -0.067806199498569752 -0.080981659227097144 0 -0.080267008321735722 -0.092079472553861397 0 -0.07217788267634509 -0.080654821260108839 0 -0.080267008321735722 -0.092079472553861397 0 -0.060443227579164517 -0.11188563063871659 0 -0.080267008321735722 -0.092079472553861397 0 -0.078386499625010597 -0.1126460591304103 0 -0.060443227579164517 -0.11188563063871659 0 -0.080267008321735722 -0.092079472553861397 0 -0.062116995395680573 -0.092932277458986412 0 -0.060443227579164517 -0.11188563063871659 0 -0.078386499625010597 -0.1126460591304103 0 -0.060443227579164517 -0.11188563063871659 0 -0.068987620712481143 -0.1275574927637394 0 -0.078386499625010597 -0.1126460591304103 0 -0.095146093601134504 -0.1053310450037061 0 -0.087088547910535621 -0.12637665469202941 0 -0.078386499625010597 -0.1126460591304103 0 -0.087088547910535621 -0.12637665469202941 0 -0.068987620712481143 -0.1275574927637394 0 -0.080267008321735722 -0.092079472553861397 0 -0.078386499625010597 -0.1126460591304103 0 -0.095146093601134504 -0.1053310450037061 0 -0.080267008321735722 -0.092079472553861397 0 -0.095146093601134504 -0.1053310450037061 0 -0.080267008321735722 -0.092079472553861397 0 -0.095146093601134504 -0.1053310450037061 0 -0.095326340672506407 -0.091905499039564853 0 -0.095146093601134504 -0.1053310450037061 0 -0.1066720944355337 -0.1040083089367935 0 -0.11352878991761139 -0.1116482682742852 0 -0.095146093601134504 -0.1053310450037061 0 -0.10502103755664489 -0.097995240204014386 0 -0.095326340672506407 -0.091905499039564853 0 -0.095146093601134504 -0.1053310450037061 0 -0.1066720944355337 -0.1040083089367935 0 -0.10502103755664489 -0.097995240204014386 0 -0.1066720944355337 -0.1040083089367935 0 -0.10502103755664489 -0.097995240204014386 0 -0.1129924566667435 -0.10105868226516861 0 -0.10502103755664489 -0.097995240204014386 0 -0.1129924566667435 -0.10105868226516861 0 -0.10898481728273469 -0.09062985156914817 0 -0.095146093601134504 -0.1053310450037061 0 -0.1096959964807086 -0.1209629398900559 0 -0.099789038250592474 -0.1280948968813988 0 -0.095146093601134504 -0.1053310450037061 0 -0.1096959964807086 -0.1209629398900559 0 -0.11377165527479351 -0.1219192945703181 0 -0.095146093601134504 -0.1053310450037061 0 -0.11377165527479351 -0.1219192945703181 0 -0.11352878991761139 -0.1116482682742852 0 -0.095146093601134504 -0.1053310450037061 0 -0.087088547910535621 -0.12637665469202941 0 -0.099789038250592474 -0.1280948968813988 0 -0.095146093601134504 -0.1053310450037061 0 -0.1096959964807086 -0.1209629398900559 0 -0.095146093601134504 -0.1053310450037061 0 -0.11377165527479351 -0.1219192945703181 0 -0.11377165527479351 -0.1219192945703181 0 -0.1216888923619938 -0.10675174355337549 0 -0.12775538554626081 -0.1227126556176807 0 -0.11377165527479351 -0.1219192945703181 0 -0.11352878991761139 -0.1116482682742852 0 -0.1216888923619938 -0.10675174355337549 0 -0.1216888923619938 -0.10675174355337549 0 -0.11849704627075811 -0.09243844387458372 0 -0.1292757252008358 -0.086638280753483551 0 -0.1129924566667435 -0.10105868226516861 0 -0.11849704627075811 -0.09243844387458372 0 -0.10898481728273469 -0.09062985156914817 0 -0.1066720944355337 -0.1040083089367935 0 -0.11352878991761139 -0.1116482682742852 0 -0.1129924566667435 -0.10105868226516861 0 -0.11352878991761139 -0.1116482682742852 0 -0.1129924566667435 -0.10105868226516861 0 -0.1216888923619938 -0.10675174355337549 0 -0.1129924566667435 -0.10105868226516861 0 -0.1216888923619938 -0.10675174355337549 0 -0.11849704627075811 -0.09243844387458372 0 -0.10898481728273469 -0.09062985156914817 0 -0.1022362595739558 -0.084784622716751162 0 -0.1195433398414827 -0.077113661231742819 0 -0.11849704627075811 -0.09243844387458372 0 -0.1195433398414827 -0.077113661231742819 0 -0.1292757252008358 -0.086638280753483551 0 -0.11849704627075811 -0.09243844387458372 0 -0.10898481728273469 -0.09062985156914817 0 -0.1195433398414827 -0.077113661231742819 0 -0.1022362595739558 -0.084784622716751162 0 -0.095860611258913681 -0.078884241245923165 0 -0.1195433398414827 -0.077113661231742819 0 -0.10898481728273469 -0.09062985156914817 0 -0.1022362595739558 -0.084784622716751162 0 -0.095326340672506407 -0.091905499039564853 0 -0.10502103755664489 -0.097995240204014386 0 -0.10898481728273469 -0.09062985156914817 0 -0.095326340672506407 -0.091905499039564853 0 -0.091466188814141217 -0.085389860497376804 0 -0.1022362595739558 -0.084784622716751162 0 -0.095860611258913681 -0.078884241245923165 0 -0.091466188814141217 -0.085389860497376804 0 -0.1022362595739558 -0.084784622716751162 0 -0.095326340672506407 -0.091905499039564853 0 -0.091674602759490215 -0.071985953158439961 0 -0.11312621123371849 -0.065417347175132118 0 -0.099374040229604499 -0.061712481686637947 0 -0.095860611258913681 -0.078884241245923165 0 -0.1195433398414827 -0.077113661231742819 0 -0.091674602759490215 -0.071985953158439961 0 -0.095860611258913681 -0.078884241245923165 0 -0.11312621123371849 -0.065417347175132118 0 -0.091674602759490215 -0.071985953158439961 0 -0.11312621123371849 -0.065417347175132118 0 -0.095860611258913681 -0.078884241245923165 0 -0.11312621123371849 -0.065417347175132118 0 -0.1195433398414827 -0.077113661231742819 0 -0.11312621123371849 -0.065417347175132118 0 -0.1248513481307208 -0.056407903770398032 0 -0.12775156614772479 -0.066509879246278839 0 -0.11312621123371849 -0.065417347175132118 0 -0.1195433398414827 -0.077113661231742819 0 -0.12775156614772479 -0.066509879246278839 0 -0.11312621123371849 -0.065417347175132118 0 -0.1121493660837172 -0.052570866956479508 0 -0.1046083313716378 -0.0575429868804163 0 -0.11312621123371849 -0.065417347175132118 0 -0.1248513481307208 -0.056407903770398032 0 -0.1121493660837172 -0.052570866956479508 0 -0.1121493660837172 -0.052570866956479508 0 -0.11598317169246219 -0.047623513546587781 0 -0.1248513481307208 -0.056407903770398032 0 -0.1121493660837172 -0.052570866956479508 0 -0.11598317169246219 -0.047623513546587781 0 -0.11598317169246219 -0.047623513546587781 0 -0.12862488378310541 -0.031309953653028681 0 -0.11598317169246219 -0.047623513546587781 0 -0.1130199299181902 -0.032627722745712621 0 -0.12862488378310541 -0.031309953653028681 0 -0.11598317169246219 -0.047623513546587781 0 -0.1130199299181902 -0.032627722745712621 0 -0.1045721409641539 -0.041083305060858791 0 -0.11598317169246219 -0.047623513546587781 0 -0.1045721409641539 -0.041083305060858791 0 -0.093783707939511116 -0.050471251703415633 0 -0.1130199299181902 -0.032627722745712621 0 -0.1045721409641539 -0.041083305060858791 0 -0.09681819399234981 -0.033312195800135447 0 -0.1045721409641539 -0.041083305060858791 0 -0.09681819399234981 -0.033312195800135447 0 -0.093783707939511116 -0.050471251703415633 0 -0.1121493660837172 -0.052570866956479508 0 -0.11598317169246219 -0.047623513546587781 0 -0.093783707939511116 -0.050471251703415633 0 -0.11598317169246219 -0.047623513546587781 0 -0.093783707939511116 -0.050471251703415633 0 -0.1121493660837172 -0.052570866956479508 0 -0.093783707939511116 -0.050471251703415633 0 -0.1046083313716378 -0.0575429868804163 0 -0.093783707939511116 -0.050471251703415633 0 -0.099374040229604499 -0.061712481686637947 0 -0.1046083313716378 -0.0575429868804163 0 -0.11312621123371849 -0.065417347175132118 0 -0.099374040229604499 -0.061712481686637947 0 -0.1046083313716378 -0.0575429868804163 0 -0.11894034767877069 -0.01352240977351583 0 -0.12716660979733599 0.0095071604966818855 0 -0.1099523175120959 0.0011801964601080731 0 -0.11894034767877069 -0.01352240977351583 0 -0.1055739924855011 -0.01092724636114609 0 -0.1099523175120959 0.0011801964601080731 0 -0.1130199299181902 -0.032627722745712621 0 -0.11894034767877069 -0.01352240977351583 0 -0.1019972360314495 -0.023730584291434789 0 -0.1130199299181902 -0.032627722745712621 0 -0.11894034767877069 -0.01352240977351583 0 -0.12862488378310541 -0.031309953653028681 0 -0.09681819399234981 -0.033312195800135447 0 -0.1019972360314495 -0.023730584291434789 0 -0.091409430166355762 -0.017495605837342831 0 -0.11894034767877069 -0.01352240977351583 0 -0.1019972360314495 -0.023730584291434789 0 -0.1055739924855011 -0.01092724636114609 0 -0.1130199299181902 -0.032627722745712621 0 -0.09681819399234981 -0.033312195800135447 0 -0.1019972360314495 -0.023730584291434789 0 -0.1019972360314495 -0.023730584291434789 0 -0.1055739924855011 -0.01092724636114609 0 -0.091409430166355762 -0.017495605837342831 0 -0.1055739924855011 -0.01092724636114609 0 -0.095210434247410186 -0.0022878937736707269 0 -0.091409430166355762 -0.017495605837342831 0 -0.1055739924855011 -0.01092724636114609 0 -0.095210434247410186 -0.0022878937736707269 0 -0.1099523175120959 0.0011801964601080731 0 -0.080428613217369896 -0.0033278701301705941 0 -0.091409430166355762 -0.017495605837342831 0 -0.075102013982143348 -0.017069588009078668 0 -0.095210434247410186 -0.0022878937736707269 0 -0.080428613217369896 -0.0033278701301705941 0 -0.091409430166355762 -0.017495605837342831 0 -0.091409430166355762 -0.017495605837342831 0 -0.075102013982143348 -0.017069588009078668 0 -0.083709411525209831 -0.032745135223966 0 -0.09681819399234981 -0.033312195800135447 0 -0.091409430166355762 -0.017495605837342831 0 -0.083709411525209831 -0.032745135223966 0 -0.069628025986883252 -0.03046743390415687 0 -0.075102013982143348 -0.017069588009078668 0 -0.056590410657144347 -0.020335090667853259 0 -0.069628025986883252 -0.03046743390415687 0 -0.075102013982143348 -0.017069588009078668 0 -0.083709411525209831 -0.032745135223966 0 -0.075102013982143348 -0.017069588009078668 0 -0.064271127366952091 -0.0052947208783540797 0 -0.056590410657144347 -0.020335090667853259 0 -0.080428613217369896 -0.0033278701301705941 0 -0.075102013982143348 -0.017069588009078668 0 -0.064271127366952091 -0.0052947208783540797 0 -0.093783707939511116 -0.050471251703415633 0 -0.071584244186559967 -0.053318989860243172 0 -0.093783707939511116 -0.050471251703415633 0 -0.086687283469392445 -0.060462795065124052 0 -0.071584244186559967 -0.053318989860243172 0 -0.077019822231796403 -0.064825298916883545 0 -0.086687283469392445 -0.060462795065124052 0 -0.071584244186559967 -0.053318989860243172 0 -0.093783707939511116 -0.050471251703415633 0 -0.099374040229604499 -0.061712481686637947 0 -0.086687283469392445 -0.060462795065124052 0 -0.09681819399234981 -0.033312195800135447 0 -0.093783707939511116 -0.050471251703415633 0 -0.083709411525209831 -0.032745135223966 0 -0.093783707939511116 -0.050471251703415633 0 -0.083709411525209831 -0.032745135223966 0 -0.071584244186559967 -0.053318989860243172 0 -0.069628025986883252 -0.03046743390415687 0 -0.071584244186559967 -0.053318989860243172 0 -0.058251149421032447 -0.036281237789403883 0 -0.069628025986883252 -0.03046743390415687 0 -0.083709411525209831 -0.032745135223966 0 -0.071584244186559967 -0.053318989860243172 0 -0.077019822231796403 -0.064825298916883545 0 -0.071584244186559967 -0.053318989860243172 0 -0.065504653852761899 -0.061919906881131463 0 -0.071584244186559967 -0.053318989860243172 0 -0.049384780433608957 -0.056166728017072232 0 -0.051789923638464228 -0.045153497422452081 0 -0.065504653852761899 -0.061919906881131463 0 -0.049384780433608957 -0.056166728017072232 0 -0.05980388735943417 -0.067360643579411517 0 -0.071584244186559967 -0.053318989860243172 0 -0.049384780433608957 -0.056166728017072232 0 -0.071584244186559967 -0.053318989860243172 0 -0.065504653852761899 -0.061919906881131463 0 -0.049384780433608957 -0.056166728017072232 0 -0.049384780433608957 -0.056166728017072232 0 -0.041329101590172737 -0.057400694765476018 0 -0.051003302023229287 -0.066016706134836567 0 -0.049384780433608957 -0.056166728017072232 0 -0.05980388735943417 -0.067360643579411517 0 -0.049384780433608957 -0.056166728017072232 0 -0.051789923638464228 -0.045153497422452081 0 -0.041154594099971478 -0.047324510393541318 0 -0.071584244186559967 -0.053318989860243172 0 -0.058251149421032447 -0.036281237789403883 0 -0.051789923638464228 -0.045153497422452081 0 -0.058251149421032447 -0.036281237789403883 0 -0.051789923638464228 -0.045153497422452081 0 -0.039842211476505879 -0.030449990007079389 0 -0.035610022655665721 -0.052307183476045932 0 -0.041154594099971478 -0.047324510393541318 0 -0.02021674328810202 -0.038597660817255387 0 -0.041154594099971478 -0.047324510393541318 0 -0.039842211476505879 -0.030449990007079389 0 -0.02021674328810202 -0.038597660817255387 0 -0.051789923638464228 -0.045153497422452081 0 -0.041154594099971478 -0.047324510393541318 0 -0.039842211476505879 -0.030449990007079389 0 -0.035610022655665721 -0.052307183476045932 0 -0.041329101590172737 -0.057400694765476018 0 -0.032980228934457297 -0.066831436049127155 0 -0.035610022655665721 -0.052307183476045932 0 -0.041329101590172737 -0.057400694765476018 0 -0.049384780433608957 -0.056166728017072232 0 -0.041329101590172737 -0.057400694765476018 0 -0.041329101590172737 -0.057400694765476018 0 -0.051003302023229287 -0.066016706134836567 0 -0.035610022655665721 -0.052307183476045932 0 -0.041329101590172737 -0.057400694765476018 0 -0.041154594099971478 -0.047324510393541318 0 -0.049384780433608957 -0.056166728017072232 0 -0.041329101590172737 -0.057400694765476018 0 -0.041154594099971478 -0.047324510393541318 0 -0.049384780433608957 -0.056166728017072232 0 -0.041154594099971478 -0.047324510393541318 0 -0.05011721311063793 -0.0050823539785914071 0 -0.056590410657144347 -0.020335090667853259 0 -0.038314111013531667 -0.01403876745007962 0 -0.064271127366952091 -0.0052947208783540797 0 -0.05011721311063793 -0.0050823539785914071 0 -0.05439781635118042 0.006307054599579049 0 -0.064271127366952091 -0.0052947208783540797 0 -0.05011721311063793 -0.0050823539785914071 0 -0.056590410657144347 -0.020335090667853259 0 -0.069628025986883252 -0.03046743390415687 0 -0.058251149421032447 -0.036281237789403883 0 -0.056590410657144347 -0.020335090667853259 0 -0.058251149421032447 -0.036281237789403883 0 -0.056590410657144347 -0.020335090667853259 0 -0.039842211476505879 -0.030449990007079389 0 -0.056590410657144347 -0.020335090667853259 0 -0.039842211476505879 -0.030449990007079389 0 -0.038314111013531667 -0.01403876745007962 0 -0.039842211476505879 -0.030449990007079389 0 -0.038314111013531667 -0.01403876745007962 0 -0.02410295138048758 -0.023276983147432061 0 -0.038314111013531667 -0.01403876745007962 0 -0.024027833461894011 -0.0099480013779003635 0 -0.035204045994520303 0.0048598144783787243 0 -0.05011721311063793 -0.0050823539785914071 0 -0.038314111013531667 -0.01403876745007962 0 -0.035204045994520303 0.0048598144783787243 0 -0.024027833461894011 -0.0099480013779003635 0 -0.0089631398119183643 -5.4210394797340562e-05 0 -0.035204045994520303 0.0048598144783787243 0 -0.039842211476505879 -0.030449990007079389 0 -0.02410295138048758 -0.023276983147432061 0 -0.02021674328810202 -0.038597660817255387 0 -0.02410295138048758 -0.023276983147432061 0 -0.0077693764230151452 -0.027511819132423971 0 -0.02021674328810202 -0.038597660817255387 0 -0.024027833461894011 -0.0099480013779003635 0 -0.02410295138048758 -0.023276983147432061 0 -0.01107747054258992 -0.015019591288197021 0 -0.038314111013531667 -0.01403876745007962 0 -0.024027833461894011 -0.0099480013779003635 0 -0.02410295138048758 -0.023276983147432061 0 -0.0077693764230151452 -0.027511819132423971 0 -0.01107747054258992 -0.015019591288197021 0 0.0046779904420720169 -0.016425977447592929 0 -0.02410295138048758 -0.023276983147432061 0 -0.0077693764230151452 -0.027511819132423971 0 -0.01107747054258992 -0.015019591288197021 0 -0.0077693764230151452 -0.027511819132423971 0 -0.0032567702735929551 -0.029385263834405598 0 0.0046779904420720169 -0.016425977447592929 0 -0.0077693764230151452 -0.027511819132423971 0 0.0046779904420720169 -0.016425977447592929 0 -0.01107747054258992 -0.015019591288197021 0 -0.0089631398119183643 -5.4210394797340562e-05 0 0.0046779904420720169 -0.016425977447592929 0 -0.024027833461894011 -0.0099480013779003635 0 -0.01107747054258992 -0.015019591288197021 0 -0.0089631398119183643 -5.4210394797340562e-05 0 -0.02137178599191579 -0.058971244433906778 0 -0.01119153098925808 -0.042344550221218039 0 -0.035610022655665721 -0.052307183476045932 0 -0.02137178599191579 -0.058971244433906778 0 -0.02021674328810202 -0.038597660817255387 0 -0.02137178599191579 -0.058971244433906778 0 -0.0082419530246259903 -0.056732907412171601 0 -0.01867465821777485 -0.070491537482031713 0 -0.035610022655665721 -0.052307183476045932 0 -0.02137178599191579 -0.058971244433906778 0 -0.032980228934457297 -0.066831436049127155 0 -0.02137178599191579 -0.058971244433906778 0 -0.02021674328810202 -0.038597660817255387 0 -0.01119153098925808 -0.042344550221218039 0 -0.035610022655665721 -0.052307183476045932 0 -0.02021674328810202 -0.038597660817255387 0 -0.039842211476505879 -0.030449990007079389 0 -0.02021674328810202 -0.038597660817255387 0 -0.02021674328810202 -0.038597660817255387 0 -0.01119153098925808 -0.042344550221218039 0 -0.01119153098925808 -0.042344550221218039 0 0.0083234155274403004 -0.050446337071338332 0 -0.0077693764230151452 -0.027511819132423971 0 -0.02021674328810202 -0.038597660817255387 0 -0.01119153098925808 -0.042344550221218039 0 -0.0077693764230151452 -0.027511819132423971 0 -0.02021674328810202 -0.038597660817255387 0 -0.0032567702735929551 -0.029385263834405598 0 -0.01119153098925808 -0.042344550221218039 0 0.0041562439286982498 -0.037449416732748153 0 -0.0032567702735929551 -0.029385263834405598 0 -0.01119153098925808 -0.042344550221218039 0 -0.0077693764230151452 -0.027511819132423971 0 -0.0032567702735929551 -0.029385263834405598 0 -0.01119153098925808 -0.042344550221218039 0 -0.01119153098925808 -0.042344550221218039 0 -0.0082419530246259903 -0.056732907412171601 0 0.0083234155274403004 -0.050446337071338332 0 -0.02137178599191579 -0.058971244433906778 0 -0.01119153098925808 -0.042344550221218039 0 -0.0082419530246259903 -0.056732907412171601 0 -0.0082419530246259903 -0.056732907412171601 0 -0.001417147873282963 -0.070227706175478771 0 0.0083234155274403004 -0.050446337071338332 0 -0.0082419530246259903 -0.056732907412171601 0 -0.001417147873282963 -0.070227706175478771 0 -0.01867465821777485 -0.070491537482031713 0 -0.001417147873282963 -0.070227706175478771 0 -0.015951645683606231 -0.084858435347256636 0 -0.01867465821777485 -0.070491537482031713 0 -0.015951645683606231 -0.084858435347256636 0 -0.01212379761353349 -0.094755621727328501 0 0.0063309719484169009 -0.086524339565403285 0 -0.001417147873282963 -0.070227706175478771 0 -0.015951645683606231 -0.084858435347256636 0 0.0063309719484169009 -0.086524339565403285 0 -0.015951645683606231 -0.084858435347256636 0 0.0063309719484169009 -0.086524339565403285 0 -0.015951645683606231 -0.084858435347256636 0 -0.01867465821777485 -0.070491537482031713 0 -0.03823426331562961 -0.083192531129111708 0 -0.022511522072824811 -0.093164086544951813 0 -0.015951645683606231 -0.084858435347256636 0 -0.03823426331562961 -0.083192531129111708 0 -0.015951645683606231 -0.084858435347256636 0 -0.03823426331562961 -0.083192531129111708 0 -0.022511522072824811 -0.093164086544951813 0 -0.015951645683606231 -0.084858435347256636 0 -0.01212379761353349 -0.094755621727328501 0 -0.01867465821777485 -0.070491537482031713 0 -0.032980228934457297 -0.066831436049127155 0 -0.03823426331562961 -0.083192531129111708 0 -0.02137178599191579 -0.058971244433906778 0 -0.01867465821777485 -0.070491537482031713 0 -0.032980228934457297 -0.066831436049127155 0 -0.032980228934457297 -0.066831436049127155 0 -0.03823426331562961 -0.083192531129111708 0 -0.051003302023229287 -0.066016706134836567 0 -0.041329101590172737 -0.057400694765476018 0 -0.032980228934457297 -0.066831436049127155 0 -0.051003302023229287 -0.066016706134836567 0 -0.022511522072824811 -0.093164086544951813 0 -0.04151420151023856 -0.087345356727957638 0 -0.034175245532243839 -0.096980609847496013 0 -0.022511522072824811 -0.093164086544951813 0 -0.03823426331562961 -0.083192531129111708 0 -0.04151420151023856 -0.087345356727957638 0 -0.022511522072824811 -0.093164086544951813 0 -0.04151420151023856 -0.087345356727957638 0 -0.03823426331562961 -0.083192531129111708 0 -0.04151420151023856 -0.087345356727957638 0 -0.060516880947652812 -0.0815266269109651 0 -0.04151420151023856 -0.087345356727957638 0 -0.042197031359394462 -0.095546264416939503 0 -0.034175245532243839 -0.096980609847496013 0 -0.04151420151023856 -0.087345356727957638 0 -0.052095330616804283 -0.09155323300163129 0 -0.042197031359394462 -0.095546264416939503 0 -0.03823426331562961 -0.083192531129111708 0 -0.060516880947652812 -0.0815266269109651 0 -0.04151420151023856 -0.087345356727957638 0 -0.052095330616804283 -0.09155323300163129 0 -0.060516880947652812 -0.0815266269109651 0 -0.04151420151023856 -0.087345356727957638 0 -0.060516880947652812 -0.0815266269109651 0 -0.052095330616804283 -0.09155323300163129 0 -0.062116995395680573 -0.092932277458986412 0 -0.060516880947652812 -0.0815266269109651 0 -0.067806199498569752 -0.080981659227097144 0 -0.060516880947652812 -0.0815266269109651 0 -0.051003302023229287 -0.066016706134836567 0 -0.067806199498569752 -0.080981659227097144 0 -0.05980388735943417 -0.067360643579411517 0 -0.051003302023229287 -0.066016706134836567 0 -0.03823426331562961 -0.083192531129111708 0 -0.060516880947652812 -0.0815266269109651 0 -0.051003302023229287 -0.066016706134836567 0 -0.067806199498569752 -0.080981659227097144 0 -0.051003302023229287 -0.066016706134836567 0 -0.049384780433608957 -0.056166728017072232 0 -0.05980388735943417 -0.067360643579411517 0 -0.051003302023229287 -0.066016706134836567 0 -0.060443227579164517 -0.11188563063871659 0 -0.041558870721501891 -0.117809106253649 0 -0.040619446836592903 -0.13169178872357129 0 -0.060443227579164517 -0.11188563063871659 0 -0.040619446836592903 -0.13169178872357129 0 -0.060443227579164517 -0.11188563063871659 0 -0.040619446836592903 -0.13169178872357129 0 -0.068987620712481143 -0.1275574927637394 0 -0.060443227579164517 -0.11188563063871659 0 -0.051573325410154747 -0.099567042421642007 0 -0.038000414332723692 -0.1071728326841306 0 -0.062116995395680573 -0.092932277458986412 0 -0.060443227579164517 -0.11188563063871659 0 -0.051573325410154747 -0.099567042421642007 0 -0.052095330616804283 -0.09155323300163129 0 -0.062116995395680573 -0.092932277458986412 0 -0.051573325410154747 -0.099567042421642007 0 -0.052095330616804283 -0.09155323300163129 0 -0.051573325410154747 -0.099567042421642007 0 -0.042197031359394462 -0.095546264416939503 0 -0.051573325410154747 -0.099567042421642007 0 -0.042197031359394462 -0.095546264416939503 0 -0.038000414332723692 -0.1071728326841306 0 -0.034175245532243839 -0.096980609847496013 0 -0.038000414332723692 -0.1071728326841306 0 -0.027127375704020299 -0.100022631057442 0 -0.042197031359394462 -0.095546264416939503 0 -0.034175245532243839 -0.096980609847496013 0 -0.038000414332723692 -0.1071728326841306 0 -0.060443227579164517 -0.11188563063871659 0 -0.038000414332723692 -0.1071728326841306 0 -0.041558870721501891 -0.117809106253649 0 -0.038000414332723692 -0.1071728326841306 0 -0.041558870721501891 -0.117809106253649 0 -0.0297250423136254 -0.11620259727614971 0 -0.041558870721501891 -0.117809106253649 0 -0.0297250423136254 -0.11620259727614971 0 -0.040619446836592903 -0.13169178872357129 0 -0.0297250423136254 -0.11620259727614971 0 -0.014908068774208069 -0.1188435223343005 0 -0.040619446836592903 -0.13169178872357129 0 -0.0297250423136254 -0.11620259727614971 0 -0.018967063252522811 -0.11144585108459761 0 -0.02589179507426494 -0.1075752477691319 0 -0.038000414332723692 -0.1071728326841306 0 -0.0297250423136254 -0.11620259727614971 0 -0.02589179507426494 -0.1075752477691319 0 -0.0297250423136254 -0.11620259727614971 0 -0.018967063252522811 -0.11144585108459761 0 -0.014908068774208069 -0.1188435223343005 0 -0.022511522072824811 -0.093164086544951813 0 -0.034175245532243839 -0.096980609847496013 0 -0.027127375704020299 -0.100022631057442 0 -0.038000414332723692 -0.1071728326841306 0 -0.027127375704020299 -0.100022631057442 0 -0.02589179507426494 -0.1075752477691319 0 -0.027127375704020299 -0.100022631057442 0 -0.02589179507426494 -0.1075752477691319 0 -0.019330445223575389 -0.1025345863844483 0 -0.018967063252522811 -0.11144585108459761 0 -0.02589179507426494 -0.1075752477691319 0 -0.019330445223575389 -0.1025345863844483 0 -0.018967063252522811 -0.11144585108459761 0 -0.019330445223575389 -0.1025345863844483 0 -0.01065999807502682 -0.1086257214281092 0 -0.022511522072824811 -0.093164086544951813 0 -0.027127375704020299 -0.100022631057442 0 -0.019330445223575389 -0.1025345863844483 0 -0.022511522072824811 -0.093164086544951813 0 -0.019330445223575389 -0.1025345863844483 0 -0.01212379761353349 -0.094755621727328501 0 -0.01065999807502682 -0.1086257214281092 0 0.0063309719484169009 -0.086524339565403285 0 -0.01212379761353349 -0.094755621727328501 0 -0.01065999807502682 -0.1086257214281092 0 0.0063309719484169009 -0.086524339565403285 0 -0.019330445223575389 -0.1025345863844483 0 -0.01212379761353349 -0.094755621727328501 0 -0.01065999807502682 -0.1086257214281092 0 -0.01065999807502682 -0.1086257214281092 0 -0.014908068774208069 -0.1188435223343005 0 0.010803309288177651 -0.1059952559450313 0 -0.014908068774208069 -0.1188435223343005 0 0.010803309288177651 -0.1059952559450313 0 -0.014908068774208069 -0.1188435223343005 0 -0.0049910715658874252 -0.12520864677907331 0 0.010803309288177651 -0.1059952559450313 0 -0.018967063252522811 -0.11144585108459761 0 -0.01065999807502682 -0.1086257214281092 0 -0.014908068774208069 -0.1188435223343005 0 -0.0049910715658874252 -0.12520864677907331 0 -0.0098486782387315671 -0.13968786278958389 0 0.0088244082276408946 -0.12923406822939981 0 -0.0049910715658874252 -0.12520864677907331 0 -0.0098486782387315671 -0.13968786278958389 0 -0.01982632833231603 -0.13228252459705089 0 -0.014908068774208069 -0.1188435223343005 0 -0.0049910715658874252 -0.12520864677907331 0 -0.01982632833231603 -0.13228252459705089 0 -0.014908068774208069 -0.1188435223343005 0 -0.01982632833231603 -0.13228252459705089 0 -0.040619446836592903 -0.13169178872357129 0 -0.0098486782387315671 -0.13968786278958389 0 -0.01982632833231603 -0.13228252459705089 0 -0.027474599099440451 -0.14482495114421451 0 -0.014908068774208069 -0.1188435223343005 0 -0.040619446836592903 -0.13169178872357129 0 -0.01982632833231603 -0.13228252459705089 0 -0.027474599099440451 -0.14482495114421451 0 -0.040619446836592903 -0.13169178872357129 0 -0.0098486782387315671 -0.13968786278958389 0 -0.027474599099440451 -0.14482495114421451 0 -0.017471534114245981 -0.1587585578439635 0 -0.027474599099440451 -0.14482495114421451 0 -0.017471534114245981 -0.1587585578439635 0 -0.036491065683978953 -0.1545576113110988 0 -0.017471534114245981 -0.1587585578439635 0 0.0070721815308918828 -0.14835407191058131 0 -0.0098486782387315671 -0.13968786278958389 0 -0.017471534114245981 -0.1587585578439635 0 0.0070721815308918828 -0.14835407191058131 0 -0.0085478460378840132 -0.1686674562380521 0 -0.016215254959647912 -0.17987130138463131 0 -0.017471534114245981 -0.1587585578439635 0 -0.017471534114245981 -0.1587585578439635 0 4.3932368462001469e-05 -0.16259256566360691 0 0.0070721815308918828 -0.14835407191058131 0 -0.0085478460378840132 -0.1686674562380521 0 -0.017471534114245981 -0.1587585578439635 0 4.3932368462001469e-05 -0.16259256566360691 0 -0.0085478460378840132 -0.1686674562380521 0 4.3932368462001469e-05 -0.16259256566360691 0 0.0032934927891920562 -0.17359131979549861 0 -0.016215254959647912 -0.17987130138463131 0 0.0032934927891920562 -0.17359131979549861 0 0.0016220851498990111 -0.18706253986558219 0 -0.0085478460378840132 -0.1686674562380521 0 -0.016215254959647912 -0.17987130138463131 0 0.0032934927891920562 -0.17359131979549861 0 -0.016215254959647912 -0.17987130138463131 0 -0.042015249759383928 -0.16916304377734581 0 -0.035310887089208168 -0.1869415038206711 0 -0.016215254959647912 -0.17987130138463131 0 -0.017471534114245981 -0.1587585578439635 0 -0.042015249759383928 -0.16916304377734581 0 -0.017471534114245981 -0.1587585578439635 0 -0.042015249759383928 -0.16916304377734581 0 -0.017471534114245981 -0.1587585578439635 0 -0.042015249759383928 -0.16916304377734581 0 -0.036491065683978953 -0.1545576113110988 0 -0.042015249759383928 -0.16916304377734581 0 -0.050438354320754407 -0.1512059850554634 0 -0.036491065683978953 -0.1545576113110988 0 -0.042015249759383928 -0.16916304377734581 0 -0.035310887089208168 -0.1869415038206711 0 -0.056708354906834367 -0.17928594510321619 0 -0.035310887089208168 -0.1869415038206711 0 -0.056708354906834367 -0.17928594510321619 0 -0.055933817126448022 -0.19347577781875511 0 -0.056708354906834367 -0.17928594510321619 0 -0.050438354320754407 -0.1512059850554634 0 -0.071531383562284945 -0.16741564331840059 0 -0.050438354320754407 -0.1512059850554634 0 -0.071531383562284945 -0.16741564331840059 0 -0.042015249759383928 -0.16916304377734581 0 -0.056708354906834367 -0.17928594510321619 0 -0.050438354320754407 -0.1512059850554634 0 -0.050438354320754407 -0.1512059850554634 0 -0.040619446836592903 -0.13169178872357129 0 -0.066221577550223523 -0.14448546297718079 0 -0.040619446836592903 -0.13169178872357129 0 -0.068987620712481143 -0.1275574927637394 0 -0.066221577550223523 -0.14448546297718079 0 -0.040619446836592903 -0.13169178872357129 0 -0.066221577550223523 -0.14448546297718079 0 -0.027474599099440451 -0.14482495114421451 0 -0.040619446836592903 -0.13169178872357129 0 -0.050438354320754407 -0.1512059850554634 0 -0.040619446836592903 -0.13169178872357129 0 -0.036491065683978953 -0.1545576113110988 0 -0.027474599099440451 -0.14482495114421451 0 -0.040619446836592903 -0.13169178872357129 0 -0.036491065683978953 -0.1545576113110988 0 -0.026008002787897441 -0.25818491736150839 0 -0.02701546243075412 -0.2413288456044746 0 -0.03749998534272686 -0.24645163551448299 0 -0.026008002787897441 -0.25818491736150839 0 -0.02701546243075412 -0.2413288456044746 0 -0.0037517221868697478 -0.24684323264315031 0 -0.02701546243075412 -0.2413288456044746 0 -0.0037517221868697478 -0.24684323264315031 0 -0.0076778747790505319 -0.2226872354148747 0 -0.0037517221868697478 -0.24684323264315031 0 -0.0076778747790505319 -0.2226872354148747 0 0.0082068293806228168 -0.22365460084151381 0 -0.02701546243075412 -0.2413288456044746 0 -0.0076778747790505319 -0.2226872354148747 0 -0.030881544900558919 -0.22097485326417499 0 -0.02701546243075412 -0.2413288456044746 0 -0.0076778747790505319 -0.2226872354148747 0 -0.0076778747790505319 -0.2226872354148747 0 -0.030881544900558919 -0.22097485326417499 0 -0.01599203999056836 -0.200364704776096 0 -0.030881544900558919 -0.22097485326417499 0 -0.01599203999056836 -0.200364704776096 0 -0.043869419107489573 -0.2031094121832181 0 -0.0076778747790505319 -0.2226872354148747 0 -0.00087008517443049169 -0.20676331926816319 0 -0.01599203999056836 -0.200364704776096 0 -0.01599203999056836 -0.200364704776096 0 0.0118853391263529 -0.1976199973689739 0 0.0016220851498990111 -0.18706253986558219 0 -0.01599203999056836 -0.200364704776096 0 0.0118853391263529 -0.1976199973689739 0 -0.016215254959647912 -0.17987130138463131 0 -0.01599203999056836 -0.200364704776096 0 0.0016220851498990111 -0.18706253986558219 0 -0.00087008517443049169 -0.20676331926816319 0 -0.01599203999056836 -0.200364704776096 0 0.0118853391263529 -0.1976199973689739 0 -0.01599203999056836 -0.200364704776096 0 -0.043869419107489573 -0.2031094121832181 0 -0.016215254959647912 -0.17987130138463131 0 -0.035310887089208168 -0.1869415038206711 0 -0.01599203999056836 -0.200364704776096 0 -0.035310887089208168 -0.1869415038206711 0 -0.01599203999056836 -0.200364704776096 0 -0.043869419107489573 -0.2031094121832181 0 -0.035310887089208168 -0.1869415038206711 0 -0.043869419107489573 -0.2031094121832181 0 -0.055933817126448022 -0.19347577781875511 0 -0.056708354906834367 -0.17928594510321619 0 -0.055933817126448022 -0.19347577781875511 0 -0.072033626304297188 -0.19218790839632979 0 -0.043869419107489573 -0.2031094121832181 0 -0.055933817126448022 -0.19347577781875511 0 -0.071746798224410824 -0.2058541195903402 0 -0.043869419107489573 -0.2031094121832181 0 -0.059220796729067889 -0.21363364729599829 0 -0.05043636915195801 -0.22335593217289521 0 -0.043869419107489573 -0.2031094121832181 0 -0.071746798224410824 -0.2058541195903402 0 -0.043869419107489573 -0.2031094121832181 0 -0.059220796729067889 -0.21363364729599829 0 -0.071746798224410824 -0.2058541195903402 0 -0.030881544900558919 -0.22097485326417499 0 -0.043869419107489573 -0.2031094121832181 0 -0.05043636915195801 -0.22335593217289521 0 -0.030881544900558919 -0.22097485326417499 0 -0.05043636915195801 -0.22335593217289521 0 -0.041782634686147832 -0.23580765945952209 0 -0.02701546243075412 -0.2413288456044746 0 -0.030881544900558919 -0.22097485326417499 0 -0.041782634686147832 -0.23580765945952209 0 -0.05043636915195801 -0.22335593217289521 0 -0.057125690101845192 -0.23518125909278551 0 -0.070830600432413154 -0.2222151252375397 0 -0.059220796729067889 -0.21363364729599829 0 -0.05043636915195801 -0.22335593217289521 0 -0.070830600432413154 -0.2222151252375397 0 -0.05043636915195801 -0.22335593217289521 0 -0.057125690101845192 -0.23518125909278551 0 -0.041782634686147832 -0.23580765945952209 0 -0.057125690101845192 -0.23518125909278551 0 -0.048954136784397161 -0.24677205084299511 0 -0.041782634686147832 -0.23580765945952209 0 -0.057125690101845192 -0.23518125909278551 0 -0.06073814619030448 -0.24598109428459611 0 -0.048954136784397161 -0.24677205084299511 0 -0.04333166838545123 -0.25587103745628742 0 -0.048954136784397161 -0.24677205084299511 0 -0.03749998534272686 -0.24645163551448299 0 -0.048954136784397161 -0.24677205084299511 0 -0.041782634686147832 -0.23580765945952209 0 -0.03749998534272686 -0.24645163551448299 0 -0.02701546243075412 -0.2413288456044746 0 -0.041782634686147832 -0.23580765945952209 0 -0.03749998534272686 -0.24645163551448299 0 -0.086362519757149495 -0.24803654749965709 0 -0.091376045324069274 -0.2413572179207312 0 -0.099517985831804864 -0.2418500915779096 0 -0.086362519757149495 -0.24803654749965709 0 -0.091376045324069274 -0.2413572179207312 0 -0.083466433521061562 -0.24066437916976341 0 -0.091376045324069274 -0.2413572179207312 0 -0.083466433521061562 -0.24066437916976341 0 -0.09211951837745036 -0.2339813487752786 0 -0.091376045324069274 -0.2413572179207312 0 -0.09211951837745036 -0.2339813487752786 0 -0.09572814914433754 -0.23729766622533949 0 -0.083466433521061562 -0.24066437916976341 0 -0.078679255715819976 -0.23144365328618541 0 -0.09211951837745036 -0.2339813487752786 0 -0.072633096569996461 -0.25231433365624389 0 -0.086362519757149495 -0.24803654749965709 0 -0.083466433521061562 -0.24066437916976341 0 -0.072633096569996461 -0.25231433365624389 0 -0.083466433521061562 -0.24066437916976341 0 -0.070012253365850527 -0.23695569255916471 0 -0.072633096569996461 -0.25231433365624389 0 -0.06073814619030448 -0.24598109428459611 0 -0.070012253365850527 -0.23695569255916471 0 -0.057125690101845192 -0.23518125909278551 0 -0.06073814619030448 -0.24598109428459611 0 -0.070012253365850527 -0.23695569255916471 0 -0.083466433521061562 -0.24066437916976341 0 -0.070012253365850527 -0.23695569255916471 0 -0.078679255715819976 -0.23144365328618541 0 -0.070012253365850527 -0.23695569255916471 0 -0.070830600432413154 -0.2222151252375397 0 -0.078679255715819976 -0.23144365328618541 0 -0.057125690101845192 -0.23518125909278551 0 -0.070012253365850527 -0.23695569255916471 0 -0.070830600432413154 -0.2222151252375397 0 -0.070830600432413154 -0.2222151252375397 0 -0.087087962320947038 -0.2247218904076595 0 -0.084945040438357031 -0.21597580679164699 0 -0.070830600432413154 -0.2222151252375397 0 -0.078679255715819976 -0.23144365328618541 0 -0.087087962320947038 -0.2247218904076595 0 -0.09211951837745036 -0.2339813487752786 0 -0.087087962320947038 -0.2247218904076595 0 -0.097872634337300327 -0.2262805196534691 0 -0.078679255715819976 -0.23144365328618541 0 -0.09211951837745036 -0.2339813487752786 0 -0.087087962320947038 -0.2247218904076595 0 -0.087087962320947038 -0.2247218904076595 0 -0.095435663872681847 -0.21848907172523349 0 -0.097872634337300327 -0.2262805196534691 0 -0.087087962320947038 -0.2247218904076595 0 -0.084945040438357031 -0.21597580679164699 0 -0.095435663872681847 -0.21848907172523349 0 -0.084945040438357031 -0.21597580679164699 0 -0.071746798224410824 -0.2058541195903402 0 -0.099624177341332221 -0.20859882699746229 0 -0.071746798224410824 -0.2058541195903402 0 -0.099624177341332221 -0.20859882699746229 0 -0.071746798224410824 -0.2058541195903402 0 -0.084007253668463858 -0.19756653914136749 0 -0.099624177341332221 -0.20859882699746229 0 -0.084945040438357031 -0.21597580679164699 0 -0.099624177341332221 -0.20859882699746229 0 -0.095435663872681847 -0.21848907172523349 0 -0.070830600432413154 -0.2222151252375397 0 -0.084945040438357031 -0.21597580679164699 0 -0.071746798224410824 -0.2058541195903402 0 -0.059220796729067889 -0.21363364729599829 0 -0.070830600432413154 -0.2222151252375397 0 -0.071746798224410824 -0.2058541195903402 0 -0.071746798224410824 -0.2058541195903402 0 -0.072033626304297188 -0.19218790839632979 0 -0.084007253668463858 -0.19756653914136749 0 -0.055933817126448022 -0.19347577781875511 0 -0.071746798224410824 -0.2058541195903402 0 -0.072033626304297188 -0.19218790839632979 0 -0.084007253668463858 -0.19756653914136749 0 -0.099624177341332221 -0.20859882699746229 0 -0.092624412803815226 -0.18362530158133791 0 -0.072033626304297188 -0.19218790839632979 0 -0.092624412803815226 -0.18362530158133791 0 -0.072033626304297188 -0.19218790839632979 0 -0.084007253668463858 -0.19756653914136749 0 -0.092624412803815226 -0.18362530158133791 0 -0.11406080426493791 -0.20009882826147851 0 -0.092624412803815226 -0.18362530158133791 0 -0.11406080426493791 -0.20009882826147851 0 -0.099624177341332221 -0.20859882699746229 0 -0.092624412803815226 -0.18362530158133791 0 -0.11406080426493791 -0.20009882826147851 0 -0.092624412803815226 -0.18362530158133791 0 -0.1185739717390439 -0.18746180593934361 0 -0.11406080426493791 -0.20009882826147851 0 -0.1185739717390439 -0.18746180593934361 0 -0.12648523572834661 -0.19861449317922411 0 -0.099624177341332221 -0.20859882699746229 0 -0.12750155645825351 -0.21134353440458439 0 -0.11406080426493791 -0.20009882826147851 0 -0.099624177341332221 -0.20859882699746229 0 -0.12750155645825351 -0.21134353440458439 0 -0.099624177341332221 -0.20859882699746229 0 -0.1142169341247946 -0.2197034679821824 0 -0.12750155645825351 -0.21134353440458439 0 -0.11406080426493791 -0.20009882826147851 0 -0.12750155645825351 -0.21134353440458439 0 -0.12648523572834661 -0.19861449317922411 0 -0.099624177341332221 -0.20859882699746229 0 -0.095435663872681847 -0.21848907172523349 0 -0.1142169341247946 -0.2197034679821824 0 -0.097872634337300327 -0.2262805196534691 0 -0.099899047044025635 -0.23200200662743861 0 -0.1142169341247946 -0.2197034679821824 0 -0.1142169341247946 -0.2197034679821824 0 -0.099517985831804864 -0.2418500915779096 0 -0.095435663872681847 -0.21848907172523349 0 -0.097872634337300327 -0.2262805196534691 0 -0.1142169341247946 -0.2197034679821824 0 -0.099899047044025635 -0.23200200662743861 0 -0.1142169341247946 -0.2197034679821824 0 -0.099517985831804864 -0.2418500915779096 0 -0.09211951837745036 -0.2339813487752786 0 -0.097872634337300327 -0.2262805196534691 0 -0.099899047044025635 -0.23200200662743861 0 -0.1142169341247946 -0.2197034679821824 0 -0.1320523352215501 -0.22733853631471179 0 -0.12750155645825351 -0.21134353440458439 0 -0.1142169341247946 -0.2197034679821824 0 -0.1173091965465549 -0.23970208953565619 0 -0.1320523352215501 -0.22733853631471179 0 -0.1142169341247946 -0.2197034679821824 0 -0.1173091965465549 -0.23970208953565619 0 -0.099517985831804864 -0.2418500915779096 0 -0.1230762977234405 -0.25820927857111697 0 -0.1173091965465549 -0.23970208953565619 0 -0.098598209298187994 -0.2448164587889948 0 -0.1173091965465549 -0.23970208953565619 0 -0.098598209298187994 -0.2448164587889948 0 -0.099517985831804864 -0.2418500915779096 0 -0.099899047044025635 -0.23200200662743861 0 -0.099517985831804864 -0.2418500915779096 0 -0.09572814914433754 -0.23729766622533949 0 -0.091376045324069274 -0.2413572179207312 0 -0.099517985831804864 -0.2418500915779096 0 -0.09572814914433754 -0.23729766622533949 0 -0.09211951837745036 -0.2339813487752786 0 -0.099899047044025635 -0.23200200662743861 0 -0.09572814914433754 -0.23729766622533949 0 -0.082998540919170333 -0.15490380264376319 0 -0.096850227156753635 -0.1655080590888206 0 -0.096402148057529821 -0.14461979264467131 0 -0.081567192181053239 -0.14128546429921041 0 -0.082998540919170333 -0.15490380264376319 0 -0.096402148057529821 -0.14461979264467131 0 -0.081567192181053239 -0.14128546429921041 0 -0.087088547910535621 -0.12637665469202941 0 -0.096402148057529821 -0.14461979264467131 0 -0.081567192181053239 -0.14128546429921041 0 -0.087088547910535621 -0.12637665469202941 0 -0.068987620712481143 -0.1275574927637394 0 -0.081567192181053239 -0.14128546429921041 0 -0.068987620712481143 -0.1275574927637394 0 -0.066221577550223523 -0.14448546297718079 0 -0.081567192181053239 -0.14128546429921041 0 -0.082998540919170333 -0.15490380264376319 0 -0.066221577550223523 -0.14448546297718079 0 -0.082998540919170333 -0.15490380264376319 0 -0.066221577550223523 -0.14448546297718079 0 -0.071531383562284945 -0.16741564331840059 0 -0.050438354320754407 -0.1512059850554634 0 -0.066221577550223523 -0.14448546297718079 0 -0.071531383562284945 -0.16741564331840059 0 -0.056708354906834367 -0.17928594510321619 0 -0.072033626304297188 -0.19218790839632979 0 -0.071531383562284945 -0.16741564331840059 0 -0.072033626304297188 -0.19218790839632979 0 -0.071531383562284945 -0.16741564331840059 0 -0.092624412803815226 -0.18362530158133791 0 -0.071531383562284945 -0.16741564331840059 0 -0.092624412803815226 -0.18362530158133791 0 -0.096850227156753635 -0.1655080590888206 0 -0.071531383562284945 -0.16741564331840059 0 -0.092624412803815226 -0.18362530158133791 0 -0.082998540919170333 -0.15490380264376319 0 -0.071531383562284945 -0.16741564331840059 0 -0.096850227156753635 -0.1655080590888206 0 -0.096850227156753635 -0.1655080590888206 0 -0.1130289326340585 -0.17514015311169839 0 -0.1160324622949228 -0.15429651653689691 0 -0.092624412803815226 -0.18362530158133791 0 -0.1130289326340585 -0.17514015311169839 0 -0.1185739717390439 -0.18746180593934361 0 -0.092624412803815226 -0.18362530158133791 0 -0.1130289326340585 -0.17514015311169839 0 -0.092624412803815226 -0.18362530158133791 0 -0.096850227156753635 -0.1655080590888206 0 -0.1130289326340585 -0.17514015311169839 0 -0.1130289326340585 -0.17514015311169839 0 -0.1185739717390439 -0.18746180593934361 0 -0.131469774688136 -0.17879898752129539 0 -0.1130289326340585 -0.17514015311169839 0 -0.1160324622949228 -0.15429651653689691 0 -0.13343345246430161 -0.16665500464205851 0 -0.1130289326340585 -0.17514015311169839 0 -0.13343345246430161 -0.16665500464205851 0 -0.1160324622949228 -0.15429651653689691 0 -0.1090027702502897 -0.13870270715379501 0 -0.12424589936028289 -0.13659483477640549 0 -0.1160324622949228 -0.15429651653689691 0 -0.096402148057529821 -0.14461979264467131 0 -0.1090027702502897 -0.13870270715379501 0 -0.096850227156753635 -0.1655080590888206 0 -0.1160324622949228 -0.15429651653689691 0 -0.096402148057529821 -0.14461979264467131 0 -0.096402148057529821 -0.14461979264467131 0 -0.099789038250592474 -0.1280948968813988 0 -0.1090027702502897 -0.13870270715379501 0 -0.087088547910535621 -0.12637665469202941 0 -0.096402148057529821 -0.14461979264467131 0 -0.099789038250592474 -0.1280948968813988 0 -0.099789038250592474 -0.1280948968813988 0 -0.1090027702502897 -0.13870270715379501 0 -0.1106834260854684 -0.13108884467541379 0 -0.1096959964807086 -0.1209629398900559 0 -0.099789038250592474 -0.1280948968813988 0 -0.1106834260854684 -0.13108884467541379 0 -0.1096959964807086 -0.1209629398900559 0 -0.11377165527479351 -0.1219192945703181 0 -0.12424589936028289 -0.13659483477640549 0 -0.1096959964807086 -0.1209629398900559 0 -0.1106834260854684 -0.13108884467541379 0 -0.12424589936028289 -0.13659483477640549 0 -0.1096959964807086 -0.1209629398900559 0 -0.12424589936028289 -0.13659483477640549 0 -0.1090027702502897 -0.13870270715379501 0 -0.1106834260854684 -0.13108884467541379 0 -0.12424589936028289 -0.13659483477640549 0 -0.11377165527479351 -0.1219192945703181 0 -0.12424589936028289 -0.13659483477640549 0 -0.12775538554626081 -0.1227126556176807 0 -0.12424589936028289 -0.13659483477640549 0 -0.14565055659664219 -0.1343259976994412 0 -0.12775538554626081 -0.1227126556176807 0 -0.14565055659664219 -0.1343259976994412 0 -0.16253917459895509 -0.1394942716281366 0 -0.15777931628877051 -0.12655242217590151 0 -0.14565055659664219 -0.1343259976994412 0 -0.1387958022398573 -0.15222672966275511 0 -0.15383797229454541 -0.1581698561724201 0 -0.14565055659664219 -0.1343259976994412 0 -0.15383797229454541 -0.1581698561724201 0 -0.16253917459895509 -0.1394942716281366 0 -0.14565055659664219 -0.1343259976994412 0 -0.15383797229454541 -0.1581698561724201 0 -0.12424589936028289 -0.13659483477640549 0 -0.14565055659664219 -0.1343259976994412 0 -0.1387958022398573 -0.15222672966275511 0 -0.1160324622949228 -0.15429651653689691 0 -0.12424589936028289 -0.13659483477640549 0 -0.1387958022398573 -0.15222672966275511 0 -0.12424589936028289 -0.13659483477640549 0 -0.1387958022398573 -0.15222672966275511 0 -0.1160324622949228 -0.15429651653689691 0 -0.1387958022398573 -0.15222672966275511 0 -0.13343345246430161 -0.16665500464205851 0 -0.1130289326340585 -0.17514015311169839 0 -0.13343345246430161 -0.16665500464205851 0 -0.131469774688136 -0.17879898752129539 0 -0.131469774688136 -0.17879898752129539 0 -0.14219977161140471 -0.18281221433747061 0 -0.1478309391466632 -0.17069737655965081 0 -0.13343345246430161 -0.16665500464205851 0 -0.131469774688136 -0.17879898752129539 0 -0.1478309391466632 -0.17069737655965081 0 -0.1185739717390439 -0.18746180593934361 0 -0.131469774688136 -0.17879898752129539 0 -0.13375158053334399 -0.19002737053755089 0 -0.131469774688136 -0.17879898752129539 0 -0.14219977161140471 -0.18281221433747061 0 -0.13375158053334399 -0.19002737053755089 0 -0.14219977161140471 -0.18281221433747061 0 -0.15286796526086741 -0.1839645928637853 0 -0.14374865843143189 -0.19335781876427369 0 -0.14219977161140471 -0.18281221433747061 0 -0.15286796526086741 -0.1839645928637853 0 -0.1478309391466632 -0.17069737655965081 0 -0.15286796526086741 -0.1839645928637853 0 -0.1478309391466632 -0.17069737655965081 0 -0.1611191303889134 -0.17184515402006681 0 -0.13343345246430161 -0.16665500464205851 0 -0.15383797229454541 -0.1581698561724201 0 -0.13343345246430161 -0.16665500464205851 0 -0.1478309391466632 -0.17069737655965081 0 -0.15383797229454541 -0.1581698561724201 0 -0.1387958022398573 -0.15222672966275511 0 -0.13343345246430161 -0.16665500464205851 0 -0.15383797229454541 -0.1581698561724201 0 -0.1478309391466632 -0.17069737655965081 0 -0.15499294998849239 -0.1668362586348193 0 -0.15383797229454541 -0.1581698561724201 0 -0.1478309391466632 -0.17069737655965081 0 -0.15499294998849239 -0.1668362586348193 0 -0.1611191303889134 -0.17184515402006681 0 -0.15383797229454541 -0.1581698561724201 0 -0.16161081341686301 -0.16296654505739369 0 -0.16940000012506179 -0.15948217701006071 0 -0.15499294998849239 -0.1668362586348193 0 -0.15383797229454541 -0.1581698561724201 0 -0.16161081341686301 -0.16296654505739369 0 -0.15499294998849239 -0.1668362586348193 0 -0.16161081341686301 -0.16296654505739369 0 -0.1611191303889134 -0.17184515402006681 0 -0.16161081341686301 -0.16296654505739369 0 -0.1611191303889134 -0.17184515402006681 0 -0.17226763289838121 -0.16925403728163421 0 -0.16161081341686301 -0.16296654505739369 0 -0.16940000012506179 -0.15948217701006071 0 -0.17226763289838121 -0.16925403728163421 0 -0.15286796526086741 -0.1839645928637853 0 -0.1611191303889134 -0.17184515402006681 0 -0.16622260135116559 -0.1960731800179194 0 -0.1611191303889134 -0.17184515402006681 0 -0.16622260135116559 -0.1960731800179194 0 -0.1611191303889134 -0.17184515402006681 0 -0.1741684978085859 -0.18163823153196701 0 -0.16622260135116559 -0.1960731800179194 0 -0.1611191303889134 -0.17184515402006681 0 -0.1741684978085859 -0.18163823153196701 0 -0.17226763289838121 -0.16925403728163421 0 -0.1741684978085859 -0.18163823153196701 0 -0.18452445402616291 -0.17682418831985389 0 -0.18601242219899619 -0.19299565749814129 0 -0.1741684978085859 -0.18163823153196701 0 -0.18452445402616291 -0.17682418831985389 0 -0.17226763289838121 -0.16925403728163421 0 -0.16940000012506179 -0.15948217701006071 0 -0.17226763289838121 -0.16925403728163421 0 -0.18278290162470021 -0.16276792775046339 0 -0.16940000012506179 -0.15948217701006071 0 -0.18278290162470021 -0.16276792775046339 0 -0.1789239052628277 -0.14773795836221759 0 -0.18452445402616291 -0.17682418831985389 0 -0.17226763289838121 -0.16925403728163421 0 -0.18278290162470021 -0.16276792775046339 0 -0.18452445402616291 -0.17682418831985389 0 -0.18278290162470021 -0.16276792775046339 0 -0.19387271605509951 -0.16924748171793461 0 -0.18278290162470021 -0.16276792775046339 0 -0.1789239052628277 -0.14773795836221759 0 -0.19467208949071799 -0.15405300767894509 0 -0.1789239052628277 -0.14773795836221759 0 -0.1736516256269095 -0.1301832227178564 0 -0.19085896727340229 -0.13415704608446249 0 -0.1736516256269095 -0.1301832227178564 0 -0.19085896727340229 -0.13415704608446249 0 -0.1835149386294132 -0.1166598148705749 0 -0.1736516256269095 -0.1301832227178564 0 -0.16253917459895509 -0.1394942716281366 0 -0.15777931628877051 -0.12655242217590151 0 -0.1789239052628277 -0.14773795836221759 0 -0.1736516256269095 -0.1301832227178564 0 -0.16253917459895509 -0.1394942716281366 0 -0.15383797229454541 -0.1581698561724201 0 -0.16940000012506179 -0.15948217701006071 0 -0.1789239052628277 -0.14773795836221759 0 -0.15383797229454541 -0.1581698561724201 0 -0.1789239052628277 -0.14773795836221759 0 -0.15383797229454541 -0.1581698561724201 0 -0.1789239052628277 -0.14773795836221759 0 -0.16253917459895509 -0.1394942716281366 0 -0.1510077136628947 -0.25398390283359468 0 -0.151627797528886 -0.23064413284365831 0 -0.16263472847473401 -0.2428724329714736 0 -0.1510077136628947 -0.25398390283359468 0 -0.151627797528886 -0.23064413284365831 0 -0.1510077136628947 -0.25398390283359468 0 -0.13520422189713291 -0.2421257222954841 0 -0.151627797528886 -0.23064413284365831 0 -0.1173091965465549 -0.23970208953565619 0 -0.13520422189713291 -0.2421257222954841 0 -0.1320523352215501 -0.22733853631471179 0 -0.1230762977234405 -0.25820927857111697 0 -0.1173091965465549 -0.23970208953565619 0 -0.13520422189713291 -0.2421257222954841 0 -0.13520422189713291 -0.2421257222954841 0 -0.1320523352215501 -0.22733853631471179 0 -0.151627797528886 -0.23064413284365831 0 -0.1320523352215501 -0.22733853631471179 0 -0.151627797528886 -0.23064413284365831 0 -0.14022113279204659 -0.2158622239291032 0 -0.151627797528886 -0.23064413284365831 0 -0.15224788139487669 -0.20730436285372181 0 -0.151627797528886 -0.23064413284365831 0 -0.15224788139487669 -0.20730436285372181 0 -0.14022113279204659 -0.2158622239291032 0 -0.15224788139487669 -0.20730436285372181 0 -0.14022113279204659 -0.2158622239291032 0 -0.13767609335666689 -0.2026805532288399 0 -0.1320523352215501 -0.22733853631471179 0 -0.14022113279204659 -0.2158622239291032 0 -0.12750155645825351 -0.21134353440458439 0 -0.12750155645825351 -0.21134353440458439 0 -0.13767609335666689 -0.2026805532288399 0 -0.12648523572834661 -0.19861449317922411 0 -0.14022113279204659 -0.2158622239291032 0 -0.12750155645825351 -0.21134353440458439 0 -0.13767609335666689 -0.2026805532288399 0 -0.13767609335666689 -0.2026805532288399 0 -0.13375158053334399 -0.19002737053755089 0 -0.14374865843143189 -0.19335781876427369 0 -0.13767609335666689 -0.2026805532288399 0 -0.12648523572834661 -0.19861449317922411 0 -0.13375158053334399 -0.19002737053755089 0 -0.1185739717390439 -0.18746180593934361 0 -0.12648523572834661 -0.19861449317922411 0 -0.13375158053334399 -0.19002737053755089 0 -0.14219977161140471 -0.18281221433747061 0 -0.13375158053334399 -0.19002737053755089 0 -0.14374865843143189 -0.19335781876427369 0 -0.15286796526086741 -0.1839645928637853 0 -0.15224788139487669 -0.20730436285372181 0 -0.15286796526086741 -0.1839645928637853 0 -0.15224788139487669 -0.20730436285372181 0 -0.14374865843143189 -0.19335781876427369 0 -0.15224788139487669 -0.20730436285372181 0 -0.13767609335666689 -0.2026805532288399 0 -0.14374865843143189 -0.19335781876427369 0 -0.15286796526086741 -0.1839645928637853 0 -0.15224788139487669 -0.20730436285372181 0 -0.16622260135116559 -0.1960731800179194 0 -0.1741684978085859 -0.18163823153196701 0 -0.16622260135116559 -0.1960731800179194 0 -0.18601242219899619 -0.19299565749814129 0 -0.16622260135116559 -0.1960731800179194 0 -0.18601242219899619 -0.19299565749814129 0 -0.1817118216133454 -0.2100984661791685 0 -0.16622260135116559 -0.1960731800179194 0 -0.1817118216133454 -0.2100984661791685 0 -0.1713260723134177 -0.22030120601577199 0 -0.15224788139487669 -0.20730436285372181 0 -0.16622260135116559 -0.1960731800179194 0 -0.1713260723134177 -0.22030120601577199 0 -0.16622260135116559 -0.1960731800179194 0 -0.1713260723134177 -0.22030120601577199 0 -0.151627797528886 -0.23064413284365831 0 -0.15224788139487669 -0.20730436285372181 0 -0.1713260723134177 -0.22030120601577199 0 -0.151627797528886 -0.23064413284365831 0 -0.1713260723134177 -0.22030120601577199 0 -0.16263472847473401 -0.2428724329714736 0 -0.1817118216133454 -0.2100984661791685 0 -0.1713260723134177 -0.22030120601577199 0 -0.18464411250149851 -0.22640908521479389 0 -0.1713260723134177 -0.22030120601577199 0 -0.1764295432756699 -0.2445292320136247 0 -0.1713260723134177 -0.22030120601577199 0 -0.18464411250149851 -0.22640908521479389 0 -0.1764295432756699 -0.2445292320136247 0 -0.18464411250149851 -0.22640908521479389 0 -0.1764295432756699 -0.2445292320136247 0 -0.1970008633315361 -0.23446567227139589 0 -0.1680929605241295 -0.25474777188350262 0 -0.1764295432756699 -0.2445292320136247 0 -0.16263472847473401 -0.2428724329714736 0 -0.1713260723134177 -0.22030120601577199 0 -0.1764295432756699 -0.2445292320136247 0 -0.16263472847473401 -0.2428724329714736 0 -0.15732428354340641 -0.25302835223868969 0 -0.1510077136628947 -0.25398390283359468 0 -0.16263472847473401 -0.2428724329714736 0 -0.20779894815716221 -0.24008232934796839 0 -0.1970008633315361 -0.23446567227139589 0 -0.21478474209867521 -0.22972741511151751 0 -0.2170457079486674 -0.24720300742873891 0 -0.20779894815716221 -0.24008232934796839 0 -0.21478474209867521 -0.22972741511151751 0 -0.2023768832660017 -0.25097279894461488 0 -0.2170457079486674 -0.24720300742873891 0 -0.20779894815716221 -0.24008232934796839 0 -0.18913519041805449 -0.25412740646705079 0 -0.2023768832660017 -0.25097279894461488 0 -0.1970008633315361 -0.23446567227139589 0 -0.2023768832660017 -0.25097279894461488 0 -0.20779894815716221 -0.24008232934796839 0 -0.1970008633315361 -0.23446567227139589 0 -0.18913519041805449 -0.25412740646705079 0 -0.1764295432756699 -0.2445292320136247 0 -0.1970008633315361 -0.23446567227139589 0 -0.1970008633315361 -0.23446567227139589 0 -0.21065120802394771 -0.21622099914890461 0 -0.19615412909815849 -0.21143349992751831 0 -0.18464411250149851 -0.22640908521479389 0 -0.1970008633315361 -0.23446567227139589 0 -0.19615412909815849 -0.21143349992751831 0 -0.1970008633315361 -0.23446567227139589 0 -0.21478474209867521 -0.22972741511151751 0 -0.21065120802394771 -0.21622099914890461 0 -0.21478474209867521 -0.22972741511151751 0 -0.21065120802394771 -0.21622099914890461 0 -0.2242908073558183 -0.22067112223278751 0 -0.21055601001954721 -0.20362294464731251 0 -0.21065120802394771 -0.21622099914890461 0 -0.2227824104509146 -0.20646586255457111 0 -0.21055601001954721 -0.20362294464731251 0 -0.21065120802394771 -0.21622099914890461 0 -0.19615412909815849 -0.21143349992751831 0 -0.1817118216133454 -0.2100984661791685 0 -0.18464411250149851 -0.22640908521479389 0 -0.19615412909815849 -0.21143349992751831 0 -0.18601242219899619 -0.19299565749814129 0 -0.1817118216133454 -0.2100984661791685 0 -0.19615412909815849 -0.21143349992751831 0 -0.18601242219899619 -0.19299565749814129 0 -0.20374742972567769 -0.19282725472535209 0 -0.19547555174113951 -0.18061411404679409 0 -0.18601242219899619 -0.19299565749814129 0 -0.19615412909815849 -0.21143349992751831 0 -0.20374742972567769 -0.19282725472535209 0 -0.21055601001954721 -0.20362294464731251 0 -0.20374742972567769 -0.19282725472535209 0 -0.22076352464028351 -0.18797924788232431 0 -0.21055601001954721 -0.20362294464731251 0 -0.19615412909815849 -0.21143349992751831 0 -0.20374742972567769 -0.19282725472535209 0 -0.21055601001954721 -0.20362294464731251 0 -0.22076352464028351 -0.18797924788232431 0 -0.2227824104509146 -0.20646586255457111 0 -0.22076352464028351 -0.18797924788232431 0 -0.2325282350838864 -0.19516632725499469 0 -0.2227824104509146 -0.20646586255457111 0 -0.2325282350838864 -0.19516632725499469 0 -0.24480860767009471 -0.19471055200310031 0 -0.23728939407258931 -0.2108978179337733 0 -0.2325282350838864 -0.19516632725499469 0 -0.24480860767009471 -0.19471055200310031 0 -0.23699723858555 -0.1757781559012048 0 -0.24480860767009471 -0.19471055200310031 0 -0.25261997675463937 -0.21364294810499571 0 -0.24480860767009471 -0.19471055200310031 0 -0.23728939407258931 -0.2108978179337733 0 -0.25261997675463937 -0.21364294810499571 0 -0.23728939407258931 -0.2108978179337733 0 -0.24379034702086719 -0.2188406903150811 0 -0.25261997675463937 -0.21364294810499571 0 -0.23728939407258931 -0.2108978179337733 0 -0.23692022186394829 -0.22492268153689179 0 -0.24379034702086719 -0.2188406903150811 0 -0.23728939407258931 -0.2108978179337733 0 -0.2227824104509146 -0.20646586255457111 0 -0.2242908073558183 -0.22067112223278751 0 -0.2325282350838864 -0.19516632725499469 0 -0.23728939407258931 -0.2108978179337733 0 -0.2227824104509146 -0.20646586255457111 0 -0.21065120802394771 -0.21622099914890461 0 -0.2227824104509146 -0.20646586255457111 0 -0.2242908073558183 -0.22067112223278751 0 -0.21478474209867521 -0.22972741511151751 0 -0.2242908073558183 -0.22067112223278751 0 -0.22720681370978629 -0.23610113206596539 0 -0.2242908073558183 -0.22067112223278751 0 -0.23692022186394829 -0.22492268153689179 0 -0.22720681370978629 -0.23610113206596539 0 -0.23728939407258931 -0.2108978179337733 0 -0.2242908073558183 -0.22067112223278751 0 -0.23692022186394829 -0.22492268153689179 0 -0.24379034702086719 -0.2188406903150811 0 -0.2480915939287219 -0.22734937565480301 0 -0.25261997675463937 -0.21364294810499571 0 -0.23692022186394829 -0.22492268153689179 0 -0.24379034702086719 -0.2188406903150811 0 -0.2480915939287219 -0.22734937565480301 0 -0.23692022186394829 -0.22492268153689179 0 -0.239500354200432 -0.23635427200452469 0 -0.22720681370978629 -0.23610113206596539 0 -0.23692022186394829 -0.22492268153689179 0 -0.2480915939287219 -0.22734937565480301 0 -0.239500354200432 -0.23635427200452469 0 -0.2480915939287219 -0.22734937565480301 0 -0.239500354200432 -0.23635427200452469 0 -0.24966206634667409 -0.24400955986671949 0 -0.24757840578926399 -0.25652676207350378 0 -0.24966206634667409 -0.24400955986671949 0 -0.23562107515302921 -0.24938861089824399 0 -0.239500354200432 -0.23635427200452469 0 -0.24966206634667409 -0.24400955986671949 0 -0.23562107515302921 -0.24938861089824399 0 -0.2170457079486674 -0.24720300742873891 0 -0.21478474209867521 -0.22972741511151751 0 -0.22720681370978629 -0.23610113206596539 0 -0.2170457079486674 -0.24720300742873891 0 -0.23562107515302921 -0.24938861089824399 0 -0.22720681370978629 -0.23610113206596539 0 -0.239500354200432 -0.23635427200452469 0 -0.23562107515302921 -0.24938861089824399 0 -0.22720681370978629 -0.23610113206596539 0 -0.21767578300225801 -0.1480833943441062 0 -0.19467208949071799 -0.15405300767894509 0 -0.21767578300225801 -0.1480833943441062 0 -0.20707429621905099 -0.1351975419663293 0 -0.19467208949071799 -0.15405300767894509 0 -0.20707429621905099 -0.1351975419663293 0 -0.21589823627696719 -0.12235065205212591 0 -0.20172774628929749 -0.1188334453301446 0 -0.21767578300225801 -0.1480833943441062 0 -0.20707429621905099 -0.1351975419663293 0 -0.22164546340573449 -0.13299806611361931 0 -0.20707429621905099 -0.1351975419663293 0 -0.22164546340573449 -0.13299806611361931 0 -0.21589823627696719 -0.12235065205212591 0 -0.20707429621905099 -0.1351975419663293 0 -0.19085896727340229 -0.13415704608446249 0 -0.20172774628929749 -0.1188334453301446 0 -0.20707429621905099 -0.1351975419663293 0 -0.19085896727340229 -0.13415704608446249 0 -0.19467208949071799 -0.15405300767894509 0 -0.1789239052628277 -0.14773795836221759 0 -0.19085896727340229 -0.13415704608446249 0 -0.19467208949071799 -0.15405300767894509 0 -0.18278290162470021 -0.16276792775046339 0 -0.19467208949071799 -0.15405300767894509 0 -0.19387271605509951 -0.16924748171793461 0 -0.19467208949071799 -0.15405300767894509 0 -0.19387271605509951 -0.16924748171793461 0 -0.20922073669976141 -0.17117598797268829 0 -0.18452445402616291 -0.17682418831985389 0 -0.18601242219899619 -0.19299565749814129 0 -0.19547555174113951 -0.18061411404679409 0 -0.20374742972567769 -0.19282725472535209 0 -0.19547555174113951 -0.18061411404679409 0 -0.20922073669976141 -0.17117598797268829 0 -0.18452445402616291 -0.17682418831985389 0 -0.19387271605509951 -0.16924748171793461 0 -0.19547555174113951 -0.18061411404679409 0 -0.19387271605509951 -0.16924748171793461 0 -0.19547555174113951 -0.18061411404679409 0 -0.20922073669976141 -0.17117598797268829 0 -0.20374742972567769 -0.19282725472535209 0 -0.22076352464028351 -0.18797924788232431 0 -0.20922073669976141 -0.17117598797268829 0 -0.22076352464028351 -0.18797924788232431 0 -0.20922073669976141 -0.17117598797268829 0 -0.2256184038571116 -0.1656009158218586 0 -0.21767578300225801 -0.1480833943441062 0 -0.20922073669976141 -0.17117598797268829 0 -0.2256184038571116 -0.1656009158218586 0 -0.21767578300225801 -0.1480833943441062 0 -0.19467208949071799 -0.15405300767894509 0 -0.20922073669976141 -0.17117598797268829 0 -0.2256184038571116 -0.1656009158218586 0 -0.24220539714476011 -0.16237985861264401 0 -0.23429144364747451 -0.15372768976248519 0 -0.22076352464028351 -0.18797924788232431 0 -0.2256184038571116 -0.1656009158218586 0 -0.23699723858555 -0.1757781559012048 0 -0.22076352464028351 -0.18797924788232431 0 -0.2325282350838864 -0.19516632725499469 0 -0.23699723858555 -0.1757781559012048 0 -0.24480860767009471 -0.19471055200310031 0 -0.23699723858555 -0.1757781559012048 0 -0.24480860767009471 -0.19471055200310031 0 -0.23699723858555 -0.1757781559012048 0 -0.25120195883373803 -0.1721391415510975 0 -0.2256184038571116 -0.1656009158218586 0 -0.23699723858555 -0.1757781559012048 0 -0.24220539714476011 -0.16237985861264401 0 -0.23699723858555 -0.1757781559012048 0 -0.24220539714476011 -0.16237985861264401 0 -0.25120195883373803 -0.1721391415510975 0 -0.2472196927006948 -0.1515692412906269 0 -0.24067947651379801 -0.14211378100926739 0 -0.25165074314210373 -0.14434673674649831 0 -0.24220539714476011 -0.16237985861264401 0 -0.2472196927006948 -0.1515692412906269 0 -0.23429144364747451 -0.15372768976248519 0 -0.2472196927006948 -0.1515692412906269 0 -0.24067947651379801 -0.14211378100926739 0 -0.23429144364747451 -0.15372768976248519 0 -0.21767578300225801 -0.1480833943441062 0 -0.24067947651379801 -0.14211378100926739 0 -0.23429144364747451 -0.15372768976248519 0 -0.21767578300225801 -0.1480833943441062 0 -0.24067947651379801 -0.14211378100926739 0 -0.23605858438071819 -0.13736420085859621 0 -0.21767578300225801 -0.1480833943441062 0 -0.24067947651379801 -0.14211378100926739 0 -0.21767578300225801 -0.1480833943441062 0 -0.2256184038571116 -0.1656009158218586 0 -0.23429144364747451 -0.15372768976248519 0 -0.21767578300225801 -0.1480833943441062 0 -0.22164546340573449 -0.13299806611361931 0 -0.23605858438071819 -0.13736420085859621 0 -0.22164546340573449 -0.13299806611361931 0 -0.23605858438071819 -0.13736420085859621 0 -0.22886574885261071 -0.1215538071093781 0 -0.22164546340573449 -0.13299806611361931 0 -0.22886574885261071 -0.1215538071093781 0 -0.21589823627696719 -0.12235065205212591 0 -0.23605858438071819 -0.13736420085859621 0 -0.24337070752788431 -0.13036937651093711 0 -0.23941659369080631 -0.11001219212279841 0 -0.24067947651379801 -0.14211378100926739 0 -0.23605858438071819 -0.13736420085859621 0 -0.24337070752788431 -0.13036937651093711 0 -0.24067947651379801 -0.14211378100926739 0 -0.24337070752788431 -0.13036937651093711 0 -0.25019901471553613 -0.13547804139513889 0 -0.24337070752788431 -0.13036937651093711 0 -0.25074896958116072 -0.12623220477356401 0 -0.25019901471553613 -0.13547804139513889 0 -0.23605858438071819 -0.13736420085859621 0 -0.23941659369080631 -0.11001219212279841 0 -0.22886574885261071 -0.1215538071093781 0 -0.23941659369080631 -0.11001219212279841 0 -0.25661321536168652 -0.1165333872518117 0 -0.25074896958116072 -0.12623220477356401 0 -0.23605858438071819 -0.13736420085859621 0 -0.23941659369080631 -0.11001219212279841 0 -0.24337070752788431 -0.13036937651093711 0 -0.23941659369080631 -0.11001219212279841 0 -0.25074896958116072 -0.12623220477356401 0 -0.23941659369080631 -0.11001219212279841 0 -0.24277460300089451 -0.082660183387000596 0 -0.23941659369080631 -0.11001219212279841 0 -0.24277460300089451 -0.082660183387000596 0 -0.25824639025713519 -0.1002016063446013 0 -0.23941659369080631 -0.11001219212279841 0 -0.24277460300089451 -0.082660183387000596 0 -0.21808673786778951 -0.099998755457691768 0 -0.23941659369080631 -0.11001219212279841 0 -0.22886574885261071 -0.1215538071093781 0 -0.21808673786778951 -0.099998755457691768 0 -0.22886574885261071 -0.1215538071093781 0 -0.21589823627696719 -0.12235065205212591 0 -0.21808673786778951 -0.099998755457691768 0 -0.24277460300089451 -0.082660183387000596 0 -0.2461326123109826 -0.055308174651202947 0 -0.24277460300089451 -0.082660183387000596 0 -0.22678342457253439 -0.073702560796810937 0 -0.2461326123109826 -0.055308174651202947 0 -0.24277460300089451 -0.082660183387000596 0 -0.22678342457253439 -0.073702560796810937 0 -0.21808673786778951 -0.099998755457691768 0 -0.22678342457253439 -0.073702560796810937 0 -0.2082485712454242 -0.075691833792724941 0 -0.21867459843758119 -0.054853856695434418 0 -0.2082485712454242 -0.075691833792724941 0 -0.20355444297641959 -0.058912148511826003 0 -0.21867459843758119 -0.054853856695434418 0 -0.22678342457253439 -0.073702560796810937 0 -0.2082485712454242 -0.075691833792724941 0 -0.21808673786778951 -0.099998755457691768 0 -0.2082485712454242 -0.075691833792724941 0 -0.20182317639961589 -0.091168758769189173 0 -0.21808673786778951 -0.099998755457691768 0 -0.18892911743230381 -0.084537191147156077 0 -0.20182317639961589 -0.091168758769189173 0 -0.19493330146916171 -0.10463686154968301 0 -0.2082485712454242 -0.075691833792724941 0 -0.18892911743230381 -0.084537191147156077 0 -0.20182317639961589 -0.091168758769189173 0 -0.2082485712454242 -0.075691833792724941 0 -0.18892911743230381 -0.084537191147156077 0 -0.18867323158886029 -0.063345075001549997 0 -0.2082485712454242 -0.075691833792724941 0 -0.18867323158886029 -0.063345075001549997 0 -0.20355444297641959 -0.058912148511826003 0 -0.21589823627696719 -0.12235065205212591 0 -0.21808673786778951 -0.099998755457691768 0 -0.20172774628929749 -0.1188334453301446 0 -0.20182317639961589 -0.091168758769189173 0 -0.21808673786778951 -0.099998755457691768 0 -0.19493330146916171 -0.10463686154968301 0 -0.21808673786778951 -0.099998755457691768 0 -0.19493330146916171 -0.10463686154968301 0 -0.20172774628929749 -0.1188334453301446 0 -0.19085896727340229 -0.13415704608446249 0 -0.20172774628929749 -0.1188334453301446 0 -0.1835149386294132 -0.1166598148705749 0 -0.19493330146916171 -0.10463686154968301 0 -0.20172774628929749 -0.1188334453301446 0 -0.1835149386294132 -0.1166598148705749 0 -0.1736516256269095 -0.1301832227178564 0 -0.1835149386294132 -0.1166598148705749 0 -0.16456992742497181 -0.11316406650340349 0 -0.1736516256269095 -0.1301832227178564 0 -0.15777931628877051 -0.12655242217590151 0 -0.16456992742497181 -0.11316406650340349 0 -0.16456992742497181 -0.11316406650340349 0 -0.17538057211680791 -0.098274606843327325 0 -0.15649317757566941 -0.093528111831307242 0 -0.1835149386294132 -0.1166598148705749 0 -0.16456992742497181 -0.11316406650340349 0 -0.17538057211680791 -0.098274606843327325 0 -0.19493330146916171 -0.10463686154968301 0 -0.1835149386294132 -0.1166598148705749 0 -0.17538057211680791 -0.098274606843327325 0 -0.18892911743230381 -0.084537191147156077 0 -0.19493330146916171 -0.10463686154968301 0 -0.17538057211680791 -0.098274606843327325 0 -0.18892911743230381 -0.084537191147156077 0 -0.17538057211680791 -0.098274606843327325 0 -0.1669087970066209 -0.073572501203382101 0 -0.18892911743230381 -0.084537191147156077 0 -0.18867323158886029 -0.063345075001549997 0 -0.1669087970066209 -0.073572501203382101 0 -0.18867323158886029 -0.063345075001549997 0 -0.1669087970066209 -0.073572501203382101 0 -0.17143341752452079 -0.055413914205868102 0 -0.17538057211680791 -0.098274606843327325 0 -0.1669087970066209 -0.073572501203382101 0 -0.15649317757566941 -0.093528111831307242 0 -0.15649317757566941 -0.093528111831307242 0 -0.143057941131703 -0.089397845842355661 0 -0.14322606842405181 -0.07534308121756246 0 -0.1669087970066209 -0.073572501203382101 0 -0.15649317757566941 -0.093528111831307242 0 -0.14322606842405181 -0.07534308121756246 0 -0.1669087970066209 -0.073572501203382101 0 -0.14322606842405181 -0.07534308121756246 0 -0.14322606842405181 -0.07534308121756246 0 -0.1380108631086501 -0.058267402836558783 0 -0.15235282648664511 -0.058430994655053733 0 -0.1669087970066209 -0.073572501203382101 0 -0.14322606842405181 -0.07534308121756246 0 -0.15235282648664511 -0.058430994655053733 0 -0.1195433398414827 -0.077113661231742819 0 -0.14322606842405181 -0.07534308121756246 0 -0.14322606842405181 -0.07534308121756246 0 -0.12775156614772479 -0.066509879246278839 0 -0.1380108631086501 -0.058267402836558783 0 -0.1195433398414827 -0.077113661231742819 0 -0.14322606842405181 -0.07534308121756246 0 -0.12775156614772479 -0.066509879246278839 0 -0.1195433398414827 -0.077113661231742819 0 -0.14322606842405181 -0.07534308121756246 0 -0.1292757252008358 -0.086638280753483551 0 -0.143057941131703 -0.089397845842355661 0 -0.14322606842405181 -0.07534308121756246 0 -0.1292757252008358 -0.086638280753483551 0 -0.143057941131703 -0.089397845842355661 0 -0.1292757252008358 -0.086638280753483551 0 -0.13746314089873901 -0.1104821392264624 0 -0.1216888923619938 -0.10675174355337549 0 -0.1292757252008358 -0.086638280753483551 0 -0.13746314089873901 -0.1104821392264624 0 -0.1292757252008358 -0.086638280753483551 0 -0.13746314089873901 -0.1104821392264624 0 -0.1216888923619938 -0.10675174355337549 0 -0.13746314089873901 -0.1104821392264624 0 -0.12775538554626081 -0.1227126556176807 0 -0.14565055659664219 -0.1343259976994412 0 -0.13746314089873901 -0.1104821392264624 0 -0.12775538554626081 -0.1227126556176807 0 -0.14565055659664219 -0.1343259976994412 0 -0.15777931628877051 -0.12655242217590151 0 -0.13746314089873901 -0.1104821392264624 0 -0.14565055659664219 -0.1343259976994412 0 -0.13746314089873901 -0.1104821392264624 0 -0.15777931628877051 -0.12655242217590151 0 -0.16456992742497181 -0.11316406650340349 0 -0.13746314089873901 -0.1104821392264624 0 -0.16456992742497181 -0.11316406650340349 0 -0.15649317757566941 -0.093528111831307242 0 -0.13746314089873901 -0.1104821392264624 0 -0.15649317757566941 -0.093528111831307242 0 -0.143057941131703 -0.089397845842355661 0 -0.13746314089873901 -0.1104821392264624 0 -0.1473277221521419 -0.030190809450498891 0 -0.1412665958737489 -0.01499639375946985 0 -0.1590112835684252 -0.016641718436299541 0 -0.1473277221521419 -0.030190809450498891 0 -0.16187240177723439 -0.041736861825891827 0 -0.1590112835684252 -0.016641718436299541 0 -0.1412665958737489 -0.01499639375946985 0 -0.15390830796439009 0.0013171661340907719 0 -0.1412665958737489 -0.01499639375946985 0 -0.12716660979733599 0.0095071604966818855 0 -0.15390830796439009 0.0013171661340907719 0 -0.1412665958737489 -0.01499639375946985 0 -0.1590112835684252 -0.016641718436299541 0 -0.15390830796439009 0.0013171661340907719 0 -0.11894034767877069 -0.01352240977351583 0 -0.1412665958737489 -0.01499639375946985 0 -0.12716660979733599 0.0095071604966818855 0 -0.1412665958737489 -0.01499639375946985 0 -0.12862488378310541 -0.031309953653028681 0 -0.1473277221521419 -0.030190809450498891 0 -0.1412665958737489 -0.01499639375946985 0 -0.12862488378310541 -0.031309953653028681 0 -0.11894034767877069 -0.01352240977351583 0 -0.1412665958737489 -0.01499639375946985 0 -0.12862488378310541 -0.031309953653028681 0 -0.1473277221521419 -0.030190809450498891 0 -0.12862488378310541 -0.031309953653028681 0 -0.13892778673484829 -0.044680187686239957 0 -0.11598317169246219 -0.047623513546587781 0 -0.12862488378310541 -0.031309953653028681 0 -0.13892778673484829 -0.044680187686239957 0 -0.11598317169246219 -0.047623513546587781 0 -0.13892778673484829 -0.044680187686239957 0 -0.1248513481307208 -0.056407903770398032 0 -0.11598317169246219 -0.047623513546587781 0 -0.13892778673484829 -0.044680187686239957 0 -0.1248513481307208 -0.056407903770398032 0 -0.12775156614772479 -0.066509879246278839 0 -0.1380108631086501 -0.058267402836558783 0 -0.1248513481307208 -0.056407903770398032 0 -0.13892778673484829 -0.044680187686239957 0 -0.1380108631086501 -0.058267402836558783 0 -0.13892778673484829 -0.044680187686239957 0 -0.15235282648664511 -0.058430994655053733 0 -0.16187240177723439 -0.041736861825891827 0 -0.13892778673484829 -0.044680187686239957 0 -0.1380108631086501 -0.058267402836558783 0 -0.15235282648664511 -0.058430994655053733 0 -0.13892778673484829 -0.044680187686239957 0 -0.16187240177723439 -0.041736861825891827 0 -0.1473277221521419 -0.030190809450498891 0 -0.13892778673484829 -0.044680187686239957 0 -0.16187240177723439 -0.041736861825891827 0 -0.1669087970066209 -0.073572501203382101 0 -0.15235282648664511 -0.058430994655053733 0 -0.17143341752452079 -0.055413914205868102 0 -0.15235282648664511 -0.058430994655053733 0 -0.16187240177723439 -0.041736861825891827 0 -0.17143341752452079 -0.055413914205868102 0 -0.18867323158886029 -0.063345075001549997 0 -0.17143341752452079 -0.055413914205868102 0 -0.1825383802307679 -0.041301565368032242 0 -0.16187240177723439 -0.041736861825891827 0 -0.1825383802307679 -0.041301565368032242 0 -0.17653686727154519 -0.022977090075950349 0 -0.16187240177723439 -0.041736861825891827 0 -0.17143341752452079 -0.055413914205868102 0 -0.1825383802307679 -0.041301565368032242 0 -0.17653686727154519 -0.022977090075950349 0 -0.18950058035090861 -0.0095834321890353822 0 -0.19463057633471981 -0.02643434289786898 0 -0.1825383802307679 -0.041301565368032242 0 -0.17653686727154519 -0.022977090075950349 0 -0.19463057633471981 -0.02643434289786898 0 -0.16187240177723439 -0.041736861825891827 0 -0.17653686727154519 -0.022977090075950349 0 -0.1590112835684252 -0.016641718436299541 0 -0.1590112835684252 -0.016641718436299541 0 -0.17170444415764949 -0.0041331330274716662 0 -0.15390830796439009 0.0013171661340907719 0 -0.17170444415764949 -0.0041331330274716662 0 -0.15390830796439009 0.0013171661340907719 0 -0.17653686727154519 -0.022977090075950349 0 -0.1590112835684252 -0.016641718436299541 0 -0.17170444415764949 -0.0041331330274716662 0 -0.17170444415764949 -0.0041331330274716662 0 -0.18950058035090861 -0.0095834321890353822 0 -0.17170444415764949 -0.0041331330274716662 0 -0.18950058035090861 -0.0095834321890353822 0 -0.1832898811322998 0.01081735141828993 0 -0.17653686727154519 -0.022977090075950349 0 -0.17170444415764949 -0.0041331330274716662 0 -0.18950058035090861 -0.0095834321890353822 0 -0.18950058035090861 -0.0095834321890353822 0 -0.20949726077429881 -0.01570767676449172 0 -0.18950058035090861 -0.0095834321890353822 0 -0.20949726077429881 -0.01570767676449172 0 -0.20518915555726081 0.0063160521339462369 0 -0.18950058035090861 -0.0095834321890353822 0 -0.19463057633471981 -0.02643434289786898 0 -0.18950058035090861 -0.0095834321890353822 0 -0.19463057633471981 -0.02643434289786898 0 -0.20949726077429881 -0.01570767676449172 0 -0.20949726077429881 -0.01570767676449172 0 -0.21508030175252779 -0.033186487781323257 0 -0.2294939411976889 -0.021831921339948369 0 -0.19463057633471981 -0.02643434289786898 0 -0.20949726077429881 -0.01570767676449172 0 -0.21508030175252779 -0.033186487781323257 0 -0.20949726077429881 -0.01570767676449172 0 -0.22538834727875931 -0.003116926288211063 0 -0.20518915555726081 0.0063160521339462369 0 -0.18867323158886029 -0.063345075001549997 0 -0.1825383802307679 -0.041301565368032242 0 -0.1997605723185315 -0.043285253606702337 0 -0.18867323158886029 -0.063345075001549997 0 -0.1997605723185315 -0.043285253606702337 0 -0.20355444297641959 -0.058912148511826003 0 -0.19463057633471981 -0.02643434289786898 0 -0.1997605723185315 -0.043285253606702337 0 -0.1825383802307679 -0.041301565368032242 0 -0.19463057633471981 -0.02643434289786898 0 -0.1997605723185315 -0.043285253606702337 0 -0.19463057633471981 -0.02643434289786898 0 -0.1997605723185315 -0.043285253606702337 0 -0.21508030175252779 -0.033186487781323257 0 -0.1997605723185315 -0.043285253606702337 0 -0.21508030175252779 -0.033186487781323257 0 -0.21867459843758119 -0.054853856695434418 0 -0.1997605723185315 -0.043285253606702337 0 -0.20355444297641959 -0.058912148511826003 0 -0.21867459843758119 -0.054853856695434418 0 -0.21867459843758119 -0.054853856695434418 0 -0.23175602664240821 -0.038749350512572528 0 -0.2461326123109826 -0.055308174651202947 0 -0.22678342457253439 -0.073702560796810937 0 -0.21867459843758119 -0.054853856695434418 0 -0.2461326123109826 -0.055308174651202947 0 -0.21508030175252779 -0.033186487781323257 0 -0.23175602664240821 -0.038749350512572528 0 -0.2294939411976889 -0.021831921339948369 0 -0.21508030175252779 -0.033186487781323257 0 -0.21867459843758119 -0.054853856695434418 0 -0.23175602664240821 -0.038749350512572528 0 -0.2461326123109826 -0.055308174651202947 0 -0.24949062162107871 -0.027956165915406329 0 -0.23175602664240821 -0.038749350512572528 0 -0.2461326123109826 -0.055308174651202947 0 -0.24949062162107871 -0.027956165915406329 0 -0.20949726077429881 -0.01570767676449172 0 -0.22538834727875931 -0.003116926288211063 0 -0.2294939411976889 -0.021831921339948369 0 -0.22538834727875931 -0.003116926288211063 0 -0.2294939411976889 -0.021831921339948369 0 -0.24085558219536299 -0.01885853391374126 0 -0.20949726077429881 -0.01570767676449172 0 -0.2294939411976889 -0.021831921339948369 0 -0.2294939411976889 -0.021831921339948369 0 -0.24085558219536299 -0.01885853391374126 0 -0.24949062162107871 -0.027956165915406329 0 -0.2294939411976889 -0.021831921339948369 0 -0.24949062162107871 -0.027956165915406329 0 -0.23175602664240821 -0.038749350512572528 0 -0.2294939411976889 -0.021831921339948369 0 -0.24949062162107871 -0.027956165915406329 0 -0.24085558219536299 -0.01885853391374126 0 -0.24763180198353149 -0.02006090391322984 0 -0.25175475688049992 -0.014484072789302299 0 -0.24085558219536299 -0.01885853391374126 0 -0.24949062162107871 -0.027956165915406329 0 -0.24763180198353149 -0.02006090391322984 0 -0.22538834727875931 -0.003116926288211063 0 -0.24085558219536299 -0.01885853391374126 0 -0.24128403747649099 -0.003068301980002572 0 -0.24128403747649099 -0.003068301980002572 0 -0.25175475688049992 -0.014484072789302299 0 -0.25445223429650399 0.001296013740745124 0 -0.24085558219536299 -0.01885853391374126 0 -0.24128403747649099 -0.003068301980002572 0 -0.25175475688049992 -0.014484072789302299 0 -0.25175475688049992 -0.014484072789302299 0 -0.26622076965958508 -0.0098856513175089398 0 -0.25445223429650399 0.001296013740745124 0 -0.26622076965958508 -0.0098856513175089398 0 -0.25445223429650399 0.001296013740745124 0 -0.27363723852786181 0.0027058176256576621 0 -0.25175475688049992 -0.014484072789302299 0 -0.26161363782186542 -0.021899091393194989 0 -0.26622076965958508 -0.0098856513175089398 0 -0.24949062162107871 -0.027956165915406329 0 -0.26161363782186542 -0.021899091393194989 0 -0.26733794620964579 -0.033422142191652057 0 -0.24949062162107871 -0.027956165915406329 0 -0.26733794620964579 -0.033422142191652057 0 -0.24949062162107871 -0.027956165915406329 0 -0.25379617331213111 -0.021465648559274599 0 -0.26161363782186542 -0.021899091393194989 0 -0.24949062162107871 -0.027956165915406329 0 -0.24763180198353149 -0.02006090391322984 0 -0.25379617331213111 -0.021465648559274599 0 -0.25175475688049992 -0.014484072789302299 0 -0.25379617331213111 -0.021465648559274599 0 -0.26161363782186542 -0.021899091393194989 0 -0.24763180198353149 -0.02006090391322984 0 -0.25175475688049992 -0.014484072789302299 0 -0.25379617331213111 -0.021465648559274599 0 -0.26161363782186542 -0.021899091393194989 0 -0.27261821491741028 -0.023296801838334609 0 -0.26733794620964579 -0.033422142191652057 0 -0.27261821491741028 -0.023296801838334609 0 -0.27894948583882412 -0.031790115301283423 0 -0.26733794620964579 -0.033422142191652057 0 -0.27261821491741028 -0.023296801838334609 0 -0.27887420054768691 -0.016003300149823069 0 -0.26622076965958508 -0.0098856513175089398 0 -0.26161363782186542 -0.021899091393194989 0 -0.27261821491741028 -0.023296801838334609 0 -0.26622076965958508 -0.0098856513175089398 0 -0.27261821491741028 -0.023296801838334609 0 -0.27887420054768691 -0.016003300149823069 0 -0.28339956498270857 -0.025602016534572329 0 -0.27261821491741028 -0.023296801838334609 0 -0.28339956498270857 -0.025602016534572329 0 -0.27894948583882412 -0.031790115301283423 0 -0.26622076965958508 -0.0098856513175089398 0 -0.2771889831843754 -0.0068077134963978672 0 -0.27363723852786181 0.0027058176256576621 0 -0.27887420054768691 -0.016003300149823069 0 -0.2771889831843754 -0.0068077134963978672 0 -0.284717082850938 -0.0087291656650594282 0 -0.27887420054768691 -0.016003300149823069 0 -0.26622076965958508 -0.0098856513175089398 0 -0.2771889831843754 -0.0068077134963978672 0 -0.2771889831843754 -0.0068077134963978672 0 -0.28249562433580527 -0.0021262679752555671 0 -0.27363723852786181 0.0027058176256576621 0 -0.2771889831843754 -0.0068077134963978672 0 -0.28249562433580527 -0.0021262679752555671 0 -0.284717082850938 -0.0087291656650594282 0 -0.28249562433580527 -0.0021262679752555671 0 -0.28979225651653689 -0.0028564736825077478 0 -0.284717082850938 -0.0087291656650594282 0 -0.28979225651653689 -0.0028564736825077478 0 -0.29429584126494102 -0.0087693092716347489 0 -0.29799676537030689 -0.0014857598218393779 0 -0.28979225651653689 -0.0028564736825077478 0 -0.29429584126494102 -0.0087693092716347489 0 -0.284717082850938 -0.0087291656650594282 0 -0.29429584126494102 -0.0087693092716347489 0 -0.284717082850938 -0.0087291656650594282 0 -0.28827952353842828 -0.01708115303313781 0 -0.29429584126494102 -0.0087693092716347489 0 -0.28827952353842828 -0.01708115303313781 0 -0.29629977620582709 -0.018169042688396839 0 -0.27887420054768691 -0.016003300149823069 0 -0.284717082850938 -0.0087291656650594282 0 -0.28827952353842828 -0.01708115303313781 0 -0.27887420054768691 -0.016003300149823069 0 -0.28827952353842828 -0.01708115303313781 0 -0.28339956498270857 -0.025602016534572329 0 -0.28827952353842828 -0.01708115303313781 0 -0.28339956498270857 -0.025602016534572329 0 -0.29192401428431197 -0.02500753299160096 0 -0.28339956498270857 -0.025602016534572329 0 -0.29192401428431197 -0.02500753299160096 0 -0.28811731487782322 -0.03127163343683436 0 -0.28339956498270857 -0.025602016534572329 0 -0.28811731487782322 -0.03127163343683436 0 -0.28391290912439199 -0.031887970935147662 0 -0.28339956498270857 -0.025602016534572329 0 -0.28391290912439199 -0.031887970935147662 0 -0.27894948583882412 -0.031790115301283423 0 -0.29192401428431197 -0.02500753299160096 0 -0.29594614900483218 -0.032178807321089763 0 -0.28811731487782322 -0.03127163343683436 0 -0.29192401428431197 -0.02500753299160096 0 -0.29959167997800068 -0.025476245298182171 0 -0.29594614900483218 -0.032178807321089763 0 -0.28827952353842828 -0.01708115303313781 0 -0.29192401428431197 -0.02500753299160096 0 -0.29629977620582709 -0.018169042688396839 0 -0.29192401428431197 -0.02500753299160096 0 -0.29629977620582709 -0.018169042688396839 0 -0.29959167997800068 -0.025476245298182171 0 -0.29629977620582709 -0.018169042688396839 0 -0.30323411805147221 -0.02002320180597561 0 -0.30055653740463728 -0.012601328037984919 0 -0.29629977620582709 -0.018169042688396839 0 -0.30323411805147221 -0.02002320180597561 0 -0.29959167997800068 -0.025476245298182171 0 -0.30323411805147221 -0.02002320180597561 0 -0.30744607057772538 -0.01442650364168027 0 -0.30055653740463728 -0.012601328037984919 0 -0.29959167997800068 -0.025476245298182171 0 -0.30466710656626772 -0.03137644102885348 0 -0.29594614900483218 -0.032178807321089763 0 -0.30323411805147221 -0.02002320180597561 0 -0.29959167997800068 -0.025476245298182171 0 -0.30588228556265878 -0.025853127277383151 0 -0.29959167997800068 -0.025476245298182171 0 -0.30588228556265878 -0.025853127277383151 0 -0.30466710656626772 -0.03137644102885348 0 -0.30588228556265878 -0.025853127277383151 0 -0.31102220705251399 -0.02799749818517136 0 -0.30466710656626772 -0.03137644102885348 0 -0.30588228556265878 -0.025853127277383151 0 -0.31102220705251399 -0.02799749818517136 0 -0.31211244184299669 -0.022472195243399929 0 -0.31102220705251399 -0.02799749818517136 0 -0.31108014597656458 -0.033634118145371039 0 -0.30466710656626772 -0.03137644102885348 0 -0.30323411805147221 -0.02002320180597561 0 -0.31211244184299669 -0.022472195243399929 0 -0.30744607057772538 -0.01442650364168027 0 -0.31211244184299669 -0.022472195243399929 0 -0.30744607057772538 -0.01442650364168027 0 -0.31531470951244212 -0.0154209744093768 0 -0.30323411805147221 -0.02002320180597561 0 -0.30588228556265878 -0.025853127277383151 0 -0.31211244184299669 -0.022472195243399929 0 -0.30744607057772538 -0.01442650364168027 0 -0.30378972535931809 -0.0058143035547737563 0 -0.31250898135027622 -0.0086857241839327151 0 -0.30744607057772538 -0.01442650364168027 0 -0.31531470951244212 -0.0154209744093768 0 -0.31250898135027622 -0.0086857241839327151 0 -0.29799676537030689 -0.0014857598218393779 0 -0.30378972535931809 -0.0058143035547737563 0 -0.31782108018962713 0.00054412690020929884 0 -0.30378972535931809 -0.0058143035547737563 0 -0.31250898135027622 -0.0086857241839327151 0 -0.31782108018962713 0.00054412690020929884 0 -0.29429584126494102 -0.0087693092716347489 0 -0.29799676537030689 -0.0014857598218393779 0 -0.30378972535931809 -0.0058143035547737563 0 -0.29429584126494102 -0.0087693092716347489 0 -0.30378972535931809 -0.0058143035547737563 0 -0.30055653740463728 -0.012601328037984919 0 -0.30744607057772538 -0.01442650364168027 0 -0.30378972535931809 -0.0058143035547737563 0 -0.30055653740463728 -0.012601328037984919 0 -0.29429584126494102 -0.0087693092716347489 0 -0.29629977620582709 -0.018169042688396839 0 -0.30055653740463728 -0.012601328037984919 0 -0.30387776194788702 -0.05345516306955618 0 -0.3053520222421548 -0.046704708650119338 0 -0.29467262502624458 -0.053648809423448678 0 -0.30288071454149468 -0.059217761993481263 0 -0.29467262502624458 -0.053648809423448678 0 -0.29503956421242661 -0.066382050019581113 0 -0.30387776194788702 -0.05345516306955618 0 -0.30288071454149468 -0.059217761993481263 0 -0.29467262502624458 -0.053648809423448678 0 -0.30387776194788702 -0.05345516306955618 0 -0.30288071454149468 -0.059217761993481263 0 -0.31260568598165389 -0.05424937221117547 0 -0.30288071454149468 -0.059217761993481263 0 -0.3123413018411676 -0.06229503864178499 0 -0.31260568598165389 -0.05424937221117547 0 -0.30387776194788702 -0.05345516306955618 0 -0.3053520222421548 -0.046704708650119338 0 -0.31260568598165389 -0.05424937221117547 0 -0.30665094044174668 -0.039865430074447053 0 -0.31108014597656458 -0.033634118145371039 0 -0.31686809546174621 -0.036103722337029173 0 -0.30665094044174668 -0.039865430074447053 0 -0.31108014597656458 -0.033634118145371039 0 -0.30466710656626772 -0.03137644102885348 0 -0.30665094044174668 -0.039865430074447053 0 -0.30466710656626772 -0.03137644102885348 0 -0.29594614900483218 -0.032178807321089763 0 -0.30665094044174668 -0.039865430074447053 0 -0.3053520222421548 -0.046704708650119338 0 -0.29279634008099609 -0.041219107851216429 0 -0.30665094044174668 -0.039865430074447053 0 -0.2851852707982121 -0.038888118467900523 0 -0.3053520222421548 -0.046704708650119338 0 -0.29279634008099609 -0.041219107851216429 0 -0.28983632723568847 -0.043642976925365187 0 -0.3053520222421548 -0.046704708650119338 0 -0.28983632723568847 -0.043642976925365187 0 -0.28361106027449562 -0.047331227157407098 0 -0.30665094044174668 -0.039865430074447053 0 -0.29594614900483218 -0.032178807321089763 0 -0.2851852707982121 -0.038888118467900523 0 -0.30665094044174668 -0.039865430074447053 0 -0.29279634008099609 -0.041219107851216429 0 -0.2851852707982121 -0.038888118467900523 0 -0.29279634008099609 -0.041219107851216429 0 -0.28983632723568847 -0.043642976925365187 0 -0.2851852707982121 -0.038888118467900523 0 -0.29594614900483218 -0.032178807321089763 0 -0.28811731487782322 -0.03127163343683436 0 -0.2851852707982121 -0.038888118467900523 0 -0.28811731487782322 -0.03127163343683436 0 -0.2851852707982121 -0.038888118467900523 0 -0.28391290912439199 -0.031887970935147662 0 -0.2851852707982121 -0.038888118467900523 0 -0.28080160642074198 -0.038688534381011497 0 -0.2851852707982121 -0.038888118467900523 0 -0.28391290912439199 -0.031887970935147662 0 -0.27894948583882412 -0.031790115301283423 0 -0.2851852707982121 -0.038888118467900523 0 -0.28361106027449562 -0.047331227157407098 0 -0.28080160642074198 -0.038688534381011497 0 -0.28983632723568847 -0.043642976925365187 0 -0.2851852707982121 -0.038888118467900523 0 -0.28361106027449562 -0.047331227157407098 0 -0.29279634008099609 -0.041219107851216429 0 -0.2851852707982121 -0.038888118467900523 0 -0.3053520222421548 -0.046704708650119338 0 -0.28361106027449562 -0.047331227157407098 0 -0.29467262502624458 -0.053648809423448678 0 -0.3053520222421548 -0.046704708650119338 0 -0.28361106027449562 -0.047331227157407098 0 -0.28361106027449562 -0.047331227157407098 0 -0.29467262502624458 -0.053648809423448678 0 -0.28351494435787322 -0.060342252451038123 0 -0.29467262502624458 -0.053648809423448678 0 -0.28351494435787322 -0.060342252451038123 0 -0.29503956421242661 -0.066382050019581113 0 -0.28351494435787322 -0.060342252451038123 0 -0.27497313905500942 -0.053222339095729501 0 -0.26788549850543558 -0.064860007170021217 0 -0.27497313905500942 -0.053222339095729501 0 -0.26503452108500558 -0.049109761461220383 0 -0.26788549850543558 -0.064860007170021217 0 -0.28361106027449562 -0.047331227157407098 0 -0.27497313905500942 -0.053222339095729501 0 -0.27481967105223681 -0.044468447238960658 0 -0.28361106027449562 -0.047331227157407098 0 -0.28351494435787322 -0.060342252451038123 0 -0.27497313905500942 -0.053222339095729501 0 -0.27497313905500942 -0.053222339095729501 0 -0.27481967105223681 -0.044468447238960658 0 -0.26503452108500558 -0.049109761461220383 0 -0.2851852707982121 -0.038888118467900523 0 -0.28080160642074198 -0.038688534381011497 0 -0.26733794620964579 -0.033422142191652057 0 -0.2851852707982121 -0.038888118467900523 0 -0.27894948583882412 -0.031790115301283423 0 -0.26733794620964579 -0.033422142191652057 0 -0.2851852707982121 -0.038888118467900523 0 -0.26733794620964579 -0.033422142191652057 0 -0.27481967105223681 -0.044468447238960658 0 -0.26733794620964579 -0.033422142191652057 0 -0.26503452108500558 -0.049109761461220383 0 -0.28080160642074198 -0.038688534381011497 0 -0.27481967105223681 -0.044468447238960658 0 -0.26733794620964579 -0.033422142191652057 0 -0.28361106027449562 -0.047331227157407098 0 -0.28080160642074198 -0.038688534381011497 0 -0.27481967105223681 -0.044468447238960658 0 -0.2461326123109826 -0.055308174651202947 0 -0.24949062162107871 -0.027956165915406329 0 -0.25699892530667812 -0.04144906105487043 0 -0.26733794620964579 -0.033422142191652057 0 -0.25699892530667812 -0.04144906105487043 0 -0.26503452108500558 -0.049109761461220383 0 -0.24949062162107871 -0.027956165915406329 0 -0.26733794620964579 -0.033422142191652057 0 -0.25699892530667812 -0.04144906105487043 0 -0.2461326123109826 -0.055308174651202947 0 -0.25699892530667812 -0.04144906105487043 0 -0.26503452108500558 -0.049109761461220383 0 -0.2461326123109826 -0.055308174651202947 0 -0.26503452108500558 -0.049109761461220383 0 -0.26788549850543558 -0.064860007170021217 0 -0.24277460300089451 -0.082660183387000596 0 -0.2461326123109826 -0.055308174651202947 0 -0.26788549850543558 -0.064860007170021217 0 -0.24277460300089451 -0.082660183387000596 0 -0.2693309697009113 -0.083705062642459721 0 -0.26788549850543558 -0.064860007170021217 0 -0.24277460300089451 -0.082660183387000596 0 -0.2693309697009113 -0.083705062642459721 0 -0.25824639025713519 -0.1002016063446013 0 -0.2693309697009113 -0.083705062642459721 0 -0.27619091415007352 -0.098312060036498075 0 -0.28572127165967498 -0.084991803941222965 0 -0.2693309697009113 -0.083705062642459721 0 -0.28259405611946159 -0.072857471581559488 0 -0.28572127165967498 -0.084991803941222965 0 -0.2693309697009113 -0.083705062642459721 0 -0.26788549850543558 -0.064860007170021217 0 -0.28259405611946159 -0.072857471581559488 0 -0.28351494435787322 -0.060342252451038123 0 -0.26788549850543558 -0.064860007170021217 0 -0.28259405611946159 -0.072857471581559488 0 -0.25661321536168652 -0.1165333872518117 0 -0.25824639025713519 -0.1002016063446013 0 -0.2719101374322152 -0.11489141184942819 0 -0.26473979149963378 -0.1229813646565117 0 -0.25661321536168652 -0.1165333872518117 0 -0.2719101374322152 -0.11489141184942819 0 -0.26473979149963378 -0.1229813646565117 0 -0.25661321536168652 -0.1165333872518117 0 -0.25850907120502509 -0.12694145683918931 0 -0.25661321536168652 -0.1165333872518117 0 -0.25074896958116072 -0.12623220477356401 0 -0.25850907120502509 -0.12694145683918931 0 -0.23941659369080631 -0.11001219212279841 0 -0.25661321536168652 -0.1165333872518117 0 -0.25824639025713519 -0.1002016063446013 0 -0.27619091415007352 -0.098312060036498075 0 -0.2719101374322152 -0.11489141184942819 0 -0.28459489616305428 -0.11046384788143621 0 -0.2693309697009113 -0.083705062642459721 0 -0.25824639025713519 -0.1002016063446013 0 -0.27619091415007352 -0.098312060036498075 0 -0.25824639025713519 -0.1002016063446013 0 -0.27619091415007352 -0.098312060036498075 0 -0.2719101374322152 -0.11489141184942819 0 -0.2719101374322152 -0.11489141184942819 0 -0.28620089297729029 -0.12447629827749659 0 -0.28459489616305428 -0.11046384788143621 0 -0.2719101374322152 -0.11489141184942819 0 -0.28620089297729029 -0.12447629827749659 0 -0.27281217822798981 -0.1254728102371292 0 -0.26473979149963378 -0.1229813646565117 0 -0.2719101374322152 -0.11489141184942819 0 -0.27281217822798981 -0.1254728102371292 0 -0.28620089297729029 -0.12447629827749659 0 -0.29666813476340048 -0.1133451358397615 0 -0.30384372506448321 -0.1230867912680753 0 -0.28620089297729029 -0.12447629827749659 0 -0.28459489616305428 -0.11046384788143621 0 -0.29666813476340048 -0.1133451358397615 0 -0.27619091415007352 -0.098312060036498075 0 -0.28459489616305428 -0.11046384788143621 0 -0.29261636436127048 -0.099949453799237892 0 -0.27619091415007352 -0.098312060036498075 0 -0.29261636436127048 -0.099949453799237892 0 -0.28572127165967498 -0.084991803941222965 0 -0.28459489616305428 -0.11046384788143621 0 -0.29666813476340048 -0.1133451358397615 0 -0.29261636436127048 -0.099949453799237892 0 -0.29666813476340048 -0.1133451358397615 0 -0.29261636436127048 -0.099949453799237892 0 -0.31265045857664558 -0.1045694367362775 0 -0.29261636436127048 -0.099949453799237892 0 -0.30017849228926369 -0.087341998557851824 0 -0.31265045857664558 -0.1045694367362775 0 -0.29666813476340048 -0.1133451358397615 0 -0.30384372506448321 -0.1230867912680753 0 -0.31265045857664558 -0.1045694367362775 0 -0.30384372506448321 -0.1230867912680753 0 -0.31265045857664558 -0.1045694367362775 0 -0.31660117337291221 -0.1318563968139303 0 -0.29384240456523503 -0.077214380072118949 0 -0.29503956421242661 -0.066382050019581113 0 -0.28259405611946159 -0.072857471581559488 0 -0.28351494435787322 -0.060342252451038123 0 -0.29503956421242661 -0.066382050019581113 0 -0.28259405611946159 -0.072857471581559488 0 -0.29384240456523503 -0.077214380072118949 0 -0.28259405611946159 -0.072857471581559488 0 -0.28572127165967498 -0.084991803941222965 0 -0.29261636436127048 -0.099949453799237892 0 -0.28572127165967498 -0.084991803941222965 0 -0.30017849228926369 -0.087341998557851824 0 -0.29384240456523503 -0.077214380072118949 0 -0.28572127165967498 -0.084991803941222965 0 -0.30017849228926369 -0.087341998557851824 0 -0.30017849228926369 -0.087341998557851824 0 -0.31360643674210997 -0.085278918796361514 0 -0.31265045857664558 -0.1045694367362775 0 -0.29384240456523503 -0.077214380072118949 0 -0.30017849228926369 -0.087341998557851824 0 -0.30457615671232557 -0.076182064934387714 0 -0.30017849228926369 -0.087341998557851824 0 -0.30457615671232557 -0.076182064934387714 0 -0.31360643674210997 -0.085278918796361514 0 -0.30457615671232557 -0.076182064934387714 0 -0.3165834315049123 -0.072426724921389365 0 -0.31360643674210997 -0.085278918796361514 0 -0.30457615671232557 -0.076182064934387714 0 -0.30564108435926868 -0.06725869540514369 0 -0.3165834315049123 -0.072426724921389365 0 -0.29384240456523503 -0.077214380072118949 0 -0.29503956421242661 -0.066382050019581113 0 -0.30457615671232557 -0.076182064934387714 0 -0.29503956421242661 -0.066382050019581113 0 -0.30457615671232557 -0.076182064934387714 0 -0.30564108435926868 -0.06725869540514369 0 -0.30288071454149468 -0.059217761993481263 0 -0.29503956421242661 -0.066382050019581113 0 -0.30564108435926868 -0.06725869540514369 0 -0.30288071454149468 -0.059217761993481263 0 -0.3123413018411676 -0.06229503864178499 0 -0.30564108435926868 -0.06725869540514369 0 -0.3123413018411676 -0.06229503864178499 0 -0.30564108435926868 -0.06725869540514369 0 -0.3165834315049123 -0.072426724921389365 0 -0.3165834315049123 -0.072426724921389365 0 -0.32811741844918391 -0.087423955583301557 0 -0.33014879737880659 -0.071143570277152068 0 -0.3123413018411676 -0.06229503864178499 0 -0.32113708335130331 -0.062913289436134612 0 -0.3165834315049123 -0.072426724921389365 0 -0.32113708335130331 -0.062913289436134612 0 -0.33014879737880659 -0.071143570277152068 0 -0.32845265619327069 -0.059488120777393197 0 -0.32113708335130331 -0.062913289436134612 0 -0.3165834315049123 -0.072426724921389365 0 -0.33014879737880659 -0.071143570277152068 0 -0.31360643674210997 -0.085278918796361514 0 -0.32811741844918391 -0.087423955583301557 0 -0.31265045857664558 -0.1045694367362775 0 -0.3165834315049123 -0.072426724921389365 0 -0.31360643674210997 -0.085278918796361514 0 -0.32811741844918391 -0.087423955583301557 0 -0.33084039820140548 -0.10582389505519781 0 -0.3450796230298987 -0.079791393296465563 0 -0.32811741844918391 -0.087423955583301557 0 -0.33489391071165858 -0.079009839279477301 0 -0.3450796230298987 -0.079791393296465563 0 -0.32811741844918391 -0.087423955583301557 0 -0.33489391071165858 -0.079009839279477301 0 -0.33014879737880659 -0.071143570277152068 0 -0.32811741844918391 -0.087423955583301557 0 -0.33084039820140548 -0.10582389505519781 0 -0.3450796230298987 -0.079791393296465563 0 -0.33489391071165858 -0.079009839279477301 0 -0.34259217600780328 -0.075742612128046033 0 -0.3450796230298987 -0.079791393296465563 0 -0.34259217600780328 -0.075742612128046033 0 -0.33659178726629257 -0.073237244308836935 0 -0.33873226496690167 -0.067052955550672325 0 -0.33489391071165858 -0.079009839279477301 0 -0.34259217600780328 -0.075742612128046033 0 -0.33659178726629257 -0.073237244308836935 0 -0.34259217600780328 -0.075742612128046033 0 -0.33873226496690167 -0.067052955550672325 0 -0.34571306109263872 -0.060597141881795109 0 -0.33014879737880659 -0.071143570277152068 0 -0.32845265619327069 -0.059488120777393197 0 -0.33642097797390708 -0.059172738857424322 0 -0.33873226496690167 -0.067052955550672325 0 -0.33014879737880659 -0.071143570277152068 0 -0.33642097797390708 -0.059172738857424322 0 -0.33489391071165858 -0.079009839279477301 0 -0.33659178726629257 -0.073237244308836935 0 -0.33014879737880659 -0.071143570277152068 0 -0.33659178726629257 -0.073237244308836935 0 -0.33873226496690167 -0.067052955550672325 0 -0.33014879737880659 -0.071143570277152068 0 -0.31265045857664558 -0.1045694367362775 0 -0.33084039820140548 -0.10582389505519781 0 -0.31660117337291221 -0.1318563968139303 0 -0.33084039820140548 -0.10582389505519781 0 -0.31660117337291221 -0.1318563968139303 0 -0.3310448730978095 -0.12716432410153991 0 -0.33084039820140548 -0.10582389505519781 0 -0.31660117337291221 -0.1318563968139303 0 -0.32811741844918391 -0.087423955583301557 0 -0.31265045857664558 -0.1045694367362775 0 -0.33084039820140548 -0.10582389505519781 0 -0.33084039820140548 -0.10582389505519781 0 -0.34687902118687902 -0.097686153277585869 0 -0.3450796230298987 -0.079791393296465563 0 -0.33084039820140548 -0.10582389505519781 0 -0.34892928668163709 -0.11292278860744361 0 -0.34687902118687902 -0.097686153277585869 0 -0.33084039820140548 -0.10582389505519781 0 -0.33994260749638638 -0.1200966028809774 0 -0.34892928668163709 -0.11292278860744361 0 -0.33084039820140548 -0.10582389505519781 0 -0.33994260749638638 -0.1200966028809774 0 -0.3310448730978095 -0.12716432410153991 0 -0.34892928668163709 -0.11292278860744361 0 -0.36370686734751329 -0.1086822987256502 0 -0.36306954132545999 -0.12583347830204639 0 -0.34892928668163709 -0.11292278860744361 0 -0.34803039317708429 -0.12827044755731409 0 -0.36306954132545999 -0.12583347830204639 0 -0.33994260749638638 -0.1200966028809774 0 -0.34892928668163709 -0.11292278860744361 0 -0.34803039317708429 -0.12827044755731409 0 -0.34892928668163709 -0.11292278860744361 0 -0.34687902118687902 -0.097686153277585869 0 -0.36370686734751329 -0.1086822987256502 0 -0.34687902118687902 -0.097686153277585869 0 -0.36370686734751329 -0.1086822987256502 0 -0.36101285630625701 -0.091119670485676318 0 -0.36370686734751329 -0.1086822987256502 0 -0.3710168798650903 -0.098752521635988438 0 -0.38013010237982348 -0.1153213818989289 0 -0.36370686734751329 -0.1086822987256502 0 -0.3710168798650903 -0.098752521635988438 0 -0.36101285630625701 -0.091119670485676318 0 -0.36370686734751329 -0.1086822987256502 0 -0.36306954132545999 -0.12583347830204639 0 -0.38013010237982348 -0.1153213818989289 0 -0.36306954132545999 -0.12583347830204639 0 -0.37604978349753682 -0.1305695757879414 0 -0.38013010237982348 -0.1153213818989289 0 -0.36370686734751329 -0.1086822987256502 0 -0.36306954132545999 -0.12583347830204639 0 -0.35551676505002328 -0.069585988236698079 0 -0.34955052591663421 -0.074256111452824458 0 -0.35575143471007681 -0.080598778842528168 0 -0.35551676505002328 -0.069585988236698079 0 -0.35575143471007681 -0.080598778842528168 0 -0.36212310065804543 -0.073285000798704106 0 -0.35551676505002328 -0.069585988236698079 0 -0.35600812805493531 -0.061716210673030361 0 -0.34571306109263872 -0.060597141881795109 0 -0.35551676505002328 -0.069585988236698079 0 -0.36348753307120718 -0.064754115209235533 0 -0.35600812805493531 -0.061716210673030361 0 -0.35551676505002328 -0.069585988236698079 0 -0.34955052591663421 -0.074256111452824458 0 -0.34571306109263872 -0.060597141881795109 0 -0.34259217600780328 -0.075742612128046033 0 -0.34571306109263872 -0.060597141881795109 0 -0.34259217600780328 -0.075742612128046033 0 -0.34955052591663421 -0.074256111452824458 0 -0.34571306109263872 -0.060597141881795109 0 -0.34955052591663421 -0.074256111452824458 0 -0.3450796230298987 -0.079791393296465563 0 -0.35046082525328182 -0.079684157210279577 0 -0.34259217600780328 -0.075742612128046033 0 -0.34955052591663421 -0.074256111452824458 0 -0.3450796230298987 -0.079791393296465563 0 -0.34687902118687902 -0.097686153277585869 0 -0.3450796230298987 -0.079791393296465563 0 -0.35183026719721022 -0.085746882652988368 0 -0.3450796230298987 -0.079791393296465563 0 -0.35046082525328182 -0.079684157210279577 0 -0.35183026719721022 -0.085746882652988368 0 -0.34687902118687902 -0.097686153277585869 0 -0.35183026719721022 -0.085746882652988368 0 -0.36101285630625701 -0.091119670485676318 0 -0.35183026719721022 -0.085746882652988368 0 -0.35575143471007681 -0.080598778842528168 0 -0.36101285630625701 -0.091119670485676318 0 -0.34955052591663421 -0.074256111452824458 0 -0.35046082525328182 -0.079684157210279577 0 -0.35575143471007681 -0.080598778842528168 0 -0.35046082525328182 -0.079684157210279577 0 -0.35183026719721022 -0.085746882652988368 0 -0.35575143471007681 -0.080598778842528168 0 -0.35575143471007681 -0.080598778842528168 0 -0.36535178508285582 -0.079935000031701384 0 -0.36101285630625701 -0.091119670485676318 0 -0.3710168798650903 -0.098752521635988438 0 -0.36101285630625701 -0.091119670485676318 0 -0.37655611353167889 -0.08415547958917069 0 -0.36535178508285582 -0.079935000031701384 0 -0.37050798537606372 -0.071551121673357337 0 -0.37655611353167889 -0.08415547958917069 0 -0.36535178508285582 -0.079935000031701384 0 -0.36101285630625701 -0.091119670485676318 0 -0.37655611353167889 -0.08415547958917069 0 -0.35575143471007681 -0.080598778842528168 0 -0.36535178508285582 -0.079935000031701384 0 -0.36212310065804543 -0.073285000798704106 0 -0.36535178508285582 -0.079935000031701384 0 -0.37050798537606372 -0.071551121673357337 0 -0.36212310065804543 -0.073285000798704106 0 -0.37050798537606372 -0.071551121673357337 0 -0.36212310065804543 -0.073285000798704106 0 -0.36348753307120718 -0.064754115209235533 0 -0.35551676505002328 -0.069585988236698079 0 -0.36212310065804543 -0.073285000798704106 0 -0.36348753307120718 -0.064754115209235533 0 -0.37050798537606372 -0.071551121673357337 0 -0.3720135013680746 -0.062199750492047727 0 -0.38074771570066612 -0.069485435524499747 0 -0.37050798537606372 -0.071551121673357337 0 -0.36348753307120718 -0.064754115209235533 0 -0.3720135013680746 -0.062199750492047727 0 -0.36366302952674412 -0.054989232429091393 0 -0.34883394617747321 -0.045451671635544019 0 -0.377918264125567 -0.044613536529405057 0 -0.3720135013680746 -0.062199750492047727 0 -0.36366302952674412 -0.054989232429091393 0 -0.37531608161951241 -0.054597891757102182 0 -0.36366302952674412 -0.054989232429091393 0 -0.377918264125567 -0.044613536529405057 0 -0.37531608161951241 -0.054597891757102182 0 -0.36348753307120718 -0.064754115209235533 0 -0.3720135013680746 -0.062199750492047727 0 -0.36366302952674412 -0.054989232429091393 0 -0.36348753307120718 -0.064754115209235533 0 -0.36366302952674412 -0.054989232429091393 0 -0.35600812805493531 -0.061716210673030361 0 -0.35600812805493531 -0.061716210673030361 0 -0.35346076449617131 -0.055835396405036833 0 -0.34571306109263872 -0.060597141881795109 0 -0.36366302952674412 -0.054989232429091393 0 -0.35600812805493531 -0.061716210673030361 0 -0.35346076449617131 -0.055835396405036833 0 -0.36366302952674412 -0.054989232429091393 0 -0.35346076449617131 -0.055835396405036833 0 -0.34883394617747321 -0.045451671635544019 0 -0.34571306109263872 -0.060597141881795109 0 -0.34883394617747321 -0.045451671635544019 0 -0.33804853739331497 -0.051518032212356901 0 -0.34571306109263872 -0.060597141881795109 0 -0.34883394617747321 -0.045451671635544019 0 -0.35346076449617131 -0.055835396405036833 0 -0.34571306109263872 -0.060597141881795109 0 -0.34883394617747321 -0.045451671635544019 0 -0.34958227972881611 -0.041820053287534728 0 -0.36586946808493698 -0.042561593546133862 0 -0.34652854956439938 -0.035582026386845308 0 -0.34958227972881611 -0.041820053287534728 0 -0.3485154316088398 -0.024987600966012321 0 -0.34958227972881611 -0.041820053287534728 0 -0.3612857617902005 -0.031806827529165707 0 -0.36586946808493698 -0.042561593546133862 0 -0.34883394617747321 -0.045451671635544019 0 -0.34958227972881611 -0.041820053287534728 0 -0.36586946808493698 -0.042561593546133862 0 -0.34652854956439938 -0.035582026386845308 0 -0.34958227972881611 -0.041820053287534728 0 -0.34058696205188582 -0.038073071817179033 0 -0.34652854956439938 -0.035582026386845308 0 -0.34599310641779241 -0.0304481111859463 0 -0.34102317109375191 -0.031939393829359043 0 -0.34883394617747321 -0.045451671635544019 0 -0.34958227972881611 -0.041820053287534728 0 -0.34958227972881611 -0.041820053287534728 0 -0.3612857617902005 -0.031806827529165707 0 -0.35799234254321632 -0.027432744866241629 0 -0.3612857617902005 -0.031806827529165707 0 -0.36586946808493698 -0.042561593546133862 0 -0.36959331310531829 -0.031954041508409511 0 -0.34883394617747321 -0.045451671635544019 0 -0.377918264125567 -0.044613536529405057 0 -0.34883394617747321 -0.045451671635544019 0 -0.36586946808493698 -0.042561593546133862 0 -0.377918264125567 -0.044613536529405057 0 -0.36586946808493698 -0.042561593546133862 0 -0.37330575909772251 -0.038255008438460671 0 -0.377918264125567 -0.044613536529405057 0 -0.37330575909772251 -0.038255008438460671 0 -0.36959331310531829 -0.031954041508409511 0 -0.37984199107506789 -0.033890862169894252 0 -0.36586946808493698 -0.042561593546133862 0 -0.37330575909772251 -0.038255008438460671 0 -0.36959331310531829 -0.031954041508409511 0 -0.36959331310531829 -0.031954041508409511 0 -0.3659723299812645 -0.021201943470906238 0 -0.37572716706011239 -0.0240696977567233 0 -0.3659723299812645 -0.021201943470906238 0 -0.37738686226534363 -0.01323459619958703 0 -0.37572716706011239 -0.0240696977567233 0 -0.3659723299812645 -0.021201943470906238 0 -0.35512899867258418 -0.014902155177359849 0 -0.35799234254321632 -0.027432744866241629 0 -0.3612857617902005 -0.031806827529165707 0 -0.36959331310531829 -0.031954041508409511 0 -0.3659723299812645 -0.021201943470906238 0 -0.3612857617902005 -0.031806827529165707 0 -0.3659723299812645 -0.021201943470906238 0 -0.35799234254321632 -0.027432744866241629 0 -0.36656517708657399 -0.0072088866496940272 0 -0.35512899867258418 -0.014902155177359849 0 -0.36067571761635259 0.01201574293281492 0 -0.36656517708657399 -0.0072088866496940272 0 -0.37738686226534363 -0.01323459619958703 0 -0.37366197689732522 0.0012785186665680559 0 -0.3659723299812645 -0.021201943470906238 0 -0.36656517708657399 -0.0072088866496940272 0 -0.37738686226534363 -0.01323459619958703 0 -0.3659723299812645 -0.021201943470906238 0 -0.36656517708657399 -0.0072088866496940272 0 -0.35512899867258418 -0.014902155177359849 0 -0.35512899867258418 -0.014902155177359849 0 -0.36067571761635259 0.01201574293281492 0 -0.35512899867258418 -0.014902155177359849 0 -0.34968102917954508 -0.0065141269123413824 0 -0.36067571761635259 0.01201574293281492 0 -0.34968102917954508 -0.0065141269123413824 0 -0.3474106639861696 -0.015857201421736269 0 -0.34036330428034017 -0.01233739595199943 0 -0.35512899867258418 -0.014902155177359849 0 -0.34968102917954508 -0.0065141269123413824 0 -0.3474106639861696 -0.015857201421736269 0 -0.34958227972881611 -0.041820053287534728 0 -0.35512899867258418 -0.014902155177359849 0 -0.35799234254321632 -0.027432744866241629 0 -0.34958227972881611 -0.041820053287534728 0 -0.35512899867258418 -0.014902155177359849 0 -0.3485154316088398 -0.024987600966012321 0 -0.34958227972881611 -0.041820053287534728 0 -0.35512899867258418 -0.014902155177359849 0 -0.3474106639861696 -0.015857201421736269 0 -0.3485154316088398 -0.024987600966012321 0 -0.34295629121873428 -0.0205231094303201 0 -0.35512899867258418 -0.014902155177359849 0 -0.3474106639861696 -0.015857201421736269 0 -0.3485154316088398 -0.024987600966012321 0 -0.34652854956439938 -0.035582026386845308 0 -0.3485154316088398 -0.024987600966012321 0 -0.34599310641779241 -0.0304481111859463 0 -0.3485154316088398 -0.024987600966012321 0 -0.34351963881718828 -0.026703426119618609 0 -0.34295629121873428 -0.0205231094303201 0 -0.3485154316088398 -0.024987600966012321 0 -0.34599310641779241 -0.0304481111859463 0 -0.34351963881718828 -0.026703426119618609 0 -0.33870192877601901 -0.025597296515807031 0 -0.34351963881718828 -0.026703426119618609 0 -0.34102317109375191 -0.031939393829359043 0 -0.34599310641779241 -0.0304481111859463 0 -0.34351963881718828 -0.026703426119618609 0 -0.34102317109375191 -0.031939393829359043 0 -0.33870192877601901 -0.025597296515807031 0 -0.33453683815527552 -0.03073759843531516 0 -0.34102317109375191 -0.031939393829359043 0 -0.33870192877601901 -0.025597296515807031 0 -0.34351963881718828 -0.026703426119618609 0 -0.34295629121873428 -0.0205231094303201 0 -0.3474106639861696 -0.015857201421736269 0 -0.34295629121873428 -0.0205231094303201 0 -0.34036330428034017 -0.01233739595199943 0 -0.34295629121873428 -0.0205231094303201 0 -0.33550932088955437 -0.018187278001026701 0 -0.34036330428034017 -0.01233739595199943 0 -0.33870192877601901 -0.025597296515807031 0 -0.34295629121873428 -0.0205231094303201 0 -0.33550932088955437 -0.018187278001026701 0 -0.33870192877601901 -0.025597296515807031 0 -0.33550932088955437 -0.018187278001026701 0 -0.33191636213403941 -0.02391586378438286 0 -0.33550932088955437 -0.018187278001026701 0 -0.33191636213403941 -0.02391586378438286 0 -0.3279687481716867 -0.016896863565944151 0 -0.33191636213403941 -0.02391586378438286 0 -0.32505032610413909 -0.024352404139747739 0 -0.3279687481716867 -0.016896863565944151 0 -0.33191636213403941 -0.02391586378438286 0 -0.3286366956459239 -0.029745245351569891 0 -0.32505032610413909 -0.024352404139747739 0 -0.33191636213403941 -0.02391586378438286 0 -0.3286366956459239 -0.029745245351569891 0 -0.33453683815527552 -0.03073759843531516 0 -0.33870192877601901 -0.025597296515807031 0 -0.33191636213403941 -0.02391586378438286 0 -0.33453683815527552 -0.03073759843531516 0 -0.34968102917954508 -0.0065141269123413824 0 -0.33375105468458599 -0.0029850000060665191 0 -0.34371067612720191 0.0063243568063823504 0 -0.34968102917954508 -0.0065141269123413824 0 -0.34036330428034017 -0.01233739595199943 0 -0.33375105468458599 -0.0029850000060665191 0 -0.34968102917954508 -0.0065141269123413824 0 -0.33375105468458599 -0.0029850000060665191 0 -0.33550932088955437 -0.018187278001026701 0 -0.34036330428034017 -0.01233739595199943 0 -0.33248039243698391 -0.011671763151170239 0 -0.33248039243698391 -0.011671763151170239 0 -0.32536415985895067 -0.0087100383947575633 0 -0.3279687481716867 -0.016896863565944151 0 -0.34036330428034017 -0.01233739595199943 0 -0.33248039243698391 -0.011671763151170239 0 -0.33375105468458599 -0.0029850000060665191 0 -0.33550932088955437 -0.018187278001026701 0 -0.33248039243698391 -0.011671763151170239 0 -0.3279687481716867 -0.016896863565944151 0 -0.33248039243698391 -0.011671763151170239 0 -0.33375105468458599 -0.0029850000060665191 0 -0.32536415985895067 -0.0087100383947575633 0 -0.33375105468458599 -0.0029850000060665191 0 -0.31782108018962713 0.00054412690020929884 0 -0.33375105468458599 -0.0029850000060665191 0 -0.32536415985895067 -0.0087100383947575633 0 -0.31782108018962713 0.00054412690020929884 0 -0.32536415985895067 -0.0087100383947575633 0 -0.31817332111226782 -0.008310966214042044 0 -0.31782108018962713 0.00054412690020929884 0 -0.32536415985895067 -0.0087100383947575633 0 -0.32154854555265999 -0.013690992048661151 0 -0.3279687481716867 -0.016896863565944151 0 -0.32536415985895067 -0.0087100383947575633 0 -0.32154854555265999 -0.013690992048661151 0 -0.31817332111226782 -0.008310966214042044 0 -0.32154854555265999 -0.013690992048661151 0 -0.31531470951244212 -0.0154209744093768 0 -0.31817332111226782 -0.008310966214042044 0 -0.31531470951244212 -0.0154209744093768 0 -0.31250898135027622 -0.0086857241839327151 0 -0.31817332111226782 -0.008310966214042044 0 -0.31817332111226782 -0.008310966214042044 0 -0.31782108018962713 0.00054412690020929884 0 -0.31250898135027622 -0.0086857241839327151 0 -0.31817332111226782 -0.008310966214042044 0 -0.31782108018962713 0.00054412690020929884 0 -0.32285875502042599 -0.030001411402652219 0 -0.32505032610413909 -0.024352404139747739 0 -0.31805590575754422 -0.026040460890412429 0 -0.3286366956459239 -0.029745245351569891 0 -0.32285875502042599 -0.030001411402652219 0 -0.32505032610413909 -0.024352404139747739 0 -0.3286366956459239 -0.029745245351569891 0 -0.32285875502042599 -0.030001411402652219 0 -0.32639704397193842 -0.033843185695333122 0 -0.32154854555265999 -0.013690992048661151 0 -0.3279687481716867 -0.016896863565944151 0 -0.32000844615691149 -0.01981231504959036 0 -0.32505032610413909 -0.024352404139747739 0 -0.3279687481716867 -0.016896863565944151 0 -0.32000844615691149 -0.01981231504959036 0 -0.32505032610413909 -0.024352404139747739 0 -0.32000844615691149 -0.01981231504959036 0 -0.31805590575754422 -0.026040460890412429 0 -0.31211244184299669 -0.022472195243399929 0 -0.32000844615691149 -0.01981231504959036 0 -0.31805590575754422 -0.026040460890412429 0 -0.31211244184299669 -0.022472195243399929 0 -0.31531470951244212 -0.0154209744093768 0 -0.32000844615691149 -0.01981231504959036 0 -0.32154854555265999 -0.013690992048661151 0 -0.31531470951244212 -0.0154209744093768 0 -0.32000844615691149 -0.01981231504959036 0 -0.31102220705251399 -0.02799749818517136 0 -0.31211244184299669 -0.022472195243399929 0 -0.31805590575754422 -0.026040460890412429 0 -0.32285875502042599 -0.030001411402652219 0 -0.31805590575754422 -0.026040460890412429 0 -0.3168581354251539 -0.031446526987799851 0 -0.31102220705251399 -0.02799749818517136 0 -0.31805590575754422 -0.026040460890412429 0 -0.3168581354251539 -0.031446526987799851 0 -0.31102220705251399 -0.02799749818517136 0 -0.31108014597656458 -0.033634118145371039 0 -0.3168581354251539 -0.031446526987799851 0 -0.30665094044174668 -0.039865430074447053 0 -0.32709298420981392 -0.046078190142831578 0 -0.32811661008528142 -0.040842741680992029 0 -0.3053520222421548 -0.046704708650119338 0 -0.32709298420981392 -0.046078190142831578 0 -0.30665094044174668 -0.039865430074447053 0 -0.3053520222421548 -0.046704708650119338 0 -0.32709298420981392 -0.046078190142831578 0 -0.31108014597656458 -0.033634118145371039 0 -0.31686809546174621 -0.036103722337029173 0 -0.3168581354251539 -0.031446526987799851 0 -0.30665094044174668 -0.039865430074447053 0 -0.32811661008528142 -0.040842741680992029 0 -0.30665094044174668 -0.039865430074447053 0 -0.31686809546174621 -0.036103722337029173 0 -0.32811661008528142 -0.040842741680992029 0 -0.31686809546174621 -0.036103722337029173 0 -0.3168581354251539 -0.031446526987799851 0 -0.3216346453799846 -0.034729794796535908 0 -0.32285875502042599 -0.030001411402652219 0 -0.3216346453799846 -0.034729794796535908 0 -0.32639704397193842 -0.033843185695333122 0 -0.31686809546174621 -0.036103722337029173 0 -0.3216346453799846 -0.034729794796535908 0 -0.32811661008528142 -0.040842741680992029 0 -0.32285875502042599 -0.030001411402652219 0 -0.3168581354251539 -0.031446526987799851 0 -0.3216346453799846 -0.034729794796535908 0 -0.3216346453799846 -0.034729794796535908 0 -0.32639704397193842 -0.033843185695333122 0 -0.32811661008528142 -0.040842741680992029 0 -0.3053520222421548 -0.046704708650119338 0 -0.32709298420981392 -0.046078190142831578 0 -0.31260568598165389 -0.05424937221117547 0 -0.31260568598165389 -0.05424937221117547 0 -0.31664326673231408 -0.057784523373006338 0 -0.32265304645734832 -0.054341758626081732 0 -0.32113708335130331 -0.062913289436134612 0 -0.31664326673231408 -0.057784523373006338 0 -0.32265304645734832 -0.054341758626081732 0 -0.3123413018411676 -0.06229503864178499 0 -0.32113708335130331 -0.062913289436134612 0 -0.31664326673231408 -0.057784523373006338 0 -0.3123413018411676 -0.06229503864178499 0 -0.31260568598165389 -0.05424937221117547 0 -0.31664326673231408 -0.057784523373006338 0 -0.32265304645734832 -0.054341758626081732 0 -0.33053364044553102 -0.054119768123217539 0 -0.32845265619327069 -0.059488120777393197 0 -0.32113708335130331 -0.062913289436134612 0 -0.32265304645734832 -0.054341758626081732 0 -0.32845265619327069 -0.059488120777393197 0 -0.32709298420981392 -0.046078190142831578 0 -0.32265304645734832 -0.054341758626081732 0 -0.33053364044553102 -0.054119768123217539 0 -0.32709298420981392 -0.046078190142831578 0 -0.31260568598165389 -0.05424937221117547 0 -0.32265304645734832 -0.054341758626081732 0 -0.34883394617747321 -0.045451671635544019 0 -0.32709298420981392 -0.046078190142831578 0 -0.33804853739331497 -0.051518032212356901 0 -0.32709298420981392 -0.046078190142831578 0 -0.33053364044553102 -0.054119768123217539 0 -0.33804853739331497 -0.051518032212356901 0 -0.33053364044553102 -0.054119768123217539 0 -0.32845265619327069 -0.059488120777393197 0 -0.33642097797390708 -0.059172738857424322 0 -0.33053364044553102 -0.054119768123217539 0 -0.33642097797390708 -0.059172738857424322 0 -0.33804853739331497 -0.051518032212356901 0 -0.34571306109263872 -0.060597141881795109 0 -0.33642097797390708 -0.059172738857424322 0 -0.33804853739331497 -0.051518032212356901 0 -0.33873226496690167 -0.067052955550672325 0 -0.34571306109263872 -0.060597141881795109 0 -0.33642097797390708 -0.059172738857424322 0 -0.34883394617747321 -0.045451671635544019 0 -0.32709298420981392 -0.046078190142831578 0 -0.34958227972881611 -0.041820053287534728 0 -0.32811661008528142 -0.040842741680992029 0 -0.34058696205188582 -0.038073071817179033 0 -0.34883394617747321 -0.045451671635544019 0 -0.34958227972881611 -0.041820053287534728 0 -0.32811661008528142 -0.040842741680992029 0 -0.34883394617747321 -0.045451671635544019 0 -0.32709298420981392 -0.046078190142831578 0 -0.32811661008528142 -0.040842741680992029 0 -0.34958227972881611 -0.041820053287534728 0 -0.32811661008528142 -0.040842741680992029 0 -0.34652854956439938 -0.035582026386845308 0 -0.34058696205188582 -0.038073071817179033 0 -0.34102317109375191 -0.031939393829359043 0 -0.33453683815527552 -0.03073759843531516 0 -0.34102317109375191 -0.031939393829359043 0 -0.33567376500794938 -0.036064985320245241 0 -0.34058696205188582 -0.038073071817179033 0 -0.34102317109375191 -0.031939393829359043 0 -0.33567376500794938 -0.036064985320245241 0 -0.32811661008528142 -0.040842741680992029 0 -0.34058696205188582 -0.038073071817179033 0 -0.33567376500794938 -0.036064985320245241 0 -0.33453683815527552 -0.03073759843531516 0 -0.33567376500794938 -0.036064985320245241 0 -0.33055639837412792 -0.034763947826259807 0 -0.3286366956459239 -0.029745245351569891 0 -0.33453683815527552 -0.03073759843531516 0 -0.33055639837412792 -0.034763947826259807 0 -0.3286366956459239 -0.029745245351569891 0 -0.32639704397193842 -0.033843185695333122 0 -0.33055639837412792 -0.034763947826259807 0 -0.32639704397193842 -0.033843185695333122 0 -0.32811661008528142 -0.040842741680992029 0 -0.33055639837412792 -0.034763947826259807 0 -0.32811661008528142 -0.040842741680992029 0 -0.33567376500794938 -0.036064985320245241 0 -0.33055639837412792 -0.034763947826259807 0 -0.30387853660551051 -0.23527825701036881 0 -0.2983230382578394 -0.2445925140318079 0 -0.29527641717527692 -0.23644602391427769 0 -0.30387853660551051 -0.23527825701036881 0 -0.2983230382578394 -0.2445925140318079 0 -0.3079912162874085 -0.243557709704426 0 -0.30474039183049878 -0.25544372680981631 0 -0.2983230382578394 -0.2445925140318079 0 -0.3079912162874085 -0.243557709704426 0 -0.31352607005286259 -0.25036143285104001 0 -0.30474039183049878 -0.25544372680981631 0 -0.3079912162874085 -0.243557709704426 0 -0.30387853660551051 -0.23527825701036881 0 -0.3079912162874085 -0.243557709704426 0 -0.31277516778767422 -0.23355928116819821 0 -0.30387853660551051 -0.23527825701036881 0 -0.30726697053105939 -0.22636630551678169 0 -0.31277516778767422 -0.23355928116819821 0 -0.30726697053105939 -0.22636630551678169 0 -0.31584244883929019 -0.22399051255305899 0 -0.31277516778767422 -0.23355928116819821 0 -0.30726697053105939 -0.22636630551678169 0 -0.30972670441963418 -0.21464490462368971 0 -0.31584244883929019 -0.22399051255305899 0 -0.30726697053105939 -0.22636630551678169 0 -0.30154486051069129 -0.22001790411641581 0 -0.30972670441963418 -0.21464490462368971 0 -0.30726697053105939 -0.22636630551678169 0 -0.30154486051069129 -0.22001790411641581 0 -0.29876020503382639 -0.22794683563540849 0 -0.30154486051069129 -0.22001790411641581 0 -0.29876020503382639 -0.22794683563540849 0 -0.29292937819085568 -0.21994846670296159 0 -0.30387853660551051 -0.23527825701036881 0 -0.30726697053105939 -0.22636630551678169 0 -0.29876020503382639 -0.22794683563540849 0 -0.30387853660551051 -0.23527825701036881 0 -0.29876020503382639 -0.22794683563540849 0 -0.29527641717527692 -0.23644602391427769 0 -0.29876020503382639 -0.22794683563540849 0 -0.28784872367848968 -0.23104624683926719 0 -0.29527641717527692 -0.23644602391427769 0 -0.29876020503382639 -0.22794683563540849 0 -0.29292937819085568 -0.21994846670296159 0 -0.28784872367848968 -0.23104624683926719 0 -0.29292937819085568 -0.21994846670296159 0 -0.28327967231097589 -0.22115890160194901 0 -0.28784872367848968 -0.23104624683926719 0 -0.28327967231097589 -0.22115890160194901 0 -0.28784872367848968 -0.23104624683926719 0 -0.27586215622407051 -0.22961355243484649 0 -0.28784872367848968 -0.23104624683926719 0 -0.28757158230071878 -0.2433662660545364 0 -0.27978811840555889 -0.23779073454506419 0 -0.2983230382578394 -0.2445925140318079 0 -0.29527641717527692 -0.23644602391427769 0 -0.28757158230071878 -0.2433662660545364 0 -0.28784872367848968 -0.23104624683926719 0 -0.29527641717527692 -0.23644602391427769 0 -0.28757158230071878 -0.2433662660545364 0 -0.29294132617956792 -0.25294672078684138 0 -0.2983230382578394 -0.2445925140318079 0 -0.28757158230071878 -0.2433662660545364 0 -0.28220785034157359 -0.25446673289743471 0 -0.28757158230071878 -0.2433662660545364 0 -0.27745322421201168 -0.24544522856295259 0 -0.28757158230071878 -0.2433662660545364 0 -0.27745322421201168 -0.24544522856295259 0 -0.27978811840555889 -0.23779073454506419 0 -0.26772939753353958 -0.25026361420850018 0 -0.27204524153703619 -0.2393377948205215 0 -0.2604313458391847 -0.2325753442068908 0 -0.27978811840555889 -0.23779073454506419 0 -0.27204524153703619 -0.2393377948205215 0 -0.27586215622407051 -0.22961355243484649 0 -0.27745322421201168 -0.24544522856295259 0 -0.27978811840555889 -0.23779073454506419 0 -0.27204524153703619 -0.2393377948205215 0 -0.26772939753353958 -0.25026361420850018 0 -0.27745322421201168 -0.24544522856295259 0 -0.27204524153703619 -0.2393377948205215 0 -0.25961577114032658 -0.2567607931299708 0 -0.2604313458391847 -0.2325753442068908 0 -0.25961577114032658 -0.2567607931299708 0 -0.26772939753353958 -0.25026361420850018 0 -0.2604313458391847 -0.2325753442068908 0 -0.25961577114032658 -0.2567607931299708 0 -0.24966206634667409 -0.24400955986671949 0 -0.2604313458391847 -0.2325753442068908 0 -0.2480915939287219 -0.22734937565480301 0 -0.24966206634667409 -0.24400955986671949 0 -0.2604313458391847 -0.2325753442068908 0 -0.26772939753353958 -0.25026361420850018 0 -0.2604313458391847 -0.2325753442068908 0 -0.2604313458391847 -0.2325753442068908 0 -0.26124430188572362 -0.2084675500737756 0 -0.2604313458391847 -0.2325753442068908 0 -0.27276661212884618 -0.21629534984350329 0 -0.26124430188572362 -0.2084675500737756 0 -0.2604313458391847 -0.2325753442068908 0 -0.25261997675463937 -0.21364294810499571 0 -0.2480915939287219 -0.22734937565480301 0 -0.2604313458391847 -0.2325753442068908 0 -0.25261997675463937 -0.21364294810499571 0 -0.2604313458391847 -0.2325753442068908 0 -0.27586215622407051 -0.22961355243484649 0 -0.27276661212884618 -0.21629534984350329 0 -0.27204524153703619 -0.2393377948205215 0 -0.2604313458391847 -0.2325753442068908 0 -0.27586215622407051 -0.22961355243484649 0 -0.28784872367848968 -0.23104624683926719 0 -0.27978811840555889 -0.23779073454506419 0 -0.27586215622407051 -0.22961355243484649 0 -0.28327967231097589 -0.22115890160194901 0 -0.27586215622407051 -0.22961355243484649 0 -0.27276661212884618 -0.21629534984350329 0 -0.28327967231097589 -0.22115890160194901 0 -0.27276661212884618 -0.21629534984350329 0 -0.28649145345278049 -0.21123178555254599 0 -0.27813634746499122 -0.20390110390793739 0 -0.27036013812571791 -0.20676507402557659 0 -0.27276661212884618 -0.21629534984350329 0 -0.27813634746499122 -0.20390110390793739 0 -0.27276661212884618 -0.21629534984350329 0 -0.28649145345278049 -0.21123178555254599 0 -0.27036013812571791 -0.20676507402557659 0 -0.26124430188572362 -0.2084675500737756 0 -0.26991089076330749 -0.19695411047121389 0 -0.27036013812571791 -0.20676507402557659 0 -0.27276661212884618 -0.21629534984350329 0 -0.26124430188572362 -0.2084675500737756 0 -0.24480860767009471 -0.19471055200310031 0 -0.26124430188572362 -0.2084675500737756 0 -0.25261997675463937 -0.21364294810499571 0 -0.2604313458391847 -0.2325753442068908 0 -0.26124430188572362 -0.2084675500737756 0 -0.25261997675463937 -0.21364294810499571 0 -0.26124430188572362 -0.2084675500737756 0 -0.26991089076330749 -0.19695411047121389 0 -0.26205725793226198 -0.1843597559406604 0 -0.24480860767009471 -0.19471055200310031 0 -0.26124430188572362 -0.2084675500737756 0 -0.26205725793226198 -0.1843597559406604 0 -0.26124430188572362 -0.2084675500737756 0 -0.26205725793226198 -0.1843597559406604 0 -0.26991089076330749 -0.19695411047121389 0 -0.27814280479153081 -0.18916161736518031 0 -0.26205725793226198 -0.1843597559406604 0 -0.27813634746499122 -0.20390110390793739 0 -0.27036013812571791 -0.20676507402557659 0 -0.26991089076330749 -0.19695411047121389 0 -0.27813634746499122 -0.20390110390793739 0 -0.26991089076330749 -0.19695411047121389 0 -0.27814280479153081 -0.18916161736518031 0 -0.27813634746499122 -0.20390110390793739 0 -0.27814280479153081 -0.18916161736518031 0 -0.29284605206918718 -0.1957137044834916 0 -0.27813634746499122 -0.20390110390793739 0 -0.29284605206918718 -0.1957137044834916 0 -0.28649145345278049 -0.21123178555254599 0 -0.29292937819085568 -0.21994846670296159 0 -0.28327967231097589 -0.22115890160194901 0 -0.28649145345278049 -0.21123178555254599 0 -0.29292937819085568 -0.21994846670296159 0 -0.28649145345278049 -0.21123178555254599 0 -0.29859358604902653 -0.21003295060592461 0 -0.29284605206918718 -0.1957137044834916 0 -0.28649145345278049 -0.21123178555254599 0 -0.29859358604902653 -0.21003295060592461 0 -0.30154486051069129 -0.22001790411641581 0 -0.29859358604902653 -0.21003295060592461 0 -0.30972670441963418 -0.21464490462368971 0 -0.30154486051069129 -0.22001790411641581 0 -0.29292937819085568 -0.21994846670296159 0 -0.29859358604902653 -0.21003295060592461 0 -0.29859358604902653 -0.21003295060592461 0 -0.30972670441963418 -0.21464490462368971 0 -0.30717046186727898 -0.20070990089750071 0 -0.30972670441963418 -0.21464490462368971 0 -0.30717046186727898 -0.20070990089750071 0 -0.31923786733807141 -0.204941767304919 0 -0.29284605206918718 -0.1957137044834916 0 -0.30659843024189742 -0.18931958072541191 0 -0.30001811857440791 -0.1786838991148951 0 -0.30717046186727898 -0.20070990089750071 0 -0.30659843024189742 -0.18931958072541191 0 -0.31898143293391479 -0.18926381436845979 0 -0.29284605206918718 -0.1957137044834916 0 -0.30717046186727898 -0.20070990089750071 0 -0.30659843024189742 -0.18931958072541191 0 -0.29284605206918718 -0.1957137044834916 0 -0.29859358604902653 -0.21003295060592461 0 -0.30717046186727898 -0.20070990089750071 0 -0.30659843024189742 -0.18931958072541191 0 -0.30001811857440791 -0.1786838991148951 0 -0.31453593373425848 -0.1761057413314418 0 -0.30001811857440791 -0.1786838991148951 0 -0.30236194854441889 -0.15788889857266281 0 -0.31453593373425848 -0.1761057413314418 0 -0.30236194854441889 -0.15788889857266281 0 -0.32032294895926389 -0.1608628795598179 0 -0.31453593373425848 -0.1761057413314418 0 -0.30236194854441889 -0.15788889857266281 0 -0.28505752991803501 -0.15775329508293481 0 -0.28374822828227719 -0.17439157046146739 0 -0.30001811857440791 -0.1786838991148951 0 -0.30236194854441889 -0.15788889857266281 0 -0.28374822828227719 -0.17439157046146739 0 -0.29284605206918718 -0.1957137044834916 0 -0.30001811857440791 -0.1786838991148951 0 -0.28374822828227719 -0.17439157046146739 0 -0.27814280479153081 -0.18916161736518031 0 -0.29284605206918718 -0.1957137044834916 0 -0.28374822828227719 -0.17439157046146739 0 -0.28374822828227719 -0.17439157046146739 0 -0.26205725793226198 -0.1843597559406604 0 -0.26287021397880028 -0.1602519618075452 0 -0.27814280479153081 -0.18916161736518031 0 -0.28374822828227719 -0.17439157046146739 0 -0.26205725793226198 -0.1843597559406604 0 -0.24480860767009471 -0.19471055200310031 0 -0.26205725793226198 -0.1843597559406604 0 -0.25120195883373803 -0.1721391415510975 0 -0.26205725793226198 -0.1843597559406604 0 -0.26287021397880028 -0.1602519618075452 0 -0.26205725793226198 -0.1843597559406604 0 -0.25120195883373803 -0.1721391415510975 0 -0.26287021397880028 -0.1602519618075452 0 -0.24220539714476011 -0.16237985861264401 0 -0.25120195883373803 -0.1721391415510975 0 -0.26287021397880028 -0.1602519618075452 0 -0.24220539714476011 -0.16237985861264401 0 -0.2472196927006948 -0.1515692412906269 0 -0.26287021397880028 -0.1602519618075452 0 -0.28505752991803501 -0.15775329508293481 0 -0.28374822828227719 -0.17439157046146739 0 -0.26287021397880028 -0.1602519618075452 0 -0.28505752991803501 -0.15775329508293481 0 -0.26287021397880028 -0.1602519618075452 0 -0.27424315885750472 -0.14856787275784941 0 -0.26287021397880028 -0.1602519618075452 0 -0.27424315885750472 -0.14856787275784941 0 -0.26368317002533831 -0.13614416767442991 0 -0.27424315885750472 -0.14856787275784941 0 -0.27510627728932968 -0.13983668480246231 0 -0.28506942255127438 -0.1420577593546915 0 -0.27424315885750472 -0.14856787275784941 0 -0.26368317002533831 -0.13614416767442991 0 -0.27510627728932968 -0.13983668480246231 0 -0.26287021397880028 -0.1602519618075452 0 -0.25502063332858388 -0.14755975701166901 0 -0.26368317002533831 -0.13614416767442991 0 -0.2472196927006948 -0.1515692412906269 0 -0.26287021397880028 -0.1602519618075452 0 -0.25502063332858388 -0.14755975701166901 0 -0.24067947651379801 -0.14211378100926739 0 -0.25165074314210373 -0.14434673674649831 0 -0.26368317002533831 -0.13614416767442991 0 -0.26287021397880028 -0.1602519618075452 0 -0.26368317002533831 -0.13614416767442991 0 -0.25502063332858388 -0.14755975701166901 0 -0.25165074314210373 -0.14434673674649831 0 -0.26368317002533831 -0.13614416767442991 0 -0.2472196927006948 -0.1515692412906269 0 -0.25502063332858388 -0.14755975701166901 0 -0.25165074314210373 -0.14434673674649831 0 -0.24067947651379801 -0.14211378100926739 0 -0.25019901471553613 -0.13547804139513889 0 -0.26368317002533831 -0.13614416767442991 0 -0.24067947651379801 -0.14211378100926739 0 -0.26368317002533831 -0.13614416767442991 0 -0.25074896958116072 -0.12623220477356401 0 -0.25019901471553613 -0.13547804139513889 0 -0.25605198038432758 -0.13334573929478169 0 -0.25074896958116072 -0.12623220477356401 0 -0.25605198038432758 -0.13334573929478169 0 -0.25850907120502509 -0.12694145683918931 0 -0.25019901471553613 -0.13547804139513889 0 -0.25605198038432758 -0.13334573929478169 0 -0.26368317002533831 -0.13614416767442991 0 -0.25605198038432758 -0.13334573929478169 0 -0.26368317002533831 -0.13614416767442991 0 -0.26052464422148602 -0.13187478022835031 0 -0.26368317002533831 -0.13614416767442991 0 -0.26385435527125289 -0.13106775710500029 0 -0.26052464422148602 -0.13187478022835031 0 -0.26368317002533831 -0.13614416767442991 0 -0.26385435527125289 -0.13106775710500029 0 -0.26473979149963378 -0.1229813646565117 0 -0.26385435527125289 -0.13106775710500029 0 -0.25850907120502509 -0.12694145683918931 0 -0.25605198038432758 -0.13334573929478169 0 -0.26052464422148602 -0.13187478022835031 0 -0.25850907120502509 -0.12694145683918931 0 -0.26385435527125289 -0.13106775710500029 0 -0.26052464422148602 -0.13187478022835031 0 -0.25850907120502509 -0.12694145683918931 0 -0.26473979149963378 -0.1229813646565117 0 -0.26385435527125289 -0.13106775710500029 0 -0.27281217822798981 -0.1254728102371292 0 -0.26385435527125289 -0.13106775710500029 0 -0.27281217822798981 -0.1254728102371292 0 -0.27742935772320182 -0.1325769394228784 0 -0.26368317002533831 -0.13614416767442991 0 -0.26385435527125289 -0.13106775710500029 0 -0.27742935772320182 -0.1325769394228784 0 -0.26368317002533831 -0.13614416767442991 0 -0.27510627728932968 -0.13983668480246231 0 -0.27742935772320182 -0.1325769394228784 0 -0.26368317002533831 -0.13614416767442991 0 -0.27742935772320182 -0.1325769394228784 0 -0.27510627728932968 -0.13983668480246231 0 -0.27742935772320182 -0.1325769394228784 0 -0.28506942255127438 -0.1420577593546915 0 -0.28620089297729029 -0.12447629827749659 0 -0.27281217822798981 -0.1254728102371292 0 -0.27742935772320182 -0.1325769394228784 0 -0.28620089297729029 -0.12447629827749659 0 -0.28506942255127438 -0.1420577593546915 0 -0.29702865478286711 -0.13294456488837009 0 -0.28620089297729029 -0.12447629827749659 0 -0.27742935772320182 -0.1325769394228784 0 -0.28506942255127438 -0.1420577593546915 0 -0.28620089297729029 -0.12447629827749659 0 -0.30384372506448321 -0.1230867912680753 0 -0.29702865478286711 -0.13294456488837009 0 -0.30236194854441889 -0.15788889857266281 0 -0.28505752991803501 -0.15775329508293481 0 -0.28506942255127438 -0.1420577593546915 0 -0.30236194854441889 -0.15788889857266281 0 -0.28506942255127438 -0.1420577593546915 0 -0.29702865478286711 -0.13294456488837009 0 -0.28505752991803501 -0.15775329508293481 0 -0.27424315885750472 -0.14856787275784941 0 -0.28506942255127438 -0.1420577593546915 0 -0.30236194854441889 -0.15788889857266281 0 -0.30587785951223878 -0.13464172250185599 0 -0.31660117337291221 -0.1318563968139303 0 -0.30236194854441889 -0.15788889857266281 0 -0.30587785951223878 -0.13464172250185599 0 -0.29702865478286711 -0.13294456488837009 0 -0.30236194854441889 -0.15788889857266281 0 -0.31660117337291221 -0.1318563968139303 0 -0.30384372506448321 -0.1230867912680753 0 -0.30587785951223878 -0.13464172250185599 0 -0.31660117337291221 -0.1318563968139303 0 -0.30384372506448321 -0.1230867912680753 0 -0.30587785951223878 -0.13464172250185599 0 -0.29702865478286711 -0.13294456488837009 0 -0.32577172975082569 -0.13475250834242411 0 -0.32248154435030818 -0.1419147100522441 0 -0.3329593281822732 -0.13807460240198219 0 -0.32577172975082569 -0.13475250834242411 0 -0.31660117337291221 -0.1318563968139303 0 -0.32248154435030818 -0.1419147100522441 0 -0.32577172975082569 -0.13475250834242411 0 -0.31660117337291221 -0.1318563968139303 0 -0.3310448730978095 -0.12716432410153991 0 -0.30236194854441889 -0.15788889857266281 0 -0.31660117337291221 -0.1318563968139303 0 -0.32248154435030818 -0.1419147100522441 0 -0.32248154435030818 -0.1419147100522441 0 -0.33186642564990299 -0.15403117225276561 0 -0.32032294895926389 -0.1608628795598179 0 -0.30236194854441889 -0.15788889857266281 0 -0.32248154435030818 -0.1419147100522441 0 -0.32032294895926389 -0.1608628795598179 0 -0.32248154435030818 -0.1419147100522441 0 -0.33186642564990299 -0.15403117225276561 0 -0.34245687982685741 -0.14244968396534249 0 -0.32248154435030818 -0.1419147100522441 0 -0.34245687982685741 -0.14244968396534249 0 -0.32248154435030818 -0.1419147100522441 0 -0.34245687982685741 -0.14244968396534249 0 -0.3329593281822732 -0.13807460240198219 0 -0.33186642564990299 -0.15403117225276561 0 -0.34284574384319932 -0.14460267716726391 0 -0.34245687982685741 -0.14244968396534249 0 -0.34245687982685741 -0.14244968396534249 0 -0.33986553509993239 -0.137097207792511 0 -0.34425150161963008 -0.1357318781629909 0 -0.34245687982685741 -0.14244968396534249 0 -0.33986553509993239 -0.137097207792511 0 -0.3329593281822732 -0.13807460240198219 0 -0.33986553509993239 -0.137097207792511 0 -0.33979443077096899 -0.13213266663972831 0 -0.34425150161963008 -0.1357318781629909 0 -0.33986553509993239 -0.137097207792511 0 -0.3329593281822732 -0.13807460240198219 0 -0.33979443077096899 -0.13213266663972831 0 -0.32577172975082569 -0.13475250834242411 0 -0.3329593281822732 -0.13807460240198219 0 -0.3310448730978095 -0.12716432410153991 0 -0.3329593281822732 -0.13807460240198219 0 -0.3310448730978095 -0.12716432410153991 0 -0.33979443077096899 -0.13213266663972831 0 -0.33994260749638638 -0.1200966028809774 0 -0.33979443077096899 -0.13213266663972831 0 -0.34803039317708429 -0.12827044755731409 0 -0.33994260749638638 -0.1200966028809774 0 -0.3310448730978095 -0.12716432410153991 0 -0.33979443077096899 -0.13213266663972831 0 -0.33979443077096899 -0.13213266663972831 0 -0.34803039317708429 -0.12827044755731409 0 -0.34425150161963008 -0.1357318781629909 0 -0.35251545304353799 -0.1371774492751148 0 -0.36306954132545999 -0.12583347830204639 0 -0.36243221530340658 -0.14298465787844261 0 -0.34245687982685741 -0.14244968396534249 0 -0.34425150161963008 -0.1357318781629909 0 -0.35251545304353799 -0.1371774492751148 0 -0.34803039317708429 -0.12827044755731409 0 -0.34425150161963008 -0.1357318781629909 0 -0.35251545304353799 -0.1371774492751148 0 -0.34803039317708429 -0.12827044755731409 0 -0.35251545304353799 -0.1371774492751148 0 -0.36306954132545999 -0.12583347830204639 0 -0.36306954132545999 -0.12583347830204639 0 -0.36243221530340658 -0.14298465787844261 0 -0.36243221530340658 -0.14298465787844261 0 -0.3809700474397878 -0.14348113297444151 0 -0.37604978349753682 -0.1305695757879414 0 -0.36306954132545999 -0.12583347830204639 0 -0.36243221530340658 -0.14298465787844261 0 -0.37604978349753682 -0.1305695757879414 0 -0.36243221530340658 -0.14298465787844261 0 -0.35624797787289708 -0.15597089325168409 0 -0.36146698494894958 -0.16896012187806811 0 -0.36243221530340658 -0.14298465787844261 0 -0.3809700474397878 -0.14348113297444151 0 -0.36243221530340658 -0.14298465787844261 0 -0.3701519468561304 -0.1553903417896399 0 -0.36146698494894958 -0.16896012187806811 0 -0.36243221530340658 -0.14298465787844261 0 -0.36146698494894958 -0.16896012187806811 0 -0.36243221530340658 -0.14298465787844261 0 -0.3701519468561304 -0.1553903417896399 0 -0.3809700474397878 -0.14348113297444151 0 -0.34284574384319932 -0.14460267716726391 0 -0.36243221530340658 -0.14298465787844261 0 -0.35624797787289708 -0.15597089325168409 0 -0.34245687982685741 -0.14244968396534249 0 -0.36243221530340658 -0.14298465787844261 0 -0.34284574384319932 -0.14460267716726391 0 -0.35824696739603262 -0.16733611608296101 0 -0.34245687982685741 -0.14244968396534249 0 -0.35251545304353799 -0.1371774492751148 0 -0.36243221530340658 -0.14298465787844261 0 -0.34284574384319932 -0.14460267716726391 0 -0.35624797787289708 -0.15597089325168409 0 -0.35824696739603262 -0.16733611608296101 0 -0.33186642564990299 -0.15403117225276561 0 -0.34284574384319932 -0.14460267716726391 0 -0.35824696739603262 -0.16733611608296101 0 -0.34284574384319932 -0.14460267716726391 0 -0.34245687982685741 -0.14244968396534249 0 -0.36243221530340658 -0.14298465787844261 0 -0.33186642564990299 -0.15403117225276561 0 -0.34640661271727841 -0.1675321394318367 0 -0.35824696739603262 -0.16733611608296101 0 -0.33186642564990299 -0.15403117225276561 0 -0.35824696739603262 -0.16733611608296101 0 -0.34640661271727841 -0.1675321394318367 0 -0.35102686298292929 -0.1740912186383278 0 -0.34430735117645689 -0.1727563545190097 0 -0.34640661271727841 -0.1675321394318367 0 -0.35411951568724581 -0.17087725064610609 0 -0.35102686298292929 -0.1740912186383278 0 -0.35624797787289708 -0.15597089325168409 0 -0.35824696739603262 -0.16733611608296101 0 -0.36146698494894958 -0.16896012187806811 0 -0.34640661271727841 -0.1675321394318367 0 -0.35411951568724581 -0.17087725064610609 0 -0.35824696739603262 -0.16733611608296101 0 -0.35411951568724581 -0.17087725064610609 0 -0.35824696739603262 -0.16733611608296101 0 -0.35786321084348022 -0.17094464609175 0 -0.35824696739603262 -0.16733611608296101 0 -0.35786321084348022 -0.17094464609175 0 -0.36135675942504059 -0.17192641807354339 0 -0.35411951568724581 -0.17087725064610609 0 -0.35786321084348022 -0.17094464609175 0 -0.35586112222586719 -0.17347346882811371 0 -0.35824696739603262 -0.16733611608296101 0 -0.36146698494894958 -0.16896012187806811 0 -0.36135675942504059 -0.17192641807354339 0 -0.35824696739603262 -0.16733611608296101 0 -0.36135675942504059 -0.17192641807354339 0 -0.35824696739603262 -0.16733611608296101 0 -0.36146698494894958 -0.16896012187806811 0 -0.36146698494894958 -0.16896012187806811 0 -0.36135675942504059 -0.17192641807354339 0 -0.3701519468561304 -0.1553903417896399 0 -0.36146698494894958 -0.16896012187806811 0 -0.37153809633817841 -0.1653584908172947 0 -0.3701519468561304 -0.1553903417896399 0 -0.37153809633817841 -0.1653584908172947 0 -0.37938820977670962 -0.15451394970132321 0 -0.36135675942504059 -0.17192641807354339 0 -0.36068441261408402 -0.1900200475399296 0 -0.37629408299317207 -0.19397510347409991 0 -0.36146698494894958 -0.16896012187806811 0 -0.38735846487900549 -0.18201840890891119 0 -0.37161907306154202 -0.17922001308365559 0 -0.36135675942504059 -0.17192641807354339 0 -0.37629408299317207 -0.19397510347409991 0 -0.36146698494894958 -0.16896012187806811 0 -0.37161907306154202 -0.17922001308365559 0 -0.38735846487900549 -0.18201840890891119 0 -0.36135675942504059 -0.17192641807354339 0 -0.37629408299317207 -0.19397510347409991 0 -0.36135675942504059 -0.17192641807354339 0 -0.36068441261408402 -0.1900200475399296 0 -0.36146698494894958 -0.16896012187806811 0 -0.37153809633817841 -0.1653584908172947 0 -0.38735846487900549 -0.18201840890891119 0 -0.36146698494894958 -0.16896012187806811 0 -0.37161907306154202 -0.17922001308365559 0 -0.36135675942504059 -0.17192641807354339 0 -0.35493926219064098 -0.17952781069084089 0 -0.35135857237452311 -0.18636575850681711 0 -0.36068441261408402 -0.1900200475399296 0 -0.36135675942504059 -0.17192641807354339 0 -0.35493926219064098 -0.17952781069084089 0 -0.36068441261408402 -0.1900200475399296 0 -0.36135675942504059 -0.17192641807354339 0 -0.35586112222586719 -0.17347346882811371 0 -0.35493926219064098 -0.17952781069084089 0 -0.35786321084348022 -0.17094464609175 0 -0.36135675942504059 -0.17192641807354339 0 -0.35586112222586719 -0.17347346882811371 0 -0.35586112222586719 -0.17347346882811371 0 -0.35493926219064098 -0.17952781069084089 0 -0.35102686298292929 -0.1740912186383278 0 -0.35411951568724581 -0.17087725064610609 0 -0.35586112222586719 -0.17347346882811371 0 -0.35102686298292929 -0.1740912186383278 0 -0.35493926219064098 -0.17952781069084089 0 -0.35102686298292929 -0.1740912186383278 0 -0.34491734719857969 -0.180385408607632 0 -0.35102686298292929 -0.1740912186383278 0 -0.34430735117645689 -0.1727563545190097 0 -0.34491734719857969 -0.180385408607632 0 -0.35493926219064098 -0.17952781069084089 0 -0.35135857237452311 -0.18636575850681711 0 -0.34491734719857969 -0.180385408607632 0 -0.35135857237452311 -0.18636575850681711 0 -0.34491734719857969 -0.180385408607632 0 -0.3448176511976575 -0.18852059866684481 0 -0.34491734719857969 -0.180385408607632 0 -0.33479958807238908 -0.1861304917350782 0 -0.33639970045588902 -0.17441029247362769 0 -0.34491734719857969 -0.180385408607632 0 -0.33479958807238908 -0.1861304917350782 0 -0.3448176511976575 -0.18852059866684481 0 -0.33479958807238908 -0.1861304917350782 0 -0.33639970045588902 -0.17441029247362769 0 -0.32598988781777249 -0.17378572212821669 0 -0.34430735117645689 -0.1727563545190097 0 -0.34491734719857969 -0.180385408607632 0 -0.33639970045588902 -0.17441029247362769 0 -0.34430735117645689 -0.1727563545190097 0 -0.33639970045588902 -0.17441029247362769 0 -0.33875861202130592 -0.16662997208968369 0 -0.34640661271727841 -0.1675321394318367 0 -0.34430735117645689 -0.1727563545190097 0 -0.33875861202130592 -0.16662997208968369 0 -0.33186642564990299 -0.15403117225276561 0 -0.34640661271727841 -0.1675321394318367 0 -0.33875861202130592 -0.16662997208968369 0 -0.33186642564990299 -0.15403117225276561 0 -0.33875861202130592 -0.16662997208968369 0 -0.33066751498082692 -0.16594400770082229 0 -0.33639970045588902 -0.17441029247362769 0 -0.33066751498082692 -0.16594400770082229 0 -0.32598988781777249 -0.17378572212821669 0 -0.33639970045588902 -0.17441029247362769 0 -0.33875861202130592 -0.16662997208968369 0 -0.33066751498082692 -0.16594400770082229 0 -0.33066751498082692 -0.16594400770082229 0 -0.32032294895926389 -0.1608628795598179 0 -0.32598988781777249 -0.17378572212821669 0 -0.33186642564990299 -0.15403117225276561 0 -0.33066751498082692 -0.16594400770082229 0 -0.32032294895926389 -0.1608628795598179 0 -0.32032294895926389 -0.1608628795598179 0 -0.31453593373425848 -0.1761057413314418 0 -0.32598988781777249 -0.17378572212821669 0 -0.33479958807238908 -0.1861304917350782 0 -0.32598988781777249 -0.17378572212821669 0 -0.31898143293391479 -0.18926381436845979 0 -0.30659843024189742 -0.18931958072541191 0 -0.31453593373425848 -0.1761057413314418 0 -0.31898143293391479 -0.18926381436845979 0 -0.31453593373425848 -0.1761057413314418 0 -0.32598988781777249 -0.17378572212821669 0 -0.31898143293391479 -0.18926381436845979 0 -0.30717046186727898 -0.20070990089750071 0 -0.31898143293391479 -0.18926381436845979 0 -0.31923786733807141 -0.204941767304919 0 -0.31898143293391479 -0.18926381436845979 0 -0.31923786733807141 -0.204941767304919 0 -0.33113913859534783 -0.1997495171746908 0 -0.30972670441963418 -0.21464490462368971 0 -0.31911640767833738 -0.21555083258470409 0 -0.31584244883929019 -0.22399051255305899 0 -0.30972670441963418 -0.21464490462368971 0 -0.31923786733807141 -0.204941767304919 0 -0.31911640767833738 -0.21555083258470409 0 -0.31911640767833738 -0.21555083258470409 0 -0.32606818141384541 -0.21220265818687209 0 -0.32470683638084591 -0.22197432025498071 0 -0.31923786733807141 -0.204941767304919 0 -0.31911640767833738 -0.21555083258470409 0 -0.32606818141384541 -0.21220265818687209 0 -0.31923786733807141 -0.204941767304919 0 -0.32606818141384541 -0.21220265818687209 0 -0.33113913859534783 -0.1997495171746908 0 -0.32606818141384541 -0.21220265818687209 0 -0.3349320496832473 -0.2093326438375607 0 -0.33113913859534783 -0.1997495171746908 0 -0.3349320496832473 -0.2093326438375607 0 -0.34044844831899201 -0.20394143361263159 0 -0.33113913859534783 -0.1997495171746908 0 -0.32606818141384541 -0.21220265818687209 0 -0.33512474448614249 -0.21895054495625721 0 -0.32470683638084591 -0.22197432025498071 0 -0.32606818141384541 -0.21220265818687209 0 -0.3349320496832473 -0.2093326438375607 0 -0.33512474448614249 -0.21895054495625721 0 -0.3349320496832473 -0.2093326438375607 0 -0.34190125387649989 -0.21095418519924691 0 -0.33512474448614249 -0.21895054495625721 0 -0.34190125387649989 -0.21095418519924691 0 -0.34726249644926538 -0.21716034396247319 0 -0.33512474448614249 -0.21895054495625721 0 -0.3349320496832473 -0.2093326438375607 0 -0.34190125387649989 -0.21095418519924691 0 -0.34044844831899201 -0.20394143361263159 0 -0.34190125387649989 -0.21095418519924691 0 -0.34044844831899201 -0.20394143361263159 0 -0.34791993815652478 -0.20469203486817461 0 -0.33479958807238908 -0.1861304917350782 0 -0.31898143293391479 -0.18926381436845979 0 -0.33113913859534783 -0.1997495171746908 0 -0.34044844831899201 -0.20394143361263159 0 -0.34142963296735518 -0.19618294532412089 0 -0.34791993815652478 -0.20469203486817461 0 -0.34044844831899201 -0.20394143361263159 0 -0.34142963296735518 -0.19618294532412089 0 -0.33113913859534783 -0.1997495171746908 0 -0.33479958807238908 -0.1861304917350782 0 -0.34142963296735518 -0.19618294532412089 0 -0.33113913859534783 -0.1997495171746908 0 -0.33479958807238908 -0.1861304917350782 0 -0.34142963296735518 -0.19618294532412089 0 -0.3448176511976575 -0.18852059866684481 0 -0.34142963296735518 -0.19618294532412089 0 -0.35071255263460321 -0.19423410247168599 0 -0.3448176511976575 -0.18852059866684481 0 -0.35135857237452311 -0.18636575850681711 0 -0.35071255263460321 -0.19423410247168599 0 -0.3448176511976575 -0.18852059866684481 0 -0.34142963296735518 -0.19618294532412089 0 -0.35071255263460321 -0.19423410247168599 0 -0.34791993815652478 -0.20469203486817461 0 -0.35071255263460321 -0.19423410247168599 0 -0.35788374125979999 -0.19976817019737669 0 -0.34791993815652478 -0.20469203486817461 0 -0.35135857237452311 -0.18636575850681711 0 -0.35071255263460321 -0.19423410247168599 0 -0.36068441261408402 -0.1900200475399296 0 -0.35071255263460321 -0.19423410247168599 0 -0.35788374125979999 -0.19976817019737669 0 -0.36068441261408402 -0.1900200475399296 0 -0.36068441261408402 -0.1900200475399296 0 -0.36001206580312872 -0.20811367700631581 0 -0.36068441261408402 -0.1900200475399296 0 -0.36737135996079712 -0.2001136570623368 0 -0.36001206580312872 -0.20811367700631581 0 -0.35788374125979999 -0.19976817019737669 0 -0.36068441261408402 -0.1900200475399296 0 -0.36001206580312872 -0.20811367700631581 0 -0.36737135996079712 -0.2001136570623368 0 -0.37249487843280371 -0.20834580022900209 0 -0.37629408299317207 -0.19397510347409991 0 -0.36068441261408402 -0.1900200475399296 0 -0.36737135996079712 -0.2001136570623368 0 -0.37629408299317207 -0.19397510347409991 0 -0.36001206580312872 -0.20811367700631581 0 -0.35941972563654362 -0.22405423523846621 0 -0.3686305064904804 -0.2175514899852424 0 -0.37249487843280371 -0.20834580022900209 0 -0.37542713549415629 -0.21984770865456321 0 -0.36737135996079712 -0.2001136570623368 0 -0.37249487843280371 -0.20834580022900209 0 -0.36001206580312872 -0.20811367700631581 0 -0.3686305064904804 -0.2175514899852424 0 -0.37249487843280371 -0.20834580022900209 0 -0.36001206580312872 -0.20811367700631581 0 -0.35316686672476949 -0.21051336588835531 0 -0.34726249644926538 -0.21716034396247319 0 -0.35941972563654362 -0.22405423523846621 0 -0.36001206580312872 -0.20811367700631581 0 -0.35316686672476949 -0.21051336588835531 0 -0.35941972563654362 -0.22405423523846621 0 -0.35788374125979999 -0.19976817019737669 0 -0.36001206580312872 -0.20811367700631581 0 -0.35788374125979999 -0.19976817019737669 0 -0.36001206580312872 -0.20811367700631581 0 -0.35316686672476949 -0.21051336588835531 0 -0.35788374125979999 -0.19976817019737669 0 -0.35316686672476949 -0.21051336588835531 0 -0.34791993815652478 -0.20469203486817461 0 -0.34190125387649989 -0.21095418519924691 0 -0.34791993815652478 -0.20469203486817461 0 -0.34726249644926538 -0.21716034396247319 0 -0.35316686672476949 -0.21051336588835531 0 -0.34791993815652478 -0.20469203486817461 0 -0.34726249644926538 -0.21716034396247319 0 -0.34726249644926538 -0.21716034396247319 0 -0.35005385703378722 -0.2260068662262886 0 -0.34068529152597871 -0.22843165861985371 0 -0.35005385703378722 -0.2260068662262886 0 -0.35284791452336112 -0.2343812270843614 0 -0.34068529152597871 -0.22843165861985371 0 -0.35284791452336112 -0.2343812270843614 0 -0.34079054607198561 -0.24012535433262849 0 -0.34068529152597871 -0.22843165861985371 0 -0.35005385703378722 -0.2260068662262886 0 -0.35941972563654362 -0.22405423523846621 0 -0.35284791452336112 -0.2343812270843614 0 -0.34726249644926538 -0.21716034396247319 0 -0.35005385703378722 -0.2260068662262886 0 -0.35941972563654362 -0.22405423523846621 0 -0.3686305064904804 -0.2175514899852424 0 -0.366587946231833 -0.23389877405108861 0 -0.37542713549415629 -0.21984770865456321 0 -0.36001206580312872 -0.20811367700631581 0 -0.35941972563654362 -0.22405423523846621 0 -0.366587946231833 -0.23389877405108861 0 -0.3686305064904804 -0.2175514899852424 0 -0.36001206580312872 -0.20811367700631581 0 -0.366587946231833 -0.23389877405108861 0 -0.36001206580312872 -0.20811367700631581 0 -0.366587946231833 -0.23389877405108861 0 -0.35941972563654362 -0.22405423523846621 0 -0.366587946231833 -0.23389877405108861 0 -0.35284791452336112 -0.2343812270843614 0 -0.366587946231833 -0.23389877405108861 0 -0.37542713549415629 -0.21984770865456321 0 -0.37973134364711042 -0.23057452398867981 0 -0.37316382666053671 -0.25968387109586161 0 -0.366587946231833 -0.23389877405108861 0 -0.3756643166546676 -0.24119391028490669 0 -0.37316382666053671 -0.25968387109586161 0 -0.366587946231833 -0.23389877405108861 0 -0.36233147867638649 -0.2477992409525154 0 -0.37316382666053671 -0.25968387109586161 0 -0.366587946231833 -0.23389877405108861 0 -0.366587946231833 -0.23389877405108861 0 -0.3756643166546676 -0.24119391028490669 0 -0.37973134364711042 -0.23057452398867981 0 -0.366587946231833 -0.23389877405108861 0 -0.36233147867638649 -0.2477992409525154 0 -0.35853372428210462 -0.24104775451326299 0 -0.36233147867638649 -0.2477992409525154 0 -0.35236755769683781 -0.2481117759650866 0 -0.35853372428210462 -0.24104775451326299 0 -0.366587946231833 -0.23389877405108861 0 -0.35853372428210462 -0.24104775451326299 0 -0.35284791452336112 -0.2343812270843614 0 -0.35236755769683781 -0.2481117759650866 0 -0.35853372428210462 -0.24104775451326299 0 -0.35284791452336112 -0.2343812270843614 0 -0.35236755769683781 -0.2481117759650866 0 -0.35284791452336112 -0.2343812270843614 0 -0.34079054607198561 -0.24012535433262849 0 -0.33785940386562507 -0.25340916090029658 0 -0.33050674820977688 -0.24431234086603379 0 -0.34079054607198561 -0.24012535433262849 0 -0.33785940386562507 -0.25340916090029658 0 -0.35236755769683781 -0.2481117759650866 0 -0.34079054607198561 -0.24012535433262849 0 -0.33050674820977688 -0.24431234086603379 0 -0.34079054607198561 -0.24012535433262849 0 -0.33030644608515131 -0.23240236297598421 0 -0.34079054607198561 -0.24012535433262849 0 -0.34068529152597871 -0.22843165861985371 0 -0.33030644608515131 -0.23240236297598421 0 -0.34726249644926538 -0.21716034396247319 0 -0.34068529152597871 -0.22843165861985371 0 -0.33512474448614249 -0.21895054495625721 0 -0.33512474448614249 -0.21895054495625721 0 -0.33030644608515131 -0.23240236297598421 0 -0.32470683638084591 -0.22197432025498071 0 -0.34068529152597871 -0.22843165861985371 0 -0.33512474448614249 -0.21895054495625721 0 -0.33030644608515131 -0.23240236297598421 0 -0.33030644608515131 -0.23240236297598421 0 -0.32071929515066783 -0.2305762559680142 0 -0.32470683638084591 -0.22197432025498071 0 -0.32071929515066783 -0.2305762559680142 0 -0.32470683638084591 -0.22197432025498071 0 -0.31584244883929019 -0.22399051255305899 0 -0.31911640767833738 -0.21555083258470409 0 -0.32470683638084591 -0.22197432025498071 0 -0.31584244883929019 -0.22399051255305899 0 -0.32071929515066783 -0.2305762559680142 0 -0.31584244883929019 -0.22399051255305899 0 -0.31277516778767422 -0.23355928116819821 0 -0.32071929515066783 -0.2305762559680142 0 -0.31277516778767422 -0.23355928116819821 0 -0.31996557666037728 -0.24095480288784901 0 -0.3079912162874085 -0.243557709704426 0 -0.31277516778767422 -0.23355928116819821 0 -0.31996557666037728 -0.24095480288784901 0 -0.32398828001488078 -0.25232987534048379 0 -0.31352607005286259 -0.25036143285104001 0 -0.31996557666037728 -0.24095480288784901 0 -0.31352607005286259 -0.25036143285104001 0 -0.3079912162874085 -0.243557709704426 0 -0.31996557666037728 -0.24095480288784901 0 -0.32398828001488078 -0.25232987534048379 0 -0.33050674820977688 -0.24431234086603379 0 -0.31996557666037728 -0.24095480288784901 0 -0.33050674820977688 -0.24431234086603379 0 -0.33030644608515131 -0.23240236297598421 0 -0.31996557666037728 -0.24095480288784901 0 -0.33030644608515131 -0.23240236297598421 0 -0.32071929515066783 -0.2305762559680142 0 -0.31996557666037728 -0.24095480288784901 0 -0.44171914672769302 -0.25415451347903623 0 -0.4244417442875083 -0.23430940272192621 0 -0.43887789481282619 -0.234118381522984 0 -0.44171914672769302 -0.25415451347903623 0 -0.41674760700480662 -0.25655791798851102 0 -0.4244417442875083 -0.23430940272192621 0 -0.44171914672769302 -0.25415451347903623 0 -0.4244417442875083 -0.23430940272192621 0 -0.43018080968280481 -0.22402208464885051 0 -0.4244417442875083 -0.23430940272192621 0 -0.43887789481282619 -0.234118381522984 0 -0.4244417442875083 -0.23430940272192621 0 -0.40716434184732359 -0.21446429196481601 0 -0.43018080968280481 -0.22402208464885051 0 -0.4244417442875083 -0.23430940272192621 0 -0.40716434184732359 -0.21446429196481601 0 -0.4244417442875083 -0.23430940272192621 0 -0.40616873012943328 -0.2380724742752143 0 -0.40716434184732359 -0.21446429196481601 0 -0.3999403531778139 -0.25255777809320151 0 -0.41674760700480662 -0.25655791798851102 0 -0.40616873012943328 -0.2380724742752143 0 -0.41674760700480662 -0.25655791798851102 0 -0.4244417442875083 -0.23430940272192621 0 -0.40616873012943328 -0.2380724742752143 0 -0.3999403531778139 -0.25255777809320151 0 -0.40616873012943328 -0.2380724742752143 0 -0.38703902375446902 -0.24383845741606119 0 -0.40616873012943328 -0.2380724742752143 0 -0.38703902375446902 -0.24383845741606119 0 -0.37973134364711042 -0.23057452398867981 0 -0.38703902375446902 -0.24383845741606119 0 -0.3756643166546676 -0.24119391028490669 0 -0.37973134364711042 -0.23057452398867981 0 -0.38100293632462362 -0.25057896254278189 0 -0.38703902375446902 -0.24383845741606119 0 -0.3756643166546676 -0.24119391028490669 0 -0.37542713549415629 -0.21984770865456321 0 -0.37973134364711042 -0.23057452398867981 0 -0.39123140656130267 -0.21602378887465709 0 -0.40616873012943328 -0.2380724742752143 0 -0.39123140656130267 -0.21602378887465709 0 -0.40716434184732359 -0.21446429196481601 0 -0.40616873012943328 -0.2380724742752143 0 -0.39123140656130267 -0.21602378887465709 0 -0.40616873012943328 -0.2380724742752143 0 -0.37973134364711042 -0.23057452398867981 0 -0.39123140656130267 -0.21602378887465709 0 -0.39123140656130267 -0.21602378887465709 0 -0.40550979699500772 -0.20329603653525441 0 -0.39513688611155251 -0.19823758942784961 0 -0.39123140656130267 -0.21602378887465709 0 -0.40550979699500772 -0.20329603653525441 0 -0.40716434184732359 -0.21446429196481601 0 -0.39123140656130267 -0.21602378887465709 0 -0.37629408299317207 -0.19397510347409991 0 -0.37249487843280371 -0.20834580022900209 0 -0.39123140656130267 -0.21602378887465709 0 -0.37629408299317207 -0.19397510347409991 0 -0.37249487843280371 -0.20834580022900209 0 -0.37542713549415629 -0.21984770865456321 0 -0.39123140656130267 -0.21602378887465709 0 -0.37629408299317207 -0.19397510347409991 0 -0.39513688611155251 -0.19823758942784961 0 -0.38735846487900549 -0.18201840890891119 0 -0.39123140656130267 -0.21602378887465709 0 -0.37629408299317207 -0.19397510347409991 0 -0.39513688611155251 -0.19823758942784961 0 -0.39513688611155251 -0.19823758942784961 0 -0.41324994480906219 -0.1950766959397528 0 -0.38735846487900549 -0.18201840890891119 0 -0.40550979699500772 -0.20329603653525441 0 -0.39513688611155251 -0.19823758942784961 0 -0.41324994480906219 -0.1950766959397528 0 -0.41324994480906219 -0.1950766959397528 0 -0.38735846487900549 -0.18201840890891119 0 -0.41324994480906219 -0.1950766959397528 0 -0.42830710322991522 -0.19680768594527559 0 -0.41979099477934811 -0.18409815341710389 0 -0.41324994480906219 -0.1950766959397528 0 -0.41838324777490321 -0.207925059367391 0 -0.42830710322991522 -0.19680768594527559 0 -0.40550979699500772 -0.20329603653525441 0 -0.41324994480906219 -0.1950766959397528 0 -0.41838324777490321 -0.207925059367391 0 -0.43018080968280481 -0.22402208464885051 0 -0.40716434184732359 -0.21446429196481601 0 -0.41838324777490321 -0.207925059367391 0 -0.40550979699500772 -0.20329603653525441 0 -0.40716434184732359 -0.21446429196481601 0 -0.41838324777490321 -0.207925059367391 0 -0.43018080968280481 -0.22402208464885051 0 -0.42830710322991522 -0.19680768594527559 0 -0.44397082764593587 -0.20940094286609739 0 -0.43018080968280481 -0.22402208464885051 0 -0.42830710322991522 -0.19680768594527559 0 -0.43018080968280481 -0.22402208464885051 0 -0.41838324777490321 -0.207925059367391 0 -0.42830710322991522 -0.19680768594527559 0 -0.42830710322991522 -0.19680768594527559 0 -0.43611053198040678 -0.18263784011771181 0 -0.44386731017550518 -0.19318854338988389 0 -0.43611053198040678 -0.18263784011771181 0 -0.4264333967770258 -0.1695932872417007 0 -0.44902974188701239 -0.1762263503740413 0 -0.42830710322991522 -0.19680768594527559 0 -0.43611053198040678 -0.18263784011771181 0 -0.4264333967770258 -0.1695932872417007 0 -0.42830710322991522 -0.19680768594527559 0 -0.4264333967770258 -0.1695932872417007 0 -0.41979099477934811 -0.18409815341710389 0 -0.42830710322991522 -0.19680768594527559 0 -0.4264333967770258 -0.1695932872417007 0 -0.4264333967770258 -0.1695932872417007 0 -0.41979099477934811 -0.18409815341710389 0 -0.4264333967770258 -0.1695932872417007 0 -0.43530899593460248 -0.150211837872609 0 -0.4264333967770258 -0.1695932872417007 0 -0.4247162440040978 -0.14465273151839281 0 -0.4264333967770258 -0.1695932872417007 0 -0.43530899593460248 -0.150211837872609 0 -0.44902974188701239 -0.1762263503740413 0 -0.4264333967770258 -0.1695932872417007 0 -0.4119395108177733 -0.15857783802968839 0 -0.4247162440040978 -0.14465273151839281 0 -0.4119395108177733 -0.15857783802968839 0 -0.41337998399763692 -0.17238892202521891 0 -0.39716454920637018 -0.16950495365656021 0 -0.4264333967770258 -0.1695932872417007 0 -0.4119395108177733 -0.15857783802968839 0 -0.41337998399763692 -0.17238892202521891 0 -0.41337998399763692 -0.17238892202521891 0 -0.41979099477934811 -0.18409815341710389 0 -0.40618878753428461 -0.1806174267895094 0 -0.4264333967770258 -0.1695932872417007 0 -0.41337998399763692 -0.17238892202521891 0 -0.41979099477934811 -0.18409815341710389 0 -0.41324994480906219 -0.1950766959397528 0 -0.41979099477934811 -0.18409815341710389 0 -0.40618878753428461 -0.1806174267895094 0 -0.40618878753428461 -0.1806174267895094 0 -0.38735846487900549 -0.18201840890891119 0 -0.39716454920637018 -0.16950495365656021 0 -0.41337998399763692 -0.17238892202521891 0 -0.40618878753428461 -0.1806174267895094 0 -0.39716454920637018 -0.16950495365656021 0 -0.41324994480906219 -0.1950766959397528 0 -0.40618878753428461 -0.1806174267895094 0 -0.38735846487900549 -0.18201840890891119 0 -0.38735846487900549 -0.18201840890891119 0 -0.3883064875669936 -0.16870962884665619 0 -0.39716454920637018 -0.16950495365656021 0 -0.37161907306154202 -0.17922001308365559 0 -0.37629408299317207 -0.19397510347409991 0 -0.38735846487900549 -0.18201840890891119 0 -0.38735846487900549 -0.18201840890891119 0 -0.38031006373651099 -0.1657403326317575 0 -0.3883064875669936 -0.16870962884665619 0 -0.37153809633817841 -0.1653584908172947 0 -0.38735846487900549 -0.18201840890891119 0 -0.38031006373651099 -0.1657403326317575 0 -0.37153809633817841 -0.1653584908172947 0 -0.38031006373651099 -0.1657403326317575 0 -0.37938820977670962 -0.15451394970132321 0 -0.38031006373651099 -0.1657403326317575 0 -0.38839287244608772 -0.15757482018939581 0 -0.37938820977670962 -0.15451394970132321 0 -0.38031006373651099 -0.1657403326317575 0 -0.3883064875669936 -0.16870962884665619 0 -0.38839287244608772 -0.15757482018939581 0 -0.38839287244608772 -0.15757482018939581 0 -0.39716454920637018 -0.16950495365656021 0 -0.39950787957616901 -0.14397760807044169 0 -0.4119395108177733 -0.15857783802968839 0 -0.39716454920637018 -0.16950495365656021 0 -0.39950787957616901 -0.14397760807044169 0 -0.39716454920637018 -0.16950495365656021 0 -0.39950787957616901 -0.14397760807044169 0 -0.3883064875669936 -0.16870962884665619 0 -0.38839287244608772 -0.15757482018939581 0 -0.39716454920637018 -0.16950495365656021 0 -0.39950787957616901 -0.14397760807044169 0 -0.3809700474397878 -0.14348113297444151 0 -0.38839287244608772 -0.15757482018939581 0 -0.39950787957616901 -0.14397760807044169 0 -0.3809700474397878 -0.14348113297444151 0 -0.38839287244608772 -0.15757482018939581 0 -0.3809700474397878 -0.14348113297444151 0 -0.37938820977670962 -0.15451394970132321 0 -0.3701519468561304 -0.1553903417896399 0 -0.3809700474397878 -0.14348113297444151 0 -0.37938820977670962 -0.15451394970132321 0 -0.37604978349753682 -0.1305695757879414 0 -0.38908604387160639 -0.13108360082930481 0 -0.38013010237982348 -0.1153213818989289 0 -0.39950787957616901 -0.14397760807044169 0 -0.3809700474397878 -0.14348113297444151 0 -0.38908604387160639 -0.13108360082930481 0 -0.3809700474397878 -0.14348113297444151 0 -0.37604978349753682 -0.1305695757879414 0 -0.38908604387160639 -0.13108360082930481 0 -0.39950787957616901 -0.14397760807044169 0 -0.38908604387160639 -0.13108360082930481 0 -0.40165133317540308 -0.12062764364338061 0 -0.39950787957616901 -0.14397760807044169 0 -0.40165133317540308 -0.12062764364338061 0 -0.39950787957616901 -0.14397760807044169 0 -0.41232203336743062 -0.1272796321847649 0 -0.40165133317540308 -0.12062764364338061 0 -0.39950787957616901 -0.14397760807044169 0 -0.41232203336743062 -0.1272796321847649 0 -0.4160079902226993 -0.1361720249185891 0 -0.4160079902226993 -0.1361720249185891 0 -0.4247162440040978 -0.14465273151839281 0 -0.42356607680282182 -0.127947281877131 0 -0.41232203336743062 -0.1272796321847649 0 -0.4160079902226993 -0.1361720249185891 0 -0.42356607680282182 -0.127947281877131 0 -0.41232203336743062 -0.1272796321847649 0 -0.42356607680282182 -0.127947281877131 0 -0.41986723551606597 -0.12093428468085191 0 -0.39950787957616901 -0.14397760807044169 0 -0.4247162440040978 -0.14465273151839281 0 -0.39950787957616901 -0.14397760807044169 0 -0.4160079902226993 -0.1361720249185891 0 -0.4247162440040978 -0.14465273151839281 0 -0.4119395108177733 -0.15857783802968839 0 -0.39950787957616901 -0.14397760807044169 0 -0.4247162440040978 -0.14465273151839281 0 -0.4264333967770258 -0.1695932872417007 0 -0.4247162440040978 -0.14465273151839281 0 -0.43530899593460248 -0.150211837872609 0 -0.4247162440040978 -0.14465273151839281 0 -0.43248673662131498 -0.14486083870372191 0 -0.43248673662131498 -0.14486083870372191 0 -0.43371570309418228 -0.13671381198632171 0 -0.43769556488196909 -0.14500034010236501 0 -0.4247162440040978 -0.14465273151839281 0 -0.43530899593460248 -0.150211837872609 0 -0.43248673662131498 -0.14486083870372191 0 -0.43530899593460248 -0.150211837872609 0 -0.43769556488196909 -0.14500034010236501 0 -0.43530899593460248 -0.150211837872609 0 -0.43248673662131498 -0.14486083870372191 0 -0.43530899593460248 -0.150211837872609 0 -0.43248673662131498 -0.14486083870372191 0 -0.43769556488196909 -0.14500034010236501 0 -0.43248673662131498 -0.14486083870372191 0 -0.43769556488196909 -0.14500034010236501 0 -0.4247162440040978 -0.14465273151839281 0 -0.42356607680282182 -0.127947281877131 0 -0.43248673662131498 -0.14486083870372191 0 -0.42356607680282182 -0.127947281877131 0 -0.4247162440040978 -0.14465273151839281 0 -0.43248673662131498 -0.14486083870372191 0 -0.42356607680282182 -0.127947281877131 0 -0.43248673662131498 -0.14486083870372191 0 -0.43371570309418228 -0.13671381198632171 0 -0.42356607680282182 -0.127947281877131 0 -0.43371570309418228 -0.13671381198632171 0 -0.43393467774707101 -0.12953977077528919 0 -0.44192653909503432 -0.1357612553897056 0 -0.43371570309418228 -0.13671381198632171 0 -0.43393467774707101 -0.12953977077528919 0 -0.42356607680282182 -0.127947281877131 0 -0.43393467774707101 -0.12953977077528919 0 -0.44040315015508658 -0.12572588993431161 0 -0.43006191958823181 -0.12155061468897541 0 -0.43393467774707101 -0.12953977077528919 0 -0.42356607680282182 -0.127947281877131 0 -0.43006191958823181 -0.12155061468897541 0 -0.44402761327197032 -0.1311731862286234 0 -0.45350957691232108 -0.1454238666012081 0 -0.45723506512287182 -0.13734468837488281 0 -0.44402761327197032 -0.1311731862286234 0 -0.442194947010767 -0.1375293997255822 0 -0.45350957691232108 -0.1454238666012081 0 -0.44402761327197032 -0.1311731862286234 0 -0.45350957691232108 -0.1454238666012081 0 -0.44402761327197032 -0.1311731862286234 0 -0.44040315015508658 -0.12572588993431161 0 -0.44192653909503432 -0.1357612553897056 0 -0.43393467774707101 -0.12953977077528919 0 -0.44040315015508658 -0.12572588993431161 0 -0.44192653909503432 -0.1357612553897056 0 -0.44040315015508658 -0.12572588993431161 0 -0.44192653909503432 -0.1357612553897056 0 -0.44402761327197032 -0.1311731862286234 0 -0.44040315015508658 -0.12572588993431161 0 -0.44192653909503432 -0.1357612553897056 0 -0.43769556488196909 -0.14500034010236501 0 -0.43371570309418228 -0.13671381198632171 0 -0.44192653909503432 -0.1357612553897056 0 -0.43769556488196909 -0.14500034010236501 0 -0.44192653909503432 -0.1357612553897056 0 -0.442194947010767 -0.1375293997255822 0 -0.43769556488196909 -0.14500034010236501 0 -0.44402761327197032 -0.1311731862286234 0 -0.44192653909503432 -0.1357612553897056 0 -0.442194947010767 -0.1375293997255822 0 -0.44402761327197032 -0.1311731862286234 0 -0.44192653909503432 -0.1357612553897056 0 -0.44192653909503432 -0.1357612553897056 0 -0.442194947010767 -0.1375293997255822 0 -0.43769556488196909 -0.14500034010236501 0 -0.44485169195699881 -0.1504787874376752 0 -0.45350957691232108 -0.1454238666012081 0 -0.442194947010767 -0.1375293997255822 0 -0.43769556488196909 -0.14500034010236501 0 -0.45350957691232108 -0.1454238666012081 0 -0.43769556488196909 -0.14500034010236501 0 -0.45350957691232108 -0.1454238666012081 0 -0.43530899593460248 -0.150211837872609 0 -0.43769556488196909 -0.14500034010236501 0 -0.44485169195699881 -0.1504787874376752 0 -0.43530899593460248 -0.150211837872609 0 -0.44485169195699881 -0.1504787874376752 0 -0.44870816196286811 -0.15867686676417381 0 -0.44485169195699881 -0.1504787874376752 0 -0.45350957691232108 -0.1454238666012081 0 -0.44870816196286811 -0.15867686676417381 0 -0.45350957691232108 -0.1454238666012081 0 -0.46510763695957608 -0.1628548812037186 0 -0.45350957691232108 -0.1454238666012081 0 -0.46229591929998781 -0.14565917999429109 0 -0.46510763695957608 -0.1628548812037186 0 -0.46229591929998781 -0.14565917999429109 0 -0.47759671704524892 -0.14904960905202261 0 -0.46510763695957608 -0.1628548812037186 0 -0.45350957691232108 -0.1454238666012081 0 -0.46229591929998781 -0.14565917999429109 0 -0.45723506512287182 -0.13734468837488281 0 -0.45350957691232108 -0.1454238666012081 0 -0.46229591929998781 -0.14565917999429109 0 -0.45350957691232108 -0.1454238666012081 0 -0.46510763695957608 -0.1628548812037186 0 -0.44870816196286811 -0.15867686676417381 0 -0.46229591929998781 -0.14565917999429109 0 -0.46800424475956409 -0.1360295095635265 0 -0.45723506512287182 -0.13734468837488281 0 -0.46800424475956409 -0.1360295095635265 0 -0.45723506512287182 -0.13734468837488281 0 -0.45833797137051729 -0.1284376994867642 0 -0.44402761327197032 -0.1311731862286234 0 -0.45723506512287182 -0.13734468837488281 0 -0.45833797137051729 -0.1284376994867642 0 -0.46800424475956409 -0.1360295095635265 0 -0.45833797137051729 -0.1284376994867642 0 -0.4688131679446601 -0.12114347433947591 0 -0.46800424475956409 -0.1360295095635265 0 -0.48291639053358171 -0.13241516776855161 0 -0.4688131679446601 -0.12114347433947591 0 -0.46800424475956409 -0.1360295095635265 0 -0.48291639053358171 -0.13241516776855161 0 -0.47759671704524892 -0.14904960905202261 0 -0.48291639053358171 -0.13241516776855161 0 -0.5 -0.1502634494892022 0 -0.50000000000000067 -0.1244432259820015 0 -0.5 -0.1502634494892022 0 -0.47759671704524892 -0.14904960905202261 0 -0.48457469682297122 -0.16460270735937291 0 -0.48291639053358171 -0.13241516776855161 0 -0.5 -0.1502634494892022 0 -0.47759671704524892 -0.14904960905202261 0 -0.46229591929998781 -0.14565917999429109 0 -0.46800424475956409 -0.1360295095635265 0 -0.47759671704524892 -0.14904960905202261 0 -0.47759671704524892 -0.14904960905202261 0 -0.48457469682297122 -0.16460270735937291 0 -0.46510763695957608 -0.1628548812037186 0 -0.47670569700683108 -0.1802858958062292 0 -0.46510763695957608 -0.1628548812037186 0 -0.48457469682297122 -0.16460270735937291 0 -0.47670569700683108 -0.1802858958062292 0 -0.46510763695957608 -0.1628548812037186 0 -0.5 -0.1502634494892022 0 -0.48457469682297122 -0.16460270735937291 0 -0.5 -0.1760836729964029 0 -0.5 -0.1760836729964029 0 -0.47670569700683108 -0.1802858958062292 0 -0.48830375705408591 -0.19771691040873979 0 -0.48457469682297122 -0.16460270735937291 0 -0.5 -0.1760836729964029 0 -0.47670569700683108 -0.1802858958062292 0 -0.47670569700683108 -0.1802858958062292 0 -0.46508519567506601 -0.18122829335312621 0 -0.46510763695957608 -0.1628548812037186 0 -0.47670569700683108 -0.1802858958062292 0 -0.46508519567506601 -0.18122829335312621 0 -0.47583276442852068 -0.193440721452107 0 -0.46508519567506601 -0.18122829335312621 0 -0.44902974188701239 -0.1762263503740413 0 -0.46275048783942041 -0.20224086287547441 0 -0.46508519567506601 -0.18122829335312621 0 -0.46510763695957608 -0.1628548812037186 0 -0.44902974188701239 -0.1762263503740413 0 -0.46510763695957608 -0.1628548812037186 0 -0.44870816196286811 -0.15867686676417381 0 -0.44902974188701239 -0.1762263503740413 0 -0.43530899593460248 -0.150211837872609 0 -0.44870816196286811 -0.15867686676417381 0 -0.44902974188701239 -0.1762263503740413 0 -0.43530899593460248 -0.150211837872609 0 -0.44902974188701239 -0.1762263503740413 0 -0.43611053198040678 -0.18263784011771181 0 -0.44902974188701239 -0.1762263503740413 0 -0.44386731017550518 -0.19318854338988389 0 -0.44902974188701239 -0.1762263503740413 0 -0.44386731017550518 -0.19318854338988389 0 -0.46275048783942041 -0.20224086287547441 0 -0.44386731017550518 -0.19318854338988389 0 -0.44397082764593587 -0.20940094286609739 0 -0.46275048783942041 -0.20224086287547441 0 -0.42830710322991522 -0.19680768594527559 0 -0.44386731017550518 -0.19318854338988389 0 -0.44397082764593587 -0.20940094286609739 0 -0.44397082764593587 -0.20940094286609739 0 -0.45660166856011508 -0.21979689597116869 0 -0.44524020046472801 -0.22406044200639599 0 -0.44397082764593587 -0.20940094286609739 0 -0.46275048783942041 -0.20224086287547441 0 -0.45660166856011508 -0.21979689597116869 0 -0.46275048783942041 -0.20224086287547441 0 -0.47647123379182837 -0.2282553753769074 0 -0.45660166856011508 -0.21979689597116869 0 -0.44902974188701239 -0.1762263503740413 0 -0.46275048783942041 -0.20224086287547441 0 -0.46508519567506601 -0.18122829335312621 0 -0.46275048783942041 -0.20224086287547441 0 -0.47583276442852068 -0.193440721452107 0 -0.46275048783942041 -0.20224086287547441 0 -0.47583276442852068 -0.193440721452107 0 -0.47842783520667731 -0.20729357567408649 0 -0.47670569700683108 -0.1802858958062292 0 -0.47583276442852068 -0.193440721452107 0 -0.48830375705408591 -0.19771691040873979 0 -0.47670569700683108 -0.1802858958062292 0 -0.48830375705408591 -0.19771691040873979 0 -0.47583276442852068 -0.193440721452107 0 -0.48830375705408591 -0.19771691040873979 0 -0.47842783520667731 -0.20729357567408649 0 -0.5 -0.1760836729964029 0 -0.5 -0.2019038965036036 0 -0.48830375705408591 -0.19771691040873979 0 -0.48830375705408591 -0.19771691040873979 0 -0.48878093291953079 -0.2148140082572039 0 -0.47842783520667731 -0.20729357567408649 0 -0.5 -0.2019038965036036 0 -0.48878093291953079 -0.2148140082572039 0 -0.5 -0.2277241200108043 0 -0.5 -0.2019038965036036 0 -0.48830375705408591 -0.19771691040873979 0 -0.48878093291953079 -0.2148140082572039 0 -0.48878093291953079 -0.2148140082572039 0 -0.47842783520667731 -0.20729357567408649 0 -0.47647123379182837 -0.2282553753769074 0 -0.46275048783942041 -0.20224086287547441 0 -0.47842783520667731 -0.20729357567408649 0 -0.47647123379182837 -0.2282553753769074 0 -0.46275048783942041 -0.20224086287547441 0 -0.47647123379182837 -0.2282553753769074 0 -0.47647123379182837 -0.2282553753769074 0 -0.5 -0.2277241200108043 0 -0.48481247171057978 -0.24408474157918181 0 -0.48878093291953079 -0.2148140082572039 0 -0.47647123379182837 -0.2282553753769074 0 -0.5 -0.2277241200108043 0 -0.5 -0.25354434351800498 0 -0.5 -0.2277241200108043 0 -0.48481247171057978 -0.24408474157918181 0 -0.46682899131119288 -0.25102815300489301 0 -0.47647123379182837 -0.2282553753769074 0 -0.48481247171057978 -0.24408474157918181 0 -0.46682899131119288 -0.25102815300489301 0 -0.47647123379182837 -0.2282553753769074 0 -0.45457559305866291 -0.23502685673096821 0 -0.44171914672769302 -0.25415451347903623 0 -0.46682899131119288 -0.25102815300489301 0 -0.45457559305866291 -0.23502685673096821 0 -0.47647123379182837 -0.2282553753769074 0 -0.45457559305866291 -0.23502685673096821 0 -0.45660166856011508 -0.21979689597116869 0 -0.45457559305866291 -0.23502685673096821 0 -0.44524020046472801 -0.22406044200639599 0 -0.43887789481282619 -0.234118381522984 0 -0.45457559305866291 -0.23502685673096821 0 -0.45660166856011508 -0.21979689597116869 0 -0.44524020046472801 -0.22406044200639599 0 -0.43018080968280481 -0.22402208464885051 0 -0.44397082764593587 -0.20940094286609739 0 -0.44524020046472801 -0.22406044200639599 0 -0.43018080968280481 -0.22402208464885051 0 -0.44524020046472801 -0.22406044200639599 0 -0.43887789481282619 -0.234118381522984 0 -0.44171914672769302 -0.25415451347903623 0 -0.45457559305866291 -0.23502685673096821 0 -0.43887789481282619 -0.234118381522984 0 -0.4162703946615175 -0.036973884782726223 0 -0.40860871376237951 -0.044836598169306137 0 -0.41127918715087969 -0.0157454815493531 0 -0.40860871376237951 -0.044836598169306137 0 -0.41127918715087969 -0.0157454815493531 0 -0.40336599823417701 -0.03693928025105972 0 -0.41724534092339682 -0.046338722896909858 0 -0.41932729984436751 -0.042251484426041028 0 -0.4162703946615175 -0.036973884782726223 0 -0.41724534092339682 -0.046338722896909858 0 -0.41932729984436751 -0.042251484426041028 0 -0.42466008817352791 -0.044498318948165028 0 -0.41932729984436751 -0.042251484426041028 0 -0.4162703946615175 -0.036973884782726223 0 -0.42521919615565701 -0.036898517052743378 0 -0.4162703946615175 -0.036973884782726223 0 -0.42521919615565701 -0.036898517052743378 0 -0.42409497406852542 -0.025979874485350819 0 -0.41724534092339682 -0.046338722896909858 0 -0.4162703946615175 -0.036973884782726223 0 -0.40860871376237951 -0.044836598169306137 0 -0.4070025820736608 -0.043775401423266323 0 -0.40860871376237951 -0.044836598169306137 0 -0.40336599823417701 -0.03693928025105972 0 -0.40860871376237951 -0.044836598169306137 0 -0.41352994408069232 -0.055952376748469403 0 -0.41177218977955321 -0.06397503332026315 0 -0.40860871376237951 -0.044836598169306137 0 -0.41352994408069232 -0.055952376748469403 0 -0.41643254650056588 -0.051461661562262152 0 -0.40860871376237951 -0.044836598169306137 0 -0.40593824037387599 -0.073927714789258747 0 -0.40860871376237951 -0.044836598169306137 0 -0.40593824037387599 -0.073927714789258747 0 -0.41177218977955321 -0.06397503332026315 0 -0.41352994408069232 -0.055952376748469403 0 -0.42085649059406371 -0.058951806865511269 0 -0.41177218977955321 -0.06397503332026315 0 -0.41352994408069232 -0.055952376748469403 0 -0.42085649059406371 -0.058951806865511269 0 -0.41643254650056588 -0.051461661562262152 0 -0.41724534092339682 -0.046338722896909858 0 -0.40860871376237951 -0.044836598169306137 0 -0.41643254650056588 -0.051461661562262152 0 -0.42085649059406371 -0.058951806865511269 0 -0.41643254650056588 -0.051461661562262152 0 -0.42192224314229709 -0.051228803131114088 0 -0.41724534092339682 -0.046338722896909858 0 -0.42192224314229709 -0.051228803131114088 0 -0.42466008817352791 -0.044498318948165028 0 -0.41724534092339682 -0.046338722896909858 0 -0.41643254650056588 -0.051461661562262152 0 -0.42192224314229709 -0.051228803131114088 0 -0.42085649059406371 -0.058951806865511269 0 -0.42192224314229709 -0.051228803131114088 0 -0.43174799050700591 -0.051459705689637911 0 -0.42192224314229709 -0.051228803131114088 0 -0.43174799050700591 -0.051459705689637911 0 -0.42466008817352791 -0.044498318948165028 0 -0.42085649059406371 -0.058951806865511269 0 -0.43071874477816607 -0.06192961005653852 0 -0.43174799050700591 -0.051459705689637911 0 -0.43071874477816607 -0.06192961005653852 0 -0.43174799050700591 -0.051459705689637911 0 -0.44191280180493958 -0.061734332901946007 0 -0.43174799050700591 -0.051459705689637911 0 -0.43368604000820388 -0.040982417846531297 0 -0.44393089276092162 -0.049225023683917242 0 -0.43174799050700591 -0.051459705689637911 0 -0.43368604000820388 -0.040982417846531297 0 -0.42466008817352791 -0.044498318948165028 0 -0.43368604000820388 -0.040982417846531297 0 -0.42466008817352791 -0.044498318948165028 0 -0.42521919615565701 -0.036898517052743378 0 -0.41932729984436751 -0.042251484426041028 0 -0.42466008817352791 -0.044498318948165028 0 -0.42521919615565701 -0.036898517052743378 0 -0.43368604000820388 -0.040982417846531297 0 -0.42521919615565701 -0.036898517052743378 0 -0.43327638017779979 -0.03070512182764594 0 -0.43368604000820388 -0.040982417846531297 0 -0.43327638017779979 -0.03070512182764594 0 -0.44462761117665939 -0.033892557985653007 0 -0.43327638017779979 -0.03070512182764594 0 -0.43689592879446981 -0.019883833289050339 0 -0.42409497406852542 -0.025979874485350819 0 -0.43689592879446981 -0.019883833289050339 0 -0.42409497406852542 -0.025979874485350819 0 -0.42805522992714562 -0.01318134653417719 0 -0.42521919615565701 -0.036898517052743378 0 -0.43327638017779979 -0.03070512182764594 0 -0.42409497406852542 -0.025979874485350819 0 -0.42805522992714562 -0.01318134653417719 0 -0.41127918715087969 -0.0157454815493531 0 -0.42758688314687793 4.56899480267281e-05 0 -0.42805522992714562 -0.01318134653417719 0 -0.44041917647497519 -0.0043432332951584274 0 -0.42758688314687793 4.56899480267281e-05 0 -0.43689592879446981 -0.019883833289050339 0 -0.42805522992714562 -0.01318134653417719 0 -0.44041917647497519 -0.0043432332951584274 0 -0.41127918715087969 -0.0157454815493531 0 -0.41394966053937998 0.01334563507059992 0 -0.41127918715087969 -0.0157454815493531 0 -0.42758688314687793 4.56899480267281e-05 0 -0.41394966053937998 0.01334563507059992 0 -0.41127918715087969 -0.0157454815493531 0 -0.40017062158542782 -0.0038387895413610901 0 -0.41394966053937998 0.01334563507059992 0 -0.40860871376237951 -0.044836598169306137 0 -0.41127918715087969 -0.0157454815493531 0 -0.4162703946615175 -0.036973884782726223 0 -0.42409497406852542 -0.025979874485350819 0 -0.41127918715087969 -0.0157454815493531 0 -0.42409497406852542 -0.025979874485350819 0 -0.42805522992714562 -0.01318134653417719 0 -0.41127918715087969 -0.0157454815493531 0 -0.41127918715087969 -0.0157454815493531 0 -0.40080747226165409 -0.028204154674896169 0 -0.40336599823417701 -0.03693928025105972 0 -0.41127918715087969 -0.0157454815493531 0 -0.40080747226165409 -0.028204154674896169 0 -0.39817588919084479 -0.020714797009624052 0 -0.39817588919084479 -0.020714797009624052 0 -0.39075231019145162 -0.012634545706286179 0 -0.38539644028815462 -0.024444570923951709 0 -0.39817588919084479 -0.020714797009624052 0 -0.39402312816116941 -0.031168601602528191 0 -0.38539644028815462 -0.024444570923951709 0 -0.40080747226165409 -0.028204154674896169 0 -0.39817588919084479 -0.020714797009624052 0 -0.39402312816116941 -0.031168601602528191 0 -0.39817588919084479 -0.020714797009624052 0 -0.40017062158542782 -0.0038387895413610901 0 -0.39075231019145162 -0.012634545706286179 0 -0.41127918715087969 -0.0157454815493531 0 -0.39817588919084479 -0.020714797009624052 0 -0.40017062158542782 -0.0038387895413610901 0 -0.40017062158542782 -0.0038387895413610901 0 -0.39075231019145162 -0.012634545706286179 0 -0.38645945484234001 -0.00036052547126835843 0 -0.39075231019145162 -0.012634545706286179 0 -0.38645945484234001 -0.00036052547126835843 0 -0.37738686226534363 -0.01323459619958703 0 -0.38645945484234001 -0.00036052547126835843 0 -0.37738686226534363 -0.01323459619958703 0 -0.37366197689732522 0.0012785186665680559 0 -0.39402312816116941 -0.031168601602528191 0 -0.38539644028815462 -0.024444570923951709 0 -0.38749682656910162 -0.033534840737372118 0 -0.38539644028815462 -0.024444570923951709 0 -0.37984199107506789 -0.033890862169894252 0 -0.38749682656910162 -0.033534840737372118 0 -0.39075231019145162 -0.012634545706286179 0 -0.37738686226534363 -0.01323459619958703 0 -0.38539644028815462 -0.024444570923951709 0 -0.37738686226534363 -0.01323459619958703 0 -0.38539644028815462 -0.024444570923951709 0 -0.37572716706011239 -0.0240696977567233 0 -0.38539644028815462 -0.024444570923951709 0 -0.37572716706011239 -0.0240696977567233 0 -0.37984199107506789 -0.033890862169894252 0 -0.36959331310531829 -0.031954041508409511 0 -0.37572716706011239 -0.0240696977567233 0 -0.37984199107506789 -0.033890862169894252 0 -0.37330575909772251 -0.038255008438460671 0 -0.37984199107506789 -0.033890862169894252 0 -0.377918264125567 -0.044613536529405057 0 -0.377918264125567 -0.044613536529405057 0 -0.38702672815664468 -0.039102378132629893 0 -0.39413006057874278 -0.039784291052573487 0 -0.37984199107506789 -0.033890862169894252 0 -0.377918264125567 -0.044613536529405057 0 -0.38702672815664468 -0.039102378132629893 0 -0.37984199107506789 -0.033890862169894252 0 -0.38702672815664468 -0.039102378132629893 0 -0.38749682656910162 -0.033534840737372118 0 -0.38702672815664468 -0.039102378132629893 0 -0.38749682656910162 -0.033534840737372118 0 -0.3918806708135818 -0.036040036678888082 0 -0.4070025820736608 -0.043775401423266323 0 -0.377918264125567 -0.044613536529405057 0 -0.39413006057874278 -0.039784291052573487 0 -0.39402312816116941 -0.031168601602528191 0 -0.38749682656910162 -0.033534840737372118 0 -0.3918806708135818 -0.036040036678888082 0 -0.4070025820736608 -0.043775401423266323 0 -0.377918264125567 -0.044613536529405057 0 -0.39402312816116941 -0.031168601602528191 0 -0.39695292270387661 -0.034754908081963 0 -0.3918806708135818 -0.036040036678888082 0 -0.4070025820736608 -0.043775401423266323 0 -0.377918264125567 -0.044613536529405057 0 -0.38697844235995699 -0.045432560022454299 0 -0.39695292270387661 -0.034754908081963 0 -0.39413006057874278 -0.039784291052573487 0 -0.40336599823417701 -0.03693928025105972 0 -0.40080747226165409 -0.028204154674896169 0 -0.39402312816116941 -0.031168601602528191 0 -0.39695292270387661 -0.034754908081963 0 -0.39695292270387661 -0.034754908081963 0 -0.3918806708135818 -0.036040036678888082 0 -0.39413006057874278 -0.039784291052573487 0 -0.38702672815664468 -0.039102378132629893 0 -0.3918806708135818 -0.036040036678888082 0 -0.39413006057874278 -0.039784291052573487 0 -0.4070025820736608 -0.043775401423266323 0 -0.39413006057874278 -0.039784291052573487 0 -0.40336599823417701 -0.03693928025105972 0 -0.40080747226165409 -0.028204154674896169 0 -0.39695292270387661 -0.034754908081963 0 -0.40336599823417701 -0.03693928025105972 0 -0.4070025820736608 -0.043775401423266323 0 -0.38697844235995699 -0.045432560022454299 0 -0.40254512149890059 -0.052267858153487709 0 -0.40860871376237951 -0.044836598169306137 0 -0.40254512149890059 -0.052267858153487709 0 -0.40593824037387599 -0.073927714789258747 0 -0.40254512149890059 -0.052267858153487709 0 -0.39645834136691549 -0.059680137405857217 0 -0.40593824037387599 -0.073927714789258747 0 -0.4070025820736608 -0.043775401423266323 0 -0.40860871376237951 -0.044836598169306137 0 -0.40254512149890059 -0.052267858153487709 0 -0.38697844235995699 -0.045432560022454299 0 -0.40254512149890059 -0.052267858153487709 0 -0.39645834136691549 -0.059680137405857217 0 -0.38697844235995699 -0.045432560022454299 0 -0.39645834136691549 -0.059680137405857217 0 -0.39645834136691549 -0.059680137405857217 0 -0.38307293213795551 -0.052444479670782952 0 -0.38113183066061518 -0.059586646689271612 0 -0.38697844235995699 -0.045432560022454299 0 -0.39645834136691549 -0.059680137405857217 0 -0.38307293213795551 -0.052444479670782952 0 -0.377918264125567 -0.044613536529405057 0 -0.38307293213795551 -0.052444479670782952 0 -0.37531608161951241 -0.054597891757102182 0 -0.377918264125567 -0.044613536529405057 0 -0.38697844235995699 -0.045432560022454299 0 -0.38307293213795551 -0.052444479670782952 0 -0.3720135013680746 -0.062199750492047727 0 -0.37531608161951241 -0.054597891757102182 0 -0.38113183066061518 -0.059586646689271612 0 -0.38307293213795551 -0.052444479670782952 0 -0.37531608161951241 -0.054597891757102182 0 -0.38113183066061518 -0.059586646689271612 0 -0.39645834136691549 -0.059680137405857217 0 -0.38113183066061518 -0.059586646689271612 0 -0.38074771570066612 -0.069485435524499747 0 -0.3720135013680746 -0.062199750492047727 0 -0.38113183066061518 -0.059586646689271612 0 -0.38074771570066612 -0.069485435524499747 0 -0.39645834136691549 -0.059680137405857217 0 -0.38074771570066612 -0.069485435524499747 0 -0.39047758630338142 -0.075176757748365589 0 -0.38074771570066612 -0.069485435524499747 0 -0.39047758630338142 -0.075176757748365589 0 -0.37655611353167889 -0.08415547958917069 0 -0.37050798537606372 -0.071551121673357337 0 -0.38074771570066612 -0.069485435524499747 0 -0.37655611353167889 -0.08415547958917069 0 -0.37655611353167889 -0.08415547958917069 0 -0.39206441980153739 -0.089600519194344197 0 -0.38281390262083359 -0.099366859997052914 0 -0.39047758630338142 -0.075176757748365589 0 -0.37655611353167889 -0.08415547958917069 0 -0.39206441980153739 -0.089600519194344197 0 -0.40593824037387599 -0.073927714789258747 0 -0.4037947867746412 -0.097277679216319815 0 -0.39047758630338142 -0.075176757748365589 0 -0.39206441980153739 -0.089600519194344197 0 -0.40593824037387599 -0.073927714789258747 0 -0.39206441980153739 -0.089600519194344197 0 -0.40593824037387599 -0.073927714789258747 0 -0.4037947867746412 -0.097277679216319815 0 -0.39645834136691549 -0.059680137405857217 0 -0.40593824037387599 -0.073927714789258747 0 -0.39645834136691549 -0.059680137405857217 0 -0.39047758630338142 -0.075176757748365589 0 -0.40593824037387599 -0.073927714789258747 0 -0.38908604387160639 -0.13108360082930481 0 -0.38013010237982348 -0.1153213818989289 0 -0.40165133317540308 -0.12062764364338061 0 -0.39206441980153739 -0.089600519194344197 0 -0.38281390262083359 -0.099366859997052914 0 -0.39280588920481568 -0.10769862382589609 0 -0.3710168798650903 -0.098752521635988438 0 -0.38013010237982348 -0.1153213818989289 0 -0.38281390262083359 -0.099366859997052914 0 -0.38013010237982348 -0.1153213818989289 0 -0.38281390262083359 -0.099366859997052914 0 -0.39280588920481568 -0.10769862382589609 0 -0.3710168798650903 -0.098752521635988438 0 -0.37655611353167889 -0.08415547958917069 0 -0.38281390262083359 -0.099366859997052914 0 -0.39280588920481568 -0.10769862382589609 0 -0.4037947867746412 -0.097277679216319815 0 -0.40165133317540308 -0.12062764364338061 0 -0.39206441980153739 -0.089600519194344197 0 -0.39280588920481568 -0.10769862382589609 0 -0.4037947867746412 -0.097277679216319815 0 -0.4037947867746412 -0.097277679216319815 0 -0.40165133317540308 -0.12062764364338061 0 -0.4037947867746412 -0.097277679216319815 0 -0.40165133317540308 -0.12062764364338061 0 -0.41181284273216479 -0.11375833286495041 0 -0.38013010237982348 -0.1153213818989289 0 -0.39280588920481568 -0.10769862382589609 0 -0.40165133317540308 -0.12062764364338061 0 -0.41232203336743062 -0.1272796321847649 0 -0.41986723551606597 -0.12093428468085191 0 -0.41181284273216479 -0.11375833286495041 0 -0.42356607680282182 -0.127947281877131 0 -0.41986723551606597 -0.12093428468085191 0 -0.41232203336743062 -0.1272796321847649 0 -0.40165133317540308 -0.12062764364338061 0 -0.41181284273216479 -0.11375833286495041 0 -0.41181284273216479 -0.11375833286495041 0 -0.4160950361932429 -0.1053250220496698 0 -0.42250911811867442 -0.1125956268730797 0 -0.41986723551606597 -0.12093428468085191 0 -0.41181284273216479 -0.11375833286495041 0 -0.42250911811867442 -0.1125956268730797 0 -0.4037947867746412 -0.097277679216319815 0 -0.41181284273216479 -0.11375833286495041 0 -0.4160950361932429 -0.1053250220496698 0 -0.4037947867746412 -0.097277679216319815 0 -0.4160950361932429 -0.1053250220496698 0 -0.42145215943452558 -0.097243971869028431 0 -0.4160950361932429 -0.1053250220496698 0 -0.42145215943452558 -0.097243971869028431 0 -0.42250911811867442 -0.1125956268730797 0 -0.42145215943452558 -0.097243971869028431 0 -0.43717501502944628 -0.10446046330838719 0 -0.4309276547948061 -0.11148493090167 0 -0.43717501502944628 -0.10446046330838719 0 -0.43394687990380609 -0.083195036682462878 0 -0.42145215943452558 -0.097243971869028431 0 -0.43717501502944628 -0.10446046330838719 0 -0.43394687990380609 -0.083195036682462878 0 -0.42145215943452558 -0.097243971869028431 0 -0.42250911811867442 -0.1125956268730797 0 -0.42145215943452558 -0.097243971869028431 0 -0.42250911811867442 -0.1125956268730797 0 -0.4309276547948061 -0.11148493090167 0 -0.42145215943452558 -0.097243971869028431 0 -0.4309276547948061 -0.11148493090167 0 -0.44040315015508658 -0.12572588993431161 0 -0.43717501502944628 -0.10446046330838719 0 -0.4309276547948061 -0.11148493090167 0 -0.42250911811867442 -0.1125956268730797 0 -0.4309276547948061 -0.11148493090167 0 -0.43006191958823181 -0.12155061468897541 0 -0.44040315015508658 -0.12572588993431161 0 -0.4309276547948061 -0.11148493090167 0 -0.44040315015508658 -0.12572588993431161 0 -0.4309276547948061 -0.11148493090167 0 -0.43006191958823181 -0.12155061468897541 0 -0.42356607680282182 -0.127947281877131 0 -0.42250911811867442 -0.1125956268730797 0 -0.42356607680282182 -0.127947281877131 0 -0.41986723551606597 -0.12093428468085191 0 -0.42250911811867442 -0.1125956268730797 0 -0.42356607680282182 -0.127947281877131 0 -0.42250911811867442 -0.1125956268730797 0 -0.43006191958823181 -0.12155061468897541 0 -0.42085649059406371 -0.058951806865511269 0 -0.41949348836893191 -0.068795516015111913 0 -0.41177218977955321 -0.06397503332026315 0 -0.40593824037387599 -0.073927714789258747 0 -0.41949348836893191 -0.068795516015111913 0 -0.41177218977955321 -0.06397503332026315 0 -0.40593824037387599 -0.073927714789258747 0 -0.42145215943452558 -0.097243971869028431 0 -0.41949348836893191 -0.068795516015111913 0 -0.42145215943452558 -0.097243971869028431 0 -0.41949348836893191 -0.068795516015111913 0 -0.40593824037387599 -0.073927714789258747 0 -0.4037947867746412 -0.097277679216319815 0 -0.42145215943452558 -0.097243971869028431 0 -0.40593824037387599 -0.073927714789258747 0 -0.42145215943452558 -0.097243971869028431 0 -0.42145215943452558 -0.097243971869028431 0 -0.41949348836893191 -0.068795516015111913 0 -0.43394687990380609 -0.083195036682462878 0 -0.43071874477816607 -0.06192961005653852 0 -0.43394687990380609 -0.083195036682462878 0 -0.44191280180493958 -0.061734332901946007 0 -0.43071874477816607 -0.06192961005653852 0 -0.41949348836893191 -0.068795516015111913 0 -0.43394687990380609 -0.083195036682462878 0 -0.43071874477816607 -0.06192961005653852 0 -0.43394687990380609 -0.083195036682462878 0 -0.42085649059406371 -0.058951806865511269 0 -0.43071874477816607 -0.06192961005653852 0 -0.41949348836893191 -0.068795516015111913 0 -0.4505287774553588 -0.07146284836225901 0 -0.45871618363474009 -0.057436915277976619 0 -0.44191280180493958 -0.061734332901946007 0 -0.43394687990380609 -0.083195036682462878 0 -0.4505287774553588 -0.07146284836225901 0 -0.44191280180493958 -0.061734332901946007 0 -0.43394687990380609 -0.083195036682462878 0 -0.4505287774553588 -0.07146284836225901 0 -0.45032822573657172 -0.082600771631680947 0 -0.43394687990380609 -0.083195036682462878 0 -0.4434445820331373 -0.092816264490733616 0 -0.45032822573657172 -0.082600771631680947 0 -0.43717501502944628 -0.10446046330838719 0 -0.43394687990380609 -0.083195036682462878 0 -0.4434445820331373 -0.092816264490733616 0 -0.44965191364511609 -0.091108562847245625 0 -0.45032822573657172 -0.082600771631680947 0 -0.45545362759522462 -0.094267678023517987 0 -0.4434445820331373 -0.092816264490733616 0 -0.44965191364511609 -0.091108562847245625 0 -0.45032822573657172 -0.082600771631680947 0 -0.4434445820331373 -0.092816264490733616 0 -0.44965191364511609 -0.091108562847245625 0 -0.44938121921553092 -0.094749537243049964 0 -0.44965191364511609 -0.091108562847245625 0 -0.44938121921553092 -0.094749537243049964 0 -0.45545362759522462 -0.094267678023517987 0 -0.45032822573657172 -0.082600771631680947 0 -0.46859648336663401 -0.077522688573027881 0 -0.45545362759522462 -0.094267678023517987 0 -0.46859648336663401 -0.077522688573027881 0 -0.45545362759522462 -0.094267678023517987 0 -0.45963204906561062 -0.097098125278001213 0 -0.46859648336663401 -0.077522688573027881 0 -0.45963204906561062 -0.097098125278001213 0 -0.4505287774553588 -0.07146284836225901 0 -0.45032822573657172 -0.082600771631680947 0 -0.46859648336663401 -0.077522688573027881 0 -0.4505287774553588 -0.07146284836225901 0 -0.46859648336663401 -0.077522688573027881 0 -0.45871618363474009 -0.057436915277976619 0 -0.46859648336663401 -0.077522688573027881 0 -0.47756091766765901 -0.057947251868055313 0 -0.45871618363474009 -0.057436915277976619 0 -0.44040315015508658 -0.12572588993431161 0 -0.43717501502944628 -0.10446046330838719 0 -0.44450273263843199 -0.1113885187453038 0 -0.44040315015508658 -0.12572588993431161 0 -0.43717501502944628 -0.10446046330838719 0 -0.44402761327197032 -0.1311731862286234 0 -0.45833797137051729 -0.1284376994867642 0 -0.45182983116879111 -0.1141356557533126 0 -0.44402761327197032 -0.1311731862286234 0 -0.44040315015508658 -0.12572588993431161 0 -0.45182983116879111 -0.1141356557533126 0 -0.44402761327197032 -0.1311731862286234 0 -0.45182983116879111 -0.1141356557533126 0 -0.44040315015508658 -0.12572588993431161 0 -0.44450273263843199 -0.1113885187453038 0 -0.45182983116879111 -0.1141356557533126 0 -0.44450273263843199 -0.1113885187453038 0 -0.45182983116879111 -0.1141356557533126 0 -0.44860293420040442 -0.101232065985204 0 -0.43717501502944628 -0.10446046330838719 0 -0.44450273263843199 -0.1113885187453038 0 -0.44860293420040442 -0.101232065985204 0 -0.43717501502944628 -0.10446046330838719 0 -0.4434445820331373 -0.092816264490733616 0 -0.44860293420040442 -0.101232065985204 0 -0.4434445820331373 -0.092816264490733616 0 -0.44860293420040442 -0.101232065985204 0 -0.44938121921553092 -0.094749537243049964 0 -0.44860293420040442 -0.101232065985204 0 -0.44938121921553092 -0.094749537243049964 0 -0.45545362759522462 -0.094267678023517987 0 -0.45182983116879111 -0.1141356557533126 0 -0.44860293420040442 -0.101232065985204 0 -0.45963204906561062 -0.097098125278001213 0 -0.45182983116879111 -0.1141356557533126 0 -0.45963204906561062 -0.097098125278001213 0 -0.45963204906561062 -0.097098125278001213 0 -0.46502276817796678 -0.1107869827501979 0 -0.4798160245328052 -0.11077067563000199 0 -0.45182983116879111 -0.1141356557533126 0 -0.45963204906561062 -0.097098125278001213 0 -0.46502276817796678 -0.1107869827501979 0 -0.44860293420040442 -0.101232065985204 0 -0.45545362759522462 -0.094267678023517987 0 -0.45963204906561062 -0.097098125278001213 0 -0.45545362759522462 -0.094267678023517987 0 -0.45963204906561062 -0.097098125278001213 0 -0.45833797137051729 -0.1284376994867642 0 -0.45182983116879111 -0.1141356557533126 0 -0.4688131679446601 -0.12114347433947591 0 -0.45182983116879111 -0.1141356557533126 0 -0.46502276817796678 -0.1107869827501979 0 -0.4688131679446601 -0.12114347433947591 0 -0.48291639053358171 -0.13241516776855161 0 -0.4688131679446601 -0.12114347433947591 0 -0.4798160245328052 -0.11077067563000199 0 -0.46502276817796678 -0.1107869827501979 0 -0.4688131679446601 -0.12114347433947591 0 -0.4798160245328052 -0.11077067563000199 0 -0.45963204906561062 -0.097098125278001213 0 -0.4798160245328052 -0.11077067563000199 0 -0.45963204906561062 -0.097098125278001213 0 -0.4798160245328052 -0.11077067563000199 0 -0.47920697677599028 -0.091045797563174061 0 -0.4798160245328052 -0.11077067563000199 0 -0.5 -0.096838226043376108 0 -0.47920697677599028 -0.091045797563174061 0 -0.4798160245328052 -0.11077067563000199 0 -0.50000000000000067 -0.1244432259820015 0 -0.4798160245328052 -0.11077067563000199 0 -0.5 -0.096838226043376108 0 -0.50000000000000067 -0.1244432259820015 0 -0.48291639053358171 -0.13241516776855161 0 -0.4798160245328052 -0.11077067563000199 0 -0.50000000000000067 -0.1244432259820015 0 -0.46859648336663401 -0.077522688573027881 0 -0.47756091766765901 -0.057947251868055313 0 -0.46859648336663401 -0.077522688573027881 0 -0.48799032691490191 -0.072999272291463052 0 -0.47756091766765901 -0.057947251868055313 0 -0.48799032691490191 -0.072999272291463052 0 -0.47756091766765901 -0.057947251868055313 0 -0.46859648336663401 -0.077522688573027881 0 -0.45963204906561062 -0.097098125278001213 0 -0.47920697677599028 -0.091045797563174061 0 -0.46859648336663401 -0.077522688573027881 0 -0.47920697677599028 -0.091045797563174061 0 -0.48799032691490191 -0.072999272291463052 0 -0.5 -0.096838226043376108 0 -0.47920697677599028 -0.091045797563174061 0 -0.48799032691490191 -0.072999272291463052 0 -0.5 -0.096838226043376108 0 -0.5 -0.069233226104750689 0 -0.48799032691490191 -0.072999272291463052 0 -0.48799032691490191 -0.072999272291463052 0 -0.4900630745260095 -0.056805147455116702 0 -0.47756091766765901 -0.057947251868055313 0 -0.5 -0.069233226104750689 0 -0.48799032691490191 -0.072999272291463052 0 -0.4900630745260095 -0.056805147455116702 0 -0.5 -0.069233226104750689 0 -0.4900630745260095 -0.056805147455116702 0 -0.5 -0.04162822616612516 0 -0.4900630745260095 -0.056805147455116702 0 -0.5 -0.04162822616612516 0 -0.48476412804748847 -0.042217760845190168 0 -0.5 -0.04162822616612516 0 -0.48476412804748847 -0.042217760845190168 0 -0.49196733842731999 -0.02648826982232599 0 -0.48476412804748847 -0.042217760845190168 0 -0.49196733842731999 -0.02648826982232599 0 -0.48476412804748847 -0.042217760845190168 0 -0.47895875080328598 -0.030832023896619772 0 -0.49196733842731999 -0.02648826982232599 0 -0.48476412804748847 -0.042217760845190168 0 -0.47756091766765901 -0.057947251868055313 0 -0.46394199778608353 -0.038292038869620432 0 -0.48476412804748847 -0.042217760845190168 0 -0.46394199778608353 -0.038292038869620432 0 -0.47895875080328598 -0.030832023896619772 0 -0.4900630745260095 -0.056805147455116702 0 -0.48476412804748847 -0.042217760845190168 0 -0.47756091766765901 -0.057947251868055313 0 -0.47756091766765901 -0.057947251868055313 0 -0.46394199778608353 -0.038292038869620432 0 -0.48476412804748847 -0.042217760845190168 0 -0.47756091766765901 -0.057947251868055313 0 -0.45871618363474009 -0.057436915277976619 0 -0.46394199778608353 -0.038292038869620432 0 -0.44393089276092162 -0.049225023683917242 0 -0.47756091766765901 -0.057947251868055313 0 -0.45871618363474009 -0.057436915277976619 0 -0.46394199778608353 -0.038292038869620432 0 -0.46394199778608353 -0.038292038869620432 0 -0.44462761117665939 -0.033892557985653007 0 -0.44393089276092162 -0.049225023683917242 0 -0.43368604000820388 -0.040982417846531297 0 -0.44462761117665939 -0.033892557985653007 0 -0.44393089276092162 -0.049225023683917242 0 -0.45871618363474009 -0.057436915277976619 0 -0.44393089276092162 -0.049225023683917242 0 -0.44191280180493958 -0.061734332901946007 0 -0.43174799050700591 -0.051459705689637911 0 -0.44393089276092162 -0.049225023683917242 0 -0.44191280180493958 -0.061734332901946007 0 -0.44041917647497519 -0.0043432332951584274 0 -0.46216052424035242 -0.0060285940335542444 0 -0.45172458876458488 0.0065167358095068384 0 -0.44041917647497519 -0.0043432332951584274 0 -0.45032307790450532 -0.018636825871187371 0 -0.46216052424035242 -0.0060285940335542444 0 -0.44041917647497519 -0.0043432332951584274 0 -0.45032307790450532 -0.018636825871187371 0 -0.43689592879446981 -0.019883833289050339 0 -0.44041917647497519 -0.0043432332951584274 0 -0.45032307790450532 -0.018636825871187371 0 -0.43689592879446981 -0.019883833289050339 0 -0.45032307790450532 -0.018636825871187371 0 -0.46394199778608353 -0.038292038869620432 0 -0.44462761117665939 -0.033892557985653007 0 -0.45032307790450532 -0.018636825871187371 0 -0.43327638017779979 -0.03070512182764594 0 -0.43689592879446981 -0.019883833289050339 0 -0.44462761117665939 -0.033892557985653007 0 -0.43689592879446981 -0.019883833289050339 0 -0.44462761117665939 -0.033892557985653007 0 -0.45032307790450532 -0.018636825871187371 0 -0.46394199778608353 -0.038292038869620432 0 -0.45032307790450532 -0.018636825871187371 0 -0.45032307790450532 -0.018636825871187371 0 -0.4751615389522521 -0.016330026049342489 0 -0.46394199778608353 -0.038292038869620432 0 -0.45032307790450532 -0.018636825871187371 0 -0.4751615389522521 -0.016330026049342489 0 -0.45032307790450532 -0.018636825871187371 0 -0.46216052424035242 -0.0060285940335542444 0 -0.4751615389522521 -0.016330026049342489 0 -0.46216052424035242 -0.0060285940335542444 0 -0.4751615389522521 -0.016330026049342489 0 -0.48669626372599462 -0.0056527127875072719 0 -0.47895875080328598 -0.030832023896619772 0 -0.4751615389522521 -0.016330026049342489 0 -0.49196733842731999 -0.02648826982232599 0 -0.46394199778608353 -0.038292038869620432 0 -0.47895875080328598 -0.030832023896619772 0 -0.4751615389522521 -0.016330026049342489 0 -0.5 -0.04162822616612516 0 -0.49196733842731999 -0.02648826982232599 0 -0.49999999999999911 -0.014023226227499609 0 -0.4751615389522521 -0.016330026049342489 0 -0.49196733842731999 -0.02648826982232599 0 -0.49999999999999911 -0.014023226227499609 0 -0.4751615389522521 -0.016330026049342489 0 -0.49999999999999911 -0.014023226227499609 0 -0.48669626372599462 -0.0056527127875072719 0 -0.49999999999999911 -0.014023226227499609 0 -0.5 0.0027178006524835601 0 -0.4751615389522521 -0.016330026049342489 0 -0.48669626372599462 -0.0056527127875072719 0 -0.49999999999999911 -0.014023226227499609 0 -0.48669626372599462 -0.0056527127875072719 0 -0.5 0.0027178006524835601 0 -0.47586229438229177 0.01298778167098695 0 -0.5 0.0027178006524835601 0 -0.49999999999999878 0.019458827532466749 0 -0.47586229438229177 0.01298778167098695 0 -0.49999999999999878 0.019458827532466749 0 -0.49335350825362201 0.025833979536494169 0 -0.47586229438229177 0.01298778167098695 0 -0.49999999999999878 0.019458827532466749 0 -0.47586229438229177 0.01298778167098695 0 -0.49999999999999878 0.019458827532466749 0 -0.49335350825362201 0.025833979536494169 0 -0.50000000000000011 0.031594224303313427 0 -0.49335350825362201 0.025833979536494169 0 -0.47714287243794962 0.024465615833396698 0 -0.470334394589974 0.035021088583738418 0 -0.49335350825362201 0.025833979536494169 0 -0.47714287243794962 0.024465615833396698 0 -0.47586229438229177 0.01298778167098695 0 -0.49335350825362201 0.025833979536494169 0 -0.470334394589974 0.035021088583738418 0 -0.47714287243794962 0.024465615833396698 0 -0.46902129252591029 0.02401961354236725 0 -0.470334394589974 0.035021088583738418 0 -0.47714287243794962 0.024465615833396698 0 -0.46902129252591029 0.02401961354236725 0 -0.47586229438229177 0.01298778167098695 0 -0.46216052424035242 -0.0060285940335542444 0 -0.48669626372599462 -0.0056527127875072719 0 -0.47586229438229177 0.01298778167098695 0 -0.48583124594111321 0.056390680247511461 0 -0.5 0.059867175520137927 0 -0.48522149516819929 0.070178289622843948 0 -0.48583124594111321 0.056390680247511461 0 -0.5 0.059867175520137927 0 -0.48825342014496192 0.046085739911510271 0 -0.48825342014496192 0.046085739911510271 0 -0.50000000000000011 0.031594224303313427 0 -0.47582314543028481 0.040400379356574832 0 -0.49335350825362201 0.025833979536494169 0 -0.50000000000000011 0.031594224303313427 0 -0.47582314543028481 0.040400379356574832 0 -0.50000000000000011 0.031594224303313427 0 -0.47582314543028481 0.040400379356574832 0 -0.5 0.059867175520137927 0 -0.48825342014496192 0.046085739911510271 0 -0.50000000000000011 0.031594224303313427 0 -0.49335350825362201 0.025833979536494169 0 -0.470334394589974 0.035021088583738418 0 -0.47582314543028481 0.040400379356574832 0 -0.48825342014496192 0.046085739911510271 0 -0.47582314543028481 0.040400379356574832 0 -0.47833374584292848 0.051158225736497968 0 -0.48583124594111321 0.056390680247511461 0 -0.48825342014496192 0.046085739911510271 0 -0.47833374584292848 0.051158225736497968 0 -0.47582314543028481 0.040400379356574832 0 -0.47833374584292848 0.051158225736497968 0 -0.46679796697330489 0.053219861505329709 0 -0.47568681914755429 0.061170850046976352 0 -0.46679796697330489 0.053219861505329709 0 -0.46472097474065682 0.064449309408600247 0 -0.47833374584292848 0.051158225736497968 0 -0.47568681914755429 0.061170850046976352 0 -0.46679796697330489 0.053219861505329709 0 -0.48583124594111321 0.056390680247511461 0 -0.47833374584292848 0.051158225736497968 0 -0.47568681914755429 0.061170850046976352 0 -0.47582314543028481 0.040400379356574832 0 -0.46679796697330489 0.053219861505329709 0 -0.4516462908605694 0.049206534409836238 0 -0.45727095153710801 0.058001928234082192 0 -0.44920146859541732 0.059905642320693647 0 -0.45496078588366329 0.065828856093716401 0 -0.45727095153710801 0.058001928234082192 0 -0.46679796697330489 0.053219861505329709 0 -0.46472097474065682 0.064449309408600247 0 -0.45727095153710801 0.058001928234082192 0 -0.46679796697330489 0.053219861505329709 0 -0.4516462908605694 0.049206534409836238 0 -0.470334394589974 0.035021088583738418 0 -0.44731528092632589 0.044208197630982687 0 -0.470334394589974 0.035021088583738418 0 -0.45233535208806958 0.035241995145794319 0 -0.46068913303499931 0.02767542396151236 0 -0.470334394589974 0.035021088583738418 0 -0.47582314543028481 0.040400379356574832 0 -0.4516462908605694 0.049206534409836238 0 -0.47582314543028481 0.040400379356574832 0 -0.4516462908605694 0.049206534409836238 0 -0.470334394589974 0.035021088583738418 0 -0.45233535208806958 0.035241995145794319 0 -0.44731528092632589 0.044208197630982687 0 -0.470334394589974 0.035021088583738418 0 -0.44731528092632589 0.044208197630982687 0 -0.4516462908605694 0.049206534409836238 0 -0.45233535208806958 0.035241995145794319 0 -0.44379299281853057 0.03789884914037106 0 -0.44233489477132332 0.031317023730248889 0 -0.44379299281853057 0.03789884914037106 0 -0.44233489477132332 0.031317023730248889 0 -0.43318644348840363 0.040828180054458339 0 -0.44379299281853057 0.03789884914037106 0 -0.44731528092632589 0.044208197630982687 0 -0.43318644348840363 0.040828180054458339 0 -0.45233535208806958 0.035241995145794319 0 -0.44379299281853057 0.03789884914037106 0 -0.44731528092632589 0.044208197630982687 0 -0.44731528092632589 0.044208197630982687 0 -0.4516462908605694 0.049206534409836238 0 -0.43925461250714859 0.056570098288527 0 -0.4516462908605694 0.049206534409836238 0 -0.43925461250714859 0.056570098288527 0 -0.44920146859541732 0.059905642320693647 0 -0.45727095153710801 0.058001928234082192 0 -0.4516462908605694 0.049206534409836238 0 -0.44920146859541732 0.059905642320693647 0 -0.46216052424035242 -0.0060285940335542444 0 -0.47586229438229177 0.01298778167098695 0 -0.45172458876458488 0.0065167358095068384 0 -0.47586229438229177 0.01298778167098695 0 -0.45172458876458488 0.0065167358095068384 0 -0.47586229438229177 0.01298778167098695 0 -0.45992470102394989 0.018924848770488559 0 -0.45172458876458488 0.0065167358095068384 0 -0.45992470102394989 0.018924848770488559 0 -0.45095037693457712 0.016895821899450419 0 -0.45172458876458488 0.0065167358095068384 0 -0.46902129252591029 0.02401961354236725 0 -0.47586229438229177 0.01298778167098695 0 -0.45992470102394989 0.018924848770488559 0 -0.46902129252591029 0.02401961354236725 0 -0.46068913303499931 0.02767542396151236 0 -0.45992470102394989 0.018924848770488559 0 -0.46902129252591029 0.02401961354236725 0 -0.470334394589974 0.035021088583738418 0 -0.46068913303499931 0.02767542396151236 0 -0.46068913303499931 0.02767542396151236 0 -0.45992470102394989 0.018924848770488559 0 -0.45130052050133579 0.025453715739107562 0 -0.45233535208806958 0.035241995145794319 0 -0.46068913303499931 0.02767542396151236 0 -0.45130052050133579 0.025453715739107562 0 -0.45992470102394989 0.018924848770488559 0 -0.45095037693457712 0.016895821899450419 0 -0.45130052050133579 0.025453715739107562 0 -0.45095037693457712 0.016895821899450419 0 -0.45130052050133579 0.025453715739107562 0 -0.44086952382279909 0.01789513377345579 0 -0.45233535208806958 0.035241995145794319 0 -0.44233489477132332 0.031317023730248889 0 -0.45130052050133579 0.025453715739107562 0 -0.44233489477132332 0.031317023730248889 0 -0.44086952382279909 0.01789513377345579 0 -0.43076431076181698 0.02863438365119398 0 -0.44233489477132332 0.031317023730248889 0 -0.45130052050133579 0.025453715739107562 0 -0.44086952382279909 0.01789513377345579 0 -0.45172458876458488 0.0065167358095068384 0 -0.42758688314687793 4.56899480267281e-05 0 -0.44086952382279909 0.01789513377345579 0 -0.45172458876458488 0.0065167358095068384 0 -0.42758688314687793 4.56899480267281e-05 0 -0.44041917647497519 -0.0043432332951584274 0 -0.45172458876458488 0.0065167358095068384 0 -0.42758688314687793 4.56899480267281e-05 0 -0.45095037693457712 0.016895821899450419 0 -0.44086952382279909 0.01789513377345579 0 -0.45172458876458488 0.0065167358095068384 0 -0.44086952382279909 0.01789513377345579 0 -0.42758688314687793 4.56899480267281e-05 0 -0.42657655564753028 0.01685703061728289 0 -0.42758688314687793 4.56899480267281e-05 0 -0.41394966053937998 0.01334563507059992 0 -0.42657655564753028 0.01685703061728289 0 -0.42070079770703339 0.022938425935902739 0 -0.43076431076181698 0.02863438365119398 0 -0.41151266387940638 0.032916654404534167 0 -0.41394966053937998 0.01334563507059992 0 -0.41151266387940638 0.032916654404534167 0 -0.39748275506619651 0.015039815998363969 0 -0.41394966053937998 0.01334563507059992 0 -0.42070079770703339 0.022938425935902739 0 -0.41151266387940638 0.032916654404534167 0 -0.41394966053937998 0.01334563507059992 0 -0.42070079770703339 0.022938425935902739 0 -0.42657655564753028 0.01685703061728289 0 -0.42070079770703339 0.022938425935902739 0 -0.42657655564753028 0.01685703061728289 0 -0.43076431076181698 0.02863438365119398 0 -0.44086952382279909 0.01789513377345579 0 -0.42657655564753028 0.01685703061728289 0 -0.43076431076181698 0.02863438365119398 0 -0.44233489477132332 0.031317023730248889 0 -0.43076431076181698 0.02863438365119398 0 -0.43318644348840363 0.040828180054458339 0 -0.44731528092632589 0.044208197630982687 0 -0.43318644348840363 0.040828180054458339 0 -0.42429616726267783 0.053395306678226992 0 -0.43318644348840363 0.040828180054458339 0 -0.42429616726267783 0.053395306678226992 0 -0.41151266387940638 0.032916654404534167 0 -0.43076431076181698 0.02863438365119398 0 -0.43318644348840363 0.040828180054458339 0 -0.41151266387940638 0.032916654404534167 0 -0.44731528092632589 0.044208197630982687 0 -0.42429616726267783 0.053395306678226992 0 -0.44731528092632589 0.044208197630982687 0 -0.43925461250714859 0.056570098288527 0 -0.42429616726267783 0.053395306678226992 0 -0.43925461250714859 0.056570098288527 0 -0.42429616726267783 0.053395306678226992 0 -0.42582460799112198 0.070239239832284889 0 -0.42429616726267783 0.053395306678226992 0 -0.40127705359902982 0.062582415725471269 0 -0.42582460799112198 0.070239239832284889 0 -0.42429616726267783 0.053395306678226992 0 -0.40127705359902982 0.062582415725471269 0 -0.42429616726267783 0.053395306678226992 0 -0.4018409069779183 0.046048813805502693 0 -0.40127705359902982 0.062582415725471269 0 -0.42429616726267783 0.053395306678226992 0 -0.41151266387940638 0.032916654404534167 0 -0.4018409069779183 0.046048813805502693 0 -0.41151266387940638 0.032916654404534167 0 -0.4018409069779183 0.046048813805502693 0 -0.39054012118148818 0.032374008391212863 0 -0.4018409069779183 0.046048813805502693 0 -0.38489237583583641 0.049497625960017222 0 -0.39054012118148818 0.032374008391212863 0 -0.4018409069779183 0.046048813805502693 0 -0.38489237583583641 0.049497625960017222 0 -0.40127705359902982 0.062582415725471269 0 -0.38489237583583641 0.049497625960017222 0 -0.40127705359902982 0.062582415725471269 0 -0.37176915550388961 0.065851539153164648 0 -0.38489237583583641 0.049497625960017222 0 -0.39054012118148818 0.032374008391212863 0 -0.3662224365601211 0.038933641042989769 0 -0.39054012118148818 0.032374008391212863 0 -0.37926064652510572 0.01652591772007846 0 -0.3662224365601211 0.038933641042989769 0 -0.39054012118148818 0.032374008391212863 0 -0.37926064652510572 0.01652591772007846 0 -0.39748275506619651 0.015039815998363969 0 -0.38645945484234001 -0.00036052547126835843 0 -0.37926064652510572 0.01652591772007846 0 -0.39748275506619651 0.015039815998363969 0 -0.38645945484234001 -0.00036052547126835843 0 -0.37926064652510572 0.01652591772007846 0 -0.37366197689732522 0.0012785186665680559 0 -0.40017062158542782 -0.0038387895413610901 0 -0.38645945484234001 -0.00036052547126835843 0 -0.39748275506619651 0.015039815998363969 0 -0.40017062158542782 -0.0038387895413610901 0 -0.41394966053937998 0.01334563507059992 0 -0.39748275506619651 0.015039815998363969 0 -0.41151266387940638 0.032916654404534167 0 -0.39054012118148818 0.032374008391212863 0 -0.39748275506619651 0.015039815998363969 0 -0.40275744390744872 0.1116483604253698 0 -0.37731587444765807 0.092769437263339513 0 -0.39439846614658358 0.081725679688912367 0 -0.40275744390744872 0.1116483604253698 0 -0.39122425105351022 0.1373188571645948 0 -0.40275744390744872 0.1116483604253698 0 -0.38286259339142659 0.11968733537351441 0 -0.39122425105351022 0.1373188571645948 0 -0.38286259339142659 0.11968733537351441 0 -0.37731587444765807 0.092769437263339513 0 -0.38286259339142659 0.11968733537351441 0 -0.37731587444765807 0.092769437263339513 0 -0.37097467658251793 0.1081065377119126 0 -0.40275744390744872 0.1116483604253698 0 -0.38286259339142659 0.11968733537351441 0 -0.37731587444765807 0.092769437263339513 0 -0.37731587444765807 0.092769437263339513 0 -0.39439846614658358 0.081725679688912367 0 -0.37176915550388961 0.065851539153164648 0 -0.40127705359902982 0.062582415725471269 0 -0.39439846614658358 0.081725679688912367 0 -0.37176915550388961 0.065851539153164648 0 -0.40127705359902982 0.062582415725471269 0 -0.39439846614658358 0.081725679688912367 0 -0.4142906367613905 0.085977863686146405 0 -0.40275744390744872 0.1116483604253698 0 -0.39439846614658358 0.081725679688912367 0 -0.4142906367613905 0.085977863686146405 0 -0.40127705359902982 0.062582415725471269 0 -0.4142906367613905 0.085977863686146405 0 -0.42582460799112198 0.070239239832284889 0 -0.43925461250714859 0.056570098288527 0 -0.42582460799112198 0.070239239832284889 0 -0.44489225960736112 0.073047030701347035 0 -0.42582460799112198 0.070239239832284889 0 -0.43276098222738563 0.089167748934400964 0 -0.44489225960736112 0.073047030701347035 0 -0.4142906367613905 0.085977863686146405 0 -0.42582460799112198 0.070239239832284889 0 -0.43276098222738563 0.089167748934400964 0 -0.43276098222738563 0.089167748934400964 0 -0.42391392953219992 0.1089031497241422 0 -0.44355337654175708 0.1059561411134856 0 -0.4142906367613905 0.085977863686146405 0 -0.43276098222738563 0.089167748934400964 0 -0.42391392953219992 0.1089031497241422 0 -0.40275744390744872 0.1116483604253698 0 -0.4142906367613905 0.085977863686146405 0 -0.42391392953219992 0.1089031497241422 0 -0.40275744390744872 0.1116483604253698 0 -0.4142906367613905 0.085977863686146405 0 -0.40275744390744872 0.1116483604253698 0 -0.42391392953219992 0.1089031497241422 0 -0.41438981760899651 0.13243088879015261 0 -0.42391392953219992 0.1089031497241422 0 -0.44355337654175708 0.1059561411134856 0 -0.43755538416448242 0.12754292041570811 0 -0.42391392953219992 0.1089031497241422 0 -0.43755538416448242 0.12754292041570811 0 -0.41438981760899651 0.13243088879015261 0 -0.44355337654175708 0.1059561411134856 0 -0.46072095071996821 0.1226549520412637 0 -0.43755538416448242 0.12754292041570811 0 -0.44355337654175708 0.1059561411134856 0 -0.46184392140754482 0.098887738065263964 0 -0.4484688365743103 0.089215128597984417 0 -0.43276098222738563 0.089167748934400964 0 -0.44355337654175708 0.1059561411134856 0 -0.4484688365743103 0.089215128597984417 0 -0.44355337654175708 0.1059561411134856 0 -0.46184392140754482 0.098887738065263964 0 -0.46072095071996821 0.1226549520412637 0 -0.46184392140754482 0.098887738065263964 0 -0.46072095071996821 0.1226549520412637 0 -0.48088808220538848 0.1067984642347222 0 -0.43925461250714859 0.056570098288527 0 -0.44920146859541732 0.059905642320693647 0 -0.44489225960736112 0.073047030701347035 0 -0.44920146859541732 0.059905642320693647 0 -0.44489225960736112 0.073047030701347035 0 -0.45496078588366329 0.065828856093716401 0 -0.44489225960736112 0.073047030701347035 0 -0.4484688365743103 0.089215128597984417 0 -0.46111770710576411 0.078322009195834819 0 -0.43276098222738563 0.089167748934400964 0 -0.44489225960736112 0.073047030701347035 0 -0.4484688365743103 0.089215128597984417 0 -0.46184392140754482 0.098887738065263964 0 -0.4484688365743103 0.089215128597984417 0 -0.46111770710576411 0.078322009195834819 0 -0.46184392140754482 0.098887738065263964 0 -0.46111770710576411 0.078322009195834819 0 -0.47731928812398239 0.08534855380981346 0 -0.44489225960736112 0.073047030701347035 0 -0.46111770710576411 0.078322009195834819 0 -0.45496078588366329 0.065828856093716401 0 -0.46111770710576411 0.078322009195834819 0 -0.46472097474065682 0.064449309408600247 0 -0.47321548621912268 0.071628733761074856 0 -0.45727095153710801 0.058001928234082192 0 -0.46472097474065682 0.064449309408600247 0 -0.45496078588366329 0.065828856093716401 0 -0.46111770710576411 0.078322009195834819 0 -0.46472097474065682 0.064449309408600247 0 -0.45496078588366329 0.065828856093716401 0 -0.47568681914755429 0.061170850046976352 0 -0.47321548621912268 0.071628733761074856 0 -0.48522149516819929 0.070178289622843948 0 -0.48583124594111321 0.056390680247511461 0 -0.47568681914755429 0.061170850046976352 0 -0.48522149516819929 0.070178289622843948 0 -0.47568681914755429 0.061170850046976352 0 -0.46472097474065682 0.064449309408600247 0 -0.47321548621912268 0.071628733761074856 0 -0.47321548621912268 0.071628733761074856 0 -0.47731928812398239 0.08534855380981346 0 -0.48522149516819929 0.070178289622843948 0 -0.46111770710576411 0.078322009195834819 0 -0.47321548621912268 0.071628733761074856 0 -0.47731928812398239 0.08534855380981346 0 -0.47731928812398239 0.08534855380981346 0 -0.5 0.088140126736962421 0 -0.48088808220538848 0.1067984642347222 0 -0.47731928812398239 0.08534855380981346 0 -0.5 0.088140126736962421 0 -0.48522149516819929 0.070178289622843948 0 -0.5 0.059867175520137927 0 -0.5 0.088140126736962421 0 -0.48522149516819929 0.070178289622843948 0 -0.46072095071996821 0.1226549520412637 0 -0.48088808220538848 0.1067984642347222 0 -0.48266524291566609 0.12699176784260061 0 -0.46184392140754482 0.098887738065263964 0 -0.47731928812398239 0.08534855380981346 0 -0.48088808220538848 0.1067984642347222 0 -0.5 0.088140126736962421 0 -0.48088808220538848 0.1067984642347222 0 -0.5 0.1164130779537869 0 -0.48088808220538848 0.1067984642347222 0 -0.5 0.1164130779537869 0 -0.48266524291566609 0.12699176784260061 0 -0.5 0.1164130779537869 0 -0.48266524291566609 0.12699176784260061 0 -0.5 0.14468602917061141 0 -0.48266524291566609 0.12699176784260061 0 -0.47171718165297349 0.14440631581261859 0 -0.5 0.14468602917061141 0 -0.46072095071996821 0.1226549520412637 0 -0.48266524291566609 0.12699176784260061 0 -0.47171718165297349 0.14440631581261859 0 -0.47171718165297349 0.14440631581261859 0 -0.5 0.14468602917061141 0 -0.48023801018512741 0.162023290650782 0 -0.5 0.14468602917061141 0 -0.5 0.1729589803874359 0 -0.48023801018512741 0.162023290650782 0 -0.5 0.1729589803874359 0 -0.47486936376975869 0.18470416249327071 0 -0.48023801018512741 0.162023290650782 0 -0.5 0.1729589803874359 0 -0.47486936376975869 0.18470416249327071 0 -0.5 0.20123193160426039 0 -0.47171718165297349 0.14440631581261859 0 -0.48023801018512741 0.162023290650782 0 -0.45460350550290418 0.16336096538997341 0 -0.47486936376975869 0.18470416249327071 0 -0.48023801018512741 0.162023290650782 0 -0.45460350550290418 0.16336096538997341 0 -0.47486936376975869 0.18470416249327071 0 -0.45460350550290418 0.16336096538997341 0 -0.44952133052619042 0.18482508000849121 0 -0.44952133052619042 0.18482508000849121 0 -0.43346181589913491 0.1698577775831647 0 -0.43512096405529221 0.18328417901960251 0 -0.45460350550290418 0.16336096538997341 0 -0.44952133052619042 0.18482508000849121 0 -0.43346181589913491 0.1698577775831647 0 -0.45460350550290418 0.16336096538997341 0 -0.4379863464193619 0.14930397122740319 0 -0.43346181589913491 0.1698577775831647 0 -0.45460350550290418 0.16336096538997341 0 -0.4379863464193619 0.14930397122740319 0 -0.45327795382604591 0.1413101543981955 0 -0.4379863464193619 0.14930397122740319 0 -0.43755538416448242 0.12754292041570811 0 -0.45327795382604591 0.1413101543981955 0 -0.46072095071996821 0.1226549520412637 0 -0.43755538416448242 0.12754292041570811 0 -0.45327795382604591 0.1413101543981955 0 -0.46072095071996821 0.1226549520412637 0 -0.43755538416448242 0.12754292041570811 0 -0.46072095071996821 0.1226549520412637 0 -0.47171718165297349 0.14440631581261859 0 -0.45327795382604591 0.1413101543981955 0 -0.47171718165297349 0.14440631581261859 0 -0.45460350550290418 0.16336096538997341 0 -0.45327795382604591 0.1413101543981955 0 -0.47780820849333222 0.2476596539210795 0 -0.48487480126248261 0.2313470519091235 0 -0.48940802967484542 0.25683179901188219 0 -0.47780820849333222 0.2476596539210795 0 -0.48487480126248261 0.2313470519091235 0 -0.46835004341743192 0.2372156751629641 0 -0.47780820849333222 0.2476596539210795 0 -0.46835004341743192 0.2372156751629641 0 -0.46870141352786698 0.25225739816318449 0 -0.48487480126248261 0.2313470519091235 0 -0.48940802967484542 0.25683179901188219 0 -0.49357070773433198 0.24386539194500001 0 -0.5 0.2295048828210848 0 -0.5 0.25777783403790933 0 -0.49357070773433198 0.24386539194500001 0 -0.48487480126248261 0.2313470519091235 0 -0.48940802967484542 0.25683179901188219 0 -0.49357070773433198 0.24386539194500001 0 -0.48487480126248261 0.2313470519091235 0 -0.5 0.2295048828210848 0 -0.48487480126248261 0.2313470519091235 0 -0.48082977148638811 0.21007958846523689 0 -0.49142614318721772 0.2180408636999264 0 -0.48487480126248261 0.2313470519091235 0 -0.5 0.2295048828210848 0 -0.49142614318721772 0.2180408636999264 0 -0.48487480126248261 0.2313470519091235 0 -0.48082977148638811 0.21007958846523689 0 -0.46402823545227651 0.22280391372717259 0 -0.48487480126248261 0.2313470519091235 0 -0.46402823545227651 0.22280391372717259 0 -0.46835004341743192 0.2372156751629641 0 -0.48082977148638811 0.21007958846523689 0 -0.46800360302854221 0.19990756922669811 0 -0.46402823545227651 0.22280391372717259 0 -0.5 0.2295048828210848 0 -0.49142614318721772 0.2180408636999264 0 -0.5 0.20123193160426039 0 -0.48082977148638811 0.21007958846523689 0 -0.49142614318721772 0.2180408636999264 0 -0.5 0.20123193160426039 0 -0.47486936376975869 0.18470416249327071 0 -0.48082977148638811 0.21007958846523689 0 -0.5 0.20123193160426039 0 -0.47486936376975869 0.18470416249327071 0 -0.48082977148638811 0.21007958846523689 0 -0.46800360302854221 0.19990756922669811 0 -0.44952133052619042 0.18482508000849121 0 -0.45327440651981532 0.2030069523601721 0 -0.46800360302854221 0.19990756922669811 0 -0.47486936376975869 0.18470416249327071 0 -0.44952133052619042 0.18482508000849121 0 -0.46800360302854221 0.19990756922669811 0 -0.45327440651981532 0.2030069523601721 0 -0.43365447137393243 0.20989867380471591 0 -0.4309997687098982 0.19524253367565411 0 -0.44952133052619042 0.18482508000849121 0 -0.4309997687098982 0.19524253367565411 0 -0.43512096405529221 0.18328417901960251 0 -0.44952133052619042 0.18482508000849121 0 -0.45327440651981532 0.2030069523601721 0 -0.4309997687098982 0.19524253367565411 0 -0.45327440651981532 0.2030069523601721 0 -0.43365447137393243 0.20989867380471591 0 -0.45327440651981532 0.2030069523601721 0 -0.44727834720325149 0.22050250384662909 0 -0.43365447137393243 0.20989867380471591 0 -0.44727834720325149 0.22050250384662909 0 -0.43583826191610792 0.22334371426178121 0 -0.43365447137393243 0.20989867380471591 0 -0.45327440651981532 0.2030069523601721 0 -0.46800360302854221 0.19990756922669811 0 -0.46402823545227651 0.22280391372717259 0 -0.45327440651981532 0.2030069523601721 0 -0.46402823545227651 0.22280391372717259 0 -0.44727834720325149 0.22050250384662909 0 -0.46402823545227651 0.22280391372717259 0 -0.45497574697179249 0.23370150267382031 0 -0.44727834720325149 0.22050250384662909 0 -0.46402823545227651 0.22280391372717259 0 -0.45497574697179249 0.23370150267382031 0 -0.46835004341743192 0.2372156751629641 0 -0.44727834720325149 0.22050250384662909 0 -0.44170171220486443 0.23344953649279079 0 -0.43583826191610792 0.22334371426178121 0 -0.45497574697179249 0.23370150267382031 0 -0.44727834720325149 0.22050250384662909 0 -0.44170171220486443 0.23344953649279079 0 -0.45497574697179249 0.23370150267382031 0 -0.44170171220486443 0.23344953649279079 0 -0.44879287157715531 0.2436899004703923 0 -0.44170171220486443 0.23344953649279079 0 -0.44879287157715531 0.2436899004703923 0 -0.43460594810953662 0.24974433279273681 0 -0.44879287157715531 0.2436899004703923 0 -0.45970327197577582 0.24454748634297321 0 -0.45235884440879393 0.25756667450669463 0 -0.45497574697179249 0.23370150267382031 0 -0.44879287157715531 0.2436899004703923 0 -0.45970327197577582 0.24454748634297321 0 -0.45497574697179249 0.23370150267382031 0 -0.45970327197577582 0.24454748634297321 0 -0.46835004341743192 0.2372156751629641 0 -0.45970327197577582 0.24454748634297321 0 -0.46835004341743192 0.2372156751629641 0 -0.46870141352786698 0.25225739816318449 0 -0.42013516911364568 0.24317325278082849 0 -0.40543934551940192 0.241352405506014 0 -0.41657077913843088 0.25896014262095007 0 -0.41563678348970862 0.23329600692044641 0 -0.40730315504553632 0.2288654633767748 0 -0.40543934551940192 0.241352405506014 0 -0.42013516911364568 0.24317325278082849 0 -0.41563678348970862 0.23329600692044641 0 -0.40543934551940192 0.241352405506014 0 -0.42013516911364568 0.24317325278082849 0 -0.42842298931114992 0.23251337606399561 0 -0.41563678348970862 0.23329600692044641 0 -0.42013516911364568 0.24317325278082849 0 -0.43460594810953662 0.24974433279273681 0 -0.42842298931114992 0.23251337606399561 0 -0.44170171220486443 0.23344953649279079 0 -0.43460594810953662 0.24974433279273681 0 -0.42842298931114992 0.23251337606399561 0 -0.44170171220486443 0.23344953649279079 0 -0.42842298931114992 0.23251337606399561 0 -0.43583826191610792 0.22334371426178121 0 -0.42842298931114992 0.23251337606399561 0 -0.43583826191610792 0.22334371426178121 0 -0.42606696792669602 0.22148612025875311 0 -0.42842298931114992 0.23251337606399561 0 -0.42606696792669602 0.22148612025875311 0 -0.41838458080424029 0.22488444191401291 0 -0.42606696792669602 0.22148612025875311 0 -0.41838458080424029 0.22488444191401291 0 -0.41403453622804948 0.2167903952492598 0 -0.42842298931114992 0.23251337606399561 0 -0.41838458080424029 0.22488444191401291 0 -0.41563678348970862 0.23329600692044641 0 -0.41838458080424029 0.22488444191401291 0 -0.41563678348970862 0.23329600692044641 0 -0.40730315504553632 0.2288654633767748 0 -0.41838458080424029 0.22488444191401291 0 -0.40730315504553632 0.2288654633767748 0 -0.41403453622804948 0.2167903952492598 0 -0.41403453622804948 0.2167903952492598 0 -0.41270718489603248 0.20946232518472899 0 -0.39441460108216669 0.22368211669380381 0 -0.41403453622804948 0.2167903952492598 0 -0.41270718489603248 0.20946232518472899 0 -0.43365447137393243 0.20989867380471591 0 -0.41270718489603248 0.20946232518472899 0 -0.41795421757920809 0.19733635545209879 0 -0.40802904898143222 0.20287107516534081 0 -0.41270718489603248 0.20946232518472899 0 -0.40802904898143222 0.20287107516534081 0 -0.40245444479586129 0.2104604456864477 0 -0.42606696792669602 0.22148612025875311 0 -0.41403453622804948 0.2167903952492598 0 -0.43365447137393243 0.20989867380471591 0 -0.41270718489603248 0.20946232518472899 0 -0.43365447137393243 0.20989867380471591 0 -0.4309997687098982 0.19524253367565411 0 -0.41403453622804948 0.2167903952492598 0 -0.43365447137393243 0.20989867380471591 0 -0.43583826191610792 0.22334371426178121 0 -0.42606696792669602 0.22148612025875311 0 -0.43365447137393243 0.20989867380471591 0 -0.4309997687098982 0.19524253367565411 0 -0.41795421757920809 0.19733635545209879 0 -0.42248691737426308 0.1838902826546194 0 -0.41270718489603248 0.20946232518472899 0 -0.4309997687098982 0.19524253367565411 0 -0.41795421757920809 0.19733635545209879 0 -0.41270718489603248 0.20946232518472899 0 -0.4309997687098982 0.19524253367565411 0 -0.41795421757920809 0.19733635545209879 0 -0.42248691737426308 0.1838902826546194 0 -0.4083382565205414 0.1849662181329777 0 -0.41795421757920809 0.19733635545209879 0 -0.40802904898143222 0.20287107516534081 0 -0.40535774415088183 0.19500427816700039 0 -0.41795421757920809 0.19733635545209879 0 -0.40535774415088183 0.19500427816700039 0 -0.4083382565205414 0.1849662181329777 0 -0.40535774415088183 0.19500427816700039 0 -0.4083382565205414 0.1849662181329777 0 -0.39609842209065571 0.18728472887554579 0 -0.40535774415088183 0.19500427816700039 0 -0.39551076791893303 0.1961402770286689 0 -0.39609842209065571 0.18728472887554579 0 -0.40802904898143222 0.20287107516534081 0 -0.40535774415088183 0.19500427816700039 0 -0.40167165348517769 0.20209197133642839 0 -0.40535774415088183 0.19500427816700039 0 -0.40167165348517769 0.20209197133642839 0 -0.39551076791893303 0.1961402770286689 0 -0.40167165348517769 0.20209197133642839 0 -0.39551076791893303 0.1961402770286689 0 -0.39562089660319227 0.20386646508179071 0 -0.39551076791893303 0.1961402770286689 0 -0.3904666591851409 0.20083003642185601 0 -0.39562089660319227 0.20386646508179071 0 -0.39551076791893303 0.1961402770286689 0 -0.38438584399965642 0.1917063019804077 0 -0.39609842209065571 0.18728472887554579 0 -0.38438584399965642 0.1917063019804077 0 -0.37588725132354017 0.1984015034115085 0 -0.37267174480218279 0.17861289059144789 0 -0.38438584399965642 0.1917063019804077 0 -0.3822986352802783 0.2101887212124248 0 -0.38438584399965642 0.1917063019804077 0 -0.38453906575494612 0.20382646430557869 0 -0.3822986352802783 0.2101887212124248 0 -0.38438584399965642 0.1917063019804077 0 -0.37588725132354017 0.1984015034115085 0 -0.3822986352802783 0.2101887212124248 0 -0.38438584399965642 0.1917063019804077 0 -0.3904666591851409 0.20083003642185601 0 -0.38453906575494612 0.20382646430557869 0 -0.39551076791893303 0.1961402770286689 0 -0.38438584399965642 0.1917063019804077 0 -0.3904666591851409 0.20083003642185601 0 -0.38453906575494612 0.20382646430557869 0 -0.3822986352802783 0.2101887212124248 0 -0.38432938992711879 0.22722465979974341 0 -0.38453906575494612 0.20382646430557869 0 -0.3898714345615828 0.21574006985181729 0 -0.38432938992711879 0.22722465979974341 0 -0.38453906575494612 0.20382646430557869 0 -0.38432938992711879 0.22722465979974341 0 -0.3904666591851409 0.20083003642185601 0 -0.38453906575494612 0.20382646430557869 0 -0.39227584861598358 0.2084094806842392 0 -0.38453906575494612 0.20382646430557869 0 -0.3898714345615828 0.21574006985181729 0 -0.39227584861598358 0.2084094806842392 0 -0.37588725132354017 0.1984015034115085 0 -0.3822986352802783 0.2101887212124248 0 -0.37153448519325188 0.20824986172565749 0 -0.3822986352802783 0.2101887212124248 0 -0.3766316438375385 0.22279434508109699 0 -0.37192451594695802 0.2181715687608827 0 -0.3822986352802783 0.2101887212124248 0 -0.37192451594695802 0.2181715687608827 0 -0.37153448519325188 0.20824986172565749 0 -0.41270718489603248 0.20946232518472899 0 -0.39441460108216669 0.22368211669380381 0 -0.39543669576271062 0.2134588244607582 0 -0.40245444479586129 0.2104604456864477 0 -0.39441460108216669 0.22368211669380381 0 -0.3898714345615828 0.21574006985181729 0 -0.39543669576271062 0.2134588244607582 0 -0.39441460108216669 0.22368211669380381 0 -0.41270718489603248 0.20946232518472899 0 -0.40245444479586129 0.2104604456864477 0 -0.39441460108216669 0.22368211669380381 0 -0.3898714345615828 0.21574006985181729 0 -0.39543669576271062 0.2134588244607582 0 -0.39227584861598358 0.2084094806842392 0 -0.3904666591851409 0.20083003642185601 0 -0.39227584861598358 0.2084094806842392 0 -0.39562089660319227 0.20386646508179071 0 -0.39227584861598358 0.2084094806842392 0 -0.39562089660319227 0.20386646508179071 0 -0.39816714975795842 0.2090020093874834 0 -0.39543669576271062 0.2134588244607582 0 -0.39227584861598358 0.2084094806842392 0 -0.39816714975795842 0.2090020093874834 0 -0.40802904898143222 0.20287107516534081 0 -0.40167165348517769 0.20209197133642839 0 -0.40245444479586129 0.2104604456864477 0 -0.40167165348517769 0.20209197133642839 0 -0.39816714975795842 0.2090020093874834 0 -0.40245444479586129 0.2104604456864477 0 -0.40167165348517769 0.20209197133642839 0 -0.39562089660319227 0.20386646508179071 0 -0.39816714975795842 0.2090020093874834 0 -0.39543669576271062 0.2134588244607582 0 -0.39816714975795842 0.2090020093874834 0 -0.40245444479586129 0.2104604456864477 0 -0.41403453622804948 0.2167903952492598 0 -0.39441460108216669 0.22368211669380381 0 -0.40730315504553632 0.2288654633767748 0 -0.41403453622804948 0.2167903952492598 0 -0.39441460108216669 0.22368211669380381 0 -0.40730315504553632 0.2288654633767748 0 -0.39590908314965079 0.23318741397711221 0 -0.39441460108216669 0.22368211669380381 0 -0.39590908314965079 0.23318741397711221 0 -0.39441460108216669 0.22368211669380381 0 -0.3842906115261131 0.23155202846744821 0 -0.3822986352802783 0.2101887212124248 0 -0.3766316438375385 0.22279434508109699 0 -0.38021142656090129 0.22867114044444189 0 -0.39441460108216669 0.22368211669380381 0 -0.38432938992711879 0.22722465979974341 0 -0.3822986352802783 0.2101887212124248 0 -0.38021142656090129 0.22867114044444189 0 -0.38432938992711879 0.22722465979974341 0 -0.3898714345615828 0.21574006985181729 0 -0.39441460108216669 0.22368211669380381 0 -0.38432938992711879 0.22722465979974341 0 -0.3822986352802783 0.2101887212124248 0 -0.38021142656090129 0.22867114044444189 0 -0.37688178331332778 0.2298407148391263 0 -0.38021142656090129 0.22867114044444189 0 -0.37946222484109549 0.2353053884457206 0 -0.37688178331332778 0.2298407148391263 0 -0.37946222484109549 0.2353053884457206 0 -0.37388399796313398 0.23248221773580621 0 -0.3766316438375385 0.22279434508109699 0 -0.37688178331332778 0.2298407148391263 0 -0.38021142656090129 0.22867114044444189 0 -0.3766316438375385 0.22279434508109699 0 -0.37688178331332778 0.2298407148391263 0 -0.37184185808622688 0.22709958014860859 0 -0.37688178331332778 0.2298407148391263 0 -0.38021142656090129 0.22867114044444189 0 -0.38021142656090129 0.22867114044444189 0 -0.38432938992711879 0.22722465979974341 0 -0.3842906115261131 0.23155202846744821 0 -0.37946222484109549 0.2353053884457206 0 -0.38021142656090129 0.22867114044444189 0 -0.37946222484109549 0.2353053884457206 0 -0.38021142656090129 0.22867114044444189 0 -0.3842906115261131 0.23155202846744821 0 -0.37946222484109549 0.2353053884457206 0 -0.39441460108216669 0.22368211669380381 0 -0.3842906115261131 0.23155202846744821 0 -0.38432938992711879 0.22722465979974341 0 -0.39441460108216669 0.22368211669380381 0 -0.3842906115261131 0.23155202846744821 0 -0.3842906115261131 0.23155202846744821 0 -0.38432938992711879 0.22722465979974341 0 -0.38021142656090129 0.22867114044444189 0 -0.3842906115261131 0.23155202846744821 0 -0.38432938992711879 0.22722465979974341 0 -0.3842906115261131 0.23155202846744821 0 -0.38408779085763528 0.25418524136794413 0 -0.37946222484109549 0.2353053884457206 0 -0.37666257165648181 0.26009656691381922 0 -0.37946222484109549 0.2353053884457206 0 -0.37666257165648181 0.26009656691381922 0 -0.38408779085763528 0.25418524136794413 0 -0.3842906115261131 0.23155202846744821 0 -0.39264970803872012 0.24268135933926779 0 -0.38408779085763528 0.25418524136794413 0 -0.3842906115261131 0.23155202846744821 0 -0.37946222484109549 0.2353053884457206 0 -0.38408779085763528 0.25418524136794413 0 -0.39264970803872012 0.24268135933926779 0 -0.38408779085763528 0.25418524136794413 0 -0.39671598301771022 0.2523864843573409 0 -0.39264970803872012 0.24268135933926779 0 -0.40543934551940192 0.241352405506014 0 -0.39671598301771022 0.2523864843573409 0 -0.39590908314965079 0.23318741397711221 0 -0.3842906115261131 0.23155202846744821 0 -0.39264970803872012 0.24268135933926779 0 -0.39590908314965079 0.23318741397711221 0 -0.39264970803872012 0.24268135933926779 0 -0.40543934551940192 0.241352405506014 0 -0.40730315504553632 0.2288654633767748 0 -0.39590908314965079 0.23318741397711221 0 -0.40543934551940192 0.241352405506014 0 -0.41805990260346149 0.15489701610970741 0 -0.41438981760899651 0.13243088879015261 0 -0.40493527321414952 0.14496124336910751 0 -0.41805990260346149 0.15489701610970741 0 -0.40310567533245489 0.16065717237407789 0 -0.40493527321414952 0.14496124336910751 0 -0.43755538416448242 0.12754292041570811 0 -0.41438981760899651 0.13243088879015261 0 -0.4379863464193619 0.14930397122740319 0 -0.43755538416448242 0.12754292041570811 0 -0.41438981760899651 0.13243088879015261 0 -0.4379863464193619 0.14930397122740319 0 -0.41805990260346149 0.15489701610970741 0 -0.41438981760899651 0.13243088879015261 0 -0.4379863464193619 0.14930397122740319 0 -0.41805990260346149 0.15489701610970741 0 -0.43346181589913491 0.1698577775831647 0 -0.43346181589913491 0.1698577775831647 0 -0.42248691737426308 0.1838902826546194 0 -0.41297141764976208 0.17140652932639791 0 -0.43346181589913491 0.1698577775831647 0 -0.43512096405529221 0.18328417901960251 0 -0.42248691737426308 0.1838902826546194 0 -0.4309997687098982 0.19524253367565411 0 -0.43512096405529221 0.18328417901960251 0 -0.42248691737426308 0.1838902826546194 0 -0.42248691737426308 0.1838902826546194 0 -0.4083382565205414 0.1849662181329777 0 -0.41297141764976208 0.17140652932639791 0 -0.41805990260346149 0.15489701610970741 0 -0.41297141764976208 0.17140652932639791 0 -0.40310567533245489 0.16065717237407789 0 -0.41805990260346149 0.15489701610970741 0 -0.43346181589913491 0.1698577775831647 0 -0.41297141764976208 0.17140652932639791 0 -0.40310567533245489 0.16065717237407789 0 -0.39237593816871702 0.17417070910384061 0 -0.38194799792784478 0.15796587387802061 0 -0.41297141764976208 0.17140652932639791 0 -0.40310567533245489 0.16065717237407789 0 -0.39237593816871702 0.17417070910384061 0 -0.38438584399965642 0.1917063019804077 0 -0.39237593816871702 0.17417070910384061 0 -0.39609842209065571 0.18728472887554579 0 -0.4083382565205414 0.1849662181329777 0 -0.39237593816871702 0.17417070910384061 0 -0.39609842209065571 0.18728472887554579 0 -0.4083382565205414 0.1849662181329777 0 -0.41297141764976208 0.17140652932639791 0 -0.39237593816871702 0.17417070910384061 0 -0.38438584399965642 0.1917063019804077 0 -0.39237593816871702 0.17417070910384061 0 -0.37267174480218279 0.17861289059144789 0 -0.39237593816871702 0.17417070910384061 0 -0.38194799792784478 0.15796587387802061 0 -0.37267174480218279 0.17861289059144789 0 -0.38194799792784478 0.15796587387802061 0 -0.37267174480218279 0.17861289059144789 0 -0.38194799792784478 0.15796587387802061 0 -0.39122425105351022 0.1373188571645948 0 -0.36763089935756199 0.14229708882842099 0 -0.38194799792784478 0.15796587387802061 0 -0.39122425105351022 0.1373188571645948 0 -0.38194799792784478 0.15796587387802061 0 -0.40493527321414952 0.14496124336910751 0 -0.39122425105351022 0.1373188571645948 0 -0.40310567533245489 0.16065717237407789 0 -0.38194799792784478 0.15796587387802061 0 -0.40493527321414952 0.14496124336910751 0 -0.41438981760899651 0.13243088879015261 0 -0.39122425105351022 0.1373188571645948 0 -0.40275744390744872 0.1116483604253698 0 -0.41438981760899651 0.13243088879015261 0 -0.39122425105351022 0.1373188571645948 0 -0.41438981760899651 0.13243088879015261 0 -0.40493527321414952 0.14496124336910751 0 -0.39122425105351022 0.1373188571645948 0 -0.38286259339142659 0.11968733537351441 0 -0.39122425105351022 0.1373188571645948 0 -0.36763089935756199 0.14229708882842099 0 -0.39122425105351022 0.1373188571645948 0 -0.36763089935756199 0.14229708882842099 0 -0.34965350418355268 0.1288197459260963 0 -0.36763089935756199 0.14229708882842099 0 -0.3637907421767661 0.1210109853243788 0 -0.38286259339142659 0.11968733537351441 0 -0.36763089935756199 0.14229708882842099 0 -0.3637907421767661 0.1210109853243788 0 -0.34965350418355268 0.1288197459260963 0 -0.34403754766161332 0.14727532049224501 0 -0.36763089935756199 0.14229708882842099 0 -0.34403754766161332 0.14727532049224501 0 -0.36763089935756199 0.14229708882842099 0 -0.34403754766161332 0.14727532049224501 0 -0.36763089935756199 0.14229708882842099 0 -0.36070006922817532 0.16420898490388619 0 -0.38194799792784478 0.15796587387802061 0 -0.36763089935756199 0.14229708882842099 0 -0.36070006922817532 0.16420898490388619 0 -0.38194799792784478 0.15796587387802061 0 -0.36070006922817532 0.16420898490388619 0 -0.37267174480218279 0.17861289059144789 0 -0.37267174480218279 0.17861289059144789 0 -0.35703139012659901 0.18386296967240401 0 -0.3633954916765208 0.19925990730487531 0 -0.36070006922817532 0.16420898490388619 0 -0.37267174480218279 0.17861289059144789 0 -0.35703139012659901 0.18386296967240401 0 -0.36070006922817532 0.16420898490388619 0 -0.35703139012659901 0.18386296967240401 0 -0.34210006040847379 0.17565716828672129 0 -0.35703139012659901 0.18386296967240401 0 -0.34210006040847379 0.17565716828672129 0 -0.34628958451764208 0.20157589727508951 0 -0.34403754766161332 0.14727532049224501 0 -0.36070006922817532 0.16420898490388619 0 -0.34210006040847379 0.17565716828672129 0 -0.34403754766161332 0.14727532049224501 0 -0.33029605564532211 0.16359732737813301 0 -0.34210006040847379 0.17565716828672129 0 -0.33029605564532211 0.16359732737813301 0 -0.34210006040847379 0.17565716828672129 0 -0.32116052366806608 0.19303933367800441 0 -0.31532842932913357 0.16490520271443751 0 -0.32116052366806608 0.19303933367800441 0 -0.33029605564532211 0.16359732737813301 0 -0.31532842932913357 0.16490520271443751 0 -0.32116052366806608 0.19303933367800441 0 -0.31532842932913357 0.16490520271443751 0 -0.32116052366806608 0.19303933367800441 0 -0.30857486585721261 0.17818809346730999 0 -0.33029605564532211 0.16359732737813301 0 -0.31532842932913357 0.16490520271443751 0 -0.32044419596566459 0.15225355215606901 0 -0.31532842932913357 0.16490520271443751 0 -0.32044419596566459 0.15225355215606901 0 -0.30812037225683692 0.15611463480150109 0 -0.32044419596566459 0.15225355215606901 0 -0.32024201459154061 0.13568658088844879 0 -0.30844705185292148 0.14369364107507809 0 -0.32024201459154061 0.13568658088844879 0 -0.33136770959936468 0.123409597346753 0 -0.31638859544005737 0.1179354956353372 0 -0.32024201459154061 0.13568658088844879 0 -0.30342762917489519 0.12744238737343161 0 -0.31638859544005737 0.1179354956353372 0 -0.34965350418355268 0.1288197459260963 0 -0.34403754766161332 0.14727532049224501 0 -0.33136770959936468 0.123409597346753 0 -0.34403754766161332 0.14727532049224501 0 -0.32024201459154061 0.13568658088844879 0 -0.33136770959936468 0.123409597346753 0 -0.34403754766161332 0.14727532049224501 0 -0.32044419596566459 0.15225355215606901 0 -0.32024201459154061 0.13568658088844879 0 -0.34403754766161332 0.14727532049224501 0 -0.32044419596566459 0.15225355215606901 0 -0.34403754766161332 0.14727532049224501 0 -0.33029605564532211 0.16359732737813301 0 -0.32044419596566459 0.15225355215606901 0 -0.34825562310355601 0.2413059599696995 0 -0.36735012561188568 0.237683187509769 0 -0.35297472874600411 0.22522314885076131 0 -0.34825562310355601 0.2413059599696995 0 -0.36205814242813272 0.2488345008902679 0 -0.36735012561188568 0.237683187509769 0 -0.34825562310355601 0.2413059599696995 0 -0.36205814242813272 0.2488345008902679 0 -0.34999157284080368 0.25810312054077111 0 -0.37946222484109549 0.2353053884457206 0 -0.36205814242813272 0.2488345008902679 0 -0.36735012561188568 0.237683187509769 0 -0.37946222484109549 0.2353053884457206 0 -0.36205814242813272 0.2488345008902679 0 -0.37666257165648181 0.26009656691381922 0 -0.37946222484109549 0.2353053884457206 0 -0.36205814242813272 0.2488345008902679 0 -0.37946222484109549 0.2353053884457206 0 -0.36735012561188568 0.237683187509769 0 -0.37388399796313398 0.23248221773580621 0 -0.36735012561188568 0.237683187509769 0 -0.36531214356249853 0.22421467967717909 0 -0.35297472874600411 0.22522314885076131 0 -0.36735012561188568 0.237683187509769 0 -0.37184185808622688 0.22709958014860859 0 -0.36531214356249853 0.22421467967717909 0 -0.36735012561188568 0.237683187509769 0 -0.37184185808622688 0.22709958014860859 0 -0.37388399796313398 0.23248221773580621 0 -0.37688178331332778 0.2298407148391263 0 -0.37184185808622688 0.22709958014860859 0 -0.37388399796313398 0.23248221773580621 0 -0.37184185808622688 0.22709958014860859 0 -0.36531214356249853 0.22421467967717909 0 -0.37192451594695802 0.2181715687608827 0 -0.3766316438375385 0.22279434508109699 0 -0.37184185808622688 0.22709958014860859 0 -0.37192451594695802 0.2181715687608827 0 -0.36531214356249853 0.22421467967717909 0 -0.35297472874600411 0.22522314885076131 0 -0.36159150390605721 0.21323269081723159 0 -0.36159150390605721 0.21323269081723159 0 -0.3633954916765208 0.19925990730487531 0 -0.34628958451764208 0.20157589727508951 0 -0.35297472874600411 0.22522314885076131 0 -0.36159150390605721 0.21323269081723159 0 -0.34628958451764208 0.20157589727508951 0 -0.36531214356249853 0.22421467967717909 0 -0.36159150390605721 0.21323269081723159 0 -0.37192451594695802 0.2181715687608827 0 -0.36159150390605721 0.21323269081723159 0 -0.37192451594695802 0.2181715687608827 0 -0.37153448519325188 0.20824986172565749 0 -0.36159150390605721 0.21323269081723159 0 -0.37153448519325188 0.20824986172565749 0 -0.3633954916765208 0.19925990730487531 0 -0.37588725132354017 0.1984015034115085 0 -0.37267174480218279 0.17861289059144789 0 -0.3633954916765208 0.19925990730487531 0 -0.37267174480218279 0.17861289059144789 0 -0.3633954916765208 0.19925990730487531 0 -0.37588725132354017 0.1984015034115085 0 -0.37153448519325188 0.20824986172565749 0 -0.3633954916765208 0.19925990730487531 0 -0.35703139012659901 0.18386296967240401 0 -0.3633954916765208 0.19925990730487531 0 -0.34628958451764208 0.20157589727508951 0 -0.32116052366806608 0.19303933367800441 0 -0.32699261800699858 0.22117346464157131 0 -0.29509404201417311 0.20467519586273891 0 -0.34210006040847379 0.17565716828672129 0 -0.34628958451764208 0.20157589727508951 0 -0.32116052366806608 0.19303933367800441 0 -0.32116052366806608 0.19303933367800441 0 -0.32699261800699858 0.22117346464157131 0 -0.35297472874600411 0.22522314885076131 0 -0.34628958451764208 0.20157589727508951 0 -0.32699261800699858 0.22117346464157131 0 -0.34628958451764208 0.20157589727508951 0 -0.32116052366806608 0.19303933367800441 0 -0.32699261800699858 0.22117346464157131 0 -0.34825562310355601 0.2413059599696995 0 -0.35297472874600411 0.22522314885076131 0 -0.32699261800699858 0.22117346464157131 0 -0.32699261800699858 0.22117346464157131 0 -0.31110064463521619 0.2477379589431575 0 -0.30082190656094748 0.22941744397282021 0 -0.32699261800699858 0.22117346464157131 0 -0.3328247123459312 0.24930759560513821 0 -0.31110064463521619 0.2477379589431575 0 -0.32699261800699858 0.22117346464157131 0 -0.3328247123459312 0.24930759560513821 0 -0.34825562310355601 0.2413059599696995 0 -0.3328247123459312 0.24930759560513821 0 -0.34999157284080368 0.25810312054077111 0 -0.34825562310355601 0.2413059599696995 0 -0.32699261800699858 0.22117346464157131 0 -0.3328247123459312 0.24930759560513821 0 -0.28829658598005847 0.24604816411315039 0 -0.30082190656094748 0.22941744397282021 0 -0.28102780628710278 0.2291328738578961 0 -0.28829658598005847 0.24604816411315039 0 -0.31110064463521619 0.2477379589431575 0 -0.30082190656094748 0.22941744397282021 0 -0.30082190656094748 0.22941744397282021 0 -0.29509404201417311 0.20467519586273891 0 -0.28102780628710278 0.2291328738578961 0 -0.32699261800699858 0.22117346464157131 0 -0.30082190656094748 0.22941744397282021 0 -0.29509404201417311 0.20467519586273891 0 -0.29509404201417311 0.20467519586273891 0 -0.26887429735620488 0.21308476310482921 0 -0.28102780628710278 0.2291328738578961 0 -0.32116052366806608 0.19303933367800441 0 -0.29509404201417311 0.20467519586273891 0 -0.29811690205637709 0.1868852192726789 0 -0.29509404201417311 0.20467519586273891 0 -0.29811690205637709 0.1868852192726789 0 -0.28199134619893262 0.17983074707620039 0 -0.29509404201417311 0.20467519586273891 0 -0.26975869639104771 0.19445455226343281 0 -0.28199134619893262 0.17983074707620039 0 -0.26975869639104771 0.19445455226343281 0 -0.25805122363966532 0.17916641703205141 0 -0.2495271856364164 0.19744305691347541 0 -0.26975869639104771 0.19445455226343281 0 -0.26887429735620488 0.21308476310482921 0 -0.2495271856364164 0.19744305691347541 0 -0.26887429735620488 0.21308476310482921 0 -0.24336685301739591 0.22144807136072159 0 -0.2495271856364164 0.19744305691347541 0 -0.29509404201417311 0.20467519586273891 0 -0.26975869639104771 0.19445455226343281 0 -0.26887429735620488 0.21308476310482921 0 -0.28102780628710278 0.2291328738578961 0 -0.26062303872063991 0.22976313397445131 0 -0.27060230483328229 0.24250575650368861 0 -0.26887429735620488 0.21308476310482921 0 -0.28102780628710278 0.2291328738578961 0 -0.26062303872063991 0.22976313397445131 0 -0.26887429735620488 0.21308476310482921 0 -0.26062303872063991 0.22976313397445131 0 -0.24336685301739591 0.22144807136072159 0 -0.26062303872063991 0.22976313397445131 0 -0.25177043790547998 0.24599012604316309 0 -0.24336685301739591 0.22144807136072159 0 -0.26062303872063991 0.22976313397445131 0 -0.25177043790547998 0.24599012604316309 0 -0.27060230483328229 0.24250575650368861 0 -0.25177043790547998 0.24599012604316309 0 -0.27060230483328229 0.24250575650368861 0 -0.2721765985049488 0.26097555064868161 0 -0.28829658598005847 0.24604816411315039 0 -0.27060230483328229 0.24250575650368861 0 -0.2721765985049488 0.26097555064868161 0 -0.28829658598005847 0.24604816411315039 0 -0.28102780628710278 0.2291328738578961 0 -0.27060230483328229 0.24250575650368861 0 -0.29668857576119112 0.15179815985780151 0 -0.28551143348705771 0.1608677580729084 0 -0.28108816933927672 0.1442322641175785 0 -0.29668857576119112 0.15179815985780151 0 -0.29445731736586261 0.1385740890287625 0 -0.28108816933927672 0.1442322641175785 0 -0.29445731736586261 0.1385740890287625 0 -0.30342762917489519 0.12744238737343161 0 -0.28345325083499268 0.123285671591133 0 -0.29445731736586261 0.1385740890287625 0 -0.28108816933927672 0.1442322641175785 0 -0.28345325083499268 0.123285671591133 0 -0.32024201459154061 0.13568658088844879 0 -0.30342762917489519 0.12744238737343161 0 -0.30844705185292148 0.14369364107507809 0 -0.29445731736586261 0.1385740890287625 0 -0.30342762917489519 0.12744238737343161 0 -0.30844705185292148 0.14369364107507809 0 -0.29668857576119112 0.15179815985780151 0 -0.29445731736586261 0.1385740890287625 0 -0.30844705185292148 0.14369364107507809 0 -0.29668857576119112 0.15179815985780151 0 -0.30844705185292148 0.14369364107507809 0 -0.30812037225683692 0.15611463480150109 0 -0.32044419596566459 0.15225355215606901 0 -0.30844705185292148 0.14369364107507809 0 -0.30812037225683692 0.15611463480150109 0 -0.31532842932913357 0.16490520271443751 0 -0.30812037225683692 0.15611463480150109 0 -0.29969360837527381 0.16792261820411919 0 -0.31532842932913357 0.16490520271443751 0 -0.29969360837527381 0.16792261820411919 0 -0.30857486585721261 0.17818809346730999 0 -0.29668857576119112 0.15179815985780151 0 -0.30812037225683692 0.15611463480150109 0 -0.29969360837527381 0.16792261820411919 0 -0.29969360837527381 0.16792261820411919 0 -0.29811690205637709 0.1868852192726789 0 -0.30857486585721261 0.17818809346730999 0 -0.32116052366806608 0.19303933367800441 0 -0.29811690205637709 0.1868852192726789 0 -0.30857486585721261 0.17818809346730999 0 -0.29969360837527381 0.16792261820411919 0 -0.29811690205637709 0.1868852192726789 0 -0.28199134619893262 0.17983074707620039 0 -0.29969360837527381 0.16792261820411919 0 -0.28199134619893262 0.17983074707620039 0 -0.28551143348705771 0.1608677580729084 0 -0.29668857576119112 0.15179815985780151 0 -0.29969360837527381 0.16792261820411919 0 -0.28551143348705771 0.1608677580729084 0 -0.28199134619893262 0.17983074707620039 0 -0.28551143348705771 0.1608677580729084 0 -0.2680954677606141 0.16055500110884241 0 -0.26975869639104771 0.19445455226343281 0 -0.28199134619893262 0.17983074707620039 0 -0.25805122363966532 0.17916641703205141 0 -0.28199134619893262 0.17983074707620039 0 -0.2680954677606141 0.16055500110884241 0 -0.25805122363966532 0.17916641703205141 0 -0.2680954677606141 0.16055500110884241 0 -0.25805122363966532 0.17916641703205141 0 -0.24425749315805231 0.15851006456642949 0 -0.2680954677606141 0.16055500110884241 0 -0.26204185957463072 0.14438820993978041 0 -0.24425749315805231 0.15851006456642949 0 -0.2680954677606141 0.16055500110884241 0 -0.26204185957463072 0.14438820993978041 0 -0.28108816933927672 0.1442322641175785 0 -0.28551143348705771 0.1608677580729084 0 -0.2680954677606141 0.16055500110884241 0 -0.28108816933927672 0.1442322641175785 0 -0.28108816933927672 0.1442322641175785 0 -0.26965816271454812 0.13141678607523291 0 -0.28345325083499268 0.123285671591133 0 -0.26204185957463072 0.14438820993978041 0 -0.28108816933927672 0.1442322641175785 0 -0.26965816271454812 0.13141678607523291 0 -0.26965816271454812 0.13141678607523291 0 -0.25282866413170513 0.1276037338865639 0 -0.265793079805618 0.1181238818638 0 -0.26204185957463072 0.14438820993978041 0 -0.26965816271454812 0.13141678607523291 0 -0.25282866413170513 0.1276037338865639 0 -0.25282866413170513 0.1276037338865639 0 -0.25133926342545337 0.1073077500403757 0 -0.265793079805618 0.1181238818638 0 -0.25133926342545337 0.1073077500403757 0 -0.27168605792139078 0.1010054677256942 0 -0.2502772859734072 0.088867942404367364 0 -0.25133926342545337 0.1073077500403757 0 -0.27168605792139078 0.1010054677256942 0 -0.265793079805618 0.1181238818638 0 -0.26965816271454812 0.13141678607523291 0 -0.265793079805618 0.1181238818638 0 -0.28345325083499268 0.123285671591133 0 -0.27168605792139078 0.1010054677256942 0 -0.265793079805618 0.1181238818638 0 -0.28345325083499268 0.123285671591133 0 -0.30342762917489519 0.12744238737343161 0 -0.28345325083499268 0.123285671591133 0 -0.29606620687046042 0.10885349634611829 0 -0.27168605792139078 0.1010054677256942 0 -0.28345325083499268 0.123285671591133 0 -0.29606620687046042 0.10885349634611829 0 -0.27168605792139078 0.1010054677256942 0 -0.29606620687046042 0.10885349634611829 0 -0.29165577545428711 0.087965709288483046 0 -0.29606620687046042 0.10885349634611829 0 -0.29165577545428711 0.087965709288483046 0 -0.31374858266280742 0.10292389736421979 0 -0.29606620687046042 0.10885349634611829 0 -0.31638859544005737 0.1179354956353372 0 -0.31374858266280742 0.10292389736421979 0 -0.30342762917489519 0.12744238737343161 0 -0.29606620687046042 0.10885349634611829 0 -0.31638859544005737 0.1179354956353372 0 -0.29764005124844239 0.074427120301050975 0 -0.30526974015498348 0.06597265149939735 0 -0.31466132075171532 0.079978293242753282 0 -0.30526974015498348 0.06597265149939735 0 -0.31557405884062428 0.057032689121286659 0 -0.31466132075171532 0.079978293242753282 0 -0.29764005124844239 0.074427120301050975 0 -0.30526974015498348 0.06597265149939735 0 -0.2936825794757818 0.062291716281096782 0 -0.29764005124844239 0.074427120301050975 0 -0.29165577545428711 0.087965709288483046 0 -0.31466132075171532 0.079978293242753282 0 -0.29165577545428711 0.087965709288483046 0 -0.31374858266280742 0.10292389736421979 0 -0.31466132075171532 0.079978293242753282 0 -0.28355236200540918 0.071781826148666711 0 -0.27793292794144592 0.056561884996540128 0 -0.2936825794757818 0.062291716281096782 0 -0.29764005124844239 0.074427120301050975 0 -0.29165577545428711 0.087965709288483046 0 -0.28355236200540918 0.071781826148666711 0 -0.29764005124844239 0.074427120301050975 0 -0.28355236200540918 0.071781826148666711 0 -0.2936825794757818 0.062291716281096782 0 -0.28355236200540918 0.071781826148666711 0 -0.26644965816436689 0.080348387809637947 0 -0.26204503542861168 0.062375187440452728 0 -0.28355236200540918 0.071781826148666711 0 -0.26204503542861168 0.062375187440452728 0 -0.27793292794144592 0.056561884996540128 0 -0.29165577545428711 0.087965709288483046 0 -0.28355236200540918 0.071781826148666711 0 -0.26644965816436689 0.080348387809637947 0 -0.27168605792139078 0.1010054677256942 0 -0.29165577545428711 0.087965709288483046 0 -0.26644965816436689 0.080348387809637947 0 -0.27168605792139078 0.1010054677256942 0 -0.26644965816436689 0.080348387809637947 0 -0.2502772859734072 0.088867942404367364 0 -0.26644965816436689 0.080348387809637947 0 -0.2502772859734072 0.088867942404367364 0 -0.24103724281531561 0.072759993522630267 0 -0.26644965816436689 0.080348387809637947 0 -0.26204503542861168 0.062375187440452728 0 -0.24103724281531561 0.072759993522630267 0 -0.26204503542861168 0.062375187440452728 0 -0.26380140466112639 0.042485306586813973 0 -0.2490733661730499 0.050118410714882898 0 -0.26204503542861168 0.062375187440452728 0 -0.2490733661730499 0.050118410714882898 0 -0.24103724281531561 0.072759993522630267 0 -0.25710948953078411 0.027476827907135608 0 -0.2490733661730499 0.050118410714882898 0 -0.26380140466112639 0.042485306586813973 0 -0.25710948953078411 0.027476827907135608 0 -0.2490733661730499 0.050118410714882898 0 -0.26380140466112639 0.042485306586813973 0 -0.25710948953078411 0.027476827907135608 0 -0.266298634113451 0.027939907302903411 0 -0.26380140466112639 0.042485306586813973 0 -0.27516130165784869 0.033163958902701601 0 -0.27884527339047022 0.043752988670493501 0 -0.26380140466112639 0.042485306586813973 0 -0.27516130165784869 0.033163958902701601 0 -0.266298634113451 0.027939907302903411 0 -0.27516130165784869 0.033163958902701601 0 -0.27884527339047022 0.043752988670493501 0 -0.28601510031390442 0.037828896892459253 0 -0.26380140466112639 0.042485306586813973 0 -0.27884527339047022 0.043752988670493501 0 -0.27793292794144592 0.056561884996540128 0 -0.26204503542861168 0.062375187440452728 0 -0.26380140466112639 0.042485306586813973 0 -0.27793292794144592 0.056561884996540128 0 -0.25445223429650399 0.001296013740745124 0 -0.26109085733176007 0.013112141742292411 0 -0.27363723852786181 0.0027058176256576621 0 -0.26109085733176007 0.013112141742292411 0 -0.25710948953078411 0.027476827907135608 0 -0.23272574590282649 0.01939614916333449 0 -0.26109085733176007 0.013112141742292411 0 -0.25710948953078411 0.027476827907135608 0 -0.266298634113451 0.027939907302903411 0 -0.26109085733176007 0.013112141742292411 0 -0.27433011738573571 0.023461301375573469 0 -0.28529261734652961 0.01623811266284211 0 -0.27516130165784869 0.033163958902701601 0 -0.266298634113451 0.027939907302903411 0 -0.27433011738573571 0.023461301375573469 0 -0.27516130165784869 0.033163958902701601 0 -0.27433011738573571 0.023461301375573469 0 -0.28306236688000669 0.02792111511604136 0 -0.27433011738573571 0.023461301375573469 0 -0.28529261734652961 0.01623811266284211 0 -0.28306236688000669 0.02792111511604136 0 -0.26109085733176007 0.013112141742292411 0 -0.266298634113451 0.027939907302903411 0 -0.27433011738573571 0.023461301375573469 0 -0.26109085733176007 0.013112141742292411 0 -0.27363723852786181 0.0027058176256576621 0 -0.28945596876069352 0.0068281343212503818 0 -0.26109085733176007 0.013112141742292411 0 -0.28945596876069352 0.0068281343212503818 0 -0.28529261734652961 0.01623811266284211 0 -0.26109085733176007 0.013112141742292411 0 -0.28945596876069352 0.0068281343212503818 0 -0.28249562433580527 -0.0021262679752555671 0 -0.27363723852786181 0.0027058176256576621 0 -0.28945596876069352 0.0068281343212503818 0 -0.28979225651653689 -0.0028564736825077478 0 -0.29799676537030689 -0.0014857598218393779 0 -0.28945596876069352 0.0068281343212503818 0 -0.28249562433580527 -0.0021262679752555671 0 -0.28979225651653689 -0.0028564736825077478 0 -0.28945596876069352 0.0068281343212503818 0 -0.28945596876069352 0.0068281343212503818 0 -0.29472676920457291 0.01784043043326658 0 -0.28529261734652961 0.01623811266284211 0 -0.28945596876069352 0.0068281343212503818 0 -0.29472676920457291 0.01784043043326658 0 -0.30356289034155631 0.01573923522061739 0 -0.28529261734652961 0.01623811266284211 0 -0.29426233311611327 0.031909436985768563 0 -0.30059560036951211 0.032556239528356422 0 -0.28529261734652961 0.01623811266284211 0 -0.28306236688000669 0.02792111511604136 0 -0.29426233311611327 0.031909436985768563 0 -0.28529261734652961 0.01623811266284211 0 -0.30059560036951211 0.032556239528356422 0 -0.29472676920457291 0.01784043043326658 0 -0.28529261734652961 0.01623811266284211 0 -0.30059560036951211 0.032556239528356422 0 -0.29472676920457291 0.01784043043326658 0 -0.30356289034155631 0.01573923522061739 0 -0.30059560036951211 0.032556239528356422 0 -0.30356289034155631 0.01573923522061739 0 -0.30059560036951211 0.032556239528356422 0 -0.31685983179106231 0.024709246647040179 0 -0.28945596876069352 0.0068281343212503818 0 -0.30356289034155631 0.01573923522061739 0 -0.31782108018962713 0.00054412690020929884 0 -0.28945596876069352 0.0068281343212503818 0 -0.31782108018962713 0.00054412690020929884 0 -0.29799676537030689 -0.0014857598218393779 0 -0.28945596876069352 0.0068281343212503818 0 -0.31782108018962713 0.00054412690020929884 0 -0.27793292794144592 0.056561884996540128 0 -0.2913156323780256 0.048724895973952548 0 -0.2936825794757818 0.062291716281096782 0 -0.2913156323780256 0.048724895973952548 0 -0.2936825794757818 0.062291716281096782 0 -0.30215204136555701 0.055698603185852097 0 -0.27884527339047022 0.043752988670493501 0 -0.27793292794144592 0.056561884996540128 0 -0.2913156323780256 0.048724895973952548 0 -0.27884527339047022 0.043752988670493501 0 -0.2913156323780256 0.048724895973952548 0 -0.28601510031390442 0.037828896892459253 0 -0.28306236688000669 0.02792111511604136 0 -0.28601510031390442 0.037828896892459253 0 -0.29426233311611327 0.031909436985768563 0 -0.27516130165784869 0.033163958902701601 0 -0.28306236688000669 0.02792111511604136 0 -0.28601510031390442 0.037828896892459253 0 -0.28601510031390442 0.037828896892459253 0 -0.29426233311611327 0.031909436985768563 0 -0.2941278154466031 0.040733573226426872 0 -0.2913156323780256 0.048724895973952548 0 -0.2941278154466031 0.040733573226426872 0 -0.30491819597836939 0.044471063053527098 0 -0.2913156323780256 0.048724895973952548 0 -0.28601510031390442 0.037828896892459253 0 -0.2941278154466031 0.040733573226426872 0 -0.30059560036951211 0.032556239528356422 0 -0.31589858339249421 0.048874366393871049 0 -0.30059560036951211 0.032556239528356422 0 -0.31589858339249421 0.048874366393871049 0 -0.31685983179106231 0.024709246647040179 0 -0.30059560036951211 0.032556239528356422 0 -0.30491819597836939 0.044471063053527098 0 -0.31589858339249421 0.048874366393871049 0 -0.29426233311611327 0.031909436985768563 0 -0.2941278154466031 0.040733573226426872 0 -0.30491819597836939 0.044471063053527098 0 -0.29426233311611327 0.031909436985768563 0 -0.30491819597836939 0.044471063053527098 0 -0.29426233311611327 0.031909436985768563 0 -0.30059560036951211 0.032556239528356422 0 -0.30491819597836939 0.044471063053527098 0 -0.30491819597836939 0.044471063053527098 0 -0.31557405884062428 0.057032689121286659 0 -0.30491819597836939 0.044471063053527098 0 -0.31557405884062428 0.057032689121286659 0 -0.31589858339249421 0.048874366393871049 0 -0.30491819597836939 0.044471063053527098 0 -0.30215204136555701 0.055698603185852097 0 -0.31557405884062428 0.057032689121286659 0 -0.2913156323780256 0.048724895973952548 0 -0.30491819597836939 0.044471063053527098 0 -0.30215204136555701 0.055698603185852097 0 -0.30526974015498348 0.06597265149939735 0 -0.2936825794757818 0.062291716281096782 0 -0.30215204136555701 0.055698603185852097 0 -0.30526974015498348 0.06597265149939735 0 -0.30215204136555701 0.055698603185852097 0 -0.31557405884062428 0.057032689121286659 0 -0.31589858339249421 0.048874366393871049 0 -0.33086201086268302 0.064830412834930337 0 -0.31589858339249421 0.048874366393871049 0 -0.33155880065410159 0.050354532313979052 0 -0.33086201086268302 0.064830412834930337 0 -0.31557405884062428 0.057032689121286659 0 -0.31589858339249421 0.048874366393871049 0 -0.33086201086268302 0.064830412834930337 0 -0.31557405884062428 0.057032689121286659 0 -0.31589858339249421 0.048874366393871049 0 -0.31589858339249421 0.048874366393871049 0 -0.31685983179106231 0.024709246647040179 0 -0.31589858339249421 0.048874366393871049 0 -0.32770872298242981 0.037107539770133598 0 -0.33155880065410159 0.050354532313979052 0 -0.31589858339249421 0.048874366393871049 0 -0.32770872298242981 0.037107539770133598 0 -0.31685983179106231 0.024709246647040179 0 -0.32770872298242981 0.037107539770133598 0 -0.34174842659380161 0.040201616905197322 0 -0.33155880065410159 0.050354532313979052 0 -0.32770872298242981 0.037107539770133598 0 -0.34174842659380161 0.040201616905197322 0 -0.33816867383834032 0.020971101801882611 0 -0.33155880065410159 0.050354532313979052 0 -0.34921248162929208 0.059222501396668847 0 -0.33086201086268302 0.064830412834930337 0 -0.34174842659380161 0.040201616905197322 0 -0.33155880065410159 0.050354532313979052 0 -0.34921248162929208 0.059222501396668847 0 -0.33375105468458599 -0.0029850000060665191 0 -0.31782108018962713 0.00054412690020929884 0 -0.33014852987240201 0.0098880759771651627 0 -0.31782108018962713 0.00054412690020929884 0 -0.31685983179106231 0.024709246647040179 0 -0.30356289034155631 0.01573923522061739 0 -0.31782108018962713 0.00054412690020929884 0 -0.31685983179106231 0.024709246647040179 0 -0.31782108018962713 0.00054412690020929884 0 -0.31685983179106231 0.024709246647040179 0 -0.33014852987240201 0.0098880759771651627 0 -0.32770872298242981 0.037107539770133598 0 -0.31685983179106231 0.024709246647040179 0 -0.33816867383834032 0.020971101801882611 0 -0.31685983179106231 0.024709246647040179 0 -0.33816867383834032 0.020971101801882611 0 -0.33014852987240201 0.0098880759771651627 0 -0.33816867383834032 0.020971101801882611 0 -0.33014852987240201 0.0098880759771651627 0 -0.34371067612720191 0.0063243568063823504 0 -0.33375105468458599 -0.0029850000060665191 0 -0.33014852987240201 0.0098880759771651627 0 -0.34371067612720191 0.0063243568063823504 0 -0.33816867383834032 0.020971101801882611 0 -0.34371067612720191 0.0063243568063823504 0 -0.36067571761635259 0.01201574293281492 0 -0.34968102917954508 -0.0065141269123413824 0 -0.34371067612720191 0.0063243568063823504 0 -0.36067571761635259 0.01201574293281492 0 -0.33816867383834032 0.020971101801882611 0 -0.35192987124121089 0.02815884807313521 0 -0.36067571761635259 0.01201574293281492 0 -0.34174842659380161 0.040201616905197322 0 -0.33816867383834032 0.020971101801882611 0 -0.35192987124121089 0.02815884807313521 0 -0.37926064652510572 0.01652591772007846 0 -0.36067571761635259 0.01201574293281492 0 -0.3662224365601211 0.038933641042989769 0 -0.35192987124121089 0.02815884807313521 0 -0.36067571761635259 0.01201574293281492 0 -0.3662224365601211 0.038933641042989769 0 -0.36067571761635259 0.01201574293281492 0 -0.3662224365601211 0.038933641042989769 0 -0.37926064652510572 0.01652591772007846 0 -0.36067571761635259 0.01201574293281492 0 -0.37366197689732522 0.0012785186665680559 0 -0.36656517708657399 -0.0072088866496940272 0 -0.36067571761635259 0.01201574293281492 0 -0.37366197689732522 0.0012785186665680559 0 -0.34174842659380161 0.040201616905197322 0 -0.34921248162929208 0.059222501396668847 0 -0.3662224365601211 0.038933641042989769 0 -0.34174842659380161 0.040201616905197322 0 -0.35192987124121089 0.02815884807313521 0 -0.3662224365601211 0.038933641042989769 0 -0.3662224365601211 0.038933641042989769 0 -0.37176915550388961 0.065851539153164648 0 -0.34921248162929208 0.059222501396668847 0 -0.3662224365601211 0.038933641042989769 0 -0.37176915550388961 0.065851539153164648 0 -0.38489237583583641 0.049497625960017222 0 -0.3662224365601211 0.038933641042989769 0 -0.37176915550388961 0.065851539153164648 0 -0.34921248162929208 0.059222501396668847 0 -0.37176915550388961 0.065851539153164648 0 -0.35715347922755292 0.073280957101163627 0 -0.37176915550388961 0.065851539153164648 0 -0.35715347922755292 0.073280957101163627 0 -0.3618068414441587 0.087263328578831068 0 -0.34921248162929208 0.059222501396668847 0 -0.35715347922755292 0.073280957101163627 0 -0.34582543833287138 0.080786459275989958 0 -0.34582543833287138 0.080786459275989958 0 -0.3618068414441587 0.087263328578831068 0 -0.35414723576459728 0.1025045416617974 0 -0.34582543833287138 0.080786459275989958 0 -0.35414723576459728 0.1025045416617974 0 -0.33486064730261139 0.079768615391541522 0 -0.35715347922755292 0.073280957101163627 0 -0.34582543833287138 0.080786459275989958 0 -0.3618068414441587 0.087263328578831068 0 -0.35414723576459728 0.1025045416617974 0 -0.33486064730261139 0.079768615391541522 0 -0.37731587444765807 0.092769437263339513 0 -0.37176915550388961 0.065851539153164648 0 -0.37731587444765807 0.092769437263339513 0 -0.37176915550388961 0.065851539153164648 0 -0.3618068414441587 0.087263328578831068 0 -0.3618068414441587 0.087263328578831068 0 -0.37097467658251793 0.1081065377119126 0 -0.35414723576459728 0.1025045416617974 0 -0.37731587444765807 0.092769437263339513 0 -0.3618068414441587 0.087263328578831068 0 -0.37097467658251793 0.1081065377119126 0 -0.38286259339142659 0.11968733537351441 0 -0.37097467658251793 0.1081065377119126 0 -0.3637907421767661 0.1210109853243788 0 -0.37097467658251793 0.1081065377119126 0 -0.3637907421767661 0.1210109853243788 0 -0.35414723576459728 0.1025045416617974 0 -0.34965350418355268 0.1288197459260963 0 -0.3637907421767661 0.1210109853243788 0 -0.35414723576459728 0.1025045416617974 0 -0.34965350418355268 0.1288197459260963 0 -0.35414723576459728 0.1025045416617974 0 -0.33136770959936468 0.123409597346753 0 -0.35414723576459728 0.1025045416617974 0 -0.33270153941792252 0.1008019887649174 0 -0.33486064730261139 0.079768615391541522 0 -0.35414723576459728 0.1025045416617974 0 -0.33270153941792252 0.1008019887649174 0 -0.33136770959936468 0.123409597346753 0 -0.33270153941792252 0.1008019887649174 0 -0.33136770959936468 0.123409597346753 0 -0.31638859544005737 0.1179354956353372 0 -0.33270153941792252 0.1008019887649174 0 -0.31374858266280742 0.10292389736421979 0 -0.32399302253376422 0.090868198690857993 0 -0.33270153941792252 0.1008019887649174 0 -0.31638859544005737 0.1179354956353372 0 -0.31374858266280742 0.10292389736421979 0 -0.31374858266280742 0.10292389736421979 0 -0.32399302253376422 0.090868198690857993 0 -0.31466132075171532 0.079978293242753282 0 -0.31374858266280742 0.10292389736421979 0 -0.31466132075171532 0.079978293242753282 0 -0.32399302253376422 0.090868198690857993 0 -0.31466132075171532 0.079978293242753282 0 -0.33486064730261139 0.079768615391541522 0 -0.31557405884062428 0.057032689121286659 0 -0.31466132075171532 0.079978293242753282 0 -0.31557405884062428 0.057032689121286659 0 -0.31466132075171532 0.079978293242753282 0 -0.33486064730261139 0.079768615391541522 0 -0.31557405884062428 0.057032689121286659 0 -0.33086201086268302 0.064830412834930337 0 -0.33486064730261139 0.079768615391541522 0 -0.31557405884062428 0.057032689121286659 0 -0.33486064730261139 0.079768615391541522 0 -0.34582543833287138 0.080786459275989958 0 -0.33086201086268302 0.064830412834930337 0 -0.33486064730261139 0.079768615391541522 0 -0.34921248162929208 0.059222501396668847 0 -0.34582543833287138 0.080786459275989958 0 -0.33086201086268302 0.064830412834930337 0 -0.34582543833287138 0.080786459275989958 0 -0.33086201086268302 0.064830412834930337 0 -0.33270153941792252 0.1008019887649174 0 -0.32399302253376422 0.090868198690857993 0 -0.33486064730261139 0.079768615391541522 0 -0.40286433130207311 0.46945225254375789 0 -0.40734512917919952 0.5 0 -0.36896870429677547 0.47227760581199041 0 -0.40286433130207311 0.46945225254375789 0 -0.37880257441422138 0.45318909365973292 0 -0.36896870429677547 0.47227760581199041 0 -0.37880257441422138 0.45318909365973292 0 -0.39927044393889027 0.44243637502540573 0 -0.37328688082870892 0.43209049225339369 0 -0.40286433130207311 0.46945225254375789 0 -0.37880257441422138 0.45318909365973292 0 -0.39927044393889027 0.44243637502540573 0 -0.40286433130207311 0.46945225254375789 0 -0.39927044393889027 0.44243637502540573 0 -0.42445283295416653 0.45281764221218063 0 -0.40286433130207311 0.46945225254375789 0 -0.42445283295416653 0.45281764221218063 0 -0.44318585439826669 0.47650816345677072 0 -0.39927044393889027 0.44243637502540573 0 -0.42445283295416653 0.45281764221218063 0 -0.39927044393889027 0.44243637502540573 0 -0.42445283295416653 0.45281764221218063 0 -0.41506855173033069 0.43615949223250039 0 -0.42445283295416653 0.45281764221218063 0 -0.42658819955984861 0.4387007339148527 0 -0.44590959484802528 0.44130168684793802 0 -0.42445283295416653 0.45281764221218063 0 -0.42658819955984861 0.4387007339148527 0 -0.41506855173033069 0.43615949223250039 0 -0.42445283295416653 0.45281764221218063 0 -0.44963522196944261 0.46319890939895542 0 -0.40286433130207311 0.46945225254375789 0 -0.40734512917919952 0.5 0 -0.44318585439826669 0.47650816345677072 0 -0.44318585439826669 0.47650816345677072 0 -0.47481761098471892 0.47358017658573032 0 -0.44963522196944261 0.46319890939895542 0 -0.40734512917919952 0.5 0 -0.44318585439826669 0.47650816345677072 0 -0.5 0.5 0 -0.44318585439826669 0.47650816345677072 0 -0.47481761098471892 0.47358017658573032 0 -0.5 0.5 0 -0.47481761098471892 0.47358017658573032 0 -0.49999999999999578 0.48396144377250372 0 -0.5 0.45568849255567939 0 -0.47481761098471892 0.47358017658573032 0 -0.49999999999999578 0.48396144377250372 0 -0.47481761098471892 0.47358017658573032 0 -0.49999999999999578 0.48396144377250372 0 -0.5 0.5 0 -0.5 0.45568849255567939 0 -0.47841365027678778 0.44410252740933231 0 -0.5 0.42741554133885512 0 -0.47481761098471892 0.47358017658573032 0 -0.5 0.45568849255567939 0 -0.47841365027678778 0.44410252740933231 0 -0.47481761098471892 0.47358017658573032 0 -0.47841365027678778 0.44410252740933231 0 -0.46130506795488507 0.45045366616448113 0 -0.47841365027678778 0.44410252740933231 0 -0.46130506795488507 0.45045366616448113 0 -0.4613549748431941 0.43048322009736301 0 -0.46130506795488507 0.45045366616448113 0 -0.44590959484802528 0.44130168684793802 0 -0.4613549748431941 0.43048322009736301 0 -0.47481761098471892 0.47358017658573032 0 -0.44963522196944261 0.46319890939895542 0 -0.47481761098471892 0.47358017658573032 0 -0.46130506795488507 0.45045366616448113 0 -0.44963522196944261 0.46319890939895542 0 -0.42445283295416653 0.45281764221218063 0 -0.44318585439826669 0.47650816345677072 0 -0.44963522196944261 0.46319890939895542 0 -0.46130506795488507 0.45045366616448113 0 -0.44963522196944261 0.46319890939895542 0 -0.44590959484802528 0.44130168684793802 0 -0.42445283295416653 0.45281764221218063 0 -0.44963522196944261 0.46319890939895542 0 -0.44590959484802528 0.44130168684793802 0 -0.44590959484802528 0.44130168684793802 0 -0.4483382455203293 0.42685683993576667 0 -0.43705299063552411 0.42304307426979659 0 -0.4483382455203293 0.42685683993576667 0 -0.44903542175457389 0.41259937852796919 0 -0.4613549748431941 0.43048322009736301 0 -0.44590959484802528 0.44130168684793802 0 -0.4483382455203293 0.42685683993576667 0 -0.4613549748431941 0.43048322009736301 0 -0.4483382455203293 0.42685683993576667 0 -0.44903542175457389 0.41259937852796919 0 -0.43705299063552411 0.42304307426979659 0 -0.44903542175457389 0.41259937852796919 0 -0.4613549748431941 0.43048322009736301 0 -0.47558611134900192 0.41502579684913049 0 -0.44903542175457389 0.41259937852796919 0 -0.47558611134900192 0.41502579684913049 0 -0.46568390088502332 0.4056053954160424 0 -0.44903542175457389 0.41259937852796919 0 -0.47558611134900192 0.41502579684913049 0 -0.47841365027678778 0.44410252740933231 0 -0.4613549748431941 0.43048322009736301 0 -0.47883868411724589 0.42925677142367019 0 -0.4613549748431941 0.43048322009736301 0 -0.47883868411724589 0.42925677142367019 0 -0.47558611134900192 0.41502579684913049 0 -0.47558611134900192 0.41502579684913049 0 -0.5 0.42741554133885512 0 -0.5 0.39914259012203068 0 -0.47883868411724589 0.42925677142367019 0 -0.47558611134900192 0.41502579684913049 0 -0.5 0.42741554133885512 0 -0.47841365027678778 0.44410252740933231 0 -0.47883868411724589 0.42925677142367019 0 -0.5 0.42741554133885512 0 -0.5 0.39914259012203068 0 -0.4821133158084131 0.39485209878945599 0 -0.5 0.37086963890520641 0 -0.47558611134900192 0.41502579684913049 0 -0.5 0.39914259012203068 0 -0.4821133158084131 0.39485209878945599 0 -0.47558611134900192 0.41502579684913049 0 -0.4821133158084131 0.39485209878945599 0 -0.46568390088502332 0.4056053954160424 0 -0.4821133158084131 0.39485209878945599 0 -0.46937670454704161 0.37673658357893058 0 -0.46568390088502332 0.4056053954160424 0 -0.4821133158084131 0.39485209878945599 0 -0.46937670454704161 0.37673658357893058 0 -0.5 0.37086963890520641 0 -0.46937670454704161 0.37673658357893058 0 -0.4528871112135795 0.39464183263787378 0 -0.44496590517119627 0.3811532460473806 0 -0.44903542175457389 0.41259937852796919 0 -0.46568390088502332 0.4056053954160424 0 -0.4528871112135795 0.39464183263787378 0 -0.46937670454704161 0.37673658357893058 0 -0.46568390088502332 0.4056053954160424 0 -0.4528871112135795 0.39464183263787378 0 -0.46937670454704161 0.37673658357893058 0 -0.46568390088502332 0.4056053954160424 0 -0.4528871112135795 0.39464183263787378 0 -0.44496590517119627 0.3811532460473806 0 -0.43537362371006222 0.39711455961904579 0 -0.44903542175457389 0.41259937852796919 0 -0.4528871112135795 0.39464183263787378 0 -0.43537362371006222 0.39711455961904579 0 -0.44496590517119627 0.3811532460473806 0 -0.42682757931355569 0.38396563306983028 0 -0.43398411596488912 0.37034019119532591 0 -0.42682757931355569 0.38396563306983028 0 -0.4177527503820942 0.37094641529524619 0 -0.43398411596488912 0.37034019119532591 0 -0.44496590517119627 0.3811532460473806 0 -0.42682757931355569 0.38396563306983028 0 -0.43537362371006222 0.39711455961904579 0 -0.42682757931355569 0.38396563306983028 0 -0.41012631551955869 0.38442133783787091 0 -0.41714287692546592 0.3969218202831713 0 -0.42682757931355569 0.38396563306983028 0 -0.41012631551955869 0.38442133783787091 0 -0.4177527503820942 0.37094641529524619 0 -0.41714287692546592 0.3969218202831713 0 -0.42248473216014581 0.41017296020680788 0 -0.39593404256571779 0.40774654188564607 0 -0.41012631551955869 0.38442133783787091 0 -0.41714287692546592 0.3969218202831713 0 -0.40297707120651388 0.39570797761753668 0 -0.42682757931355569 0.38396563306983028 0 -0.41714287692546592 0.3969218202831713 0 -0.43537362371006222 0.39711455961904579 0 -0.41714287692546592 0.3969218202831713 0 -0.43537362371006222 0.39711455961904579 0 -0.42248473216014581 0.41017296020680788 0 -0.42248473216014581 0.41017296020680788 0 -0.43705299063552411 0.42304307426979659 0 -0.42092181870687168 0.42452411436679183 0 -0.44903542175457389 0.41259937852796919 0 -0.42248473216014581 0.41017296020680788 0 -0.44903542175457389 0.41259937852796919 0 -0.43537362371006222 0.39711455961904579 0 -0.42248473216014581 0.41017296020680788 0 -0.44903542175457389 0.41259937852796919 0 -0.42248473216014581 0.41017296020680788 0 -0.43705299063552411 0.42304307426979659 0 -0.44590959484802528 0.44130168684793802 0 -0.43705299063552411 0.42304307426979659 0 -0.42092181870687168 0.42452411436679183 0 -0.42658819955984861 0.4387007339148527 0 -0.44590959484802528 0.44130168684793802 0 -0.42092181870687168 0.42452411436679183 0 -0.44590959484802528 0.44130168684793802 0 -0.42092181870687168 0.42452411436679183 0 -0.41506855173033069 0.43615949223250039 0 -0.42092181870687168 0.42452411436679183 0 -0.4044063649608769 0.42279822471038142 0 -0.42658819955984861 0.4387007339148527 0 -0.41506855173033069 0.43615949223250039 0 -0.42092181870687168 0.42452411436679183 0 -0.42092181870687168 0.42452411436679183 0 -0.39593404256571779 0.40774654188564607 0 -0.4044063649608769 0.42279822471038142 0 -0.42092181870687168 0.42452411436679183 0 -0.39593404256571779 0.40774654188564607 0 -0.42248473216014581 0.41017296020680788 0 -0.39593404256571779 0.40774654188564607 0 -0.42248473216014581 0.41017296020680788 0 -0.42092181870687168 0.42452411436679183 0 -0.39593404256571779 0.40774654188564607 0 -0.3922583721381887 0.41799707120918178 0 -0.39434179177493778 0.41389628871586082 0 -0.4044063649608769 0.42279822471038142 0 -0.39434179177493778 0.41389628871586082 0 -0.39593404256571779 0.40774654188564607 0 -0.4044063649608769 0.42279822471038142 0 -0.3922583721381887 0.41799707120918178 0 -0.39434179177493778 0.41389628871586082 0 -0.39004575059617902 0.41399765264900762 0 -0.39434179177493778 0.41389628871586082 0 -0.39175354171997018 0.40736449366020688 0 -0.39004575059617902 0.41399765264900762 0 -0.39434179177493778 0.41389628871586082 0 -0.39175354171997018 0.40736449366020688 0 -0.39593404256571779 0.40774654188564607 0 -0.39175354171997018 0.40736449366020688 0 -0.39593404256571779 0.40774654188564607 0 -0.39345623700294102 0.40608286592709569 0 -0.39175354171997018 0.40736449366020688 0 -0.39593404256571779 0.40774654188564607 0 -0.39593404256571779 0.40774654188564607 0 -0.39345623700294102 0.40608286592709569 0 -0.39927044393889027 0.44243637502540573 0 -0.41506855173033069 0.43615949223250039 0 -0.4044063649608769 0.42279822471038142 0 -0.39927044393889027 0.44243637502540573 0 -0.4044063649608769 0.42279822471038142 0 -0.39219367622472601 0.42561164402070317 0 -0.3922583721381887 0.41799707120918178 0 -0.4044063649608769 0.42279822471038142 0 -0.39219367622472601 0.42561164402070317 0 -0.39927044393889027 0.44243637502540573 0 -0.39219367622472601 0.42561164402070317 0 -0.37328688082870892 0.43209049225339369 0 -0.39219367622472601 0.42561164402070317 0 -0.38182929675161897 0.41673275701078089 0 -0.37328688082870892 0.43209049225339369 0 -0.39345623700294102 0.40608286592709569 0 -0.36821055110730377 0.41584688824341393 0 -0.39175354171997018 0.40736449366020688 0 -0.38182929675161897 0.41673275701078089 0 -0.36821055110730377 0.41584688824341393 0 -0.39345623700294102 0.40608286592709569 0 -0.37327099691651738 0.40512047719503108 0 -0.36821055110730377 0.41584688824341393 0 -0.39175354171997018 0.40736449366020688 0 -0.39345623700294102 0.40608286592709569 0 -0.36821055110730377 0.41584688824341393 0 -0.39175354171997018 0.40736449366020688 0 -0.39004575059617902 0.41399765264900762 0 -0.38182929675161897 0.41673275701078089 0 -0.3922583721381887 0.41799707120918178 0 -0.39004575059617902 0.41399765264900762 0 -0.38182929675161897 0.41673275701078089 0 -0.3922583721381887 0.41799707120918178 0 -0.39219367622472601 0.42561164402070317 0 -0.38182929675161897 0.41673275701078089 0 -0.38878242224169529 0.39551001355288501 0 -0.3763821131333096 0.39461876647475891 0 -0.39345623700294102 0.40608286592709569 0 -0.3763821131333096 0.39461876647475891 0 -0.39345623700294102 0.40608286592709569 0 -0.38878242224169529 0.39551001355288501 0 -0.3763821131333096 0.39461876647475891 0 -0.39497705997241478 0.38537104622978419 0 -0.3763821131333096 0.39461876647475891 0 -0.39345623700294102 0.40608286592709569 0 -0.37327099691651738 0.40512047719503108 0 -0.3763821131333096 0.39461876647475891 0 -0.38441984633433451 0.36748704170399737 0 -0.3763821131333096 0.39461876647475891 0 -0.39497705997241478 0.38537104622978419 0 -0.38441984633433451 0.36748704170399737 0 -0.41012631551955869 0.38442133783787091 0 -0.39497705997241478 0.38537104622978419 0 -0.40198479661267011 0.36699200619068112 0 -0.41012631551955869 0.38442133783787091 0 -0.39497705997241478 0.38537104622978419 0 -0.40297707120651388 0.39570797761753668 0 -0.41714287692546592 0.3969218202831713 0 -0.40297707120651388 0.39570797761753668 0 -0.39345623700294102 0.40608286592709569 0 -0.41714287692546592 0.3969218202831713 0 -0.39593404256571779 0.40774654188564607 0 -0.39345623700294102 0.40608286592709569 0 -0.41714287692546592 0.3969218202831713 0 -0.39345623700294102 0.40608286592709569 0 -0.38878242224169529 0.39551001355288501 0 -0.39345623700294102 0.40608286592709569 0 -0.39521442680871849 0.39645635379203492 0 -0.40297707120651388 0.39570797761753668 0 -0.39345623700294102 0.40608286592709569 0 -0.39521442680871849 0.39645635379203492 0 -0.39497705997241478 0.38537104622978419 0 -0.40297707120651388 0.39570797761753668 0 -0.39521442680871849 0.39645635379203492 0 -0.38878242224169529 0.39551001355288501 0 -0.39497705997241478 0.38537104622978419 0 -0.39521442680871849 0.39645635379203492 0 -0.40198479661267011 0.36699200619068112 0 -0.38441984633433451 0.36748704170399737 0 -0.39245757953535848 0.34035531693323562 0 -0.40198479661267011 0.36699200619068112 0 -0.39245757953535848 0.34035531693323562 0 -0.41217522793226008 0.35337087914395249 0 -0.39497705997241478 0.38537104622978419 0 -0.40198479661267011 0.36699200619068112 0 -0.38441984633433451 0.36748704170399737 0 -0.38441984633433451 0.36748704170399737 0 -0.39245757953535848 0.34035531693323562 0 -0.38441984633433451 0.36748704170399737 0 -0.37586490017490559 0.3498469573215004 0 -0.39245757953535848 0.34035531693323562 0 -0.37586490017490559 0.3498469573215004 0 -0.39245757953535848 0.34035531693323562 0 -0.36826361210264191 0.33447010231811508 0 -0.38357221515642898 0.32256067272598671 0 -0.39245757953535848 0.34035531693323562 0 -0.36826361210264191 0.33447010231811508 0 -0.38357221515642898 0.32256067272598671 0 -0.40049531273638272 0.31322359216247381 0 -0.39245757953535848 0.34035531693323562 0 -0.40049531273638272 0.31322359216247381 0 -0.39245757953535848 0.34035531693323562 0 -0.40049531273638272 0.31322359216247381 0 -0.39245757953535848 0.34035531693323562 0 -0.42026243431690169 0.33093167260387979 0 -0.39245757953535848 0.34035531693323562 0 -0.42026243431690169 0.33093167260387979 0 -0.41217522793226008 0.35337087914395249 0 -0.40049531273638272 0.31322359216247381 0 -0.42026243431690169 0.33093167260387979 0 -0.41976559079851428 0.30478803225123319 0 -0.42026243431690169 0.33093167260387979 0 -0.43934849936692411 0.31245024310626429 0 -0.41976559079851428 0.30478803225123319 0 -0.42026243431690169 0.33093167260387979 0 -0.44570528618138089 0.33694911391744548 0 -0.43934849936692411 0.31245024310626429 0 -0.42026243431690169 0.33093167260387979 0 -0.43057825110151032 0.35416988272632399 0 -0.44570528618138089 0.33694911391744548 0 -0.42026243431690169 0.33093167260387979 0 -0.43057825110151032 0.35416988272632399 0 -0.41217522793226008 0.35337087914395249 0 -0.40198479661267011 0.36699200619068112 0 -0.41217522793226008 0.35337087914395249 0 -0.4177527503820942 0.37094641529524619 0 -0.41012631551955869 0.38442133783787091 0 -0.40198479661267011 0.36699200619068112 0 -0.4177527503820942 0.37094641529524619 0 -0.43057825110151032 0.35416988272632399 0 -0.41217522793226008 0.35337087914395249 0 -0.4177527503820942 0.37094641529524619 0 -0.43057825110151032 0.35416988272632399 0 -0.4177527503820942 0.37094641529524619 0 -0.43398411596488912 0.37034019119532591 0 -0.43057825110151032 0.35416988272632399 0 -0.43398411596488912 0.37034019119532591 0 -0.44979609385608887 0.36146577883784858 0 -0.44496590517119627 0.3811532460473806 0 -0.43398411596488912 0.37034019119532591 0 -0.44979609385608887 0.36146577883784858 0 -0.43057825110151032 0.35416988272632399 0 -0.44979609385608887 0.36146577883784858 0 -0.44570528618138089 0.33694911391744548 0 -0.44979609385608887 0.36146577883784858 0 -0.47306950820906007 0.34786777174181871 0 -0.44570528618138089 0.33694911391744548 0 -0.46937670454704161 0.37673658357893058 0 -0.44496590517119627 0.3811532460473806 0 -0.44979609385608887 0.36146577883784858 0 -0.46937670454704161 0.37673658357893058 0 -0.44979609385608887 0.36146577883784858 0 -0.47306950820906007 0.34786777174181871 0 -0.46937670454704161 0.37673658357893058 0 -0.47306950820906007 0.34786777174181871 0 -0.46937670454704161 0.37673658357893058 0 -0.47306950820906007 0.34786777174181871 0 -0.5 0.37086963890520641 0 -0.47306950820906007 0.34786777174181871 0 -0.5 0.37086963890520641 0 -0.5 0.34259668768838208 0 -0.48919524953591692 0.3134112048038678 0 -0.5 0.31432373647155792 0 -0.48918254538284273 0.33000866145782459 0 -0.48919524953591692 0.3134112048038678 0 -0.48918254538284273 0.33000866145782459 0 -0.47676231187107848 0.31899895990470689 0 -0.5 0.31432373647155792 0 -0.48918254538284273 0.33000866145782459 0 -0.5 0.34259668768838208 0 -0.47306950820906007 0.34786777174181871 0 -0.48918254538284273 0.33000866145782459 0 -0.5 0.34259668768838208 0 -0.47306950820906007 0.34786777174181871 0 -0.48918254538284273 0.33000866145782459 0 -0.47676231187107848 0.31899895990470689 0 -0.47306950820906007 0.34786777174181871 0 -0.47676231187107848 0.31899895990470689 0 -0.47306950820906007 0.34786777174181871 0 -0.47676231187107848 0.31899895990470689 0 -0.4573776301775338 0.31802971167214961 0 -0.47676231187107848 0.31899895990470689 0 -0.4573776301775338 0.31802971167214961 0 -0.46747663462966271 0.3051367263565834 0 -0.47306950820906007 0.34786777174181871 0 -0.4573776301775338 0.31802971167214961 0 -0.44570528618138089 0.33694911391744548 0 -0.4573776301775338 0.31802971167214961 0 -0.44570528618138089 0.33694911391744548 0 -0.43934849936692411 0.31245024310626429 0 -0.4573776301775338 0.31802971167214961 0 -0.43934849936692411 0.31245024310626429 0 -0.45365989416038899 0.29815331183018889 0 -0.43934849936692411 0.31245024310626429 0 -0.45365989416038899 0.29815331183018889 0 -0.43483090892463938 0.29131468296546259 0 -0.45365989416038899 0.29815331183018889 0 -0.45352891971584552 0.27635953636924698 0 -0.43483090892463938 0.29131468296546259 0 -0.46740585539586849 0.28667651168495673 0 -0.45365989416038899 0.29815331183018889 0 -0.45352891971584552 0.27635953636924698 0 -0.46740585539586849 0.28667651168495673 0 -0.45365989416038899 0.29815331183018889 0 -0.46747663462966271 0.3051367263565834 0 -0.4573776301775338 0.31802971167214961 0 -0.45365989416038899 0.29815331183018889 0 -0.46747663462966271 0.3051367263565834 0 -0.48919524953591692 0.3134112048038678 0 -0.47676231187107848 0.31899895990470689 0 -0.47983341210047509 0.29975569797943569 0 -0.46740585539586849 0.28667651168495673 0 -0.46747663462966271 0.3051367263565834 0 -0.47983341210047509 0.29975569797943569 0 -0.47676231187107848 0.31899895990470689 0 -0.46747663462966271 0.3051367263565834 0 -0.47983341210047509 0.29975569797943569 0 -0.46740585539586849 0.28667651168495673 0 -0.47983341210047509 0.29975569797943569 0 -0.48071050944069471 0.28461127909467449 0 -0.46740585539586849 0.28667651168495673 0 -0.48071050944069471 0.28461127909467449 0 -0.47507400823686979 0.27257694236361851 0 -0.47983341210047509 0.29975569797943569 0 -0.48071050944069471 0.28461127909467449 0 -0.48861778928345101 0.29372573589547318 0 -0.48861778928345101 0.29372573589547318 0 -0.49394125808720812 0.28231654611464091 0 -0.49847448649957088 0.30780129321739957 0 -0.5 0.2860507852547336 0 -0.49394125808720812 0.28231654611464091 0 -0.49847448649957088 0.30780129321739957 0 -0.49394125808720812 0.28231654611464091 0 -0.49847448649957088 0.30780129321739957 0 -0.48071050944069471 0.28461127909467449 0 -0.48861778928345101 0.29372573589547318 0 -0.49394125808720812 0.28231654611464091 0 -0.5 0.31432373647155792 0 -0.5 0.2860507852547336 0 -0.49847448649957088 0.30780129321739957 0 -0.48919524953591692 0.3134112048038678 0 -0.49847448649957088 0.30780129321739957 0 -0.48903023435485349 0.30367348297404412 0 -0.48919524953591692 0.3134112048038678 0 -0.5 0.31432373647155792 0 -0.49847448649957088 0.30780129321739957 0 -0.48919524953591692 0.3134112048038678 0 -0.47983341210047509 0.29975569797943569 0 -0.48903023435485349 0.30367348297404412 0 -0.48861778928345101 0.29372573589547318 0 -0.49847448649957088 0.30780129321739957 0 -0.48903023435485349 0.30367348297404412 0 -0.47983341210047509 0.29975569797943569 0 -0.48861778928345101 0.29372573589547318 0 -0.48903023435485349 0.30367348297404412 0 -0.49357070773433198 0.24386539194500001 0 -0.48940802967484542 0.25683179901188219 0 -0.5 0.25777783403790933 0 -0.49394125808720812 0.28231654611464091 0 -0.48940802967484542 0.25683179901188219 0 -0.48440269670486608 0.26833850453688851 0 -0.5 0.2860507852547336 0 -0.49394125808720812 0.28231654611464091 0 -0.5 0.25777783403790933 0 -0.49394125808720812 0.28231654611464091 0 -0.48940802967484542 0.25683179901188219 0 -0.49394125808720812 0.28231654611464091 0 -0.48940802967484542 0.25683179901188219 0 -0.5 0.25777783403790933 0 -0.49394125808720812 0.28231654611464091 0 -0.48440269670486608 0.26833850453688851 0 -0.48385741234448421 0.27620706461603239 0 -0.48071050944069471 0.28461127909467449 0 -0.49394125808720812 0.28231654611464091 0 -0.48385741234448421 0.27620706461603239 0 -0.48440269670486608 0.26833850453688851 0 -0.47507400823686979 0.27257694236361851 0 -0.4771304213643271 0.25979019786965368 0 -0.48440269670486608 0.26833850453688851 0 -0.48385741234448421 0.27620706461603239 0 -0.47507400823686979 0.27257694236361851 0 -0.48071050944069471 0.28461127909467449 0 -0.48385741234448421 0.27620706461603239 0 -0.47507400823686979 0.27257694236361851 0 -0.46740585539586849 0.28667651168495673 0 -0.47507400823686979 0.27257694236361851 0 -0.46552394449711693 0.27492622332119598 0 -0.47507400823686979 0.27257694236361851 0 -0.46608699463988368 0.26409190286696188 0 -0.46552394449711693 0.27492622332119598 0 -0.47507400823686979 0.27257694236361851 0 -0.4771304213643271 0.25979019786965368 0 -0.46608699463988368 0.26409190286696188 0 -0.4771304213643271 0.25979019786965368 0 -0.46870141352786698 0.25225739816318449 0 -0.46608699463988368 0.26409190286696188 0 -0.48940802967484542 0.25683179901188219 0 -0.48440269670486608 0.26833850453688851 0 -0.4771304213643271 0.25979019786965368 0 -0.47780820849333222 0.2476596539210795 0 -0.48940802967484542 0.25683179901188219 0 -0.4771304213643271 0.25979019786965368 0 -0.47780820849333222 0.2476596539210795 0 -0.4771304213643271 0.25979019786965368 0 -0.46870141352786698 0.25225739816318449 0 -0.45970327197577582 0.24454748634297321 0 -0.46870141352786698 0.25225739816318449 0 -0.45235884440879393 0.25756667450669463 0 -0.46870141352786698 0.25225739816318449 0 -0.46608699463988368 0.26409190286696188 0 -0.45235884440879393 0.25756667450669463 0 -0.46608699463988368 0.26409190286696188 0 -0.45352891971584552 0.27635953636924698 0 -0.45235884440879393 0.25756667450669463 0 -0.46740585539586849 0.28667651168495673 0 -0.46552394449711693 0.27492622332119598 0 -0.45352891971584552 0.27635953636924698 0 -0.46608699463988368 0.26409190286696188 0 -0.46552394449711693 0.27492622332119598 0 -0.45352891971584552 0.27635953636924698 0 -0.45352891971584552 0.27635953636924698 0 -0.45235884440879393 0.25756667450669463 0 -0.43419731878332612 0.27055934014754451 0 -0.45352891971584552 0.27635953636924698 0 -0.43419731878332612 0.27055934014754451 0 -0.43483090892463938 0.29131468296546259 0 -0.43460594810953662 0.24974433279273681 0 -0.45235884440879393 0.25756667450669463 0 -0.43419731878332612 0.27055934014754451 0 -0.44879287157715531 0.2436899004703923 0 -0.43460594810953662 0.24974433279273681 0 -0.45235884440879393 0.25756667450669463 0 -0.43460594810953662 0.24974433279273681 0 -0.41657077913843088 0.25896014262095007 0 -0.43419731878332612 0.27055934014754451 0 -0.42013516911364568 0.24317325278082849 0 -0.43460594810953662 0.24974433279273681 0 -0.41657077913843088 0.25896014262095007 0 -0.41657077913843088 0.25896014262095007 0 -0.40853304593740669 0.28609186739171188 0 -0.39899695307798538 0.2656363605085969 0 -0.41657077913843088 0.25896014262095007 0 -0.40853304593740669 0.28609186739171188 0 -0.41657077913843088 0.25896014262095007 0 -0.43419731878332612 0.27055934014754451 0 -0.40853304593740669 0.28609186739171188 0 -0.43419731878332612 0.27055934014754451 0 -0.43483090892463938 0.29131468296546259 0 -0.40853304593740669 0.28609186739171188 0 -0.43934849936692411 0.31245024310626429 0 -0.43483090892463938 0.29131468296546259 0 -0.41976559079851428 0.30478803225123319 0 -0.40049531273638272 0.31322359216247381 0 -0.41976559079851428 0.30478803225123319 0 -0.40853304593740669 0.28609186739171188 0 -0.43483090892463938 0.29131468296546259 0 -0.41976559079851428 0.30478803225123319 0 -0.40853304593740669 0.28609186739171188 0 -0.40049531273638272 0.31322359216247381 0 -0.40853304593740669 0.28609186739171188 0 -0.39366250419531229 0.28822358788024371 0 -0.40049531273638272 0.31322359216247381 0 -0.39366250419531229 0.28822358788024371 0 -0.38368214952068092 0.29945166716893612 0 -0.40049531273638272 0.31322359216247381 0 -0.40853304593740669 0.28609186739171188 0 -0.38357221515642898 0.32256067272598671 0 -0.38368214952068092 0.29945166716893612 0 -0.37106326528725508 0.30967892385001661 0 -0.38357221515642898 0.32256067272598671 0 -0.40049531273638272 0.31322359216247381 0 -0.38368214952068092 0.29945166716893612 0 -0.38368214952068092 0.29945166716893612 0 -0.37386291847186848 0.28488774538191791 0 -0.37106326528725508 0.30967892385001661 0 -0.39366250419531229 0.28822358788024371 0 -0.38368214952068092 0.29945166716893612 0 -0.38388497018915813 0.27681845426843998 0 -0.38368214952068092 0.29945166716893612 0 -0.38388497018915813 0.27681845426843998 0 -0.37386291847186848 0.28488774538191791 0 -0.38368214952068092 0.29945166716893612 0 -0.38388497018915813 0.27681845426843998 0 -0.38388497018915813 0.27681845426843998 0 -0.37666257165648181 0.26009656691381922 0 -0.37386291847186848 0.28488774538191791 0 -0.37666257165648181 0.26009656691381922 0 -0.37386291847186848 0.28488774538191791 0 -0.38388497018915813 0.27681845426843998 0 -0.38408779085763528 0.25418524136794413 0 -0.38388497018915813 0.27681845426843998 0 -0.37666257165648181 0.26009656691381922 0 -0.38408779085763528 0.25418524136794413 0 -0.38388497018915813 0.27681845426843998 0 -0.38408779085763528 0.25418524136794413 0 -0.39899695307798538 0.2656363605085969 0 -0.40543934551940192 0.241352405506014 0 -0.41657077913843088 0.25896014262095007 0 -0.39671598301771022 0.2523864843573409 0 -0.41657077913843088 0.25896014262095007 0 -0.39671598301771022 0.2523864843573409 0 -0.39899695307798538 0.2656363605085969 0 -0.38408779085763528 0.25418524136794413 0 -0.39671598301771022 0.2523864843573409 0 -0.39899695307798538 0.2656363605085969 0 -0.39366250419531229 0.28822358788024371 0 -0.38388497018915813 0.27681845426843998 0 -0.39899695307798538 0.2656363605085969 0 -0.40853304593740669 0.28609186739171188 0 -0.39366250419531229 0.28822358788024371 0 -0.39899695307798538 0.2656363605085969 0 -0.35944912849734462 0.2716797569264357 0 -0.35603065875099588 0.28967074406538329 0 -0.33865680668486381 0.27744172656870503 0 -0.34999157284080368 0.25810312054077111 0 -0.35944912849734462 0.2716797569264357 0 -0.33865680668486381 0.27744172656870503 0 -0.36205814242813272 0.2488345008902679 0 -0.34999157284080368 0.25810312054077111 0 -0.36204035385569061 0.25967848631782348 0 -0.34999157284080368 0.25810312054077111 0 -0.36204035385569061 0.25967848631782348 0 -0.35944912849734462 0.2716797569264357 0 -0.37666257165648181 0.26009656691381922 0 -0.36204035385569061 0.25967848631782348 0 -0.35944912849734462 0.2716797569264357 0 -0.36205814242813272 0.2488345008902679 0 -0.37666257165648181 0.26009656691381922 0 -0.36204035385569061 0.25967848631782348 0 -0.37666257165648181 0.26009656691381922 0 -0.35944912849734462 0.2716797569264357 0 -0.37386291847186848 0.28488774538191791 0 -0.37386291847186848 0.28488774538191791 0 -0.37106326528725508 0.30967892385001661 0 -0.35603065875099588 0.28967074406538329 0 -0.35944912849734462 0.2716797569264357 0 -0.37386291847186848 0.28488774538191791 0 -0.35603065875099588 0.28967074406538329 0 -0.37386291847186848 0.28488774538191791 0 -0.37106326528725508 0.30967892385001661 0 -0.37106326528725508 0.30967892385001661 0 -0.3444889010237962 0.30557585753227179 0 -0.35603065875099588 0.28967074406538329 0 -0.37106326528725508 0.30967892385001661 0 -0.3444889010237962 0.30557585753227179 0 -0.35984828158371451 0.32096609317174418 0 -0.3444889010237962 0.30557585753227179 0 -0.35603065875099588 0.28967074406538329 0 -0.33865680668486381 0.27744172656870503 0 -0.3444889010237962 0.30557585753227179 0 -0.33865680668486381 0.27744172656870503 0 -0.3444889010237962 0.30557585753227179 0 -0.31927805592336062 0.29211953465998758 0 -0.33865680668486381 0.27744172656870503 0 -0.31927805592336062 0.29211953465998758 0 -0.30031248746027639 0.30186540590040051 0 -0.32032519049196151 0.31359204672195468 0 -0.3444889010237962 0.30557585753227179 0 -0.31927805592336062 0.29211953465998758 0 -0.32032519049196151 0.31359204672195468 0 -0.31927805592336062 0.29211953465998758 0 -0.31495662050993478 0.27029557581977648 0 -0.33865680668486381 0.27744172656870503 0 -0.3328247123459312 0.24930759560513821 0 -0.31495662050993478 0.27029557581977648 0 -0.33865680668486381 0.27744172656870503 0 -0.3328247123459312 0.24930759560513821 0 -0.33865680668486381 0.27744172656870503 0 -0.3328247123459312 0.24930759560513821 0 -0.34999157284080368 0.25810312054077111 0 -0.33865680668486381 0.27744172656870503 0 -0.3328247123459312 0.24930759560513821 0 -0.31110064463521619 0.2477379589431575 0 -0.31495662050993478 0.27029557581977648 0 -0.31110064463521619 0.2477379589431575 0 -0.31495662050993478 0.27029557581977648 0 -0.29405025505885363 0.2665194007526584 0 -0.28829658598005847 0.24604816411315039 0 -0.31110064463521619 0.2477379589431575 0 -0.29405025505885363 0.2665194007526584 0 -0.31495662050993478 0.27029557581977648 0 -0.29405025505885363 0.2665194007526584 0 -0.29952088803173837 0.28419363129162373 0 -0.29405025505885363 0.2665194007526584 0 -0.28175055883096412 0.27984852511200758 0 -0.2721765985049488 0.26097555064868161 0 -0.29405025505885363 0.2665194007526584 0 -0.28175055883096412 0.27984852511200758 0 -0.29952088803173837 0.28419363129162373 0 -0.28829658598005847 0.24604816411315039 0 -0.29405025505885363 0.2665194007526584 0 -0.2721765985049488 0.26097555064868161 0 -0.28175055883096412 0.27984852511200758 0 -0.2721765985049488 0.26097555064868161 0 -0.26873831275601201 0.27890740633074501 0 -0.25522404109648089 0.2674044268366268 0 -0.26068388373972601 0.2942478567628139 0 -0.24033881776653979 0.27704225328469761 0 -0.2721765985049488 0.26097555064868161 0 -0.26873831275601201 0.27890740633074501 0 -0.25522404109648089 0.2674044268366268 0 -0.25522404109648089 0.2674044268366268 0 -0.26068388373972601 0.2942478567628139 0 -0.26873831275601201 0.27890740633074501 0 -0.25522404109648089 0.2674044268366268 0 -0.26068388373972601 0.2942478567628139 0 -0.25177043790547998 0.24599012604316309 0 -0.2721765985049488 0.26097555064868161 0 -0.25522404109648089 0.2674044268366268 0 -0.26068388373972601 0.2942478567628139 0 -0.26614372638297101 0.32109128668900111 0 -0.25207190056089518 0.30376089832601799 0 -0.26068388373972601 0.2942478567628139 0 -0.26614372638297101 0.32109128668900111 0 -0.26068388373972601 0.2942478567628139 0 -0.26965222856760868 0.30411659005525238 0 -0.26614372638297101 0.32109128668900111 0 -0.25207190056089518 0.30376089832601799 0 -0.26068388373972601 0.2942478567628139 0 -0.24033881776653979 0.27704225328469761 0 -0.26068388373972601 0.2942478567628139 0 -0.27385648160794018 0.29206067229359473 0 -0.26965222856760868 0.30411659005525238 0 -0.26873831275601201 0.27890740633074501 0 -0.26068388373972601 0.2942478567628139 0 -0.27385648160794018 0.29206067229359473 0 -0.28175055883096412 0.27984852511200758 0 -0.27385648160794018 0.29206067229359473 0 -0.28704449973560031 0.2950105002036037 0 -0.28175055883096412 0.27984852511200758 0 -0.26873831275601201 0.27890740633074501 0 -0.27385648160794018 0.29206067229359473 0 -0.26965222856760868 0.30411659005525238 0 -0.27308304489420931 0.31173329000978472 0 -0.26614372638297101 0.32109128668900111 0 -0.27385648160794018 0.29206067229359473 0 -0.27837076862552212 0.30462738718743071 0 -0.26965222856760868 0.30411659005525238 0 -0.27385648160794018 0.29206067229359473 0 -0.27837076862552212 0.30462738718743071 0 -0.28704449973560031 0.2950105002036037 0 -0.27837076862552212 0.30462738718743071 0 -0.26965222856760868 0.30411659005525238 0 -0.27308304489420931 0.31173329000978472 0 -0.27837076862552212 0.30462738718743071 0 -0.27308304489420931 0.31173329000978472 0 -0.28010383720689802 0.3186866674406364 0 -0.27837076862552212 0.30462738718743071 0 -0.2899945939896601 0.31033099050102791 0 -0.28010383720689802 0.3186866674406364 0 -0.27837076862552212 0.30462738718743071 0 -0.2899945939896601 0.31033099050102791 0 -0.28704449973560031 0.2950105002036037 0 -0.2899945939896601 0.31033099050102791 0 -0.28704449973560031 0.2950105002036037 0 -0.30031248746027639 0.30186540590040051 0 -0.28175055883096412 0.27984852511200758 0 -0.28704449973560031 0.2950105002036037 0 -0.29952088803173837 0.28419363129162373 0 -0.28704449973560031 0.2950105002036037 0 -0.29952088803173837 0.28419363129162373 0 -0.30031248746027639 0.30186540590040051 0 -0.31927805592336062 0.29211953465998758 0 -0.29952088803173837 0.28419363129162373 0 -0.30031248746027639 0.30186540590040051 0 -0.31927805592336062 0.29211953465998758 0 -0.31495662050993478 0.27029557581977648 0 -0.29952088803173837 0.28419363129162373 0 -0.30031248746027639 0.30186540590040051 0 -0.30253535721836972 0.32179561683001179 0 -0.32032519049196151 0.31359204672195468 0 -0.2899945939896601 0.31033099050102791 0 -0.30031248746027639 0.30186540590040051 0 -0.30253535721836972 0.32179561683001179 0 -0.30253535721836972 0.32179561683001179 0 -0.31100031296254538 0.33717232273781111 0 -0.32120543753280562 0.32791929254302621 0 -0.30253535721836972 0.32179561683001179 0 -0.31100031296254538 0.33717232273781111 0 -0.29778225314234069 0.3387196349169872 0 -0.31100031296254538 0.33717232273781111 0 -0.29778225314234069 0.3387196349169872 0 -0.30662265268206501 0.34860238554506739 0 -0.30253535721836972 0.32179561683001179 0 -0.29778225314234069 0.3387196349169872 0 -0.28760542149401003 0.33070303632350972 0 -0.29778225314234069 0.3387196349169872 0 -0.28760542149401003 0.33070303632350972 0 -0.28419064727341042 0.34152311730530488 0 -0.28760542149401003 0.33070303632350972 0 -0.28419064727341042 0.34152311730530488 0 -0.27727565997609388 0.33179156433297502 0 -0.2899945939896601 0.31033099050102791 0 -0.30253535721836972 0.32179561683001179 0 -0.29016305467609121 0.32053111206948087 0 -0.30253535721836972 0.32179561683001179 0 -0.28760542149401003 0.33070303632350972 0 -0.29016305467609121 0.32053111206948087 0 -0.28760542149401003 0.33070303632350972 0 -0.29016305467609121 0.32053111206948087 0 -0.28010383720689802 0.3186866674406364 0 -0.28760542149401003 0.33070303632350972 0 -0.28010383720689802 0.3186866674406364 0 -0.27727565997609388 0.33179156433297502 0 -0.2899945939896601 0.31033099050102791 0 -0.29016305467609121 0.32053111206948087 0 -0.28010383720689802 0.3186866674406364 0 -0.27308304489420931 0.31173329000978472 0 -0.28010383720689802 0.3186866674406364 0 -0.26614372638297101 0.32109128668900111 0 -0.28010383720689802 0.3186866674406364 0 -0.26614372638297101 0.32109128668900111 0 -0.27727565997609388 0.33179156433297502 0 -0.26614372638297101 0.32109128668900111 0 -0.26380498335525071 0.33047954336733848 0 -0.27149172301994451 0.34798383207182071 0 -0.28419064727341042 0.34152311730530488 0 -0.27727565997609388 0.33179156433297502 0 -0.27149172301994451 0.34798383207182071 0 -0.26380498335525071 0.33047954336733848 0 -0.27149172301994451 0.34798383207182071 0 -0.26614372638297101 0.32109128668900111 0 -0.27727565997609388 0.33179156433297502 0 -0.27149172301994451 0.34798383207182071 0 -0.26614372638297101 0.32109128668900111 0 -0.27149172301994451 0.34798383207182071 0 -0.26380498335525071 0.33047954336733848 0 -0.25385547873427328 0.34079321197431628 0 -0.26148861200731571 0.34883103937820742 0 -0.26380498335525071 0.33047954336733848 0 -0.26148861200731571 0.34883103937820742 0 -0.27149172301994451 0.34798383207182071 0 -0.26380498335525071 0.33047954336733848 0 -0.25385547873427328 0.34079321197431628 0 -0.25278242527253569 0.33108214078453929 0 -0.25207190056089518 0.30376089832601799 0 -0.26380498335525071 0.33047954336733848 0 -0.25207190056089518 0.30376089832601799 0 -0.26614372638297101 0.32109128668900111 0 -0.26380498335525071 0.33047954336733848 0 -0.25207190056089518 0.30376089832601799 0 -0.26380498335525071 0.33047954336733848 0 -0.25050765906856298 0.32044767092370591 0 -0.26380498335525071 0.33047954336733848 0 -0.25278242527253569 0.33108214078453929 0 -0.25050765906856298 0.32044767092370591 0 -0.25991757857111031 0.36409397333669369 0 -0.25387561127537051 0.38040348395526619 0 -0.24701328765104449 0.36866684718732318 0 -0.25991757857111031 0.36409397333669369 0 -0.26817624619023561 0.37569627059022798 0 -0.25387561127537051 0.38040348395526619 0 -0.25991757857111031 0.36409397333669369 0 -0.2476437652915798 0.35795818431482368 0 -0.24701328765104449 0.36866684718732318 0 -0.25991757857111031 0.36409397333669369 0 -0.25432695322633803 0.3515902798040294 0 -0.2476437652915798 0.35795818431482368 0 -0.25385547873427328 0.34079321197431628 0 -0.25432695322633803 0.3515902798040294 0 -0.26148861200731571 0.34883103937820742 0 -0.25991757857111031 0.36409397333669369 0 -0.25432695322633803 0.3515902798040294 0 -0.26148861200731571 0.34883103937820742 0 -0.25991757857111031 0.36409397333669369 0 -0.26148861200731571 0.34883103937820742 0 -0.27553806614960619 0.35719818840865902 0 -0.26148861200731571 0.34883103937820742 0 -0.27149172301994451 0.34798383207182071 0 -0.27553806614960619 0.35719818840865902 0 -0.28419064727341042 0.34152311730530488 0 -0.27149172301994451 0.34798383207182071 0 -0.28393318322282263 0.35071360019992409 0 -0.27149172301994451 0.34798383207182071 0 -0.27553806614960619 0.35719818840865902 0 -0.28393318322282263 0.35071360019992409 0 -0.27149172301994451 0.34798383207182071 0 -0.27553806614960619 0.35719818840865902 0 -0.27553806614960619 0.35719818840865902 0 -0.28727114894396172 0.3839168334499794 0 -0.26817624619023561 0.37569627059022798 0 -0.25991757857111031 0.36409397333669369 0 -0.27553806614960619 0.35719818840865902 0 -0.26817624619023561 0.37569627059022798 0 -0.27553806614960619 0.35719818840865902 0 -0.29014200462500178 0.36672061713596449 0 -0.28727114894396172 0.3839168334499794 0 -0.27553806614960619 0.35719818840865902 0 -0.28727114894396172 0.3839168334499794 0 -0.29014200462500178 0.36672061713596449 0 -0.30898289073664181 0.37072040498276571 0 -0.28727114894396172 0.3839168334499794 0 -0.27553806614960619 0.35719818840865902 0 -0.29014200462500178 0.36672061713596449 0 -0.28393318322282263 0.35071360019992409 0 -0.29014200462500178 0.36672061713596449 0 -0.28393318322282263 0.35071360019992409 0 -0.29473912722364459 0.35252133076021869 0 -0.28419064727341042 0.34152311730530488 0 -0.28393318322282263 0.35071360019992409 0 -0.29473912722364459 0.35252133076021869 0 -0.29778225314234069 0.3387196349169872 0 -0.28419064727341042 0.34152311730530488 0 -0.29473912722364459 0.35252133076021869 0 -0.30662265268206501 0.34860238554506739 0 -0.30898289073664181 0.37072040498276571 0 -0.3184378989006611 0.35156348934713799 0 -0.29473912722364459 0.35252133076021869 0 -0.30662265268206501 0.34860238554506739 0 -0.30898289073664181 0.37072040498276571 0 -0.29778225314234069 0.3387196349169872 0 -0.29473912722364459 0.35252133076021869 0 -0.30662265268206501 0.34860238554506739 0 -0.31100031296254538 0.33717232273781111 0 -0.30662265268206501 0.34860238554506739 0 -0.3184378989006611 0.35156348934713799 0 -0.29014200462500178 0.36672061713596449 0 -0.29473912722364459 0.35252133076021869 0 -0.30898289073664181 0.37072040498276571 0 -0.30898289073664181 0.37072040498276571 0 -0.33237240987409938 0.36079690507190743 0 -0.33683030400294628 0.38190476580143801 0 -0.30898289073664181 0.37072040498276571 0 -0.33237240987409938 0.36079690507190743 0 -0.3184378989006611 0.35156348934713799 0 -0.33237240987409938 0.36079690507190743 0 -0.34656629339330869 0.36744747210692902 0 -0.33683030400294628 0.38190476580143801 0 -0.33237240987409938 0.36079690507190743 0 -0.33069019922110171 0.34019213503584222 0 -0.34441276247547081 0.34878367967052581 0 -0.33237240987409938 0.36079690507190743 0 -0.34656629339330869 0.36744747210692902 0 -0.34441276247547081 0.34878367967052581 0 -0.33237240987409938 0.36079690507190743 0 -0.3184378989006611 0.35156348934713799 0 -0.33069019922110171 0.34019213503584222 0 -0.31100031296254538 0.33717232273781111 0 -0.3184378989006611 0.35156348934713799 0 -0.33069019922110171 0.34019213503584222 0 -0.31100031296254538 0.33717232273781111 0 -0.32120543753280562 0.32791929254302621 0 -0.33069019922110171 0.34019213503584222 0 -0.30253535721836972 0.32179561683001179 0 -0.32120543753280562 0.32791929254302621 0 -0.32032519049196151 0.31359204672195468 0 -0.32120543753280562 0.32791929254302621 0 -0.32032519049196151 0.31359204672195468 0 -0.33358708605032561 0.32425720212237241 0 -0.3444889010237962 0.30557585753227179 0 -0.33358708605032561 0.32425720212237241 0 -0.3503209953627287 0.33370998849583827 0 -0.3444889010237962 0.30557585753227179 0 -0.32032519049196151 0.31359204672195468 0 -0.33358708605032561 0.32425720212237241 0 -0.33358708605032561 0.32425720212237241 0 -0.33069019922110171 0.34019213503584222 0 -0.3503209953627287 0.33370998849583827 0 -0.32120543753280562 0.32791929254302621 0 -0.33358708605032561 0.32425720212237241 0 -0.33069019922110171 0.34019213503584222 0 -0.33069019922110171 0.34019213503584222 0 -0.3503209953627287 0.33370998849583827 0 -0.34441276247547081 0.34878367967052581 0 -0.3503209953627287 0.33370998849583827 0 -0.36826361210264191 0.33447010231811508 0 -0.35831856272728763 0.35707536833065351 0 -0.3444889010237962 0.30557585753227179 0 -0.3503209953627287 0.33370998849583827 0 -0.3444889010237962 0.30557585753227179 0 -0.3503209953627287 0.33370998849583827 0 -0.35984828158371451 0.32096609317174418 0 -0.38357221515642898 0.32256067272598671 0 -0.37106326528725508 0.30967892385001661 0 -0.36826361210264191 0.33447010231811508 0 -0.37106326528725508 0.30967892385001661 0 -0.35984828158371451 0.32096609317174418 0 -0.36826361210264191 0.33447010231811508 0 -0.37106326528725508 0.30967892385001661 0 -0.36826361210264191 0.33447010231811508 0 -0.3503209953627287 0.33370998849583827 0 -0.35984828158371451 0.32096609317174418 0 -0.36826361210264191 0.33447010231811508 0 -0.37586490017490559 0.3498469573215004 0 -0.36826361210264191 0.33447010231811508 0 -0.35831856272728763 0.35707536833065351 0 -0.38441984633433451 0.36748704170399737 0 -0.37586490017490559 0.3498469573215004 0 -0.35831856272728763 0.35707536833065351 0 -0.38441984633433451 0.36748704170399737 0 -0.35831856272728763 0.35707536833065351 0 -0.35721105160818001 0.38174671765931623 0 -0.34656629339330869 0.36744747210692902 0 -0.35831856272728763 0.35707536833065351 0 -0.35721105160818001 0.38174671765931623 0 -0.3503209953627287 0.33370998849583827 0 -0.35831856272728763 0.35707536833065351 0 -0.34441276247547081 0.34878367967052581 0 -0.34656629339330869 0.36744747210692902 0 -0.35831856272728763 0.35707536833065351 0 -0.34441276247547081 0.34878367967052581 0 -0.35015698025508513 0.40000457368939268 0 -0.35721105160818001 0.38174671765931623 0 -0.36403652928337837 0.39767970252887153 0 -0.35015698025508513 0.40000457368939268 0 -0.36403652928337837 0.39767970252887153 0 -0.35972798455479033 0.40885251044328819 0 -0.34656629339330869 0.36744747210692902 0 -0.35721105160818001 0.38174671765931623 0 -0.33683030400294628 0.38190476580143801 0 -0.35015698025508513 0.40000457368939268 0 -0.35721105160818001 0.38174671765931623 0 -0.33683030400294628 0.38190476580143801 0 -0.3763821131333096 0.39461876647475891 0 -0.38441984633433451 0.36748704170399737 0 -0.35721105160818001 0.38174671765931623 0 -0.3763821131333096 0.39461876647475891 0 -0.35721105160818001 0.38174671765931623 0 -0.3763821131333096 0.39461876647475891 0 -0.35721105160818001 0.38174671765931623 0 -0.36403652928337837 0.39767970252887153 0 -0.36403652928337837 0.39767970252887153 0 -0.37327099691651738 0.40512047719503108 0 -0.35972798455479033 0.40885251044328819 0 -0.3763821131333096 0.39461876647475891 0 -0.36403652928337837 0.39767970252887153 0 -0.37327099691651738 0.40512047719503108 0 -0.3763821131333096 0.39461876647475891 0 -0.37327099691651738 0.40512047719503108 0 -0.38182929675161897 0.41673275701078089 0 -0.36821055110730377 0.41584688824341393 0 -0.37328688082870892 0.43209049225339369 0 -0.37327099691651738 0.40512047719503108 0 -0.36821055110730377 0.41584688824341393 0 -0.35972798455479033 0.40885251044328819 0 -0.36821055110730377 0.41584688824341393 0 -0.37328688082870892 0.43209049225339369 0 -0.34296486521166658 0.42561091055973183 0 -0.37328688082870892 0.43209049225339369 0 -0.34296486521166658 0.42561091055973183 0 -0.35439893499514058 0.44810308904666779 0 -0.35015698025508513 0.40000457368939268 0 -0.35972798455479033 0.40885251044328819 0 -0.34296486521166658 0.42561091055973183 0 -0.36821055110730377 0.41584688824341393 0 -0.34296486521166658 0.42561091055973183 0 -0.36821055110730377 0.41584688824341393 0 -0.35972798455479033 0.40885251044328819 0 -0.34296486521166658 0.42561091055973183 0 -0.33620602812038441 0.40896588492529917 0 -0.34296486521166658 0.42561091055973183 0 -0.32128386010410659 0.42033559253271913 0 -0.35015698025508513 0.40000457368939268 0 -0.33620602812038441 0.40896588492529917 0 -0.34296486521166658 0.42561091055973183 0 -0.34296486521166658 0.42561091055973183 0 -0.32128386010410659 0.42033559253271913 0 -0.32807105532146019 0.43963192058069411 0 -0.32128386010410659 0.42033559253271913 0 -0.30669131377808367 0.43563878320443172 0 -0.32807105532146019 0.43963192058069411 0 -0.33620602812038441 0.40896588492529917 0 -0.32128386010410659 0.42033559253271913 0 -0.32293481999810503 0.39568230986459968 0 -0.32128386010410659 0.42033559253271913 0 -0.32293481999810503 0.39568230986459968 0 -0.30034758169074061 0.4099344509774861 0 -0.35015698025508513 0.40000457368939268 0 -0.33620602812038441 0.40896588492529917 0 -0.33683030400294628 0.38190476580143801 0 -0.33620602812038441 0.40896588492529917 0 -0.32293481999810503 0.39568230986459968 0 -0.33683030400294628 0.38190476580143801 0 -0.30898289073664181 0.37072040498276571 0 -0.32293481999810503 0.39568230986459968 0 -0.33683030400294628 0.38190476580143801 0 -0.30898289073664181 0.37072040498276571 0 -0.32293481999810503 0.39568230986459968 0 -0.30514187598022741 0.39002256217209169 0 -0.30898289073664181 0.37072040498276571 0 -0.30514187598022741 0.39002256217209169 0 -0.28727114894396172 0.3839168334499794 0 -0.30514187598022741 0.39002256217209169 0 -0.28727114894396172 0.3839168334499794 0 -0.30034758169074061 0.4099344509774861 0 -0.32293481999810503 0.39568230986459968 0 -0.30514187598022741 0.39002256217209169 0 -0.30034758169074061 0.4099344509774861 0 -0.28727114894396172 0.3839168334499794 0 -0.27507485416392952 0.41165184954922901 0 -0.30034758169074061 0.4099344509774861 0 -0.28727114894396172 0.3839168334499794 0 -0.26817624619023561 0.37569627059022798 0 -0.26427882601112912 0.39286887380054158 0 -0.28727114894396172 0.3839168334499794 0 -0.26427882601112912 0.39286887380054158 0 -0.27507485416392952 0.41165184954922901 0 -0.26427882601112912 0.39286887380054158 0 -0.25100652733015583 0.40949614917766919 0 -0.24591914643091811 0.39479546152300521 0 -0.26427882601112912 0.39286887380054158 0 -0.25100652733015583 0.40949614917766919 0 -0.27507485416392952 0.41165184954922901 0 -0.26817624619023561 0.37569627059022798 0 -0.26427882601112912 0.39286887380054158 0 -0.25387561127537051 0.38040348395526619 0 -0.26427882601112912 0.39286887380054158 0 -0.25387561127537051 0.38040348395526619 0 -0.24591914643091811 0.39479546152300521 0 -0.25100652733015583 0.40949614917766919 0 -0.27507485416392952 0.41165184954922901 0 -0.26098937332124522 0.43347689389149152 0 -0.25100652733015583 0.40949614917766919 0 -0.27507485416392952 0.41165184954922901 0 -0.26098937332124522 0.43347689389149152 0 -0.27507485416392952 0.41165184954922901 0 -0.2840655008446854 0.43268751503577518 0 -0.27507485416392952 0.41165184954922901 0 -0.2840655008446854 0.43268751503577518 0 -0.30034758169074061 0.4099344509774861 0 -0.2840655008446854 0.43268751503577518 0 -0.30034758169074061 0.4099344509774861 0 -0.30669131377808367 0.43563878320443172 0 -0.32128386010410659 0.42033559253271913 0 -0.30034758169074061 0.4099344509774861 0 -0.30669131377808367 0.43563878320443172 0 -0.25853155916051962 0.50000000000000122 0 -0.28086229287303011 0.4874658416471514 0 -0.34076390283461311 0.5 0 -0.30669131377808367 0.43563878320443172 0 -0.29687297840686838 0.45095464489107112 0 -0.31444801164298941 0.45453959109609221 0 -0.29687297840686838 0.45095464489107112 0 -0.30319302658553998 0.47493168329430069 0 -0.31444801164298941 0.45453959109609221 0 -0.29687297840686838 0.45095464489107112 0 -0.27596703918304388 0.45697565182475552 0 -0.30319302658553998 0.47493168329430069 0 -0.2840655008446854 0.43268751503577518 0 -0.30669131377808367 0.43563878320443172 0 -0.29687297840686838 0.45095464489107112 0 -0.2840655008446854 0.43268751503577518 0 -0.29687297840686838 0.45095464489107112 0 -0.27596703918304388 0.45697565182475552 0 -0.26098937332124522 0.43347689389149152 0 -0.2840655008446854 0.43268751503577518 0 -0.27596703918304388 0.45697565182475552 0 -0.27596703918304388 0.45697565182475552 0 -0.25301423857352118 0.47861401590675451 0 -0.24192065739374419 0.45303447804249419 0 -0.26098937332124522 0.43347689389149152 0 -0.27596703918304388 0.45697565182475552 0 -0.24192065739374419 0.45303447804249419 0 -0.25853155916051962 0.50000000000000122 0 -0.25301423857352118 0.47861401590675451 0 -0.28086229287303011 0.4874658416471514 0 -0.27596703918304388 0.45697565182475552 0 -0.25301423857352118 0.47861401590675451 0 -0.28086229287303011 0.4874658416471514 0 -0.25853155916051962 0.50000000000000122 0 -0.28086229287303011 0.4874658416471514 0 -0.28086229287303011 0.4874658416471514 0 -0.30319302658553998 0.47493168329430069 0 -0.34076390283461311 0.5 0 -0.28086229287303011 0.4874658416471514 0 -0.30319302658553998 0.47493168329430069 0 -0.27596703918304388 0.45697565182475552 0 -0.28086229287303011 0.4874658416471514 0 -0.30319302658553998 0.47493168329430069 0 -0.30319302658553998 0.47493168329430069 0 -0.34076390283461311 0.5 0 -0.33429952989801132 0.46581851141446351 0 -0.40734512917919952 0.5 0 -0.34076390283461311 0.5 0 -0.36896870429677547 0.47227760581199041 0 -0.31444801164298941 0.45453959109609221 0 -0.32807105532146019 0.43963192058069411 0 -0.33429952989801132 0.46581851141446351 0 -0.30319302658553998 0.47493168329430069 0 -0.31444801164298941 0.45453959109609221 0 -0.33429952989801132 0.46581851141446351 0 -0.30669131377808367 0.43563878320443172 0 -0.31444801164298941 0.45453959109609221 0 -0.32807105532146019 0.43963192058069411 0 -0.34296486521166658 0.42561091055973183 0 -0.32807105532146019 0.43963192058069411 0 -0.35439893499514058 0.44810308904666779 0 -0.32807105532146019 0.43963192058069411 0 -0.33429952989801132 0.46581851141446351 0 -0.35439893499514058 0.44810308904666779 0 -0.33429952989801132 0.46581851141446351 0 -0.35439893499514058 0.44810308904666779 0 -0.36896870429677547 0.47227760581199041 0 -0.37880257441422138 0.45318909365973292 0 -0.37328688082870892 0.43209049225339369 0 -0.35439893499514058 0.44810308904666779 0 -0.37880257441422138 0.45318909365973292 0 -0.35439893499514058 0.44810308904666779 0 -0.36896870429677547 0.47227760581199041 0 -0.34076390283461311 0.5 0 -0.33429952989801132 0.46581851141446351 0 -0.36896870429677547 0.47227760581199041 0 -0.14534853147378149 0.48413553742888099 0 -0.15549260750231261 0.47048419114956858 0 -0.13834593031188289 0.46825269170173978 0 -0.14534853147378149 0.48413553742888099 0 -0.15549260750231261 0.47048419114956858 0 -0.1629669217300716 0.48331904803477838 0 -0.14534853147378149 0.48413553742888099 0 -0.1629669217300716 0.48331904803477838 0 -0.15840308220211341 0.5 0 -0.14534853147378149 0.48413553742888099 0 -0.13480283873162399 0.5 0 -0.15840308220211341 0.5 0 -0.14534853147378149 0.48413553742888099 0 -0.13480283873162399 0.5 0 -0.1211414063130591 0.47997814940774242 0 -0.14534853147378149 0.48413553742888099 0 -0.13834593031188289 0.46825269170173978 0 -0.1211414063130591 0.47997814940774242 0 -0.13834593031188289 0.46825269170173978 0 -0.1233130978899409 0.45773094234799888 0 -0.1211414063130591 0.47997814940774242 0 -0.14393533763848579 0.44907225994958488 0 -0.1233130978899409 0.45773094234799888 0 -0.13844089948437269 0.45869111799745538 0 -0.14393533763848579 0.44907225994958488 0 -0.1233130978899409 0.45773094234799888 0 -0.13844089948437269 0.45869111799745538 0 -0.13834593031188289 0.46825269170173978 0 -0.1233130978899409 0.45773094234799888 0 -0.1255554655362647 0.43775938910818479 0 -0.14929515504073149 0.44682182754430683 0 -0.12835752724613081 0.44779950626399551 0 -0.14393533763848579 0.44907225994958488 0 -0.1233130978899409 0.45773094234799888 0 -0.1255554655362647 0.43775938910818479 0 -0.12835752724613081 0.44779950626399551 0 -0.14393533763848579 0.44907225994958488 0 -0.1255554655362647 0.43775938910818479 0 -0.14929515504073149 0.44682182754430683 0 -0.1399960452010009 0.43521495597161669 0 -0.1255554655362647 0.43775938910818479 0 -0.14393533763848579 0.44907225994958488 0 -0.14929515504073149 0.44682182754430683 0 -0.14929515504073149 0.44682182754430683 0 -0.1645575773870305 0.44041357755117061 0 -0.14877420013327619 0.43638059937983947 0 -0.14929515504073149 0.44682182754430683 0 -0.14877420013327619 0.43638059937983947 0 -0.1399960452010009 0.43521495597161669 0 -0.14393533763848579 0.44907225994958488 0 -0.14929515504073149 0.44682182754430683 0 -0.1540856508072416 0.45159335996340749 0 -0.14929515504073149 0.44682182754430683 0 -0.1645575773870305 0.44041357755117061 0 -0.14393533763848579 0.44907225994958488 0 -0.1540856508072416 0.45159335996340749 0 -0.14929515504073149 0.44682182754430683 0 -0.15549260750231261 0.47048419114956858 0 -0.13834593031188289 0.46825269170173978 0 -0.14816923209718111 0.45970857799049819 0 -0.13844089948437269 0.45869111799745538 0 -0.13834593031188289 0.46825269170173978 0 -0.14816923209718111 0.45970857799049819 0 -0.13844089948437269 0.45869111799745538 0 -0.14393533763848579 0.44907225994958488 0 -0.14816923209718111 0.45970857799049819 0 -0.1540856508072416 0.45159335996340749 0 -0.14816923209718111 0.45970857799049819 0 -0.1596804561062691 0.45717902436237601 0 -0.14393533763848579 0.44907225994958488 0 -0.1540856508072416 0.45159335996340749 0 -0.14816923209718111 0.45970857799049819 0 -0.15549260750231261 0.47048419114956858 0 -0.14816923209718111 0.45970857799049819 0 -0.1596804561062691 0.45717902436237601 0 -0.15549260750231261 0.47048419114956858 0 -0.1596804561062691 0.45717902436237601 0 -0.16858718253912369 0.46539927861345642 0 -0.1596804561062691 0.45717902436237601 0 -0.16808068211240179 0.45526051709981957 0 -0.16858718253912369 0.46539927861345642 0 -0.16808068211240179 0.45526051709981957 0 -0.1645575773870305 0.44041357755117061 0 -0.17949751241718381 0.45805018787227503 0 -0.1540856508072416 0.45159335996340749 0 -0.1596804561062691 0.45717902436237601 0 -0.1645575773870305 0.44041357755117061 0 -0.1596804561062691 0.45717902436237601 0 -0.16808068211240179 0.45526051709981957 0 -0.1645575773870305 0.44041357755117061 0 -0.14929515504073149 0.44682182754430683 0 -0.1645575773870305 0.44041357755117061 0 -0.1645575773870305 0.44041357755117061 0 -0.18293754862266709 0.43959538003808862 0 -0.179822845836209 0.43400413256170062 0 -0.18293754862266709 0.43959538003808862 0 -0.18570016520381141 0.4599581700344772 0 -0.1645575773870305 0.44041357755117061 0 -0.17949751241718381 0.45805018787227503 0 -0.18293754862266709 0.43959538003808862 0 -0.17949751241718381 0.45805018787227503 0 -0.18570016520381141 0.4599581700344772 0 -0.1645575773870305 0.44041357755117061 0 -0.18293754862266709 0.43959538003808862 0 -0.17949751241718381 0.45805018787227503 0 -0.18293754862266709 0.43959538003808862 0 -0.18570016520381141 0.4599581700344772 0 -0.19307040701090489 0.45778501891411638 0 -0.18293754862266709 0.43959538003808862 0 -0.19106156797600171 0.44450991170092408 0 -0.18695523895503549 0.43672524695162862 0 -0.17949751241718381 0.45805018787227503 0 -0.1944374474473364 0.47568679819338 0 -0.16858718253912369 0.46539927861345642 0 -0.17710025932490669 0.46855698665676832 0 -0.17949751241718381 0.45805018787227503 0 -0.16808068211240179 0.45526051709981957 0 -0.16858718253912369 0.46539927861345642 0 -0.17949751241718381 0.45805018787227503 0 -0.17949751241718381 0.45805018787227503 0 -0.18570016520381141 0.4599581700344772 0 -0.19157879934889521 0.46650475341587538 0 -0.17710025932490669 0.46855698665676832 0 -0.17949751241718381 0.45805018787227503 0 -0.18309388794977019 0.47338070092167961 0 -0.17949751241718381 0.45805018787227503 0 -0.18309388794977019 0.47338070092167961 0 -0.1944374474473364 0.47568679819338 0 -0.18309388794977019 0.47338070092167961 0 -0.17546308918634129 0.47661383792485867 0 -0.1854524009586678 0.48642781137150892 0 -0.17546308918634129 0.47661383792485867 0 -0.17400393805844719 0.48809560387882578 0 -0.1854524009586678 0.48642781137150892 0 -0.16858718253912369 0.46539927861345642 0 -0.17710025932490669 0.46855698665676832 0 -0.17546308918634129 0.47661383792485867 0 -0.17710025932490669 0.46855698665676832 0 -0.18309388794977019 0.47338070092167961 0 -0.17546308918634129 0.47661383792485867 0 -0.16858718253912369 0.46539927861345642 0 -0.17546308918634129 0.47661383792485867 0 -0.16578558077359901 0.47413571797485049 0 -0.17546308918634129 0.47661383792485867 0 -0.16578558077359901 0.47413571797485049 0 -0.1629669217300716 0.48331904803477838 0 -0.17546308918634129 0.47661383792485867 0 -0.1629669217300716 0.48331904803477838 0 -0.17400393805844719 0.48809560387882578 0 -0.15549260750231261 0.47048419114956858 0 -0.16578558077359901 0.47413571797485049 0 -0.1629669217300716 0.48331904803477838 0 -0.15549260750231261 0.47048419114956858 0 -0.16858718253912369 0.46539927861345642 0 -0.16578558077359901 0.47413571797485049 0 -0.1629669217300716 0.48331904803477838 0 -0.15840308220211341 0.5 0 -0.17400393805844719 0.48809560387882578 0 -0.15840308220211341 0.5 0 -0.17400393805844719 0.48809560387882578 0 -0.18200332567260291 0.5 0 -0.17400393805844719 0.48809560387882578 0 -0.1854524009586678 0.48642781137150892 0 -0.18200332567260291 0.5 0 -0.1854524009586678 0.48642781137150892 0 -0.18200332567260291 0.5 0 -0.20560356914309241 0.49999999999999989 0 -0.1854524009586678 0.48642781137150892 0 -0.1944374474473364 0.47568679819338 0 -0.20560356914309241 0.49999999999999989 0 -0.1944374474473364 0.47568679819338 0 -0.2027666415454881 0.47558432790529442 0 -0.20560356914309241 0.49999999999999989 0 -0.18309388794977019 0.47338070092167961 0 -0.1854524009586678 0.48642781137150892 0 -0.1944374474473364 0.47568679819338 0 -0.1944374474473364 0.47568679819338 0 -0.2027666415454881 0.47558432790529442 0 -0.19157879934889521 0.46650475341587538 0 -0.2027666415454881 0.47558432790529442 0 -0.20560356914309241 0.49999999999999989 0 -0.22873631867898331 0.47420812392612621 0 -0.2027666415454881 0.47558432790529442 0 -0.22873631867898331 0.47420812392612621 0 -0.21753922839953591 0.45992225299809758 0 -0.2027666415454881 0.47558432790529442 0 -0.20560356914309241 0.49999999999999989 0 -0.20560356914309241 0.49999999999999989 0 -0.23206756415180599 0.5 0 -0.22873631867898331 0.47420812392612621 0 -0.25301423857352118 0.47861401590675451 0 -0.23206756415180599 0.5 0 -0.22873631867898331 0.47420812392612621 0 -0.25853155916051962 0.50000000000000122 0 -0.25301423857352118 0.47861401590675451 0 -0.23206756415180599 0.5 0 -0.26098937332124522 0.43347689389149152 0 -0.24192065739374419 0.45303447804249419 0 -0.23370461282742969 0.42873443892759039 0 -0.25301423857352118 0.47861401590675451 0 -0.22873631867898331 0.47420812392612621 0 -0.24192065739374419 0.45303447804249419 0 -0.22873631867898331 0.47420812392612621 0 -0.24192065739374419 0.45303447804249419 0 -0.21753922839953591 0.45992225299809758 0 -0.24192065739374419 0.45303447804249419 0 -0.21996751977140089 0.4418162203924747 0 -0.21753922839953591 0.45992225299809758 0 -0.24192065739374419 0.45303447804249419 0 -0.21996751977140089 0.4418162203924747 0 -0.23370461282742969 0.42873443892759039 0 -0.21996751977140089 0.4418162203924747 0 -0.19992971394788389 0.45116865581058879 0 -0.20872809443670731 0.4267310228253855 0 -0.21996751977140089 0.4418162203924747 0 -0.21753922839953591 0.45992225299809758 0 -0.19992971394788389 0.45116865581058879 0 -0.2027666415454881 0.47558432790529442 0 -0.21753922839953591 0.45992225299809758 0 -0.19992971394788389 0.45116865581058879 0 -0.2027666415454881 0.47558432790529442 0 -0.19307040701090489 0.45778501891411638 0 -0.19992971394788389 0.45116865581058879 0 -0.2027666415454881 0.47558432790529442 0 -0.19992971394788389 0.45116865581058879 0 -0.17949751241718381 0.45805018787227503 0 -0.1944374474473364 0.47568679819338 0 -0.19157879934889521 0.46650475341587538 0 -0.2027666415454881 0.47558432790529442 0 -0.19307040701090489 0.45778501891411638 0 -0.19157879934889521 0.46650475341587538 0 -0.18570016520381141 0.4599581700344772 0 -0.19307040701090489 0.45778501891411638 0 -0.19157879934889521 0.46650475341587538 0 -0.18293754862266709 0.43959538003808862 0 -0.19307040701090489 0.45778501891411638 0 -0.19106156797600171 0.44450991170092408 0 -0.19992971394788389 0.45116865581058879 0 -0.19749803580432171 0.43024071382038342 0 -0.19992971394788389 0.45116865581058879 0 -0.19241493134351709 0.43727525679019752 0 -0.19749803580432171 0.43024071382038342 0 -0.18293754862266709 0.43959538003808862 0 -0.19307040701090489 0.45778501891411638 0 -0.19307040701090489 0.45778501891411638 0 -0.19992971394788389 0.45116865581058879 0 -0.19106156797600171 0.44450991170092408 0 -0.19992971394788389 0.45116865581058879 0 -0.19106156797600171 0.44450991170092408 0 -0.19241493134351709 0.43727525679019752 0 -0.19106156797600171 0.44450991170092408 0 -0.19241493134351709 0.43727525679019752 0 -0.18695523895503549 0.43672524695162862 0 -0.18966698230483209 0.43348230250595948 0 -0.1937044955116409 0.4281756291027542 0 -0.1820520035409853 0.43306817367377459 0 -0.19241493134351709 0.43727525679019752 0 -0.18966698230483209 0.43348230250595948 0 -0.18695523895503549 0.43672524695162862 0 -0.1937044955116409 0.4281756291027542 0 -0.1820520035409853 0.43306817367377459 0 -0.19992971394788389 0.45116865581058879 0 -0.19749803580432171 0.43024071382038342 0 -0.20872809443670731 0.4267310228253855 0 -0.19241493134351709 0.43727525679019752 0 -0.19320824217298141 0.43216720601144282 0 -0.18966698230483209 0.43348230250595948 0 -0.19241493134351709 0.43727525679019752 0 -0.19320824217298141 0.43216720601144282 0 -0.19749803580432171 0.43024071382038342 0 -0.19320824217298141 0.43216720601144282 0 -0.18966698230483209 0.43348230250595948 0 -0.1937044955116409 0.4281756291027542 0 -0.19320824217298141 0.43216720601144282 0 -0.1937044955116409 0.4281756291027542 0 -0.19749803580432171 0.43024071382038342 0 -0.1937044955116409 0.4281756291027542 0 -0.1896051305862354 0.41957239687648018 0 -0.18035640587929 0.42057020369155901 0 -0.1937044955116409 0.4281756291027542 0 -0.19657904453461289 0.42233152730534551 0 -0.1896051305862354 0.41957239687648018 0 -0.1937044955116409 0.4281756291027542 0 -0.19709278635027949 0.42675298371588338 0 -0.19749803580432171 0.43024071382038342 0 -0.20255139492541641 0.42446107175260028 0 -0.19376482063277131 0.41488003544418711 0 -0.20872809443670731 0.4267310228253855 0 -0.19709278635027949 0.42675298371588338 0 -0.20255139492541641 0.42446107175260028 0 -0.20872809443670731 0.4267310228253855 0 -0.19709278635027949 0.42675298371588338 0 -0.19749803580432171 0.43024071382038342 0 -0.20872809443670731 0.4267310228253855 0 -0.1937044955116409 0.4281756291027542 0 -0.19749803580432171 0.43024071382038342 0 -0.1937044955116409 0.4281756291027542 0 -0.19709278635027949 0.42675298371588338 0 -0.19709278635027949 0.42675298371588338 0 -0.19749803580432171 0.43024071382038342 0 -0.1937044955116409 0.4281756291027542 0 -0.19709278635027949 0.42675298371588338 0 -0.19657904453461289 0.42233152730534551 0 -0.19709278635027949 0.42675298371588338 0 -0.19657904453461289 0.42233152730534551 0 -0.20255139492541641 0.42446107175260028 0 -0.19709278635027949 0.42675298371588338 0 -0.19657904453461289 0.42233152730534551 0 -0.19709278635027949 0.42675298371588338 0 -0.20255139492541641 0.42446107175260028 0 -0.19376482063277131 0.41488003544418711 0 -0.20286987366260839 0.40518474843454971 0 -0.17787728719735241 0.40229702983133853 0 -0.19376482063277131 0.41488003544418711 0 -0.1896051305862354 0.41957239687648018 0 -0.18362088637286361 0.41190458883855491 0 -0.19657904453461289 0.42233152730534551 0 -0.19376482063277131 0.41488003544418711 0 -0.1896051305862354 0.41957239687648018 0 -0.19376482063277131 0.41488003544418711 0 -0.20559582719629979 0.41608157459356637 0 -0.20872809443670731 0.4267310228253855 0 -0.19657904453461289 0.42233152730534551 0 -0.20255139492541641 0.42446107175260028 0 -0.19376482063277131 0.41488003544418711 0 -0.19376482063277131 0.41488003544418711 0 -0.20872809443670731 0.4267310228253855 0 -0.19376482063277131 0.41488003544418711 0 -0.20559582719629979 0.41608157459356637 0 -0.20286987366260839 0.40518474843454971 0 -0.21814968824115899 0.41733300608078527 0 -0.22693820049638211 0.40734044880610942 0 -0.20286987366260839 0.40518474843454971 0 -0.22693820049638211 0.40734044880610942 0 -0.20286987366260839 0.40518474843454971 0 -0.20559582719629979 0.41608157459356637 0 -0.21814968824115899 0.41733300608078527 0 -0.20286987366260839 0.40518474843454971 0 -0.20559582719629979 0.41608157459356637 0 -0.21814968824115899 0.41733300608078527 0 -0.20872809443670731 0.4267310228253855 0 -0.21814968824115899 0.41733300608078527 0 -0.20872809443670731 0.4267310228253855 0 -0.2207951662930146 0.42940674429393672 0 -0.21996751977140089 0.4418162203924747 0 -0.20872809443670731 0.4267310228253855 0 -0.2207951662930146 0.42940674429393672 0 -0.21996751977140089 0.4418162203924747 0 -0.23370461282742969 0.42873443892759039 0 -0.2207951662930146 0.42940674429393672 0 -0.21814968824115899 0.41733300608078527 0 -0.23370461282742969 0.42873443892759039 0 -0.2207951662930146 0.42940674429393672 0 -0.21814968824115899 0.41733300608078527 0 -0.23370461282742969 0.42873443892759039 0 -0.22693820049638211 0.40734044880610942 0 -0.25100652733015583 0.40949614917766919 0 -0.22693820049638211 0.40734044880610942 0 -0.25100652733015583 0.40949614917766919 0 -0.23370461282742969 0.42873443892759039 0 -0.22693820049638211 0.40734044880610942 0 -0.26098937332124522 0.43347689389149152 0 -0.25100652733015583 0.40949614917766919 0 -0.23370461282742969 0.42873443892759039 0 -0.25387561127537051 0.38040348395526619 0 -0.23482796441088519 0.38303338625268391 0 -0.24591914643091811 0.39479546152300521 0 -0.25387561127537051 0.38040348395526619 0 -0.23482796441088519 0.38303338625268391 0 -0.24701328765104449 0.36866684718732318 0 -0.22693820049638211 0.40734044880610942 0 -0.23482796441088519 0.38303338625268391 0 -0.24591914643091811 0.39479546152300521 0 -0.25100652733015583 0.40949614917766919 0 -0.22693820049638211 0.40734044880610942 0 -0.24591914643091811 0.39479546152300521 0 -0.22693820049638211 0.40734044880610942 0 -0.23482796441088519 0.38303338625268391 0 -0.2205805600722123 0.38524090270801142 0 -0.23482796441088519 0.38303338625268391 0 -0.2205805600722123 0.38524090270801142 0 -0.22444674400701131 0.36840117189784599 0 -0.2205805600722123 0.38524090270801142 0 -0.21066206968640611 0.37573974147514261 0 -0.22444674400701131 0.36840117189784599 0 -0.2205805600722123 0.38524090270801142 0 -0.2071252374783514 0.39055731946347372 0 -0.21066206968640611 0.37573974147514261 0 -0.2071252374783514 0.39055731946347372 0 -0.21066206968640611 0.37573974147514261 0 -0.2016634519468028 0.38142274167740392 0 -0.22693820049638211 0.40734044880610942 0 -0.2205805600722123 0.38524090270801142 0 -0.2071252374783514 0.39055731946347372 0 -0.22693820049638211 0.40734044880610942 0 -0.2071252374783514 0.39055731946347372 0 -0.20286987366260839 0.40518474843454971 0 -0.20286987366260839 0.40518474843454971 0 -0.18952596523196399 0.39819792662579079 0 -0.17787728719735241 0.40229702983133853 0 -0.20286987366260839 0.40518474843454971 0 -0.17787728719735241 0.40229702983133853 0 -0.20286987366260839 0.40518474843454971 0 -0.19841770429934241 0.39368771316632362 0 -0.18952596523196399 0.39819792662579079 0 -0.2071252374783514 0.39055731946347372 0 -0.20286987366260839 0.40518474843454971 0 -0.19841770429934241 0.39368771316632362 0 -0.19841770429934241 0.39368771316632362 0 -0.18952596523196399 0.39819792662579079 0 -0.18966341417168181 0.38679109363375358 0 -0.21066206968640611 0.37573974147514261 0 -0.2016634519468028 0.38142274167740392 0 -0.19529469274725869 0.37254836100698091 0 -0.2016634519468028 0.38142274167740392 0 -0.18966341417168181 0.38679109363375358 0 -0.19529469274725869 0.37254836100698091 0 -0.19841770429934241 0.39368771316632362 0 -0.2016634519468028 0.38142274167740392 0 -0.18966341417168181 0.38679109363375358 0 -0.2071252374783514 0.39055731946347372 0 -0.19841770429934241 0.39368771316632362 0 -0.2016634519468028 0.38142274167740392 0 -0.18966341417168181 0.38679109363375358 0 -0.17787728719735241 0.40229702983133853 0 -0.174031941169697 0.37395362012366329 0 -0.18966341417168181 0.38679109363375358 0 -0.174031941169697 0.37395362012366329 0 -0.19529469274725869 0.37254836100698091 0 -0.17787728719735241 0.40229702983133853 0 -0.174031941169697 0.37395362012366329 0 -0.16191946284109679 0.38965835345908523 0 -0.17787728719735241 0.40229702983133853 0 -0.174031941169697 0.37395362012366329 0 -0.16191946284109679 0.38965835345908523 0 -0.1619300990128239 0.3771432374363311 0 -0.174031941169697 0.37395362012366329 0 -0.16191946284109679 0.38965835345908523 0 -0.174031941169697 0.37395362012366329 0 -0.16191946284109679 0.38965835345908523 0 -0.15797108368745291 0.39477772209966472 0 -0.14975014053340199 0.38002018957891293 0 -0.16191946284109679 0.38965835345908523 0 -0.1619300990128239 0.3771432374363311 0 -0.14975014053340199 0.38002018957891293 0 -0.16171511553400161 0.40149868716398363 0 -0.17787728719735241 0.40229702983133853 0 -0.16191946284109679 0.38965835345908523 0 -0.16171511553400161 0.40149868716398363 0 -0.17787728719735241 0.40229702983133853 0 -0.16191946284109679 0.38965835345908523 0 -0.17787728719735241 0.40229702983133853 0 -0.16171511553400161 0.40149868716398363 0 -0.17787728719735241 0.40229702983133853 0 -0.16861129512932821 0.41387811769158028 0 -0.16171511553400161 0.40149868716398363 0 -0.15797108368745291 0.39477772209966472 0 -0.15098533733792099 0.40383526429639349 0 -0.16171511553400161 0.40149868716398363 0 -0.15797108368745291 0.39477772209966472 0 -0.16191946284109679 0.38965835345908523 0 -0.16171511553400161 0.40149868716398363 0 -0.15797108368745291 0.39477772209966472 0 -0.16191946284109679 0.38965835345908523 0 -0.15797108368745291 0.39477772209966472 0 -0.18952596523196399 0.39819792662579079 0 -0.18966341417168181 0.38679109363375358 0 -0.17787728719735241 0.40229702983133853 0 -0.19376482063277131 0.41488003544418711 0 -0.17787728719735241 0.40229702983133853 0 -0.19376482063277131 0.41488003544418711 0 -0.17787728719735241 0.40229702983133853 0 -0.18362088637286361 0.41190458883855491 0 -0.17787728719735241 0.40229702983133853 0 -0.18035640587929 0.42057020369155901 0 -0.16861129512932821 0.41387811769158028 0 -0.17787728719735241 0.40229702983133853 0 -0.18362088637286361 0.41190458883855491 0 -0.18035640587929 0.42057020369155901 0 -0.17787728719735241 0.40229702983133853 0 -0.18035640587929 0.42057020369155901 0 -0.1896051305862354 0.41957239687648018 0 -0.18362088637286361 0.41190458883855491 0 -0.18035640587929 0.42057020369155901 0 -0.18035640587929 0.42057020369155901 0 -0.16861129512932821 0.41387811769158028 0 -0.18035640587929 0.42057020369155901 0 -0.179822845836209 0.43400413256170062 0 -0.16861129512932821 0.41387811769158028 0 -0.179822845836209 0.43400413256170062 0 -0.16861129512932821 0.41387811769158028 0 -0.18293754862266709 0.43959538003808862 0 -0.179822845836209 0.43400413256170062 0 -0.18293754862266709 0.43959538003808862 0 -0.1820520035409853 0.43306817367377459 0 -0.18293754862266709 0.43959538003808862 0 -0.179822845836209 0.43400413256170062 0 -0.1820520035409853 0.43306817367377459 0 -0.18966698230483209 0.43348230250595948 0 -0.18695523895503549 0.43672524695162862 0 -0.1820520035409853 0.43306817367377459 0 -0.18293754862266709 0.43959538003808862 0 -0.18695523895503549 0.43672524695162862 0 -0.1820520035409853 0.43306817367377459 0 -0.179822845836209 0.43400413256170062 0 -0.1820520035409853 0.43306817367377459 0 -0.18035640587929 0.42057020369155901 0 -0.179822845836209 0.43400413256170062 0 -0.1820520035409853 0.43306817367377459 0 -0.1937044955116409 0.4281756291027542 0 -0.18035640587929 0.42057020369155901 0 -0.1820520035409853 0.43306817367377459 0 -0.1937044955116409 0.4281756291027542 0 -0.18035640587929 0.42057020369155901 0 -0.18035640587929 0.42057020369155901 0 -0.1820520035409853 0.43306817367377459 0 -0.1645575773870305 0.44041357755117061 0 -0.179822845836209 0.43400413256170062 0 -0.179822845836209 0.43400413256170062 0 -0.16446931899110431 0.42644347228823459 0 -0.16861129512932821 0.41387811769158028 0 -0.1645575773870305 0.44041357755117061 0 -0.179822845836209 0.43400413256170062 0 -0.16446931899110431 0.42644347228823459 0 -0.16446931899110431 0.42644347228823459 0 -0.1557327205722647 0.41641723345320342 0 -0.15362215603068771 0.42750430018351931 0 -0.1645575773870305 0.44041357755117061 0 -0.15362215603068771 0.42750430018351931 0 -0.1645575773870305 0.44041357755117061 0 -0.16446931899110431 0.42644347228823459 0 -0.15362215603068771 0.42750430018351931 0 -0.16861129512932821 0.41387811769158028 0 -0.1557327205722647 0.41641723345320342 0 -0.15098533733792099 0.40383526429639349 0 -0.16171511553400161 0.40149868716398363 0 -0.16861129512932821 0.41387811769158028 0 -0.15098533733792099 0.40383526429639349 0 -0.16861129512932821 0.41387811769158028 0 -0.15098533733792099 0.40383526429639349 0 -0.16171511553400161 0.40149868716398363 0 -0.16861129512932821 0.41387811769158028 0 -0.16446931899110431 0.42644347228823459 0 -0.16861129512932821 0.41387811769158028 0 -0.1557327205722647 0.41641723345320342 0 -0.1557327205722647 0.41641723345320342 0 -0.14268673467434359 0.4145950228158693 0 -0.15098533733792099 0.40383526429639349 0 -0.1557327205722647 0.41641723345320342 0 -0.14268673467434359 0.4145950228158693 0 -0.15362215603068771 0.42750430018351931 0 -0.14268673467434359 0.4145950228158693 0 -0.15362215603068771 0.42750430018351931 0 -0.14268673467434359 0.4145950228158693 0 -0.15098533733792099 0.40383526429639349 0 -0.14268673467434359 0.4145950228158693 0 -0.13876061681666671 0.40996023621265792 0 -0.14268673467434359 0.4145950228158693 0 -0.13876061681666671 0.40996023621265792 0 -0.15098533733792099 0.40383526429639349 0 -0.1645575773870305 0.44041357755117061 0 -0.14877420013327619 0.43638059937983947 0 -0.15362215603068771 0.42750430018351931 0 -0.14877420013327619 0.43638059937983947 0 -0.15362215603068771 0.42750430018351931 0 -0.1431451901515618 0.42876412782836892 0 -0.14268673467434359 0.4145950228158693 0 -0.15362215603068771 0.42750430018351931 0 -0.1431451901515618 0.42876412782836892 0 -0.14877420013327619 0.43638059937983947 0 -0.1431451901515618 0.42876412782836892 0 -0.1399960452010009 0.43521495597161669 0 -0.1255554655362647 0.43775938910818479 0 -0.1399960452010009 0.43521495597161669 0 -0.1340621846908461 0.42577739639411721 0 -0.1431451901515618 0.42876412782836892 0 -0.1399960452010009 0.43521495597161669 0 -0.1340621846908461 0.42577739639411721 0 -0.14268673467434359 0.4145950228158693 0 -0.1431451901515618 0.42876412782836892 0 -0.1340621846908461 0.42577739639411721 0 -0.1340621846908461 0.42577739639411721 0 -0.1281218478049512 0.41540643358509072 0 -0.1237184839272443 0.42744959587490861 0 -0.1255554655362647 0.43775938910818479 0 -0.1340621846908461 0.42577739639411721 0 -0.1237184839272443 0.42744959587490861 0 -0.14268673467434359 0.4145950228158693 0 -0.13876061681666671 0.40996023621265792 0 -0.1281218478049512 0.41540643358509072 0 -0.14268673467434359 0.4145950228158693 0 -0.1340621846908461 0.42577739639411721 0 -0.14268673467434359 0.4145950228158693 0 -0.1340621846908461 0.42577739639411721 0 -0.1281218478049512 0.41540643358509072 0 -0.1281218478049512 0.41540643358509072 0 -0.13051712024898041 0.40403865912251802 0 -0.1224258287045045 0.40489930085006348 0 -0.13876061681666671 0.40996023621265792 0 -0.1281218478049512 0.41540643358509072 0 -0.13051712024898041 0.40403865912251802 0 -0.13691704250971301 0.39581948301789721 0 -0.14455252316244191 0.3960832147007764 0 -0.12284874768150481 0.38780370173940099 0 -0.13691704250971301 0.39581948301789721 0 -0.12284874768150481 0.38780370173940099 0 -0.12042314955949331 0.39581425981814827 0 -0.13761509519667131 0.38936916044468578 0 -0.14455252316244191 0.3960832147007764 0 -0.12284874768150481 0.38780370173940099 0 -0.14455252316244191 0.3960832147007764 0 -0.12284874768150481 0.38780370173940099 0 -0.13051712024898041 0.40403865912251802 0 -0.13691704250971301 0.39581948301789721 0 -0.12042314955949331 0.39581425981814827 0 -0.13876061681666671 0.40996023621265792 0 -0.13051712024898041 0.40403865912251802 0 -0.13691704250971301 0.39581948301789721 0 -0.13691704250971301 0.39581948301789721 0 -0.12284874768150481 0.38780370173940099 0 -0.1311976703720926 0.38319871938740041 0 -0.1272257738929207 0.3813029750127751 0 -0.12284874768150481 0.38780370173940099 0 -0.1311976703720926 0.38319871938740041 0 -0.1378780727874668 0.38561640693571592 0 -0.12284874768150481 0.38780370173940099 0 -0.1378780727874668 0.38561640693571592 0 -0.13761509519667131 0.38936916044468578 0 -0.12284874768150481 0.38780370173940099 0 -0.1272257738929207 0.3813029750127751 0 -0.13347756769707031 0.3707691275968874 0 -0.1197697415084036 0.37379827614970679 0 -0.1311976703720926 0.38319871938740041 0 -0.1272257738929207 0.3813029750127751 0 -0.1368380871264783 0.37807179386170953 0 -0.1272257738929207 0.3813029750127751 0 -0.1368380871264783 0.37807179386170953 0 -0.13347756769707031 0.3707691275968874 0 -0.1311976703720926 0.38319871938740041 0 -0.1368380871264783 0.37807179386170953 0 -0.1378780727874668 0.38561640693571592 0 -0.1368380871264783 0.37807179386170953 0 -0.1378780727874668 0.38561640693571592 0 -0.1429949007505627 0.38172169203901463 0 -0.1378780727874668 0.38561640693571592 0 -0.13761509519667131 0.38936916044468578 0 -0.1451810371552717 0.3879733184028501 0 -0.1451810371552717 0.3879733184028501 0 -0.14975014053340199 0.38002018957891293 0 -0.1496880243752978 0.39253794181571938 0 -0.1451810371552717 0.3879733184028501 0 -0.1429949007505627 0.38172169203901463 0 -0.14975014053340199 0.38002018957891293 0 -0.1378780727874668 0.38561640693571592 0 -0.1451810371552717 0.3879733184028501 0 -0.1429949007505627 0.38172169203901463 0 -0.1368380871264783 0.37807179386170953 0 -0.1429949007505627 0.38172169203901463 0 -0.14458643748772859 0.37593051104757202 0 -0.1429949007505627 0.38172169203901463 0 -0.14458643748772859 0.37593051104757202 0 -0.14975014053340199 0.38002018957891293 0 -0.14458643748772859 0.37593051104757202 0 -0.14975014053340199 0.38002018957891293 0 -0.1619300990128239 0.3771432374363311 0 -0.14975014053340199 0.38002018957891293 0 -0.15409782626223581 0.37120548284067362 0 -0.15797108368745291 0.39477772209966472 0 -0.14975014053340199 0.38002018957891293 0 -0.1496880243752978 0.39253794181571938 0 -0.15797108368745291 0.39477772209966472 0 -0.14975014053340199 0.38002018957891293 0 -0.16191946284109679 0.38965835345908523 0 -0.14975014053340199 0.38002018957891293 0 -0.15797108368745291 0.39477772209966472 0 -0.1496880243752978 0.39253794181571938 0 -0.15098533733792099 0.40383526429639349 0 -0.15797108368745291 0.39477772209966472 0 -0.15098533733792099 0.40383526429639349 0 -0.13691704250971301 0.39581948301789721 0 -0.15098533733792099 0.40383526429639349 0 -0.14455252316244191 0.3960832147007764 0 -0.13691704250971301 0.39581948301789721 0 -0.15098533733792099 0.40383526429639349 0 -0.13876061681666671 0.40996023621265792 0 -0.13691704250971301 0.39581948301789721 0 -0.15098533733792099 0.40383526429639349 0 -0.1496880243752978 0.39253794181571938 0 -0.15098533733792099 0.40383526429639349 0 -0.14455252316244191 0.3960832147007764 0 -0.13761509519667131 0.38936916044468578 0 -0.1451810371552717 0.3879733184028501 0 -0.14455252316244191 0.3960832147007764 0 -0.1451810371552717 0.3879733184028501 0 -0.1496880243752978 0.39253794181571938 0 -0.14455252316244191 0.3960832147007764 0 -0.15303919027727159 0.34889188180493169 0 -0.13833156897284341 0.35952254861634492 0 -0.1578060159890356 0.36210324382887521 0 -0.15303919027727159 0.34889188180493169 0 -0.13833156897284341 0.35952254861634492 0 -0.14133031506614241 0.33999380690945591 0 -0.14458643748772859 0.37593051104757202 0 -0.14975014053340199 0.38002018957891293 0 -0.13833156897284341 0.35952254861634492 0 -0.15409782626223581 0.37120548284067362 0 -0.13833156897284341 0.35952254861634492 0 -0.1578060159890356 0.36210324382887521 0 -0.14975014053340199 0.38002018957891293 0 -0.15409782626223581 0.37120548284067362 0 -0.13833156897284341 0.35952254861634492 0 -0.14975014053340199 0.38002018957891293 0 -0.13833156897284341 0.35952254861634492 0 -0.14458643748772859 0.37593051104757202 0 -0.13833156897284341 0.35952254861634492 0 -0.13347756769707031 0.3707691275968874 0 -0.1368380871264783 0.37807179386170953 0 -0.14458643748772859 0.37593051104757202 0 -0.13347756769707031 0.3707691275968874 0 -0.13347756769707031 0.3707691275968874 0 -0.12366732740402089 0.35909998192668952 0 -0.1197697415084036 0.37379827614970679 0 -0.13833156897284341 0.35952254861634492 0 -0.13347756769707031 0.3707691275968874 0 -0.12366732740402089 0.35909998192668952 0 -0.13833156897284341 0.35952254861634492 0 -0.14133031506614241 0.33999380690945591 0 -0.12366732740402089 0.35909998192668952 0 -0.14133031506614241 0.33999380690945591 0 -0.12366732740402089 0.35909998192668952 0 -0.14133031506614241 0.33999380690945591 0 -0.1205113991465218 0.33608428260493739 0 -0.12366732740402089 0.35909998192668952 0 -0.13055351923856459 0.32756978446506058 0 -0.14002973011377551 0.32240529014258251 0 -0.14133031506614241 0.33999380690945591 0 -0.13055351923856459 0.32756978446506058 0 -0.14133031506614241 0.33999380690945591 0 -0.1205113991465218 0.33608428260493739 0 -0.13175626488066619 0.31714522425690628 0 -0.12739733367773079 0.30987467574664262 0 -0.121709049194444 0.31975547501678508 0 -0.13175626488066619 0.31714522425690628 0 -0.13055351923856459 0.32756978446506058 0 -0.121709049194444 0.31975547501678508 0 -0.13175626488066619 0.31714522425690628 0 -0.13055351923856459 0.32756978446506058 0 -0.14002973011377551 0.32240529014258251 0 -0.13175626488066619 0.31714522425690628 0 -0.14002973011377551 0.32240529014258251 0 -0.13953992960472211 0.31378729031838049 0 -0.13175626488066619 0.31714522425690628 0 -0.13953992960472211 0.31378729031838049 0 -0.13452611816629381 0.30740942179225672 0 -0.14002973011377551 0.32240529014258251 0 -0.14936987517385689 0.32191891738441109 0 -0.14133031506614241 0.33999380690945591 0 -0.14936987517385689 0.32191891738441109 0 -0.14133031506614241 0.33999380690945591 0 -0.15899330272826409 0.32088763189222241 0 -0.14002973011377551 0.32240529014258251 0 -0.147628476718701 0.31401671752128041 0 -0.14936987517385689 0.32191891738441109 0 -0.14002973011377551 0.32240529014258251 0 -0.13953992960472211 0.31378729031838049 0 -0.147628476718701 0.31401671752128041 0 -0.14936987517385689 0.32191891738441109 0 -0.15899330272826409 0.32088763189222241 0 -0.147628476718701 0.31401671752128041 0 -0.14936987517385689 0.32191891738441109 0 -0.15899330272826409 0.32088763189222241 0 -0.147628476718701 0.31401671752128041 0 -0.15899330272826409 0.32088763189222241 0 -0.15462811102698051 0.31011645951591083 0 -0.14133031506614241 0.33999380690945591 0 -0.15735200743524419 0.33583320361590602 0 -0.15899330272826409 0.32088763189222241 0 -0.15303919027727159 0.34889188180493169 0 -0.14133031506614241 0.33999380690945591 0 -0.15735200743524419 0.33583320361590602 0 -0.14133031506614241 0.33999380690945591 0 -0.15899330272826409 0.32088763189222241 0 -0.1667201466764883 0.32005959198448958 0 -0.17037604392309261 0.34700660605407641 0 -0.15735200743524419 0.33583320361590602 0 -0.1667201466764883 0.32005959198448958 0 -0.17037604392309261 0.34700660605407641 0 -0.15735200743524419 0.33583320361590602 0 -0.15899330272826409 0.32088763189222241 0 -0.1667201466764883 0.32005959198448958 0 -0.15899330272826409 0.32088763189222241 0 -0.1658292737676717 0.31349311508735622 0 -0.15462811102698051 0.31011645951591083 0 -0.15899330272826409 0.32088763189222241 0 -0.1667201466764883 0.32005959198448958 0 -0.1658292737676717 0.31349311508735622 0 -0.15899330272826409 0.32088763189222241 0 -0.1658292737676717 0.31349311508735622 0 -0.15899330272826409 0.32088763189222241 0 -0.1667201466764883 0.32005959198448958 0 -0.1667201466764883 0.32005959198448958 0 -0.1658292737676717 0.31349311508735622 0 -0.16959216913705011 0.30942276533259622 0 -0.1667201466764883 0.32005959198448958 0 -0.1658292737676717 0.31349311508735622 0 -0.1667201466764883 0.32005959198448958 0 -0.1900592304218254 0.3175584811971488 0 -0.1667201466764883 0.32005959198448958 0 -0.1900592304218254 0.3175584811971488 0 -0.18029287973815319 0.30717347502166542 0 -0.1667201466764883 0.32005959198448958 0 -0.18443951200004091 0.33432421979988902 0 -0.1900592304218254 0.3175584811971488 0 -0.1667201466764883 0.32005959198448958 0 -0.18443951200004091 0.33432421979988902 0 -0.17037604392309261 0.34700660605407641 0 -0.18443951200004091 0.33432421979988902 0 -0.17037604392309261 0.34700660605407641 0 -0.18969136004949841 0.35365001329579793 0 -0.17037604392309261 0.34700660605407641 0 -0.174031941169697 0.37395362012366329 0 -0.18969136004949841 0.35365001329579793 0 -0.15303919027727159 0.34889188180493169 0 -0.17037604392309261 0.34700660605407641 0 -0.1578060159890356 0.36210324382887521 0 -0.15303919027727159 0.34889188180493169 0 -0.15735200743524419 0.33583320361590602 0 -0.17037604392309261 0.34700660605407641 0 -0.1619300990128239 0.3771432374363311 0 -0.1578060159890356 0.36210324382887521 0 -0.174031941169697 0.37395362012366329 0 -0.17037604392309261 0.34700660605407641 0 -0.1578060159890356 0.36210324382887521 0 -0.174031941169697 0.37395362012366329 0 -0.1619300990128239 0.3771432374363311 0 -0.15409782626223581 0.37120548284067362 0 -0.1578060159890356 0.36210324382887521 0 -0.174031941169697 0.37395362012366329 0 -0.19529469274725869 0.37254836100698091 0 -0.18969136004949841 0.35365001329579793 0 -0.17037604392309261 0.34700660605407641 0 -0.174031941169697 0.37395362012366329 0 -0.174031941169697 0.37395362012366329 0 -0.18969136004949841 0.35365001329579793 0 -0.19529469274725869 0.37254836100698091 0 -0.18969136004949841 0.35365001329579793 0 -0.2065577592468385 0.36430945472764442 0 -0.18969136004949841 0.35365001329579793 0 -0.21269392974401791 0.35120798596245439 0 -0.20535077892929959 0.33334640646793212 0 -0.18969136004949841 0.35365001329579793 0 -0.21269392974401791 0.35120798596245439 0 -0.2065577592468385 0.36430945472764442 0 -0.21269392974401791 0.35120798596245439 0 -0.2065577592468385 0.36430945472764442 0 -0.22444674400701131 0.36840117189784599 0 -0.21066206968640611 0.37573974147514261 0 -0.2065577592468385 0.36430945472764442 0 -0.22444674400701131 0.36840117189784599 0 -0.21066206968640611 0.37573974147514261 0 -0.19529469274725869 0.37254836100698091 0 -0.2065577592468385 0.36430945472764442 0 -0.22444674400701131 0.36840117189784599 0 -0.22675380618709659 0.3506385644446926 0 -0.23589033341228541 0.35867335746767631 0 -0.21269392974401791 0.35120798596245439 0 -0.22444674400701131 0.36840117189784599 0 -0.22675380618709659 0.3506385644446926 0 -0.22675380618709659 0.3506385644446926 0 -0.24107067359712109 0.34676646377839598 0 -0.22403227734185849 0.33738680748519412 0 -0.21269392974401791 0.35120798596245439 0 -0.22675380618709659 0.3506385644446926 0 -0.22403227734185849 0.33738680748519412 0 -0.22675380618709659 0.3506385644446926 0 -0.23589033341228541 0.35867335746767631 0 -0.24107067359712109 0.34676646377839598 0 -0.23589033341228541 0.35867335746767631 0 -0.24107067359712109 0.34676646377839598 0 -0.2476437652915798 0.35795818431482368 0 -0.25385547873427328 0.34079321197431628 0 -0.25432695322633803 0.3515902798040294 0 -0.24107067359712109 0.34676646377839598 0 -0.25432695322633803 0.3515902798040294 0 -0.24107067359712109 0.34676646377839598 0 -0.2476437652915798 0.35795818431482368 0 -0.22444674400701131 0.36840117189784599 0 -0.23589033341228541 0.35867335746767631 0 -0.24701328765104449 0.36866684718732318 0 -0.23482796441088519 0.38303338625268391 0 -0.22444674400701131 0.36840117189784599 0 -0.24701328765104449 0.36866684718732318 0 -0.23589033341228541 0.35867335746767631 0 -0.2476437652915798 0.35795818431482368 0 -0.24701328765104449 0.36866684718732318 0 -0.25050765906856298 0.32044767092370591 0 -0.24296157993205589 0.33260813687279678 0 -0.23102061480848751 0.32529684356266308 0 -0.25050765906856298 0.32044767092370591 0 -0.23673739791249929 0.31255625962246347 0 -0.23102061480848751 0.32529684356266308 0 -0.25278242527253569 0.33108214078453929 0 -0.25050765906856298 0.32044767092370591 0 -0.24296157993205589 0.33260813687279678 0 -0.25385547873427328 0.34079321197431628 0 -0.25278242527253569 0.33108214078453929 0 -0.24296157993205589 0.33260813687279678 0 -0.24107067359712109 0.34676646377839598 0 -0.24296157993205589 0.33260813687279678 0 -0.22403227734185849 0.33738680748519412 0 -0.25385547873427328 0.34079321197431628 0 -0.24107067359712109 0.34676646377839598 0 -0.24296157993205589 0.33260813687279678 0 -0.24296157993205589 0.33260813687279678 0 -0.22403227734185849 0.33738680748519412 0 -0.23102061480848751 0.32529684356266308 0 -0.23673739791249929 0.31255625962246347 0 -0.21339831416716229 0.31505737040980619 0 -0.23673739791249929 0.31255625962246347 0 -0.23102061480848751 0.32529684356266308 0 -0.21339831416716229 0.31505737040980619 0 -0.22403227734185849 0.33738680748519412 0 -0.23102061480848751 0.32529684356266308 0 -0.21339831416716229 0.31505737040980619 0 -0.21269392974401791 0.35120798596245439 0 -0.22403227734185849 0.33738680748519412 0 -0.20535077892929959 0.33334640646793212 0 -0.22403227734185849 0.33738680748519412 0 -0.21339831416716229 0.31505737040980619 0 -0.20535077892929959 0.33334640646793212 0 -0.18443951200004091 0.33432421979988902 0 -0.20535077892929959 0.33334640646793212 0 -0.1900592304218254 0.3175584811971488 0 -0.18969136004949841 0.35365001329579793 0 -0.20535077892929959 0.33334640646793212 0 -0.18443951200004091 0.33432421979988902 0 -0.18969136004949841 0.35365001329579793 0 -0.20535077892929959 0.33334640646793212 0 -0.21339831416716229 0.31505737040980619 0 -0.1900592304218254 0.3175584811971488 0 -0.21339831416716229 0.31505737040980619 0 -0.20535077892929959 0.33334640646793212 0 -0.1900592304218254 0.3175584811971488 0 -0.1980467059599372 0.30203595493417612 0 -0.18505245313055849 0.29541009795511192 0 -0.18029287973815319 0.30717347502166542 0 -0.1900592304218254 0.3175584811971488 0 -0.1980467059599372 0.30203595493417612 0 -0.18029287973815319 0.30717347502166542 0 -0.21339831416716229 0.31505737040980619 0 -0.1900592304218254 0.3175584811971488 0 -0.1980467059599372 0.30203595493417612 0 -0.1980467059599372 0.30203595493417612 0 -0.19616798608394301 0.28357034073614351 0 -0.18505245313055849 0.29541009795511192 0 -0.19616798608394301 0.28357034073614351 0 -0.2213314959373868 0.2932798563103185 0 -0.2167572761358291 0.2699053126266423 0 -0.1980467059599372 0.30203595493417612 0 -0.19616798608394301 0.28357034073614351 0 -0.2213314959373868 0.2932798563103185 0 -0.21339831416716229 0.31505737040980619 0 -0.1980467059599372 0.30203595493417612 0 -0.2213314959373868 0.2932798563103185 0 -0.23673739791249929 0.31255625962246347 0 -0.21339831416716229 0.31505737040980619 0 -0.2213314959373868 0.2932798563103185 0 -0.23673739791249929 0.31255625962246347 0 -0.2213314959373868 0.2932798563103185 0 -0.23761990304433031 0.29665981688587439 0 -0.2213314959373868 0.2932798563103185 0 -0.23761990304433031 0.29665981688587439 0 -0.24033881776653979 0.27704225328469761 0 -0.25207190056089518 0.30376089832601799 0 -0.24033881776653979 0.27704225328469761 0 -0.25207190056089518 0.30376089832601799 0 -0.23761990304433031 0.29665981688587439 0 -0.24033881776653979 0.27704225328469761 0 -0.25207190056089518 0.30376089832601799 0 -0.25050765906856298 0.32044767092370591 0 -0.23673739791249929 0.31255625962246347 0 -0.25207190056089518 0.30376089832601799 0 -0.23673739791249929 0.31255625962246347 0 -0.23761990304433031 0.29665981688587439 0 -0.24033881776653979 0.27704225328469761 0 -0.2286057349721842 0.25032360824337713 0 -0.25522404109648089 0.2674044268366268 0 -0.24033881776653979 0.27704225328469761 0 -0.2286057349721842 0.25032360824337713 0 -0.25177043790547998 0.24599012604316309 0 -0.25522404109648089 0.2674044268366268 0 -0.2286057349721842 0.25032360824337713 0 -0.24033881776653979 0.27704225328469761 0 -0.2286057349721842 0.25032360824337713 0 -0.2167572761358291 0.2699053126266423 0 -0.2213314959373868 0.2932798563103185 0 -0.24033881776653979 0.27704225328469761 0 -0.2167572761358291 0.2699053126266423 0 -0.2286057349721842 0.25032360824337713 0 -0.2167572761358291 0.2699053126266423 0 -0.2037259274003673 0.24687887307223971 0 -0.2167572761358291 0.2699053126266423 0 -0.19717776305809331 0.26510599001559998 0 -0.2037259274003673 0.24687887307223971 0 -0.19616798608394301 0.28357034073614351 0 -0.2167572761358291 0.2699053126266423 0 -0.19717776305809331 0.26510599001559998 0 -0.19616798608394301 0.28357034073614351 0 -0.19717776305809331 0.26510599001559998 0 -0.18031402575922989 0.2717167608805654 0 -0.19717776305809331 0.26510599001559998 0 -0.18347382519695599 0.25610808106538258 0 -0.2037259274003673 0.24687887307223971 0 -0.19717776305809331 0.26510599001559998 0 -0.18347382519695599 0.25610808106538258 0 -0.18031402575922989 0.2717167608805654 0 -0.18347382519695599 0.25610808106538258 0 -0.167896213224692 0.26299273880388829 0 -0.18031402575922989 0.2717167608805654 0 -0.18347382519695599 0.25610808106538258 0 -0.167896213224692 0.26299273880388829 0 -0.16340192378364951 0.24750357251422311 0 -0.167896213224692 0.26299273880388829 0 -0.15127515854631329 0.26211328852275317 0 -0.16340192378364951 0.24750357251422311 0 -0.167896213224692 0.26299273880388829 0 -0.16101613283731131 0.27752199103651748 0 -0.18031402575922989 0.2717167608805654 0 -0.167896213224692 0.26299273880388829 0 -0.16101613283731131 0.27752199103651748 0 -0.15127515854631329 0.26211328852275317 0 -0.16101613283731131 0.27752199103651748 0 -0.18031402575922989 0.2717167608805654 0 -0.17375383619860249 0.28686939577899973 0 -0.19616798608394301 0.28357034073614351 0 -0.18031402575922989 0.2717167608805654 0 -0.17375383619860249 0.28686939577899973 0 -0.19616798608394301 0.28357034073614351 0 -0.18505245313055849 0.29541009795511192 0 -0.17375383619860249 0.28686939577899973 0 -0.18505245313055849 0.29541009795511192 0 -0.17375383619860249 0.28686939577899973 0 -0.17433055032011391 0.29824606492077638 0 -0.18505245313055849 0.29541009795511192 0 -0.18029287973815319 0.30717347502166542 0 -0.17433055032011391 0.29824606492077638 0 -0.1667201466764883 0.32005959198448958 0 -0.18029287973815319 0.30717347502166542 0 -0.16959216913705011 0.30942276533259622 0 -0.18029287973815319 0.30717347502166542 0 -0.17433055032011391 0.29824606492077638 0 -0.16959216913705011 0.30942276533259622 0 -0.1658292737676717 0.31349311508735622 0 -0.16296141339620521 0.29235459051550861 0 -0.1658292737676717 0.31349311508735622 0 -0.16296141339620521 0.29235459051550861 0 -0.15541994789818681 0.30158179633133558 0 -0.1658292737676717 0.31349311508735622 0 -0.16959216913705011 0.30942276533259622 0 -0.16296141339620521 0.29235459051550861 0 -0.17433055032011391 0.29824606492077638 0 -0.16959216913705011 0.30942276533259622 0 -0.16296141339620521 0.29235459051550861 0 -0.1658292737676717 0.31349311508735622 0 -0.16959216913705011 0.30942276533259622 0 -0.1658292737676717 0.31349311508735622 0 -0.15462811102698051 0.31011645951591083 0 -0.15541994789818681 0.30158179633133558 0 -0.16101613283731131 0.27752199103651748 0 -0.17375383619860249 0.28686939577899973 0 -0.16296141339620521 0.29235459051550861 0 -0.17375383619860249 0.28686939577899973 0 -0.17433055032011391 0.29824606492077638 0 -0.16296141339620521 0.29235459051550861 0 -0.16101613283731131 0.27752199103651748 0 -0.16296141339620521 0.29235459051550861 0 -0.14903378997395031 0.28878199221709328 0 -0.16296141339620521 0.29235459051550861 0 -0.14903378997395031 0.28878199221709328 0 -0.15541994789818681 0.30158179633133558 0 -0.14903378997395031 0.28878199221709328 0 -0.1446471513261271 0.30316282432080882 0 -0.1393297680041144 0.29374697711537789 0 -0.14903378997395031 0.28878199221709328 0 -0.13796904364020851 0.28447837172862311 0 -0.14576283994361219 0.27623109154767328 0 -0.14903378997395031 0.28878199221709328 0 -0.13796904364020851 0.28447837172862311 0 -0.1393297680041144 0.29374697711537789 0 -0.147628476718701 0.31401671752128041 0 -0.15462811102698051 0.31011645951591083 0 -0.1446471513261271 0.30316282432080882 0 -0.15462811102698051 0.31011645951591083 0 -0.15541994789818681 0.30158179633133558 0 -0.1446471513261271 0.30316282432080882 0 -0.14903378997395031 0.28878199221709328 0 -0.15541994789818681 0.30158179633133558 0 -0.1446471513261271 0.30316282432080882 0 -0.13953992960472211 0.31378729031838049 0 -0.147628476718701 0.31401671752128041 0 -0.1446471513261271 0.30316282432080882 0 -0.13953992960472211 0.31378729031838049 0 -0.1446471513261271 0.30316282432080882 0 -0.13452611816629381 0.30740942179225672 0 -0.1446471513261271 0.30316282432080882 0 -0.13452611816629381 0.30740942179225672 0 -0.13445639965369999 0.29966367928805682 0 -0.1446471513261271 0.30316282432080882 0 -0.13445639965369999 0.29966367928805682 0 -0.1393297680041144 0.29374697711537789 0 -0.13445639965369999 0.29966367928805682 0 -0.1284364203415489 0.30100662093678487 0 -0.13054245542658621 0.2926480180223075 0 -0.1284364203415489 0.30100662093678487 0 -0.12739733367773079 0.30987467574664262 0 -0.1224076226257632 0.30316409369634828 0 -0.13452611816629381 0.30740942179225672 0 -0.13445639965369999 0.29966367928805682 0 -0.1284364203415489 0.30100662093678487 0 -0.13452611816629381 0.30740942179225672 0 -0.1284364203415489 0.30100662093678487 0 -0.12739733367773079 0.30987467574664262 0 -0.13175626488066619 0.31714522425690628 0 -0.13452611816629381 0.30740942179225672 0 -0.12739733367773079 0.30987467574664262 0 -0.13796904364020851 0.28447837172862311 0 -0.1393297680041144 0.29374697711537789 0 -0.13054245542658621 0.2926480180223075 0 -0.13445639965369999 0.29966367928805682 0 -0.1393297680041144 0.29374697711537789 0 -0.13054245542658621 0.2926480180223075 0 -0.1284364203415489 0.30100662093678487 0 -0.13054245542658621 0.2926480180223075 0 -0.12323845491320951 0.29654861032128482 0 -0.13054245542658621 0.2926480180223075 0 -0.12191266252302679 0.2899026683728505 0 -0.12323845491320951 0.29654861032128482 0 -0.13054245542658621 0.2926480180223075 0 -0.12806027289369609 0.28083185474876932 0 -0.12191266252302679 0.2899026683728505 0 -0.13796904364020851 0.28447837172862311 0 -0.13054245542658621 0.2926480180223075 0 -0.12806027289369609 0.28083185474876932 0 -0.12806027289369609 0.28083185474876932 0 -0.1364455253731246 0.27629250063117472 0 -0.13153175710404549 0.2692865968031225 0 -0.12806027289369609 0.28083185474876932 0 -0.13153175710404549 0.2692865968031225 0 -0.12198092026351499 0.27353291120265472 0 -0.13796904364020851 0.28447837172862311 0 -0.12806027289369609 0.28083185474876932 0 -0.1364455253731246 0.27629250063117472 0 -0.13796904364020851 0.28447837172862311 0 -0.1364455253731246 0.27629250063117472 0 -0.14576283994361219 0.27623109154767328 0 -0.1364455253731246 0.27629250063117472 0 -0.13153175710404549 0.2692865968031225 0 -0.1408354859660037 0.26716772762207092 0 -0.13153175710404549 0.2692865968031225 0 -0.1261899488386756 0.26059405023886989 0 -0.12198092026351499 0.27353291120265472 0 -0.13153175710404549 0.2692865968031225 0 -0.1261899488386756 0.26059405023886989 0 -0.137412856061147 0.25803999099692432 0 -0.1261899488386756 0.26059405023886989 0 -0.12976778397381189 0.25096292900929318 0 -0.12227324942971381 0.24521350853289531 0 -0.1261899488386756 0.26059405023886989 0 -0.12976778397381189 0.25096292900929318 0 -0.137412856061147 0.25803999099692432 0 -0.12976778397381189 0.25096292900929318 0 -0.137412856061147 0.25803999099692432 0 -0.13680763179620051 0.24850911453875629 0 -0.137412856061147 0.25803999099692432 0 -0.13680763179620051 0.24850911453875629 0 -0.14599748894139869 0.24892434473906261 0 -0.13153175710404549 0.2692865968031225 0 -0.137412856061147 0.25803999099692432 0 -0.1408354859660037 0.26716772762207092 0 -0.15127515854631329 0.26211328852275317 0 -0.16340192378364951 0.24750357251422311 0 -0.14599748894139869 0.24892434473906261 0 -0.137412856061147 0.25803999099692432 0 -0.15127515854631329 0.26211328852275317 0 -0.1408354859660037 0.26716772762207092 0 -0.137412856061147 0.25803999099692432 0 -0.15127515854631329 0.26211328852275317 0 -0.14599748894139869 0.24892434473906261 0 -0.16101613283731131 0.27752199103651748 0 -0.15127515854631329 0.26211328852275317 0 -0.14576283994361219 0.27623109154767328 0 -0.16101613283731131 0.27752199103651748 0 -0.14903378997395031 0.28878199221709328 0 -0.14576283994361219 0.27623109154767328 0 -0.15127515854631329 0.26211328852275317 0 -0.14576283994361219 0.27623109154767328 0 -0.1408354859660037 0.26716772762207092 0 -0.1364455253731246 0.27629250063117472 0 -0.14576283994361219 0.27623109154767328 0 -0.1408354859660037 0.26716772762207092 0 -0.1009877922532835 0.27333703173625512 0 -0.1069626107446499 0.27191237425227271 0 -0.1062364020777182 0.29470344165874901 0 -0.1069626107446499 0.27191237425227271 0 -0.1076888194115803 0.24912130684579639 0 -0.1009877922532835 0.27333703173625512 0 -0.083269394733685956 0.25492163177339572 0 -0.1076888194115803 0.24912130684579639 0 -0.1009877922532835 0.27333703173625512 0 -0.1069626107446499 0.27191237425227271 0 -0.1076888194115803 0.24912130684579639 0 -0.1009877922532835 0.27333703173625512 0 -0.1076888194115803 0.24912130684579639 0 -0.1069626107446499 0.27191237425227271 0 -0.11417312619982049 0.2665283648883302 0 -0.1076888194115803 0.24912130684579639 0 -0.1261899488386756 0.26059405023886989 0 -0.11417312619982049 0.2665283648883302 0 -0.12227324942971381 0.24521350853289531 0 -0.11417312619982049 0.2665283648883302 0 -0.1076888194115803 0.24912130684579639 0 -0.1141673783984848 0.23641763639849739 0 -0.11417312619982049 0.2665283648883302 0 -0.1141673783984848 0.23641763639849739 0 -0.1261899488386756 0.26059405023886989 0 -0.11417312619982049 0.2665283648883302 0 -0.12198092026351499 0.27353291120265472 0 -0.1069626107446499 0.27191237425227271 0 -0.11417312619982049 0.2665283648883302 0 -0.1147990267065446 0.27370101070627068 0 -0.11417312619982049 0.2665283648883302 0 -0.1147990267065446 0.27370101070627068 0 -0.12198092026351499 0.27353291120265472 0 -0.1069626107446499 0.27191237425227271 0 -0.1147990267065446 0.27370101070627068 0 -0.116079449618193 0.28283039248182562 0 -0.1147990267065446 0.27370101070627068 0 -0.12198092026351499 0.27353291120265472 0 -0.116079449618193 0.28283039248182562 0 -0.12806027289369609 0.28083185474876932 0 -0.12198092026351499 0.27353291120265472 0 -0.116079449618193 0.28283039248182562 0 -0.12806027289369609 0.28083185474876932 0 -0.12191266252302679 0.2899026683728505 0 -0.116079449618193 0.28283039248182562 0 -0.1069626107446499 0.27191237425227271 0 -0.116079449618193 0.28283039248182562 0 -0.1077314717463496 0.29434695180126691 0 -0.12191266252302679 0.2899026683728505 0 -0.1155635034207398 0.29124026789926882 0 -0.116079449618193 0.28283039248182562 0 -0.12191266252302679 0.2899026683728505 0 -0.12323845491320951 0.29654861032128482 0 -0.1184209652816018 0.29541041874121371 0 -0.12191266252302679 0.2899026683728505 0 -0.1184209652816018 0.29541041874121371 0 -0.1155635034207398 0.29124026789926882 0 -0.1155635034207398 0.29124026789926882 0 -0.116079449618193 0.28283039248182562 0 -0.1077314717463496 0.29434695180126691 0 -0.1155635034207398 0.29124026789926882 0 -0.1138838583257893 0.2984315592012376 0 -0.1077314717463496 0.29434695180126691 0 -0.1184209652816018 0.29541041874121371 0 -0.1155635034207398 0.29124026789926882 0 -0.1138838583257893 0.2984315592012376 0 -0.12739733367773079 0.30987467574664262 0 -0.1224076226257632 0.30316409369634828 0 -0.11467184366031111 0.3057742397299919 0 -0.12739733367773079 0.30987467574664262 0 -0.11467184366031111 0.3057742397299919 0 -0.121709049194444 0.31975547501678508 0 -0.1224076226257632 0.30316409369634828 0 -0.11852454896133501 0.29986578433801531 0 -0.11467184366031111 0.3057742397299919 0 -0.1284364203415489 0.30100662093678487 0 -0.12323845491320951 0.29654861032128482 0 -0.1224076226257632 0.30316409369634828 0 -0.12323845491320951 0.29654861032128482 0 -0.1224076226257632 0.30316409369634828 0 -0.11852454896133501 0.29986578433801531 0 -0.12323845491320951 0.29654861032128482 0 -0.1184209652816018 0.29541041874121371 0 -0.11852454896133501 0.29986578433801531 0 -0.1138838583257893 0.2984315592012376 0 -0.11467184366031111 0.3057742397299919 0 -0.1062364020777182 0.29470344165874901 0 -0.1184209652816018 0.29541041874121371 0 -0.11852454896133501 0.29986578433801531 0 -0.1138838583257893 0.2984315592012376 0 -0.11852454896133501 0.29986578433801531 0 -0.1138838583257893 0.2984315592012376 0 -0.11467184366031111 0.3057742397299919 0 -0.11467184366031111 0.3057742397299919 0 -0.1062364020777182 0.29470344165874901 0 -0.1053639345628696 0.32208464329717201 0 -0.094286765094989927 0.29755275662671471 0 -0.1062364020777182 0.29470344165874901 0 -0.1053639345628696 0.32208464329717201 0 -0.094286765094989927 0.29755275662671471 0 -0.089065302804030813 0.31642172870769331 0 -0.1053639345628696 0.32208464329717201 0 -0.1062364020777182 0.29470344165874901 0 -0.1053639345628696 0.32208464329717201 0 -0.1069626107446499 0.27191237425227271 0 -0.1062364020777182 0.29470344165874901 0 -0.1069626107446499 0.27191237425227271 0 -0.1077314717463496 0.29434695180126691 0 -0.1062364020777182 0.29470344165874901 0 -0.1009877922532835 0.27333703173625512 0 -0.094286765094989927 0.29755275662671471 0 -0.1009877922532835 0.27333703173625512 0 -0.094286765094989927 0.29755275662671471 0 -0.1062364020777182 0.29470344165874901 0 -0.1138838583257893 0.2984315592012376 0 -0.1077314717463496 0.29434695180126691 0 -0.1062364020777182 0.29470344165874901 0 -0.1077314717463496 0.29434695180126691 0 -0.1062364020777182 0.29470344165874901 0 -0.094286765094989927 0.29755275662671471 0 -0.1062364020777182 0.29470344165874901 0 -0.094286765094989927 0.29755275662671471 0 -0.070316529480775089 0.2874626145693448 0 -0.080493831925187873 0.27595366197446147 0 -0.1009877922532835 0.27333703173625512 0 -0.094286765094989927 0.29755275662671471 0 -0.080493831925187873 0.27595366197446147 0 -0.094286765094989927 0.29755275662671471 0 -0.089065302804030813 0.31642172870769331 0 -0.094286765094989927 0.29755275662671471 0 -0.067758068228118515 0.30387835573676758 0 -0.094286765094989927 0.29755275662671471 0 -0.067758068228118515 0.30387835573676758 0 -0.089065302804030813 0.31642172870769331 0 -0.067758068228118515 0.30387835573676758 0 -0.070316529480775089 0.2874626145693448 0 -0.050480641928861078 0.29021085600260299 0 -0.094286765094989927 0.29755275662671471 0 -0.067758068228118515 0.30387835573676758 0 -0.070316529480775089 0.2874626145693448 0 -0.080493831925187873 0.27595366197446147 0 -0.083269394733685956 0.25492163177339572 0 -0.058563340226719163 0.26971744250617768 0 -0.070316529480775089 0.2874626145693448 0 -0.080493831925187873 0.27595366197446147 0 -0.058563340226719163 0.26971744250617768 0 -0.1009877922532835 0.27333703173625512 0 -0.080493831925187873 0.27595366197446147 0 -0.083269394733685956 0.25492163177339572 0 -0.083269394733685956 0.25492163177339572 0 -0.058563340226719163 0.26971744250617768 0 -0.083269394733685956 0.25492163177339572 0 -0.066099543921763954 0.25154844667530768 0 -0.074550653465175754 0.2446864525953652 0 -0.083269394733685956 0.25492163177339572 0 -0.066099543921763954 0.25154844667530768 0 -0.058563340226719163 0.26971744250617768 0 -0.066099543921763954 0.25154844667530768 0 -0.050846139704629277 0.25179692870554921 0 -0.058563340226719163 0.26971744250617768 0 -0.050846139704629277 0.25179692870554921 0 -0.058563340226719163 0.26971744250617768 0 -0.035627366476922988 0.26622356636304939 0 -0.058563340226719163 0.26971744250617768 0 -0.035627366476922988 0.26622356636304939 0 -0.050480641928861078 0.29021085600260299 0 -0.035627366476922988 0.26622356636304939 0 -0.027259591565780679 0.28545165195921851 0 -0.050480641928861078 0.29021085600260299 0 -0.050846139704629277 0.25179692870554921 0 -0.035627366476922988 0.26622356636304939 0 -0.023139987613061779 0.24937707409410681 0 -0.050846139704629277 0.25179692870554921 0 -0.023139987613061779 0.24937707409410681 0 -0.035627366476922988 0.26622356636304939 0 -0.02506738475103135 0.26099975048986868 0 -0.023139987613061779 0.24937707409410681 0 -0.01328981177031908 0.26069934907161879 0 -0.023139987613061779 0.24937707409410681 0 -0.02506738475103135 0.26099975048986868 0 -0.01328981177031908 0.26069934907161879 0 -0.023139987613061779 0.24937707409410681 0 -0.01328981177031908 0.26069934907161879 0 -0.027259591565780679 0.28545165195921851 0 -0.01328981177031908 0.26069934907161879 0 -0.0107427913139472 0.28206205783979371 0 -0.027259591565780679 0.28545165195921851 0 -0.035627366476922988 0.26622356636304939 0 -0.02506738475103135 0.26099975048986868 0 -0.027259591565780679 0.28545165195921851 0 -0.02506738475103135 0.26099975048986868 0 -0.01328981177031908 0.26069934907161879 0 -0.027259591565780679 0.28545165195921851 0 -0.01328981177031908 0.26069934907161879 0 -0.0107427913139472 0.28206205783979371 0 0.0034427418201543052 0.27993256641229641 0 -0.01328981177031908 0.26069934907161879 0 0.0034427418201543052 0.27993256641229641 0 -0.01328981177031908 0.26069934907161879 0 0.005432461206957475 0.27008104065747518 0 0.0034427418201543052 0.27993256641229641 0 -0.0046572426905789758 0.25660830977550991 0 -0.0052839620752209932 0.24651421377050101 0 0.005432461206957475 0.27008104065747518 0 -0.0046572426905789758 0.25660830977550991 0 -0.01328981177031908 0.26069934907161879 0 0.005432461206957475 0.27008104065747518 0 -0.01328981177031908 0.26069934907161879 0 -0.0052839620752209932 0.24651421377050101 0 -0.023139987613061779 0.24937707409410681 0 -0.0046572426905789758 0.25660830977550991 0 -0.01328981177031908 0.26069934907161879 0 -0.0052839620752209932 0.24651421377050101 0 -0.01328981177031908 0.26069934907161879 0 -0.0052839620752209932 0.24651421377050101 0 -0.0089709971350864174 0.30579241992498002 0 -0.0078697945137191361 0.31546547343540748 0 0.010167076674657971 0.29825243278197971 0 -0.0089709971350864174 0.30579241992498002 0 -0.0042868264351340014 0.29199423495856552 0 0.010167076674657971 0.29825243278197971 0 -0.0089709971350864174 0.30579241992498002 0 -0.0042868264351340014 0.29199423495856552 0 -0.015873855478955812 0.29572655435010758 0 -0.0089709971350864174 0.30579241992498002 0 -0.023167181103477489 0.31451076928227489 0 -0.0078697945137191361 0.31546547343540748 0 -0.0042868264351340014 0.29199423495856552 0 -0.001660643000739298 0.28540143448832911 0 -0.0107427913139472 0.28206205783979371 0 -0.0042868264351340014 0.29199423495856552 0 -0.001660643000739298 0.28540143448832911 0 0.0049443039259697008 0.28761687874266101 0 -0.001660643000739298 0.28540143448832911 0 -0.0107427913139472 0.28206205783979371 0 0.0034427418201543052 0.27993256641229641 0 -0.0042868264351340014 0.29199423495856552 0 -0.0107427913139472 0.28206205783979371 0 -0.015873855478955812 0.29572655435010758 0 -0.0107427913139472 0.28206205783979371 0 -0.027259591565780679 0.28545165195921851 0 -0.015873855478955812 0.29572655435010758 0 -0.0089709971350864174 0.30579241992498002 0 -0.015873855478955812 0.29572655435010758 0 -0.028109070944830949 0.31333240706797971 0 -0.0089709971350864174 0.30579241992498002 0 -0.028109070944830949 0.31333240706797971 0 -0.023167181103477489 0.31451076928227489 0 -0.027259591565780679 0.28545165195921851 0 -0.015873855478955812 0.29572655435010758 0 -0.028109070944830949 0.31333240706797971 0 -0.0089709971350864174 0.30579241992498002 0 -0.028109070944830949 0.31333240706797971 0 -0.027259591565780679 0.28545165195921851 0 -0.041229371361246041 0.31020395484681601 0 -0.041229371361246041 0.31020395484681601 0 -0.028109070944830949 0.31333240706797971 0 -0.027259591565780679 0.28545165195921851 0 -0.041229371361246041 0.31020395484681601 0 -0.028109070944830949 0.31333240706797971 0 -0.027259591565780679 0.28545165195921851 0 -0.041229371361246041 0.31020395484681601 0 -0.050480641928861078 0.29021085600260299 0 -0.070316529480775089 0.2874626145693448 0 -0.058563340226719163 0.26971744250617768 0 -0.050480641928861078 0.29021085600260299 0 -0.067758068228118515 0.30387835573676758 0 -0.041229371361246041 0.31020395484681601 0 -0.067758068228118515 0.30387835573676758 0 -0.041229371361246041 0.31020395484681601 0 -0.050480641928861078 0.29021085600260299 0 -0.067758068228118515 0.30387835573676758 0 -0.041229371361246041 0.31020395484681601 0 -0.045555297928913129 0.31786883190573262 0 -0.055976455728951997 0.32431155392832578 0 -0.058748966494106512 0.33233878435159081 0 -0.033309380503912717 0.32390212889349912 0 -0.067758068228118515 0.30387835573676758 0 -0.055976455728951997 0.32431155392832578 0 -0.045555297928913129 0.31786883190573262 0 -0.058748966494106512 0.33233878435159081 0 -0.054821022626484021 0.34904311479027322 0 -0.069530422821966018 0.34408339901692769 0 -0.058748966494106512 0.33233878435159081 0 -0.033038280958823163 0.33663182436836242 0 -0.054821022626484021 0.34904311479027322 0 -0.058748966494106512 0.33233878435159081 0 -0.033038280958823163 0.33663182436836242 0 -0.033309380503912717 0.32390212889349912 0 -0.033038280958823163 0.33663182436836242 0 -0.054821022626484021 0.34904311479027322 0 -0.055976455728951997 0.32431155392832578 0 -0.033309380503912717 0.32390212889349912 0 -0.028109070944830949 0.31333240706797971 0 -0.058748966494106512 0.33233878435159081 0 -0.033309380503912717 0.32390212889349912 0 -0.041229371361246041 0.31020395484681601 0 -0.045555297928913129 0.31786883190573262 0 -0.028109070944830949 0.31333240706797971 0 -0.055976455728951997 0.32431155392832578 0 -0.028109070944830949 0.31333240706797971 0 -0.055976455728951997 0.32431155392832578 0 -0.045555297928913129 0.31786883190573262 0 -0.028109070944830949 0.31333240706797971 0 -0.041229371361246041 0.31020395484681601 0 -0.045555297928913129 0.31786883190573262 0 -0.033309380503912717 0.32390212889349912 0 -0.023167181103477489 0.31451076928227489 0 -0.0078697945137191361 0.31546547343540748 0 -0.033309380503912717 0.32390212889349912 0 -0.028109070944830949 0.31333240706797971 0 -0.023167181103477489 0.31451076928227489 0 -0.033309380503912717 0.32390212889349912 0 -0.017192706755502 0.32992663263382283 0 -0.0078697945137191361 0.31546547343540748 0 -0.033309380503912717 0.32390212889349912 0 -0.0078697945137191361 0.31546547343540748 0 -0.028109070944830949 0.31333240706797971 0 -0.023167181103477489 0.31451076928227489 0 -0.033038280958823163 0.33663182436836242 0 -0.033309380503912717 0.32390212889349912 0 -0.0262608651890728 0.33176352548795041 0 -0.0262608651890728 0.33176352548795041 0 -0.017192706755502 0.32992663263382283 0 -0.0201785136025966 0.34803225829594858 0 -0.033309380503912717 0.32390212889349912 0 -0.0262608651890728 0.33176352548795041 0 -0.017192706755502 0.32992663263382283 0 -0.033038280958823163 0.33663182436836242 0 -0.0262608651890728 0.33176352548795041 0 -0.0201785136025966 0.34803225829594858 0 -0.017192706755502 0.32992663263382283 0 -0.0091175441794758404 0.33993487952236451 0 -0.004262417917405714 0.32802685679016308 0 -0.017192706755502 0.32992663263382283 0 -0.0091175441794758404 0.33993487952236451 0 -0.0201785136025966 0.34803225829594858 0 -0.0091175441794758404 0.33993487952236451 0 4.0509382391099018e-05 0.34942577061310842 0 0.0088051504294338334 0.32822729429521302 0 -0.0091175441794758404 0.33993487952236451 0 -0.004262417917405714 0.32802685679016308 0 0.0088051504294338334 0.32822729429521302 0 -0.004262417917405714 0.32802685679016308 0 -0.0078697945137191361 0.31546547343540748 0 0.0088051504294338334 0.32822729429521302 0 -0.017192706755502 0.32992663263382283 0 -0.004262417917405714 0.32802685679016308 0 -0.0078697945137191361 0.31546547343540748 0 -0.0087241316646523917 0.37062424693100332 0 4.0509382391099018e-05 0.34942577061310842 0 -0.0087241316646523917 0.37062424693100332 0 4.0509382391099018e-05 0.34942577061310842 0 0.0026724101620130801 0.3695972521235823 0 -0.0087241316646523917 0.37062424693100332 0 0.0026724101620130801 0.3695972521235823 0 -0.0087241316646523917 0.37062424693100332 0 -0.0077465772954661768 0.3815284444822295 0 0.0026724101620130801 0.3695972521235823 0 -0.0087241316646523917 0.37062424693100332 0 -0.0201785136025966 0.34803225829594858 0 4.0509382391099018e-05 0.34942577061310842 0 -0.0091175441794758404 0.33993487952236451 0 -0.0201785136025966 0.34803225829594858 0 4.0509382391099018e-05 0.34942577061310842 0 -0.0201785136025966 0.34803225829594858 0 -0.029974918542352839 0.372539253088922 0 -0.036970294345702141 0.35505166168074781 0 -0.033038280958823163 0.33663182436836242 0 -0.0201785136025966 0.34803225829594858 0 -0.036970294345702141 0.35505166168074781 0 -0.0087241316646523917 0.37062424693100332 0 -0.029974918542352839 0.372539253088922 0 -0.0087241316646523917 0.37062424693100332 0 -0.0201785136025966 0.34803225829594858 0 -0.029974918542352839 0.372539253088922 0 -0.029974918542352839 0.372539253088922 0 -0.051225705420053218 0.37445425924684111 0 -0.029974918542352839 0.372539253088922 0 -0.047231887764682803 0.36322498129340608 0 -0.051225705420053218 0.37445425924684111 0 -0.029974918542352839 0.372539253088922 0 -0.036970294345702141 0.35505166168074781 0 -0.047231887764682803 0.36322498129340608 0 -0.033038280958823163 0.33663182436836242 0 -0.036970294345702141 0.35505166168074781 0 -0.054821022626484021 0.34904311479027322 0 -0.036970294345702141 0.35505166168074781 0 -0.054821022626484021 0.34904311479027322 0 -0.047231887764682803 0.36322498129340608 0 -0.054821022626484021 0.34904311479027322 0 -0.047231887764682803 0.36322498129340608 0 -0.063167497888821797 0.36503661766024631 0 -0.047231887764682803 0.36322498129340608 0 -0.051225705420053218 0.37445425924684111 0 -0.063167497888821797 0.36503661766024631 0 -0.051225705420053218 0.37445425924684111 0 -0.063167497888821797 0.36503661766024631 0 -0.072476492297753575 0.37636926540476062 0 -0.063167497888821797 0.36503661766024631 0 -0.072662926932065289 0.37290738182297262 0 -0.074424191822964961 0.36933079879992869 0 -0.063167497888821797 0.36503661766024631 0 -0.072662926932065289 0.37290738182297262 0 -0.072476492297753575 0.37636926540476062 0 -0.063167497888821797 0.36503661766024631 0 -0.074424191822964961 0.36933079879992869 0 -0.076603764294144644 0.36145440521218408 0 -0.074424191822964961 0.36933079879992869 0 -0.063167497888821797 0.36503661766024631 0 -0.076603764294144644 0.36145440521218408 0 -0.074424191822964961 0.36933079879992869 0 -0.072662926932065289 0.37290738182297262 0 -0.073016532645762827 0.37441770362352927 0 -0.074424191822964961 0.36933079879992869 0 -0.073016532645762827 0.37441770362352927 0 -0.074424191822964961 0.36933079879992869 0 -0.072662926932065289 0.37290738182297262 0 -0.073016532645762827 0.37441770362352927 0 -0.072476492297753575 0.37636926540476062 0 -0.072662926932065289 0.37290738182297262 0 -0.073016532645762827 0.37441770362352927 0 -0.074424191822964961 0.36933079879992869 0 -0.09918359075427674 0.3787759648977595 0 -0.073016532645762827 0.37441770362352927 0 -0.074424191822964961 0.36933079879992869 0 -0.09918359075427674 0.3787759648977595 0 -0.076603764294144644 0.36145440521218408 0 -0.074424191822964961 0.36933079879992869 0 -0.090111381913658362 0.36915072589310138 0 -0.076603764294144644 0.36145440521218408 0 -0.090111381913658362 0.36915072589310138 0 -0.08913951655568475 0.35066654522745427 0 -0.074424191822964961 0.36933079879992869 0 -0.090111381913658362 0.36915072589310138 0 -0.09918359075427674 0.3787759648977595 0 -0.076603764294144644 0.36145440521218408 0 -0.090111381913658362 0.36915072589310138 0 -0.076603764294144644 0.36145440521218408 0 -0.083843840513072948 0.33529070078867218 0 -0.076603764294144644 0.36145440521218408 0 -0.08913951655568475 0.35066654522745427 0 -0.083843840513072948 0.33529070078867218 0 -0.054821022626484021 0.34904311479027322 0 -0.063167497888821797 0.36503661766024631 0 -0.076603764294144644 0.36145440521218408 0 -0.054821022626484021 0.34904311479027322 0 -0.076603764294144644 0.36145440521218408 0 -0.069530422821966018 0.34408339901692769 0 -0.054821022626484021 0.34904311479027322 0 -0.076603764294144644 0.36145440521218408 0 -0.076603764294144644 0.36145440521218408 0 -0.069530422821966018 0.34408339901692769 0 -0.083843840513072948 0.33529070078867218 0 -0.055976455728951997 0.32431155392832578 0 -0.058748966494106512 0.33233878435159081 0 -0.083843840513072948 0.33529070078867218 0 -0.055976455728951997 0.32431155392832578 0 -0.083843840513072948 0.33529070078867218 0 -0.058748966494106512 0.33233878435159081 0 -0.069530422821966018 0.34408339901692769 0 -0.083843840513072948 0.33529070078867218 0 -0.067758068228118515 0.30387835573676758 0 -0.055976455728951997 0.32431155392832578 0 -0.074160916818543546 0.3199755847903647 0 -0.055976455728951997 0.32431155392832578 0 -0.074160916818543546 0.3199755847903647 0 -0.083843840513072948 0.33529070078867218 0 -0.067758068228118515 0.30387835573676758 0 -0.074160916818543546 0.3199755847903647 0 -0.089065302804030813 0.31642172870769331 0 -0.089065302804030813 0.31642172870769331 0 -0.083843840513072948 0.33529070078867218 0 -0.074160916818543546 0.3199755847903647 0 -0.089065302804030813 0.31642172870769331 0 -0.083843840513072948 0.33529070078867218 0 -0.089065302804030813 0.31642172870769331 0 -0.083843840513072948 0.33529070078867218 0 -0.094575127450382129 0.32684999767223749 0 -0.083843840513072948 0.33529070078867218 0 -0.090647129009525845 0.3379710493077191 0 -0.094575127450382129 0.32684999767223749 0 -0.08913951655568475 0.35066654522745427 0 -0.083843840513072948 0.33529070078867218 0 -0.090647129009525845 0.3379710493077191 0 -0.083843840513072948 0.33529070078867218 0 -0.090647129009525845 0.3379710493077191 0 -0.1053639345628696 0.32208464329717201 0 -0.094575127450382129 0.32684999767223749 0 -0.10449146704802199 0.34946584493559502 0 -0.1053639345628696 0.32208464329717201 0 -0.10449146704802199 0.34946584493559502 0 -0.090647129009525845 0.3379710493077191 0 -0.094575127450382129 0.32684999767223749 0 -0.10449146704802199 0.34946584493559502 0 -0.089065302804030813 0.31642172870769331 0 -0.1053639345628696 0.32208464329717201 0 -0.094575127450382129 0.32684999767223749 0 -0.13055351923856459 0.32756978446506058 0 -0.121709049194444 0.31975547501678508 0 -0.1205113991465218 0.33608428260493739 0 -0.1053639345628696 0.32208464329717201 0 -0.121709049194444 0.31975547501678508 0 -0.1205113991465218 0.33608428260493739 0 -0.11467184366031111 0.3057742397299919 0 -0.1053639345628696 0.32208464329717201 0 -0.121709049194444 0.31975547501678508 0 -0.1053639345628696 0.32208464329717201 0 -0.1205113991465218 0.33608428260493739 0 -0.10449146704802199 0.34946584493559502 0 -0.1205113991465218 0.33608428260493739 0 -0.12366732740402089 0.35909998192668952 0 -0.10449146704802199 0.34946584493559502 0 -0.12366732740402089 0.35909998192668952 0 -0.10449146704802199 0.34946584493559502 0 -0.1036189995331724 0.37684704657401807 0 -0.12366732740402089 0.35909998192668952 0 -0.1060043397419001 0.37820615694392379 0 -0.12366732740402089 0.35909998192668952 0 -0.1036189995331724 0.37684704657401807 0 -0.1060043397419001 0.37820615694392379 0 -0.12366732740402089 0.35909998192668952 0 -0.1197697415084036 0.37379827614970679 0 -0.1060043397419001 0.37820615694392379 0 -0.10449146704802199 0.34946584493559502 0 -0.1036189995331724 0.37684704657401807 0 -0.090111381913658362 0.36915072589310138 0 -0.10449146704802199 0.34946584493559502 0 -0.1036189995331724 0.37684704657401807 0 -0.090111381913658362 0.36915072589310138 0 -0.09918359075427674 0.3787759648977595 0 -0.1036189995331724 0.37684704657401807 0 -0.090111381913658362 0.36915072589310138 0 -0.1036189995331724 0.37684704657401807 0 -0.090111381913658362 0.36915072589310138 0 -0.08913951655568475 0.35066654522745427 0 -0.10449146704802199 0.34946584493559502 0 -0.08913951655568475 0.35066654522745427 0 -0.090647129009525845 0.3379710493077191 0 -0.10449146704802199 0.34946584493559502 0 -0.1031978656106862 0.39006375969190149 0 -0.11264402829636019 0.39853074591466192 0 -0.10257703788962901 0.40954759000502411 0 -0.095645827043461584 0.40525444114195608 0 -0.1031978656106862 0.39006375969190149 0 -0.10257703788962901 0.40954759000502411 0 -0.1031978656106862 0.39006375969190149 0 -0.10257703788962901 0.40954759000502411 0 -0.09936513521757509 0.3853878300585446 0 -0.09918359075427674 0.3787759648977595 0 -0.1038366207254614 0.38055099348621751 0 -0.09918359075427674 0.3787759648977595 0 -0.1038366207254614 0.38055099348621751 0 -0.09918359075427674 0.3787759648977595 0 -0.1036189995331724 0.37684704657401807 0 -0.1038366207254614 0.38055099348621751 0 -0.1036189995331724 0.37684704657401807 0 -0.1038366207254614 0.38055099348621751 0 -0.1036189995331724 0.37684704657401807 0 -0.1060043397419001 0.37820615694392379 0 -0.1036189995331724 0.37684704657401807 0 -0.1038366207254614 0.38055099348621751 0 -0.1060043397419001 0.37820615694392379 0 -0.1038366207254614 0.38055099348621751 0 -0.1060043397419001 0.37820615694392379 0 -0.1038366207254614 0.38055099348621751 0 -0.1084736988061064 0.3796131392682594 0 -0.1060043397419001 0.37820615694392379 0 -0.1084736988061064 0.3796131392682594 0 -0.1060043397419001 0.37820615694392379 0 -0.1038366207254614 0.38055099348621751 0 -0.1031978656106862 0.39006375969190149 0 -0.09936513521757509 0.3853878300585446 0 -0.1038366207254614 0.38055099348621751 0 -0.1031978656106862 0.39006375969190149 0 -0.1038366207254614 0.38055099348621751 0 -0.1031978656106862 0.39006375969190149 0 -0.1186299983026263 0.38763885918255381 0 -0.09936513521757509 0.3853878300585446 0 -0.1038366207254614 0.38055099348621751 0 -0.1031978656106862 0.39006375969190149 0 -0.1186299983026263 0.38763885918255381 0 -0.1038366207254614 0.38055099348621751 0 -0.12284874768150481 0.38780370173940099 0 -0.1272257738929207 0.3813029750127751 0 -0.1084736988061064 0.3796131392682594 0 -0.1084736988061064 0.3796131392682594 0 -0.12284874768150481 0.38780370173940099 0 -0.1272257738929207 0.3813029750127751 0 -0.1197697415084036 0.37379827614970679 0 -0.1084736988061064 0.3796131392682594 0 -0.1038366207254614 0.38055099348621751 0 -0.1084736988061064 0.3796131392682594 0 -0.12284874768150481 0.38780370173940099 0 -0.1272257738929207 0.3813029750127751 0 -0.1084736988061064 0.3796131392682594 0 -0.12284874768150481 0.38780370173940099 0 -0.1038366207254614 0.38055099348621751 0 -0.1186299983026263 0.38763885918255381 0 -0.12284874768150481 0.38780370173940099 0 -0.1197697415084036 0.37379827614970679 0 -0.1084736988061064 0.3796131392682594 0 -0.1060043397419001 0.37820615694392379 0 -0.1186299983026263 0.38763885918255381 0 -0.12284874768150481 0.38780370173940099 0 -0.12042314955949331 0.39581425981814827 0 -0.1186299983026263 0.38763885918255381 0 -0.12042314955949331 0.39581425981814827 0 -0.11264402829636019 0.39853074591466192 0 -0.1031978656106862 0.39006375969190149 0 -0.1186299983026263 0.38763885918255381 0 -0.11264402829636019 0.39853074591466192 0 -0.11264402829636019 0.39853074591466192 0 -0.1224258287045045 0.40489930085006348 0 -0.1134238523389148 0.41116229303253071 0 -0.12042314955949331 0.39581425981814827 0 -0.11264402829636019 0.39853074591466192 0 -0.1224258287045045 0.40489930085006348 0 -0.13051712024898041 0.40403865912251802 0 -0.12042314955949331 0.39581425981814827 0 -0.1224258287045045 0.40489930085006348 0 -0.1281218478049512 0.41540643358509072 0 -0.1224258287045045 0.40489930085006348 0 -0.1134238523389148 0.41116229303253071 0 -0.11701418025994161 0.42090960170533798 0 -0.1134238523389148 0.41116229303253071 0 -0.1019562101685684 0.42903142031814662 0 -0.1281218478049512 0.41540643358509072 0 -0.11701418025994161 0.42090960170533798 0 -0.1134238523389148 0.41116229303253071 0 -0.1281218478049512 0.41540643358509072 0 -0.11701418025994161 0.42090960170533798 0 -0.1237184839272443 0.42744959587490861 0 -0.11264402829636019 0.39853074591466192 0 -0.1134238523389148 0.41116229303253071 0 -0.10257703788962901 0.40954759000502411 0 -0.11701418025994161 0.42090960170533798 0 -0.1237184839272443 0.42744959587490861 0 -0.1019562101685684 0.42903142031814662 0 -0.1255554655362647 0.43775938910818479 0 -0.1019562101685684 0.42903142031814662 0 -0.11323444475880209 0.43848062023337703 0 -0.1255554655362647 0.43775938910818479 0 -0.1019562101685684 0.42903142031814662 0 -0.1255554655362647 0.43775938910818479 0 -0.1237184839272443 0.42744959587490861 0 -0.1019562101685684 0.42903142031814662 0 -0.1056672085662714 0.43631467688778369 0 -0.1019562101685684 0.42903142031814662 0 -0.11323444475880209 0.43848062023337703 0 -0.1018034157472878 0.43382666459623243 0 -0.1056672085662714 0.43631467688778369 0 -0.1019562101685684 0.42903142031814662 0 -0.1018034157472878 0.43382666459623243 0 -0.1019562101685684 0.42903142031814662 0 -0.1019562101685684 0.42903142031814662 0 -0.088347220429629669 0.42399825991309559 0 -0.1019562101685684 0.42903142031814662 0 -0.094701806760754653 0.43079915685587722 0 -0.088347220429629669 0.42399825991309559 0 -0.1018034157472878 0.43382666459623243 0 -0.096137762513109182 0.43577777795270062 0 -0.1034363442620968 0.44239854764163822 0 -0.1018034157472878 0.43382666459623243 0 -0.1019562101685684 0.42903142031814662 0 -0.094701806760754653 0.43079915685587722 0 -0.1018034157472878 0.43382666459623243 0 -0.094701806760754653 0.43079915685587722 0 -0.096137762513109182 0.43577777795270062 0 -0.1019562101685684 0.42903142031814662 0 -0.10257703788962901 0.40954759000502411 0 -0.088347220429629669 0.42399825991309559 0 -0.095645827043461584 0.40525444114195608 0 -0.10257703788962901 0.40954759000502411 0 -0.088347220429629669 0.42399825991309559 0 -0.1019562101685684 0.42903142031814662 0 -0.10257703788962901 0.40954759000502411 0 -0.1134238523389148 0.41116229303253071 0 -0.1019562101685684 0.42903142031814662 0 -0.10257703788962901 0.40954759000502411 0 -0.084271740310992133 0.42249098086019199 0 -0.072883456549494435 0.40668859984863048 0 -0.07762064230882669 0.39408279082975373 0 -0.095645827043461584 0.40525444114195608 0 -0.088347220429629669 0.42399825991309559 0 -0.084271740310992133 0.42249098086019199 0 -0.095645827043461584 0.40525444114195608 0 -0.088347220429629669 0.42399825991309559 0 -0.084271740310992133 0.42249098086019199 0 -0.07762064230882669 0.39408279082975373 0 -0.095645827043461584 0.40525444114195608 0 -0.084271740310992133 0.42249098086019199 0 -0.07762064230882669 0.39408279082975373 0 -0.086022445690619675 0.42996859900620998 0 -0.071762700469453003 0.42730843843398708 0 -0.080475238585770159 0.44421458459779328 0 -0.094701806760754653 0.43079915685587722 0 -0.096137762513109182 0.43577777795270062 0 -0.086022445690619675 0.42996859900620998 0 -0.096137762513109182 0.43577777795270062 0 -0.086022445690619675 0.42996859900620998 0 -0.094724800104788481 0.44189592166354608 0 -0.094701806760754653 0.43079915685587722 0 -0.086022445690619675 0.42996859900620998 0 -0.088347220429629669 0.42399825991309559 0 -0.086022445690619675 0.42996859900620998 0 -0.088347220429629669 0.42399825991309559 0 -0.086022445690619675 0.42996859900620998 0 -0.088347220429629669 0.42399825991309559 0 -0.084271740310992133 0.42249098086019199 0 -0.088347220429629669 0.42399825991309559 0 -0.084271740310992133 0.42249098086019199 0 -0.086022445690619675 0.42996859900620998 0 -0.084271740310992133 0.42249098086019199 0 -0.071762700469453003 0.42730843843398708 0 -0.086022445690619675 0.42996859900620998 0 -0.084271740310992133 0.42249098086019199 0 -0.086022445690619675 0.42996859900620998 0 -0.080475238585770159 0.44421458459779328 0 -0.071762700469453003 0.42730843843398708 0 -0.061467173784743492 0.41615400616835208 0 -0.055816254217957953 0.43657492230174871 0 -0.071762700469453003 0.42730843843398708 0 -0.055816254217957953 0.43657492230174871 0 -0.080475238585770159 0.44421458459779328 0 -0.062523350226642613 0.414447537669623 0 -0.067118093351518776 0.39573309003495272 0 -0.061467173784743492 0.41615400616835208 0 -0.084271740310992133 0.42249098086019199 0 -0.071762700469453003 0.42730843843398708 0 -0.062523350226642613 0.414447537669623 0 -0.084271740310992133 0.42249098086019199 0 -0.072883456549494435 0.40668859984863048 0 -0.062523350226642613 0.414447537669623 0 -0.084271740310992133 0.42249098086019199 0 -0.062523350226642613 0.414447537669623 0 -0.071762700469453003 0.42730843843398708 0 -0.062523350226642613 0.414447537669623 0 -0.061467173784743492 0.41615400616835208 0 -0.067118093351518776 0.39573309003495272 0 -0.061467173784743492 0.41615400616835208 0 -0.072883456549494435 0.40668859984863048 0 -0.062523350226642613 0.414447537669623 0 -0.067118093351518776 0.39573309003495272 0 -0.067118093351518776 0.39573309003495272 0 -0.07762064230882669 0.39408279082975373 0 -0.072883456549494435 0.40668859984863048 0 -0.067118093351518776 0.39573309003495272 0 -0.07762064230882669 0.39408279082975373 0 -0.095645827043461584 0.40525444114195608 0 -0.1031978656106862 0.39006375969190149 0 -0.07762064230882669 0.39408279082975373 0 -0.1031978656106862 0.39006375969190149 0 -0.07762064230882669 0.39408279082975373 0 -0.09936513521757509 0.3853878300585446 0 -0.1031978656106862 0.39006375969190149 0 -0.07762064230882669 0.39408279082975373 0 -0.09936513521757509 0.3853878300585446 0 -0.07762064230882669 0.39408279082975373 0 -0.072476492297753575 0.37636926540476062 0 -0.09936513521757509 0.3853878300585446 0 -0.09918359075427674 0.3787759648977595 0 -0.072476492297753575 0.37636926540476062 0 -0.09918359075427674 0.3787759648977595 0 -0.072476492297753575 0.37636926540476062 0 -0.073016532645762827 0.37441770362352927 0 -0.09918359075427674 0.3787759648977595 0 -0.072476492297753575 0.37636926540476062 0 -0.067118093351518776 0.39573309003495272 0 -0.072476492297753575 0.37636926540476062 0 -0.058715003214566117 0.38841155642429043 0 -0.067118093351518776 0.39573309003495272 0 -0.072476492297753575 0.37636926540476062 0 -0.07762064230882669 0.39408279082975373 0 -0.072476492297753575 0.37636926540476062 0 -0.067118093351518776 0.39573309003495272 0 -0.07762064230882669 0.39408279082975373 0 -0.072476492297753575 0.37636926540476062 0 -0.073016532645762827 0.37441770362352927 0 -0.072476492297753575 0.37636926540476062 0 -0.051225705420053218 0.37445425924684111 0 -0.072476492297753575 0.37636926540476062 0 -0.058715003214566117 0.38841155642429043 0 -0.051225705420053218 0.37445425924684111 0 -0.072476492297753575 0.37636926540476062 0 -0.051225705420053218 0.37445425924684111 0 -0.058715003214566117 0.38841155642429043 0 -0.048902891940287227 0.38688996694760802 0 -0.067118093351518776 0.39573309003495272 0 -0.058715003214566117 0.38841155642429043 0 -0.047271240992863402 0.39885168960600192 0 -0.067118093351518776 0.39573309003495272 0 -0.047271240992863402 0.39885168960600192 0 -0.049248089838617913 0.4117045419377845 0 -0.067118093351518776 0.39573309003495272 0 -0.047271240992863402 0.39885168960600192 0 -0.058715003214566117 0.38841155642429043 0 -0.047271240992863402 0.39885168960600192 0 -0.058715003214566117 0.38841155642429043 0 -0.048902891940287227 0.38688996694760802 0 -0.047271240992863402 0.39885168960600192 0 -0.047271240992863402 0.39885168960600192 0 -0.033945415747496231 0.40094561927016509 0 -0.047271240992863402 0.39885168960600192 0 -0.033692218446678163 0.41123981871190057 0 -0.047271240992863402 0.39885168960600192 0 -0.033945415747496231 0.40094561927016509 0 -0.038399618133665783 0.3858423625132984 0 -0.033945415747496231 0.40094561927016509 0 -0.038399618133665783 0.3858423625132984 0 -0.030121379294115611 0.38819671792831512 0 -0.047271240992863402 0.39885168960600192 0 -0.033945415747496231 0.40094561927016509 0 -0.033692218446678163 0.41123981871190057 0 -0.029974918542352839 0.372539253088922 0 -0.051225705420053218 0.37445425924684111 0 -0.038399618133665783 0.3858423625132984 0 -0.029974918542352839 0.372539253088922 0 -0.038399618133665783 0.3858423625132984 0 -0.030121379294115611 0.38819671792831512 0 -0.051225705420053218 0.37445425924684111 0 -0.048902891940287227 0.38688996694760802 0 -0.038399618133665783 0.3858423625132984 0 -0.048902891940287227 0.38688996694760802 0 -0.047271240992863402 0.39885168960600192 0 -0.038399618133665783 0.3858423625132984 0 -0.029974918542352839 0.372539253088922 0 -0.030121379294115611 0.38819671792831512 0 -0.018165564752948379 0.39345963684087409 0 -0.0087241316646523917 0.37062424693100332 0 -0.029974918542352839 0.372539253088922 0 -0.018165564752948379 0.39345963684087409 0 -0.018165564752948379 0.39345963684087409 0 -0.027756004896898799 0.41665542057902583 0 -0.033945415747496231 0.40094561927016509 0 -0.018165564752948379 0.39345963684087409 0 -0.033692218446678163 0.41123981871190057 0 -0.018165564752948379 0.39345963684087409 0 -0.033692218446678163 0.41123981871190057 0 -0.033945415747496231 0.40094561927016509 0 -0.030121379294115611 0.38819671792831512 0 -0.018165564752948379 0.39345963684087409 0 -0.018165564752948379 0.39345963684087409 0 -0.0092108586508279754 0.4106309113407618 0 0.00080831168534120645 0.3943864162940891 0 -0.0092108586508279754 0.4106309113407618 0 0.005058598613043204 0.40980309247480551 0 0.00080831168534120645 0.3943864162940891 0 -0.0087241316646523917 0.37062424693100332 0 -0.018165564752948379 0.39345963684087409 0 -0.0087241316646523917 0.37062424693100332 0 -0.018165564752948379 0.39345963684087409 0 -0.0077465772954661768 0.3815284444822295 0 -0.018165564752948379 0.39345963684087409 0 -0.0077465772954661768 0.3815284444822295 0 0.00080831168534120645 0.3943864162940891 0 -0.0077465772954661768 0.3815284444822295 0 0.0026724101620130801 0.3695972521235823 0 -0.018165564752948379 0.39345963684087409 0 -0.0077465772954661768 0.3815284444822295 0 -0.01415625225844569 0.42906246172800411 0 -0.00055649961999283334 0.44146950287698272 0 0.0032960192925871388 0.42358955289276901 0 -0.01415625225844569 0.42906246172800411 0 -0.00055649961999283334 0.44146950287698272 0 -0.0092108586508279754 0.4106309113407618 0 0.005058598613043204 0.40980309247480551 0 0.0032960192925871388 0.42358955289276901 0 -0.01415625225844569 0.42906246172800411 0 -0.0092108586508279754 0.4106309113407618 0 0.0032960192925871388 0.42358955289276901 0 -0.018165564752948379 0.39345963684087409 0 -0.0092108586508279754 0.4106309113407618 0 -0.027756004896898799 0.41665542057902583 0 -0.018165564752948379 0.39345963684087409 0 -0.027756004896898799 0.41665542057902583 0 -0.033692218446678163 0.41123981871190057 0 -0.01415625225844569 0.42906246172800411 0 -0.0092108586508279754 0.4106309113407618 0 -0.027756004896898799 0.41665542057902583 0 -0.027756004896898799 0.41665542057902583 0 -0.033692218446678163 0.41123981871190057 0 -0.027756004896898799 0.41665542057902583 0 -0.034232057362999058 0.43231863417775779 0 -0.01415625225844569 0.42906246172800411 0 -0.027756004896898799 0.41665542057902583 0 -0.034232057362999058 0.43231863417775779 0 -0.01415625225844569 0.42906246172800411 0 -0.034232057362999058 0.43231863417775779 0 -0.026941326141506541 0.44403181384670648 0 -0.01415625225844569 0.42906246172800411 0 -0.027756004896898799 0.41665542057902583 0 -0.034232057362999058 0.43231863417775779 0 -0.042204322929024353 0.42958553368158592 0 -0.040708109829098692 0.44798184777649008 0 -0.027756004896898799 0.41665542057902583 0 -0.034232057362999058 0.43231863417775779 0 -0.036553103864872483 0.42396137443120779 0 -0.036553103864872483 0.42396137443120779 0 -0.044754236332315719 0.4239073705068267 0 -0.035688890885191213 0.41894099605724022 0 -0.034232057362999058 0.43231863417775779 0 -0.036553103864872483 0.42396137443120779 0 -0.042204322929024353 0.42958553368158592 0 -0.036553103864872483 0.42396137443120779 0 -0.044754236332315719 0.4239073705068267 0 -0.042204322929024353 0.42958553368158592 0 -0.044754236332315719 0.4239073705068267 0 -0.033692218446678163 0.41123981871190057 0 -0.035688890885191213 0.41894099605724022 0 -0.027756004896898799 0.41665542057902583 0 -0.033692218446678163 0.41123981871190057 0 -0.035688890885191213 0.41894099605724022 0 -0.027756004896898799 0.41665542057902583 0 -0.036553103864872483 0.42396137443120779 0 -0.035688890885191213 0.41894099605724022 0 -0.044754236332315719 0.4239073705068267 0 -0.033692218446678163 0.41123981871190057 0 -0.044754236332315719 0.4239073705068267 0 -0.033692218446678163 0.41123981871190057 0 -0.049248089838617913 0.4117045419377845 0 -0.047271240992863402 0.39885168960600192 0 -0.033692218446678163 0.41123981871190057 0 -0.049248089838617913 0.4117045419377845 0 -0.067118093351518776 0.39573309003495272 0 -0.049248089838617913 0.4117045419377845 0 -0.061467173784743492 0.41615400616835208 0 -0.044754236332315719 0.4239073705068267 0 -0.049248089838617913 0.4117045419377845 0 -0.061467173784743492 0.41615400616835208 0 -0.044754236332315719 0.4239073705068267 0 -0.061467173784743492 0.41615400616835208 0 -0.055816254217957953 0.43657492230174871 0 -0.061467173784743492 0.41615400616835208 0 -0.055816254217957953 0.43657492230174871 0 -0.044754236332315719 0.4239073705068267 0 -0.042204322929024353 0.42958553368158592 0 -0.055816254217957953 0.43657492230174871 0 -0.044754236332315719 0.4239073705068267 0 -0.055816254217957953 0.43657492230174871 0 -0.055816254217957953 0.43657492230174871 0 -0.047867797305171281 0.46529852561765928 0 -0.055816254217957953 0.43657492230174871 0 -0.047867797305171281 0.46529852561765928 0 -0.040708109829098692 0.44798184777649008 0 -0.055816254217957953 0.43657492230174871 0 -0.061966982562847661 0.46413155409137941 0 -0.047867797305171281 0.46529852561765928 0 -0.035005792570602261 0.45522635362800601 0 -0.02914444848156985 0.47142484376693111 0 -0.038592733879623663 0.47399092388824582 0 -0.047867797305171281 0.46529852561765928 0 -0.040708109829098692 0.44798184777649008 0 -0.038592733879623663 0.47399092388824582 0 -0.040708109829098692 0.44798184777649008 0 -0.038592733879623663 0.47399092388824582 0 -0.035005792570602261 0.45522635362800601 0 -0.040708109829098692 0.44798184777649008 0 -0.038592733879623663 0.47399092388824582 0 -0.047867797305171281 0.46529852561765928 0 -0.040708109829098692 0.44798184777649008 0 -0.034232057362999058 0.43231863417775779 0 -0.040708109829098692 0.44798184777649008 0 -0.026941326141506541 0.44403181384670648 0 -0.042204322929024353 0.42958553368158592 0 -0.040708109829098692 0.44798184777649008 0 -0.042204322929024353 0.42958553368158592 0 -0.055816254217957953 0.43657492230174871 0 -0.040708109829098692 0.44798184777649008 0 -0.034232057362999058 0.43231863417775779 0 -0.040708109829098692 0.44798184777649008 0 -0.035005792570602261 0.45522635362800601 0 -0.040708109829098692 0.44798184777649008 0 -0.026941326141506541 0.44403181384670648 0 -0.01415625225844569 0.42906246172800411 0 -0.026941326141506541 0.44403181384670648 0 -0.01325276158728704 0.44416234293388918 0 -0.026941326141506541 0.44403181384670648 0 -0.019056759228836609 0.4513376328365839 0 -0.01325276158728704 0.44416234293388918 0 -0.026941326141506541 0.44403181384670648 0 -0.019056759228836609 0.4513376328365839 0 -0.02438142198830209 0.4534012332451548 0 -0.035005792570602261 0.45522635362800601 0 -0.026941326141506541 0.44403181384670648 0 -0.02438142198830209 0.4534012332451548 0 -0.035005792570602261 0.45522635362800601 0 -0.017826195212627381 0.46034771022460969 0 -0.016213786387321519 0.47113925917072719 0 -0.035005792570602261 0.45522635362800601 0 -0.016213786387321519 0.47113925917072719 0 -0.035005792570602261 0.45522635362800601 0 -0.016213786387321519 0.47113925917072719 0 -0.02914444848156985 0.47142484376693111 0 -0.035005792570602261 0.45522635362800601 0 -0.02438142198830209 0.4534012332451548 0 -0.017826195212627381 0.46034771022460969 0 -0.019056759228836609 0.4513376328365839 0 -0.02438142198830209 0.4534012332451548 0 -0.017826195212627381 0.46034771022460969 0 -0.019056759228836609 0.4513376328365839 0 -0.017826195212627381 0.46034771022460969 0 -0.011316292049790211 0.45397937189937537 0 -0.017826195212627381 0.46034771022460969 0 -0.011316292049790211 0.45397937189937537 0 -0.0084963778050106287 0.4616726172862638 0 -0.0084963778050106287 0.4616726172862638 0 -0.0043479113537027896 0.47213461157433478 0 -0.016213786387321519 0.47113925917072719 0 -0.017826195212627381 0.46034771022460969 0 -0.0084963778050106287 0.4616726172862638 0 -0.016213786387321519 0.47113925917072719 0 -0.0084963778050106287 0.4616726172862638 0 -0.0043479113537027896 0.47213461157433478 0 0.00474029898156135 0.46867440512690051 0 -0.011316292049790211 0.45397937189937537 0 -0.0084963778050106287 0.4616726172862638 0 -0.0034087120612929442 0.45056895297779281 0 -0.0084963778050106287 0.4616726172862638 0 -0.0034087120612929442 0.45056895297779281 0 0.0039172354096816339 0.45918515846397029 0 -0.0034087120612929442 0.45056895297779281 0 -0.00055649961999283334 0.44146950287698272 0 -0.01325276158728704 0.44416234293388918 0 -0.01415625225844569 0.42906246172800411 0 -0.00055649961999283334 0.44146950287698272 0 -0.01325276158728704 0.44416234293388918 0 -0.019056759228836609 0.4513376328365839 0 -0.011316292049790211 0.45397937189937537 0 -0.01325276158728704 0.44416234293388918 0 -0.011316292049790211 0.45397937189937537 0 -0.0034087120612929442 0.45056895297779281 0 -0.01325276158728704 0.44416234293388918 0 -0.01491828294746167 0.48341313180646112 0 0.0025782197959596351 0.48705216471344781 0 -0.0093043341943110924 0.5 0 -0.01491828294746167 0.48341313180646112 0 0.0025782197959596351 0.48705216471344781 0 -0.016213786387321519 0.47113925917072719 0 0.0025782197959596351 0.48705216471344781 0 -0.01491828294746167 0.48341313180646112 0 -0.016213786387321519 0.47113925917072719 0 0.0025782197959596351 0.48705216471344781 0 -0.0043479113537027896 0.47213461157433478 0 -0.016213786387321519 0.47113925917072719 0 0.0025782197959596351 0.48705216471344781 0 -0.01491828294746167 0.48341313180646112 0 -0.032414785690883137 0.47977409889947498 0 -0.01491828294746167 0.48341313180646112 0 -0.02317282587680905 0.47643783341089863 0 -0.032414785690883137 0.47977409889947498 0 -0.01491828294746167 0.48341313180646112 0 -0.016213786387321519 0.47113925917072719 0 -0.02317282587680905 0.47643783341089863 0 -0.016213786387321519 0.47113925917072719 0 -0.02317282587680905 0.47643783341089863 0 -0.02914444848156985 0.47142484376693111 0 -0.02317282587680905 0.47643783341089863 0 -0.02914444848156985 0.47142484376693111 0 -0.032414785690883137 0.47977409889947498 0 -0.023278690190701001 0.49079680767648431 0 -0.036477357930147961 0.50000000000000133 0 -0.032414785690883137 0.47977409889947498 0 -0.0093043341943110924 0.5 0 -0.023278690190701001 0.49079680767648431 0 -0.036477357930147961 0.50000000000000133 0 -0.0093043341943110924 0.5 0 -0.01491828294746167 0.48341313180646112 0 -0.023278690190701001 0.49079680767648431 0 -0.01491828294746167 0.48341313180646112 0 -0.023278690190701001 0.49079680767648431 0 -0.032414785690883137 0.47977409889947498 0 -0.036477357930147961 0.50000000000000133 0 -0.038592733879623663 0.47399092388824582 0 -0.036477357930147961 0.50000000000000133 0 -0.038592733879623663 0.47399092388824582 0 -0.032414785690883137 0.47977409889947498 0 -0.038265131131809647 0.50000000000000444 0 -0.043066464218490128 0.48264926280883169 0 -0.038265131131809647 0.50000000000000444 0 -0.036477357930147961 0.50000000000000133 0 -0.043066464218490128 0.48264926280883169 0 -0.036477357930147961 0.50000000000000133 0 -0.038592733879623663 0.47399092388824582 0 -0.043066464218490128 0.48264926280883169 0 -0.038265131131809647 0.50000000000000444 0 -0.043066464218490128 0.48264926280883169 0 -0.050933415386163361 0.49176596557829699 0 -0.047867797305171281 0.46529852561765928 0 -0.043066464218490128 0.48264926280883169 0 -0.047867797305171281 0.46529852561765928 0 -0.038592733879623663 0.47399092388824582 0 -0.043066464218490128 0.48264926280883169 0 -0.02914444848156985 0.47142484376693111 0 -0.038592733879623663 0.47399092388824582 0 -0.032414785690883137 0.47977409889947498 0 -0.047867797305171281 0.46529852561765928 0 -0.043066464218490128 0.48264926280883169 0 -0.054150059145496907 0.48049303023343448 0 -0.061966982562847661 0.46413155409137941 0 -0.054150059145496907 0.48049303023343448 0 -0.067680176233372386 0.4770740525192938 0 -0.061966982562847661 0.46413155409137941 0 -0.047867797305171281 0.46529852561765928 0 -0.054150059145496907 0.48049303023343448 0 -0.047867797305171281 0.46529852561765928 0 -0.054150059145496907 0.48049303023343448 0 -0.054150059145496907 0.48049303023343448 0 -0.060432320985821672 0.49568753484921008 0 -0.067680176233372386 0.4770740525192938 0 -0.038265131131809647 0.50000000000000444 0 -0.050933415386163361 0.49176596557829699 0 -0.058753101449195218 0.50000000000000289 0 -0.043066464218490128 0.48264926280883169 0 -0.054150059145496907 0.48049303023343448 0 -0.050933415386163361 0.49176596557829699 0 -0.054150059145496907 0.48049303023343448 0 -0.050933415386163361 0.49176596557829699 0 -0.060432320985821672 0.49568753484921008 0 -0.054150059145496907 0.48049303023343448 0 -0.060432320985821672 0.49568753484921008 0 -0.050933415386163361 0.49176596557829699 0 -0.060432320985821672 0.49568753484921008 0 -0.058753101449195218 0.50000000000000289 0 -0.060432320985821672 0.49568753484921008 0 -0.058753101449195218 0.50000000000000289 0 -0.060432320985821672 0.49568753484921008 0 -0.062215336354835678 0.49999999999999822 0 -0.058753101449195218 0.50000000000000289 0 -0.060432320985821672 0.49568753484921008 0 -0.062215336354835678 0.49999999999999822 0 -0.060432320985821672 0.49568753484921008 0 -0.074462151081411396 0.49241164682468719 0 -0.067680176233372386 0.4770740525192938 0 -0.060432320985821672 0.49568753484921008 0 -0.062215336354835678 0.49999999999999822 0 -0.074462151081411396 0.49241164682468719 0 -0.062215336354835678 0.49999999999999822 0 -0.074462151081411396 0.49241164682468719 0 -0.08670896580798515 0.5 0 -0.060432320985821672 0.49568753484921008 0 -0.067680176233372386 0.4770740525192938 0 -0.074462151081411396 0.49241164682468719 0 -0.08670896580798515 0.5 0 -0.093065313371028441 0.47923028509468529 0 -0.093065313371028441 0.47923028509468529 0 -0.067680176233372386 0.4770740525192938 0 -0.074928031480921226 0.4584605701893768 0 -0.074462151081411396 0.49241164682468719 0 -0.093065313371028441 0.47923028509468529 0 -0.067680176233372386 0.4770740525192938 0 -0.093065313371028441 0.47923028509468529 0 -0.074928031480921226 0.4584605701893768 0 -0.061966982562847661 0.46413155409137941 0 -0.067680176233372386 0.4770740525192938 0 -0.074928031480921226 0.4584605701893768 0 -0.067680176233372386 0.4770740525192938 0 -0.074928031480921226 0.4584605701893768 0 -0.055816254217957953 0.43657492230174871 0 -0.074928031480921226 0.4584605701893768 0 -0.080475238585770159 0.44421458459779328 0 -0.055816254217957953 0.43657492230174871 0 -0.074928031480921226 0.4584605701893768 0 -0.055816254217957953 0.43657492230174871 0 -0.061966982562847661 0.46413155409137941 0 -0.074928031480921226 0.4584605701893768 0 -0.074928031480921226 0.4584605701893768 0 -0.080475238585770159 0.44421458459779328 0 -0.086022445690619675 0.42996859900620998 0 -0.080475238585770159 0.44421458459779328 0 -0.091187699860285673 0.45203044833690209 0 -0.086022445690619675 0.42996859900620998 0 -0.091187699860285673 0.45203044833690209 0 -0.086022445690619675 0.42996859900620998 0 -0.091187699860285673 0.45203044833690209 0 -0.094724800104788481 0.44189592166354608 0 -0.074928031480921226 0.4584605701893768 0 -0.080475238585770159 0.44421458459779328 0 -0.091187699860285673 0.45203044833690209 0 -0.074928031480921226 0.4584605701893768 0 -0.091187699860285673 0.45203044833690209 0 -0.09907348618995257 0.46061033851179217 0 -0.093065313371028441 0.47923028509468529 0 -0.074928031480921226 0.4584605701893768 0 -0.09907348618995257 0.46061033851179217 0 -0.1084639447411225 0.46751102178586679 0 -0.09907348618995257 0.46061033851179217 0 -0.10908123536408371 0.45124353451418842 0 -0.091187699860285673 0.45203044833690209 0 -0.09907348618995257 0.46061033851179217 0 -0.099500713156241427 0.44963575813361339 0 -0.09907348618995257 0.46061033851179217 0 -0.099500713156241427 0.44963575813361339 0 -0.10908123536408371 0.45124353451418842 0 -0.096137762513109182 0.43577777795270062 0 -0.094724800104788481 0.44189592166354608 0 -0.1034363442620968 0.44239854764163822 0 -0.094724800104788481 0.44189592166354608 0 -0.099500713156241427 0.44963575813361339 0 -0.1034363442620968 0.44239854764163822 0 -0.091187699860285673 0.45203044833690209 0 -0.094724800104788481 0.44189592166354608 0 -0.099500713156241427 0.44963575813361339 0 -0.099500713156241427 0.44963575813361339 0 -0.10908123536408371 0.45124353451418842 0 -0.1034363442620968 0.44239854764163822 0 -0.1056672085662714 0.43631467688778369 0 -0.1034363442620968 0.44239854764163822 0 -0.11323444475880209 0.43848062023337703 0 -0.1018034157472878 0.43382666459623243 0 -0.1056672085662714 0.43631467688778369 0 -0.1034363442620968 0.44239854764163822 0 -0.10908123536408371 0.45124353451418842 0 -0.1034363442620968 0.44239854764163822 0 -0.11323444475880209 0.43848062023337703 0 -0.10908123536408371 0.45124353451418842 0 -0.11323444475880209 0.43848062023337703 0 -0.12062620791983179 0.44663543365021341 0 -0.12835752724613081 0.44779950626399551 0 -0.12062620791983179 0.44663543365021341 0 -0.1233130978899409 0.45773094234799888 0 -0.10908123536408371 0.45124353451418842 0 -0.12062620791983179 0.44663543365021341 0 -0.1233130978899409 0.45773094234799888 0 -0.1255554655362647 0.43775938910818479 0 -0.12835752724613081 0.44779950626399551 0 -0.12062620791983179 0.44663543365021341 0 -0.1255554655362647 0.43775938910818479 0 -0.11323444475880209 0.43848062023337703 0 -0.12062620791983179 0.44663543365021341 0 -0.1084639447411225 0.46751102178586679 0 -0.1233130978899409 0.45773094234799888 0 -0.1211414063130591 0.47997814940774242 0 -0.1084639447411225 0.46751102178586679 0 -0.10908123536408371 0.45124353451418842 0 -0.1233130978899409 0.45773094234799888 0 -0.13480283873162399 0.5 0 -0.1211414063130591 0.47997814940774242 0 -0.1112025952611347 0.49999999999999478 0 -0.08670896580798515 0.5 0 -0.093065313371028441 0.47923028509468529 0 -0.1112025952611347 0.49999999999999478 0 -0.093065313371028441 0.47923028509468529 0 -0.1112025952611347 0.49999999999999478 0 -0.093065313371028441 0.47923028509468529 0 -0.1211414063130591 0.47997814940774242 0 -0.1112025952611347 0.49999999999999478 0 -0.093065313371028441 0.47923028509468529 0 -0.1084639447411225 0.46751102178586679 0 -0.1211414063130591 0.47997814940774242 0 -0.093065313371028441 0.47923028509468529 0 -0.1084639447411225 0.46751102178586679 0 -0.09907348618995257 0.46061033851179217 0 -0.16471675286475379 0.08637938673542947 0 -0.1665073998901016 0.065944118335332896 0 -0.14825080120885409 0.077512696039309992 0 -0.16471675286475379 0.08637938673542947 0 -0.1665073998901016 0.065944118335332896 0 -0.1848979993769562 0.075289326912078638 0 -0.1665073998901016 0.065944118335332896 0 -0.1848979993769562 0.075289326912078638 0 -0.1820606235460312 0.055495869272145837 0 -0.16471675286475379 0.08637938673542947 0 -0.1848979993769562 0.075289326912078638 0 -0.18151238797247579 0.096840368637884477 0 -0.18151238797247579 0.096840368637884477 0 -0.1783278299431702 0.113207025524323 0 -0.1669318592203354 0.1021025205197414 0 -0.18151238797247579 0.096840368637884477 0 -0.1783278299431702 0.113207025524323 0 -0.1989263106482495 0.11412574373471809 0 -0.1783278299431702 0.113207025524323 0 -0.16120310185971101 0.116311255482486 0 -0.17931008951358099 0.1299347712311513 0 -0.1783278299431702 0.113207025524323 0 -0.1989263106482495 0.11412574373471809 0 -0.17931008951358099 0.1299347712311513 0 -0.1783278299431702 0.113207025524323 0 -0.16120310185971101 0.116311255482486 0 -0.1669318592203354 0.1021025205197414 0 -0.16471675286475379 0.08637938673542947 0 -0.18151238797247579 0.096840368637884477 0 -0.1669318592203354 0.1021025205197414 0 -0.16120310185971101 0.116311255482486 0 -0.1669318592203354 0.1021025205197414 0 -0.1495153060974706 0.098721362091399451 0 -0.16471675286475379 0.08637938673542947 0 -0.1669318592203354 0.1021025205197414 0 -0.1495153060974706 0.098721362091399451 0 -0.16120310185971101 0.116311255482486 0 -0.1495153060974706 0.098721362091399451 0 -0.14217304248940249 0.1115350136177016 0 -0.16120310185971101 0.116311255482486 0 -0.14499402368131789 0.1243778778869043 0 -0.14217304248940249 0.1115350136177016 0 -0.14499402368131789 0.1243778778869043 0 -0.12696926159011401 0.11688853919367979 0 -0.12851164379040581 0.131950320149015 0 -0.14499402368131789 0.1243778778869043 0 -0.14217304248940249 0.1115350136177016 0 -0.12696926159011401 0.11688853919367979 0 -0.14217304248940249 0.1115350136177016 0 -0.12696926159011401 0.11688853919367979 0 -0.13014376881308221 0.103448624029411 0 -0.12696926159011401 0.11688853919367979 0 -0.13014376881308221 0.103448624029411 0 -0.11838927439815029 0.11051416995688509 0 -0.12696926159011401 0.11688853919367979 0 -0.12851164379040581 0.131950320149015 0 -0.12060300057831359 0.1253336184863498 0 -0.1495153060974706 0.098721362091399451 0 -0.13014376881308221 0.103448624029411 0 -0.13405845092167301 0.088593883612027344 0 -0.1495153060974706 0.098721362091399451 0 -0.14217304248940249 0.1115350136177016 0 -0.13014376881308221 0.103448624029411 0 -0.13014376881308221 0.103448624029411 0 -0.13405845092167301 0.088593883612027344 0 -0.12247351799286969 0.094978656904516456 0 -0.13405845092167301 0.088593883612027344 0 -0.14825080120885409 0.077512696039309992 0 -0.12894820963791109 0.071549159605543894 0 -0.13405845092167301 0.088593883612027344 0 -0.11847927161111441 0.083226311160254668 0 -0.12247351799286969 0.094978656904516456 0 -0.13405845092167301 0.088593883612027344 0 -0.12894820963791109 0.071549159605543894 0 -0.11847927161111441 0.083226311160254668 0 -0.1495153060974706 0.098721362091399451 0 -0.13405845092167301 0.088593883612027344 0 -0.14825080120885409 0.077512696039309992 0 -0.16471675286475379 0.08637938673542947 0 -0.1495153060974706 0.098721362091399451 0 -0.14825080120885409 0.077512696039309992 0 -0.1665073998901016 0.065944118335332896 0 -0.14825080120885409 0.077512696039309992 0 -0.1446679350515673 0.055123107781829918 0 -0.14825080120885409 0.077512696039309992 0 -0.12894820963791109 0.071549159605543894 0 -0.1446679350515673 0.055123107781829918 0 -0.13112644818408389 0.03324826071597238 0 -0.1446679350515673 0.055123107781829918 0 -0.1204793428039985 0.055319963820883097 0 -0.12894820963791109 0.071549159605543894 0 -0.1446679350515673 0.055123107781829918 0 -0.1204793428039985 0.055319963820883097 0 -0.13112644818408389 0.03324826071597238 0 -0.15293783449639439 0.036059903257998328 0 -0.1446679350515673 0.055123107781829918 0 -0.15293783449639439 0.036059903257998328 0 -0.1446679350515673 0.055123107781829918 0 -0.15971559756169201 0.048999668793796518 0 -0.13112644818408389 0.03324826071597238 0 -0.15293783449639439 0.036059903257998328 0 -0.12716660979733599 0.0095071604966818855 0 -0.15390830796439009 0.0013171661340907719 0 -0.13112644818408389 0.03324826071597238 0 -0.12716660979733599 0.0095071604966818855 0 -0.14856470443765851 0.020252033020570399 0 -0.13112644818408389 0.03324826071597238 0 -0.15293783449639439 0.036059903257998328 0 -0.14856470443765851 0.020252033020570399 0 -0.15293783449639439 0.036059903257998328 0 -0.14856470443765851 0.020252033020570399 0 -0.16413518290830889 0.029284566721767279 0 -0.12716660979733599 0.0095071604966818855 0 -0.14856470443765851 0.020252033020570399 0 -0.15390830796439009 0.0013171661340907719 0 -0.14856470443765851 0.020252033020570399 0 -0.15390830796439009 0.0013171661340907719 0 -0.1654937449390412 0.016267650579852411 0 -0.17170444415764949 -0.0041331330274716662 0 -0.15390830796439009 0.0013171661340907719 0 -0.1654937449390412 0.016267650579852411 0 -0.15390830796439009 0.0013171661340907719 0 -0.1654937449390412 0.016267650579852411 0 -0.14856470443765851 0.020252033020570399 0 -0.1654937449390412 0.016267650579852411 0 -0.16413518290830889 0.029284566721767279 0 -0.1654937449390412 0.016267650579852411 0 -0.16413518290830889 0.029284566721767279 0 -0.17707918191369079 0.031218135025615251 0 -0.1654937449390412 0.016267650579852411 0 -0.17707918191369079 0.031218135025615251 0 -0.17707918191369079 0.031218135025615251 0 -0.18708279199497591 0.02968959259615666 0 -0.1832898811322998 0.01081735141828993 0 -0.17707918191369079 0.031218135025615251 0 -0.1832898811322998 0.01081735141828993 0 -0.1654937449390412 0.016267650579852411 0 -0.17707918191369079 0.031218135025615251 0 -0.1832898811322998 0.01081735141828993 0 -0.18950058035090861 -0.0095834321890353822 0 -0.1832898811322998 0.01081735141828993 0 -0.17170444415764949 -0.0041331330274716662 0 -0.1654937449390412 0.016267650579852411 0 -0.1832898811322998 0.01081735141828993 0 -0.1665073998901016 0.065944118335332896 0 -0.15971559756169201 0.048999668793796518 0 -0.17474922080870481 0.038871545800024977 0 -0.1665073998901016 0.065944118335332896 0 -0.1446679350515673 0.055123107781829918 0 -0.15971559756169201 0.048999668793796518 0 -0.1665073998901016 0.065944118335332896 0 -0.17474922080870481 0.038871545800024977 0 -0.15293783449639439 0.036059903257998328 0 -0.16413518290830889 0.029284566721767279 0 -0.17474922080870481 0.038871545800024977 0 -0.15293783449639439 0.036059903257998328 0 -0.15971559756169201 0.048999668793796518 0 -0.17474922080870481 0.038871545800024977 0 -0.15293783449639439 0.036059903257998328 0 -0.17474922080870481 0.038871545800024977 0 -0.17474922080870481 0.038871545800024977 0 -0.1873735127567864 0.040498906656227518 0 -0.1820606235460312 0.055495869272145837 0 -0.16413518290830889 0.029284566721767279 0 -0.17707918191369079 0.031218135025615251 0 -0.17474922080870481 0.038871545800024977 0 -0.17707918191369079 0.031218135025615251 0 -0.17474922080870481 0.038871545800024977 0 -0.17707918191369079 0.031218135025615251 0 -0.17474922080870481 0.038871545800024977 0 -0.1873735127567864 0.040498906656227518 0 -0.17707918191369079 0.031218135025615251 0 -0.18708279199497591 0.02968959259615666 0 -0.1873735127567864 0.040498906656227518 0 -0.17474922080870481 0.038871545800024977 0 -0.1873735127567864 0.040498906656227518 0 -0.1665073998901016 0.065944118335332896 0 -0.17474922080870481 0.038871545800024977 0 -0.1820606235460312 0.055495869272145837 0 -0.1848979993769562 0.075289326912078638 0 -0.1820606235460312 0.055495869272145837 0 -0.20057681625268431 0.056626203652507319 0 -0.1873735127567864 0.040498906656227518 0 -0.1820606235460312 0.055495869272145837 0 -0.20057681625268431 0.056626203652507319 0 -0.1873735127567864 0.040498906656227518 0 -0.20057681625268431 0.056626203652507319 0 -0.20087952003994611 0.036707216442191618 0 -0.18708279199497591 0.02968959259615666 0 -0.1873735127567864 0.040498906656227518 0 -0.20087952003994611 0.036707216442191618 0 -0.20057681625268431 0.056626203652507319 0 -0.20087952003994611 0.036707216442191618 0 -0.21994966047120609 0.043343929081465601 0 -0.20087952003994611 0.036707216442191618 0 -0.21286878928494571 0.025235630143771171 0 -0.21994966047120609 0.043343929081465601 0 -0.20057681625268431 0.056626203652507319 0 -0.21994966047120609 0.043343929081465601 0 -0.22286783113552319 0.064357037387919369 0 -0.18950058035090861 -0.0095834321890353822 0 -0.1832898811322998 0.01081735141828993 0 -0.20518915555726081 0.0063160521339462369 0 -0.1832898811322998 0.01081735141828993 0 -0.19806994804695771 0.023079276535804879 0 -0.20518915555726081 0.0063160521339462369 0 -0.18708279199497591 0.02968959259615666 0 -0.1832898811322998 0.01081735141828993 0 -0.19806994804695771 0.023079276535804879 0 -0.18708279199497591 0.02968959259615666 0 -0.20087952003994611 0.036707216442191618 0 -0.19806994804695771 0.023079276535804879 0 -0.19806994804695771 0.023079276535804879 0 -0.21286878928494571 0.025235630143771171 0 -0.20518915555726081 0.0063160521339462369 0 -0.20087952003994611 0.036707216442191618 0 -0.19806994804695771 0.023079276535804879 0 -0.21286878928494571 0.025235630143771171 0 -0.21286878928494571 0.025235630143771171 0 -0.20518915555726081 0.0063160521339462369 0 -0.21886163726501981 0.011946961747091291 0 -0.22538834727875931 -0.003116926288211063 0 -0.20518915555726081 0.0063160521339462369 0 -0.21886163726501981 0.011946961747091291 0 -0.22538834727875931 -0.003116926288211063 0 -0.24128403747649099 -0.003068301980002572 0 -0.23272574590282649 0.01939614916333449 0 -0.22538834727875931 -0.003116926288211063 0 -0.21886163726501981 0.011946961747091291 0 -0.23272574590282649 0.01939614916333449 0 -0.21286878928494571 0.025235630143771171 0 -0.21886163726501981 0.011946961747091291 0 -0.23272574590282649 0.01939614916333449 0 -0.21286878928494571 0.025235630143771171 0 -0.23272574590282649 0.01939614916333449 0 -0.21994966047120609 0.043343929081465601 0 -0.25710948953078411 0.027476827907135608 0 -0.23272574590282649 0.01939614916333449 0 -0.2397145655194666 0.035083829216704651 0 -0.26109085733176007 0.013112141742292411 0 -0.23272574590282649 0.01939614916333449 0 -0.25445223429650399 0.001296013740745124 0 -0.26109085733176007 0.013112141742292411 0 -0.23272574590282649 0.01939614916333449 0 -0.24128403747649099 -0.003068301980002572 0 -0.25445223429650399 0.001296013740745124 0 -0.23272574590282649 0.01939614916333449 0 -0.21994966047120609 0.043343929081465601 0 -0.2490733661730499 0.050118410714882898 0 -0.22286783113552319 0.064357037387919369 0 -0.23272574590282649 0.01939614916333449 0 -0.21994966047120609 0.043343929081465601 0 -0.2397145655194666 0.035083829216704651 0 -0.21994966047120609 0.043343929081465601 0 -0.2397145655194666 0.035083829216704651 0 -0.2490733661730499 0.050118410714882898 0 -0.25710948953078411 0.027476827907135608 0 -0.2397145655194666 0.035083829216704651 0 -0.2490733661730499 0.050118410714882898 0 -0.2490733661730499 0.050118410714882898 0 -0.24103724281531561 0.072759993522630267 0 -0.22286783113552319 0.064357037387919369 0 -0.2490733661730499 0.050118410714882898 0 -0.24103724281531561 0.072759993522630267 0 -0.2502772859734072 0.088867942404367364 0 -0.24103724281531561 0.072759993522630267 0 -0.23300111945758151 0.095401576330377574 0 -0.24103724281531561 0.072759993522630267 0 -0.23300111945758151 0.095401576330377574 0 -0.24103724281531561 0.072759993522630267 0 -0.22303041499653811 0.08052548049963959 0 -0.23300111945758151 0.095401576330377574 0 -0.22303041499653811 0.08052548049963959 0 -0.21323886751899601 0.095357127195591154 0 -0.23300111945758151 0.095401576330377574 0 -0.24103724281531561 0.072759993522630267 0 -0.22303041499653811 0.08052548049963959 0 -0.22286783113552319 0.064357037387919369 0 -0.22303041499653811 0.08052548049963959 0 -0.22286783113552319 0.064357037387919369 0 -0.20500701405527411 0.074751668061679599 0 -0.20057681625268431 0.056626203652507319 0 -0.22286783113552319 0.064357037387919369 0 -0.20500701405527411 0.074751668061679599 0 -0.22303041499653811 0.08052548049963959 0 -0.20500701405527411 0.074751668061679599 0 -0.21323886751899601 0.095357127195591154 0 -0.20500701405527411 0.074751668061679599 0 -0.19671651591439029 0.091272846908390395 0 -0.21323886751899601 0.095357127195591154 0 -0.1848979993769562 0.075289326912078638 0 -0.20500701405527411 0.074751668061679599 0 -0.19671651591439029 0.091272846908390395 0 -0.1848979993769562 0.075289326912078638 0 -0.18151238797247579 0.096840368637884477 0 -0.19671651591439029 0.091272846908390395 0 -0.1848979993769562 0.075289326912078638 0 -0.20057681625268431 0.056626203652507319 0 -0.20500701405527411 0.074751668061679599 0 -0.18151238797247579 0.096840368637884477 0 -0.19671651591439029 0.091272846908390395 0 -0.1989263106482495 0.11412574373471809 0 -0.19671651591439029 0.091272846908390395 0 -0.1989263106482495 0.11412574373471809 0 -0.21323886751899601 0.095357127195591154 0 -0.1989263106482495 0.11412574373471809 0 -0.21323886751899601 0.095357127195591154 0 -0.2249649960998473 0.1180431591381248 0 -0.1989263106482495 0.11412574373471809 0 -0.2249649960998473 0.1180431591381248 0 -0.21301546698754811 0.12916176581813371 0 -0.2249649960998473 0.1180431591381248 0 -0.23300111945758151 0.095401576330377574 0 -0.21323886751899601 0.095357127195591154 0 -0.2249649960998473 0.1180431591381248 0 -0.23300111945758151 0.095401576330377574 0 -0.25133926342545337 0.1073077500403757 0 -0.2502772859734072 0.088867942404367364 0 -0.23300111945758151 0.095401576330377574 0 -0.25133926342545337 0.1073077500403757 0 -0.2249649960998473 0.1180431591381248 0 -0.23300111945758151 0.095401576330377574 0 -0.25282866413170513 0.1276037338865639 0 -0.25133926342545337 0.1073077500403757 0 -0.2249649960998473 0.1180431591381248 0 -0.25282866413170513 0.1276037338865639 0 -0.2249649960998473 0.1180431591381248 0 -0.23360944098277639 0.1389776043265897 0 -0.26204185957463072 0.14438820993978041 0 -0.25282866413170513 0.1276037338865639 0 -0.23360944098277639 0.1389776043265897 0 -0.2249649960998473 0.1180431591381248 0 -0.23360944098277639 0.1389776043265897 0 -0.21301546698754811 0.12916176581813371 0 -0.23360944098277639 0.1389776043265897 0 -0.21301546698754811 0.12916176581813371 0 -0.21149586119994521 0.1440228962366229 0 -0.23360944098277639 0.1389776043265897 0 -0.225424967759458 0.15284937554921879 0 -0.21149586119994521 0.1440228962366229 0 -0.26204185957463072 0.14438820993978041 0 -0.23360944098277639 0.1389776043265897 0 -0.24425749315805231 0.15851006456642949 0 -0.23360944098277639 0.1389776043265897 0 -0.225424967759458 0.15284937554921879 0 -0.24425749315805231 0.15851006456642949 0 -0.24425749315805231 0.15851006456642949 0 -0.2346771526929283 0.18420508026392779 0 -0.22620520541417061 0.16932110817830509 0 -0.24425749315805231 0.15851006456642949 0 -0.22620520541417061 0.16932110817830509 0 -0.25805122363966532 0.17916641703205141 0 -0.24425749315805231 0.15851006456642949 0 -0.2346771526929283 0.18420508026392779 0 -0.25805122363966532 0.17916641703205141 0 -0.2346771526929283 0.18420508026392779 0 -0.2495271856364164 0.19744305691347541 0 -0.2346771526929283 0.18420508026392779 0 -0.22620520541417061 0.16932110817830509 0 -0.20815291767028879 0.1801321517901808 0 -0.225424967759458 0.15284937554921879 0 -0.24425749315805231 0.15851006456642949 0 -0.22620520541417061 0.16932110817830509 0 -0.225424967759458 0.15284937554921879 0 -0.22620520541417061 0.16932110817830509 0 -0.20343672933678911 0.16148616352512821 0 -0.22620520541417061 0.16932110817830509 0 -0.20343672933678911 0.16148616352512821 0 -0.20815291767028879 0.1801321517901808 0 -0.22620520541417061 0.16932110817830509 0 -0.20815291767028879 0.1801321517901808 0 -0.20815291767028879 0.1801321517901808 0 -0.1901006299264065 0.19094319540205559 0 -0.1865037831221312 0.1706070540117543 0 -0.20815291767028879 0.1801321517901808 0 -0.1901006299264065 0.19094319540205559 0 -0.1901006299264065 0.19094319540205559 0 -0.1865037831221312 0.1706070540117543 0 -0.20343672933678911 0.16148616352512821 0 -0.18290693631785609 0.15027091262145281 0 -0.1865037831221312 0.1706070540117543 0 -0.20343672933678911 0.16148616352512821 0 -0.20815291767028879 0.1801321517901808 0 -0.1865037831221312 0.1706070540117543 0 -0.19719600053026601 0.13288248316630979 0 -0.21149586119994521 0.1440228962366229 0 -0.18290693631785609 0.15027091262145281 0 -0.20343672933678911 0.16148616352512821 0 -0.21149586119994521 0.1440228962366229 0 -0.18290693631785609 0.15027091262145281 0 -0.1989263106482495 0.11412574373471809 0 -0.19719600053026601 0.13288248316630979 0 -0.21301546698754811 0.12916176581813371 0 -0.1989263106482495 0.11412574373471809 0 -0.19719600053026601 0.13288248316630979 0 -0.17931008951358099 0.1299347712311513 0 -0.19719600053026601 0.13288248316630979 0 -0.21301546698754811 0.12916176581813371 0 -0.21149586119994521 0.1440228962366229 0 -0.225424967759458 0.15284937554921879 0 -0.20343672933678911 0.16148616352512821 0 -0.21149586119994521 0.1440228962366229 0 -0.2286057349721842 0.25032360824337713 0 -0.21687265217782881 0.22360496320205669 0 -0.25177043790547998 0.24599012604316309 0 -0.2286057349721842 0.25032360824337713 0 -0.24336685301739591 0.22144807136072159 0 -0.2286057349721842 0.25032360824337713 0 -0.24336685301739591 0.22144807136072159 0 -0.21687265217782881 0.22360496320205669 0 -0.24336685301739591 0.22144807136072159 0 -0.22558283587798739 0.1998121085065355 0 -0.21687265217782881 0.22360496320205669 0 -0.24336685301739591 0.22144807136072159 0 -0.2495271856364164 0.19744305691347541 0 -0.22558283587798739 0.1998121085065355 0 -0.2346771526929283 0.18420508026392779 0 -0.2495271856364164 0.19744305691347541 0 -0.22558283587798739 0.1998121085065355 0 -0.2346771526929283 0.18420508026392779 0 -0.20815291767028879 0.1801321517901808 0 -0.22558283587798739 0.1998121085065355 0 -0.20815291767028879 0.1801321517901808 0 -0.22558283587798739 0.1998121085065355 0 -0.20503960632968091 0.19676207737805429 0 -0.22558283587798739 0.1998121085065355 0 -0.20503960632968091 0.19676207737805429 0 -0.20650959718904291 0.2108750290967778 0 -0.20815291767028879 0.1801321517901808 0 -0.20503960632968091 0.19676207737805429 0 -0.1901006299264065 0.19094319540205559 0 -0.1901006299264065 0.19094319540205559 0 -0.1927213183455582 0.20576025410148521 0 -0.20503960632968091 0.19676207737805429 0 -0.1901006299264065 0.19094319540205559 0 -0.1927213183455582 0.20576025410148521 0 -0.20503960632968091 0.19676207737805429 0 -0.1927213183455582 0.20576025410148521 0 -0.20650959718904291 0.2108750290967778 0 -0.1927213183455582 0.20576025410148521 0 -0.19082693668717421 0.2274927403587178 0 -0.179429626353484 0.2168406238158537 0 -0.1927213183455582 0.20576025410148521 0 -0.20650959718904291 0.2108750290967778 0 -0.19082693668717421 0.2274927403587178 0 -0.22558283587798739 0.1998121085065355 0 -0.20650959718904291 0.2108750290967778 0 -0.21687265217782881 0.22360496320205669 0 -0.20650959718904291 0.2108750290967778 0 -0.21687265217782881 0.22360496320205669 0 -0.19082693668717421 0.2274927403587178 0 -0.21687265217782881 0.22360496320205669 0 -0.19082693668717421 0.2274927403587178 0 -0.2037259274003673 0.24687887307223971 0 -0.19082693668717421 0.2274927403587178 0 -0.2037259274003673 0.24687887307223971 0 -0.1804093746754574 0.24033665321156369 0 -0.18347382519695599 0.25610808106538258 0 -0.2037259274003673 0.24687887307223971 0 -0.1804093746754574 0.24033665321156369 0 -0.2286057349721842 0.25032360824337713 0 -0.21687265217782881 0.22360496320205669 0 -0.2037259274003673 0.24687887307223971 0 -0.16340192378364951 0.24750357251422311 0 -0.16732722744419079 0.2292379320538262 0 -0.15274245996667221 0.23937034616480601 0 -0.16340192378364951 0.24750357251422311 0 -0.1804093746754574 0.24033665321156369 0 -0.16732722744419079 0.2292379320538262 0 -0.18347382519695599 0.25610808106538258 0 -0.16340192378364951 0.24750357251422311 0 -0.1804093746754574 0.24033665321156369 0 -0.19082693668717421 0.2274927403587178 0 -0.1804093746754574 0.24033665321156369 0 -0.16732722744419079 0.2292379320538262 0 -0.19082693668717421 0.2274927403587178 0 -0.16732722744419079 0.2292379320538262 0 -0.179429626353484 0.2168406238158537 0 -0.19082693668717421 0.2274927403587178 0 -0.16732722744419079 0.2292379320538262 0 -0.16732722744419079 0.2292379320538262 0 -0.16684302293701281 0.20487156874938581 0 -0.14358541594761851 0.21879994209671519 0 -0.16732722744419079 0.2292379320538262 0 -0.16684302293701281 0.20487156874938581 0 -0.179429626353484 0.2168406238158537 0 -0.1927213183455582 0.20576025410148521 0 -0.16684302293701281 0.20487156874938581 0 -0.179429626353484 0.2168406238158537 0 -0.1901006299264065 0.19094319540205559 0 -0.16684302293701281 0.20487156874938581 0 -0.1901006299264065 0.19094319540205559 0 -0.16684302293701281 0.20487156874938581 0 -0.17061809440016351 0.18299478300060501 0 -0.1901006299264065 0.19094319540205559 0 -0.1927213183455582 0.20576025410148521 0 -0.16684302293701281 0.20487156874938581 0 -0.16684302293701281 0.20487156874938581 0 -0.1538660539509949 0.18761258841366829 0 -0.17061809440016351 0.18299478300060501 0 -0.16684302293701281 0.20487156874938581 0 -0.1538660539509949 0.18761258841366829 0 -0.14806892234248659 0.20264952398271741 0 -0.14806892234248659 0.20264952398271741 0 -0.13931228965098341 0.19278415015590891 0 -0.1348517575313059 0.2061522789870158 0 -0.1538660539509949 0.18761258841366829 0 -0.14806892234248659 0.20264952398271741 0 -0.13931228965098341 0.19278415015590891 0 -0.13931228965098341 0.19278415015590891 0 -0.12670081873287459 0.19565348143795031 0 -0.12797910783858529 0.18183011952201519 0 -0.12670081873287459 0.19565348143795031 0 -0.1348517575313059 0.2061522789870158 0 -0.12561731124133321 0.20417220577303 0 -0.13931228965098341 0.19278415015590891 0 -0.12670081873287459 0.19565348143795031 0 -0.1348517575313059 0.2061522789870158 0 -0.13304165243829719 0.21434319659433501 0 -0.14358541594761851 0.21879994209671519 0 -0.12758495904310091 0.22018260438809659 0 -0.1348517575313059 0.2061522789870158 0 -0.12561731124133321 0.20417220577303 0 -0.12614447723116351 0.21223796090551231 0 -0.1348517575313059 0.2061522789870158 0 -0.12614447723116351 0.21223796090551231 0 -0.13304165243829719 0.21434319659433501 0 -0.12614447723116351 0.21223796090551231 0 -0.12758495904310091 0.22018260438809659 0 -0.1213049521672557 0.2183642323049185 0 -0.12614447723116351 0.21223796090551231 0 -0.13304165243829719 0.21434319659433501 0 -0.12758495904310091 0.22018260438809659 0 -0.1348517575313059 0.2061522789870158 0 -0.13304165243829719 0.21434319659433501 0 -0.14358541594761851 0.21879994209671519 0 -0.14806892234248659 0.20264952398271741 0 -0.1348517575313059 0.2061522789870158 0 -0.14358541594761851 0.21879994209671519 0 -0.16684302293701281 0.20487156874938581 0 -0.14358541594761851 0.21879994209671519 0 -0.16684302293701281 0.20487156874938581 0 -0.14806892234248659 0.20264952398271741 0 -0.14358541594761851 0.21879994209671519 0 -0.16732722744419079 0.2292379320538262 0 -0.14382751820120751 0.23098312374893459 0 -0.16732722744419079 0.2292379320538262 0 -0.14382751820120751 0.23098312374893459 0 -0.15274245996667221 0.23937034616480601 0 -0.16732722744419079 0.2292379320538262 0 -0.14382751820120751 0.23098312374893459 0 -0.14358541594761851 0.21879994209671519 0 -0.14382751820120751 0.23098312374893459 0 -0.14358541594761851 0.21879994209671519 0 -0.12032780895822411 0.2327283154440439 0 -0.14358541594761851 0.21879994209671519 0 -0.12032780895822411 0.2327283154440439 0 -0.14358541594761851 0.21879994209671519 0 -0.12758495904310091 0.22018260438809659 0 -0.12032780895822411 0.2327283154440439 0 -0.14382751820120751 0.23098312374893459 0 -0.1322700146717726 0.23603558864877189 0 -0.12032780895822411 0.2327283154440439 0 -0.14382751820120751 0.23098312374893459 0 -0.12032780895822411 0.2327283154440439 0 -0.14020095548025421 0.2413335428936858 0 -0.1322700146717726 0.23603558864877189 0 -0.13065907452439079 0.24328476505481569 0 -0.14382751820120751 0.23098312374893459 0 -0.14020095548025421 0.2413335428936858 0 -0.1322700146717726 0.23603558864877189 0 -0.1322700146717726 0.23603558864877189 0 -0.12508014256405209 0.2389534664509789 0 -0.12032780895822411 0.2327283154440439 0 -0.1322700146717726 0.23603558864877189 0 -0.12508014256405209 0.2389534664509789 0 -0.13065907452439079 0.24328476505481569 0 -0.12976778397381189 0.25096292900929318 0 -0.13065907452439079 0.24328476505481569 0 -0.12227324942971381 0.24521350853289531 0 -0.12508014256405209 0.2389534664509789 0 -0.13065907452439079 0.24328476505481569 0 -0.12227324942971381 0.24521350853289531 0 -0.12976778397381189 0.25096292900929318 0 -0.13065907452439079 0.24328476505481569 0 -0.13680763179620051 0.24850911453875629 0 -0.14020095548025421 0.2413335428936858 0 -0.13065907452439079 0.24328476505481569 0 -0.13680763179620051 0.24850911453875629 0 -0.14020095548025421 0.2413335428936858 0 -0.14599748894139869 0.24892434473906261 0 -0.15274245996667221 0.23937034616480601 0 -0.16340192378364951 0.24750357251422311 0 -0.14599748894139869 0.24892434473906261 0 -0.15274245996667221 0.23937034616480601 0 -0.14020095548025421 0.2413335428936858 0 -0.13680763179620051 0.24850911453875629 0 -0.14599748894139869 0.24892434473906261 0 -0.14382751820120751 0.23098312374893459 0 -0.14020095548025421 0.2413335428936858 0 -0.15274245996667221 0.23937034616480601 0 -0.16633790900973031 0.15290932580423891 0 -0.15663248095933421 0.16638886775291101 0 -0.15511574626068611 0.14523459850388501 0 -0.16633790900973031 0.15290932580423891 0 -0.1627134177876757 0.1352833979140243 0 -0.18290693631785609 0.15027091262145281 0 -0.16633790900973031 0.15290932580423891 0 -0.1627134177876757 0.1352833979140243 0 -0.15511574626068611 0.14523459850388501 0 -0.16120310185971101 0.116311255482486 0 -0.1627134177876757 0.1352833979140243 0 -0.17931008951358099 0.1299347712311513 0 -0.16120310185971101 0.116311255482486 0 -0.14499402368131789 0.1243778778869043 0 -0.1627134177876757 0.1352833979140243 0 -0.19719600053026601 0.13288248316630979 0 -0.17931008951358099 0.1299347712311513 0 -0.18290693631785609 0.15027091262145281 0 -0.1627134177876757 0.1352833979140243 0 -0.17931008951358099 0.1299347712311513 0 -0.18290693631785609 0.15027091262145281 0 -0.17931008951358099 0.1299347712311513 0 -0.18290693631785609 0.15027091262145281 0 -0.16633790900973031 0.15290932580423891 0 -0.18290693631785609 0.15027091262145281 0 -0.17259984076184309 0.1646341886381924 0 -0.18290693631785609 0.15027091262145281 0 -0.17259984076184309 0.1646341886381924 0 -0.1865037831221312 0.1706070540117543 0 -0.18290693631785609 0.15027091262145281 0 -0.1865037831221312 0.1706070540117543 0 -0.1901006299264065 0.19094319540205559 0 -0.1865037831221312 0.1706070540117543 0 -0.17061809440016351 0.18299478300060501 0 -0.17259984076184309 0.1646341886381924 0 -0.1865037831221312 0.1706070540117543 0 -0.17061809440016351 0.18299478300060501 0 -0.1538660539509949 0.18761258841366829 0 -0.17061809440016351 0.18299478300060501 0 -0.15663248095933421 0.16638886775291101 0 -0.16633790900973031 0.15290932580423891 0 -0.17259984076184309 0.1646341886381924 0 -0.15663248095933421 0.16638886775291101 0 -0.17259984076184309 0.1646341886381924 0 -0.17061809440016351 0.18299478300060501 0 -0.15663248095933421 0.16638886775291101 0 -0.15663248095933421 0.16638886775291101 0 -0.14172151341598921 0.1759866368404816 0 -0.14048919824865469 0.15632822287218701 0 -0.1538660539509949 0.18761258841366829 0 -0.13931228965098341 0.19278415015590891 0 -0.14172151341598921 0.1759866368404816 0 -0.1538660539509949 0.18761258841366829 0 -0.15663248095933421 0.16638886775291101 0 -0.14172151341598921 0.1759866368404816 0 -0.13931228965098341 0.19278415015590891 0 -0.14172151341598921 0.1759866368404816 0 -0.12797910783858529 0.18183011952201519 0 -0.14172151341598921 0.1759866368404816 0 -0.12797910783858529 0.18183011952201519 0 -0.1301638781528652 0.16794878081530651 0 -0.14048919824865469 0.15632822287218701 0 -0.1301638781528652 0.16794878081530651 0 -0.1225693757370693 0.15559047407615331 0 -0.14172151341598921 0.1759866368404816 0 -0.14048919824865469 0.15632822287218701 0 -0.1301638781528652 0.16794878081530651 0 -0.14048919824865469 0.15632822287218701 0 -0.13112655771453391 0.1447099380437574 0 -0.14342065069000801 0.1380741820982459 0 -0.14048919824865469 0.15632822287218701 0 -0.13112655771453391 0.1447099380437574 0 -0.1225693757370693 0.15559047407615331 0 -0.15663248095933421 0.16638886775291101 0 -0.14048919824865469 0.15632822287218701 0 -0.15511574626068611 0.14523459850388501 0 -0.14048919824865469 0.15632822287218701 0 -0.15511574626068611 0.14523459850388501 0 -0.14342065069000801 0.1380741820982459 0 -0.1627134177876757 0.1352833979140243 0 -0.15511574626068611 0.14523459850388501 0 -0.14342065069000801 0.1380741820982459 0 -0.14499402368131789 0.1243778778869043 0 -0.1627134177876757 0.1352833979140243 0 -0.14342065069000801 0.1380741820982459 0 -0.14499402368131789 0.1243778778869043 0 -0.14342065069000801 0.1380741820982459 0 -0.12851164379040581 0.131950320149015 0 -0.13112655771453391 0.1447099380437574 0 -0.14342065069000801 0.1380741820982459 0 -0.12851164379040581 0.131950320149015 0 -0.13112655771453391 0.1447099380437574 0 -0.12851164379040581 0.131950320149015 0 -0.1184184166147479 0.14220422534258029 0 -0.12851164379040581 0.131950320149015 0 -0.12060300057831359 0.1253336184863498 0 -0.11587432767471929 0.13257167812098519 0 -0.12851164379040581 0.131950320149015 0 -0.11587432767471929 0.13257167812098519 0 -0.1184184166147479 0.14220422534258029 0 -0.11587432767471929 0.13257167812098519 0 -0.1054198483707643 0.1363833863281822 0 -0.1184184166147479 0.14220422534258029 0 -0.12060300057831359 0.1253336184863498 0 -0.11587432767471929 0.13257167812098519 0 -0.1114571508438128 0.1245729394762651 0 -0.11587432767471929 0.13257167812098519 0 -0.1054198483707643 0.1363833863281822 0 -0.1114571508438128 0.1245729394762651 0 -0.1054198483707643 0.1363833863281822 0 -0.09979871479720083 0.12508316358580929 0 -0.1114571508438128 0.1245729394762651 0 -0.1054198483707643 0.1363833863281822 0 -0.09979871479720083 0.12508316358580929 0 -0.092847290417970421 0.13909380415846631 0 -0.10521174172761751 0.15160468302157501 0 -0.089600374356986506 0.15714894835400961 0 -0.092847290417970421 0.13909380415846631 0 -0.1054198483707643 0.1363833863281822 0 -0.10521174172761751 0.15160468302157501 0 -0.092847290417970421 0.13909380415846631 0 -0.10521174172761751 0.15160468302157501 0 -0.1184184166147479 0.14220422534258029 0 -0.1225693757370693 0.15559047407615331 0 -0.1054198483707643 0.1363833863281822 0 -0.10521174172761751 0.15160468302157501 0 -0.1184184166147479 0.14220422534258029 0 -0.13112655771453391 0.1447099380437574 0 -0.1184184166147479 0.14220422534258029 0 -0.1225693757370693 0.15559047407615331 0 -0.10521174172761751 0.15160468302157501 0 -0.1225693757370693 0.15559047407615331 0 -0.1133949420047434 0.1676793698748619 0 -0.1301638781528652 0.16794878081530651 0 -0.1225693757370693 0.15559047407615331 0 -0.1133949420047434 0.1676793698748619 0 -0.12797910783858529 0.18183011952201519 0 -0.1301638781528652 0.16794878081530651 0 -0.1133949420047434 0.1676793698748619 0 -0.12797910783858529 0.18183011952201519 0 -0.1133949420047434 0.1676793698748619 0 -0.11415772959348409 0.18587090892286659 0 -0.1133949420047434 0.1676793698748619 0 -0.11415772959348409 0.18587090892286659 0 -0.10176208032985951 0.17918214116272441 0 -0.11415772959348409 0.18587090892286659 0 -0.10176208032985951 0.17918214116272441 0 -0.10299989107956491 0.19199239401487109 0 -0.10176208032985951 0.17918214116272441 0 -0.099344807656336923 0.16637402358230879 0 -0.086754899862477808 0.17625497549837341 0 -0.10176208032985951 0.17918214116272441 0 -0.10299989107956491 0.19199239401487109 0 -0.091635631627798766 0.19039592706291161 0 -0.10521174172761751 0.15160468302157501 0 -0.1133949420047434 0.1676793698748619 0 -0.099344807656336923 0.16637402358230879 0 -0.1133949420047434 0.1676793698748619 0 -0.10176208032985951 0.17918214116272441 0 -0.099344807656336923 0.16637402358230879 0 -0.10521174172761751 0.15160468302157501 0 -0.099344807656336923 0.16637402358230879 0 -0.089600374356986506 0.15714894835400961 0 -0.089600374356986506 0.15714894835400961 0 -0.086754899862477808 0.17625497549837341 0 -0.071580675632062302 0.16544121307344681 0 -0.099344807656336923 0.16637402358230879 0 -0.089600374356986506 0.15714894835400961 0 -0.086754899862477808 0.17625497549837341 0 -0.089600374356986506 0.15714894835400961 0 -0.071580675632062302 0.16544121307344681 0 -0.079578250690702915 0.14759974276973439 0 -0.086754899862477808 0.17625497549837341 0 -0.072542618243606194 0.1925912686890475 0 -0.086754899862477808 0.17625497549837341 0 -0.091635631627798766 0.19039592706291161 0 -0.072542618243606194 0.1925912686890475 0 -0.10176208032985951 0.17918214116272441 0 -0.086754899862477808 0.17625497549837341 0 -0.091635631627798766 0.19039592706291161 0 -0.086754899862477808 0.17625497549837341 0 -0.067916098723394464 0.17946034298918229 0 -0.071580675632062302 0.16544121307344681 0 -0.067916098723394464 0.17946034298918229 0 -0.072542618243606194 0.1925912686890475 0 -0.056106904600032148 0.1894478352231482 0 -0.086754899862477808 0.17625497549837341 0 -0.067916098723394464 0.17946034298918229 0 -0.072542618243606194 0.1925912686890475 0 -0.067916098723394464 0.17946034298918229 0 -0.062871388453574789 0.17225106793122039 0 -0.071580675632062302 0.16544121307344681 0 -0.067916098723394464 0.17946034298918229 0 -0.062871388453574789 0.17225106793122039 0 -0.057950396506277868 0.1793085976129733 0 -0.071580675632062302 0.16544121307344681 0 -0.066383978546143863 0.15597250385056291 0 -0.079578250690702915 0.14759974276973439 0 -0.062871388453574789 0.17225106793122039 0 -0.071580675632062302 0.16544121307344681 0 -0.062434963576035701 0.1642158861777572 0 -0.071580675632062302 0.16544121307344681 0 -0.066383978546143863 0.15597250385056291 0 -0.062434963576035701 0.1642158861777572 0 -0.066383978546143863 0.15597250385056291 0 -0.067622183864069346 0.14463918348563881 0 -0.056640798997532951 0.15430592569849619 0 -0.066383978546143863 0.15597250385056291 0 -0.067622183864069346 0.14463918348563881 0 -0.079578250690702915 0.14759974276973439 0 -0.058806790164959981 0.1357825515942494 0 -0.081182686546764526 0.1225592277892579 0 -0.067622183864069346 0.14463918348563881 0 -0.079578250690702915 0.14759974276973439 0 -0.081182686546764526 0.1225592277892579 0 -0.067622183864069346 0.14463918348563881 0 -0.058806790164959981 0.1357825515942494 0 -0.081182686546764526 0.1225592277892579 0 -0.058806790164959981 0.1357825515942494 0 -0.060937618900255147 0.1175598836492321 0 -0.081182686546764526 0.1225592277892579 0 -0.09979871479720083 0.12508316358580929 0 -0.092847290417970421 0.13909380415846631 0 -0.081182686546764526 0.1225592277892579 0 -0.092847290417970421 0.13909380415846631 0 -0.079578250690702915 0.14759974276973439 0 -0.081182686546764526 0.1225592277892579 0 -0.089600374356986506 0.15714894835400961 0 -0.092847290417970421 0.13909380415846631 0 -0.079578250690702915 0.14759974276973439 0 -0.10818242130816649 0.23363028531275851 0 -0.085672032171139875 0.23530200574850541 0 -0.083269394733685956 0.25492163177339572 0 -0.10797544924065219 0.240125821040613 0 -0.1076888194115803 0.24912130684579639 0 -0.10797544924065219 0.240125821040613 0 -0.10818242130816649 0.23363028531275851 0 -0.085672032171139875 0.23530200574850541 0 -0.083269394733685956 0.25492163177339572 0 -0.10797544924065219 0.240125821040613 0 -0.10797544924065219 0.240125821040613 0 -0.10818242130816649 0.23363028531275851 0 -0.10797544924065219 0.240125821040613 0 -0.1106155995697896 0.23854470396807631 0 -0.10818242130816649 0.23363028531275851 0 -0.10797544924065219 0.240125821040613 0 -0.1106155995697896 0.23854470396807631 0 -0.1076888194115803 0.24912130684579639 0 -0.1106155995697896 0.23854470396807631 0 -0.10797544924065219 0.240125821040613 0 -0.1076888194115803 0.24912130684579639 0 -0.10797544924065219 0.240125821040613 0 -0.1076888194115803 0.24912130684579639 0 -0.1106155995697896 0.23854470396807631 0 -0.11417312619982049 0.2665283648883302 0 -0.12227324942971381 0.24521350853289531 0 -0.1141673783984848 0.23641763639849739 0 -0.12227324942971381 0.24521350853289531 0 -0.1206376081143018 0.23771341778160779 0 -0.1141673783984848 0.23641763639849739 0 -0.12508014256405209 0.2389534664509789 0 -0.1206376081143018 0.23771341778160779 0 -0.12032780895822411 0.2327283154440439 0 -0.12508014256405209 0.2389534664509789 0 -0.12227324942971381 0.24521350853289531 0 -0.1206376081143018 0.23771341778160779 0 -0.1141673783984848 0.23641763639849739 0 -0.12032780895822411 0.2327283154440439 0 -0.1206376081143018 0.23771341778160779 0 -0.1141673783984848 0.23641763639849739 0 -0.12032780895822411 0.2327283154440439 0 -0.1076888194115803 0.24912130684579639 0 -0.1141673783984848 0.23641763639849739 0 -0.1106155995697896 0.23854470396807631 0 -0.1141673783984848 0.23641763639849739 0 -0.114166761488877 0.2331858619083636 0 -0.1106155995697896 0.23854470396807631 0 -0.1120551141763803 0.23334268211897191 0 -0.1106155995697896 0.23854470396807631 0 -0.1120551141763803 0.23334268211897191 0 -0.10818242130816649 0.23363028531275851 0 -0.1141673783984848 0.23641763639849739 0 -0.1106155995697896 0.23854470396807631 0 -0.1120551141763803 0.23334268211897191 0 -0.1141673783984848 0.23641763639849739 0 -0.1106155995697896 0.23854470396807631 0 -0.1120551141763803 0.23334268211897191 0 -0.1141653357483738 0.22571690418399459 0 -0.10818242130816649 0.23363028531275851 0 -0.1120551141763803 0.23334268211897191 0 -0.10818242130816649 0.23363028531275851 0 -0.1120551141763803 0.23334268211897191 0 -0.114166761488877 0.2331858619083636 0 -0.1120551141763803 0.23334268211897191 0 -0.1141653357483738 0.22571690418399459 0 -0.11704497533697029 0.22930508132633581 0 -0.1197430193223407 0.22502951288279441 0 -0.1141653357483738 0.22571690418399459 0 -0.11704497533697029 0.22930508132633581 0 -0.114166761488877 0.2331858619083636 0 -0.1141653357483738 0.22571690418399459 0 -0.114166761488877 0.2331858619083636 0 -0.1141653357483738 0.22571690418399459 0 -0.1120551141763803 0.23334268211897191 0 -0.114166761488877 0.2331858619083636 0 -0.1141653357483738 0.22571690418399459 0 -0.1141673783984848 0.23641763639849739 0 -0.114166761488877 0.2331858619083636 0 -0.12032780895822411 0.2327283154440439 0 -0.11704497533697029 0.22930508132633581 0 -0.114166761488877 0.2331858619083636 0 -0.12032780895822411 0.2327283154440439 0 -0.1141673783984848 0.23641763639849739 0 -0.1120551141763803 0.23334268211897191 0 -0.114166761488877 0.2331858619083636 0 -0.114166761488877 0.2331858619083636 0 -0.12032780895822411 0.2327283154440439 0 -0.11704497533697029 0.22930508132633581 0 -0.12032780895822411 0.2327283154440439 0 -0.1197430193223407 0.22502951288279441 0 -0.12758495904310091 0.22018260438809659 0 -0.12032780895822411 0.2327283154440439 0 -0.1197430193223407 0.22502951288279441 0 -0.12758495904310091 0.22018260438809659 0 -0.1197430193223407 0.22502951288279441 0 -0.1213049521672557 0.2183642323049185 0 -0.1197430193223407 0.22502951288279441 0 -0.1141653357483738 0.22571690418399459 0 -0.1213049521672557 0.2183642323049185 0 -0.1141653357483738 0.22571690418399459 0 -0.10818242130816649 0.23363028531275851 0 -0.1086672823570836 0.21841358334829961 0 -0.10818242130816649 0.23363028531275851 0 -0.1086672823570836 0.21841358334829961 0 -0.10818242130816649 0.23363028531275851 0 -0.097127577808434146 0.22120925351368051 0 -0.085672032171139875 0.23530200574850541 0 -0.10818242130816649 0.23363028531275851 0 -0.097127577808434146 0.22120925351368051 0 -0.1086672823570836 0.21841358334829961 0 -0.097127577808434146 0.22120925351368051 0 -0.10137419431535651 0.21084900547484181 0 -0.092483044497181893 0.21028181726063441 0 -0.10137419431535651 0.21084900547484181 0 -0.098917639352721645 0.20118402527702281 0 -0.092483044497181893 0.21028181726063441 0 -0.10137419431535651 0.21084900547484181 0 -0.1091521434060041 0.20319688138384059 0 -0.1086672823570836 0.21841358334829961 0 -0.10137419431535651 0.21084900547484181 0 -0.1091521434060041 0.20319688138384059 0 -0.098917639352721645 0.20118402527702281 0 -0.1091521434060041 0.20319688138384059 0 -0.1086672823570836 0.21841358334829961 0 -0.097127577808434146 0.22120925351368051 0 -0.10137419431535651 0.21084900547484181 0 -0.1086672823570836 0.21841358334829961 0 -0.1141653357483738 0.22571690418399459 0 -0.1141615326709292 0.20579390655343061 0 -0.1141653357483738 0.22571690418399459 0 -0.118886969491299 0.2086541791641944 0 -0.1141615326709292 0.20579390655343061 0 -0.1141653357483738 0.22571690418399459 0 -0.118886969491299 0.2086541791641944 0 -0.1141653357483738 0.22571690418399459 0 -0.1213049521672557 0.2183642323049185 0 -0.118886969491299 0.2086541791641944 0 -0.1141653357483738 0.22571690418399459 0 -0.1086672823570836 0.21841358334829961 0 -0.1141615326709292 0.20579390655343061 0 -0.12614447723116351 0.21223796090551231 0 -0.1213049521672557 0.2183642323049185 0 -0.118886969491299 0.2086541791641944 0 -0.12561731124133321 0.20417220577303 0 -0.118886969491299 0.2086541791641944 0 -0.119904872345984 0.2000289363702944 0 -0.118886969491299 0.2086541791641944 0 -0.1141615326709292 0.20579390655343061 0 -0.119904872345984 0.2000289363702944 0 -0.12561731124133321 0.20417220577303 0 -0.12614447723116351 0.21223796090551231 0 -0.118886969491299 0.2086541791641944 0 -0.1091521434060041 0.20319688138384059 0 -0.1086672823570836 0.21841358334829961 0 -0.1141615326709292 0.20579390655343061 0 -0.11415772959348409 0.18587090892286659 0 -0.1141615326709292 0.20579390655343061 0 -0.119904872345984 0.2000289363702944 0 -0.11415772959348409 0.18587090892286659 0 -0.1141615326709292 0.20579390655343061 0 -0.11415772959348409 0.18587090892286659 0 -0.1091521434060041 0.20319688138384059 0 -0.1141615326709292 0.20579390655343061 0 -0.12670081873287459 0.19565348143795031 0 -0.12561731124133321 0.20417220577303 0 -0.119904872345984 0.2000289363702944 0 -0.12670081873287459 0.19565348143795031 0 -0.12797910783858529 0.18183011952201519 0 -0.11415772959348409 0.18587090892286659 0 -0.12670081873287459 0.19565348143795031 0 -0.11415772959348409 0.18587090892286659 0 -0.119904872345984 0.2000289363702944 0 -0.11415772959348409 0.18587090892286659 0 -0.1091521434060041 0.20319688138384059 0 -0.10299989107956491 0.19199239401487109 0 -0.1091521434060041 0.20319688138384059 0 -0.10299989107956491 0.19199239401487109 0 -0.098917639352721645 0.20118402527702281 0 -0.10299989107956491 0.19199239401487109 0 -0.098917639352721645 0.20118402527702281 0 -0.091635631627798766 0.19039592706291161 0 -0.091635631627798766 0.19039592706291161 0 -0.0843096947268583 0.2004929702148682 0 -0.072542618243606194 0.1925912686890475 0 -0.098917639352721645 0.20118402527702281 0 -0.091635631627798766 0.19039592706291161 0 -0.0843096947268583 0.2004929702148682 0 -0.0843096947268583 0.2004929702148682 0 -0.072542618243606194 0.1925912686890475 0 -0.074672233451624173 0.21357274185864891 0 -0.072542618243606194 0.1925912686890475 0 -0.058330336624733893 0.20892756187972089 0 -0.074672233451624173 0.21357274185864891 0 -0.057536246429524138 0.21898377707186781 0 -0.058330336624733893 0.20892756187972089 0 -0.072542618243606194 0.1925912686890475 0 -0.074672233451624173 0.21357274185864891 0 -0.058330336624733893 0.20892756187972089 0 -0.074672233451624173 0.21357274185864891 0 -0.058330336624733893 0.20892756187972089 0 -0.0843096947268583 0.2004929702148682 0 -0.074672233451624173 0.21357274185864891 0 -0.092483044497181893 0.21028181726063441 0 -0.074672233451624173 0.21357274185864891 0 -0.092483044497181893 0.21028181726063441 0 -0.084198475518810378 0.22115614157819119 0 -0.098917639352721645 0.20118402527702281 0 -0.0843096947268583 0.2004929702148682 0 -0.092483044497181893 0.21028181726063441 0 -0.097127577808434146 0.22120925351368051 0 -0.092483044497181893 0.21028181726063441 0 -0.084198475518810378 0.22115614157819119 0 -0.097127577808434146 0.22120925351368051 0 -0.084198475518810378 0.22115614157819119 0 -0.085672032171139875 0.23530200574850541 0 -0.084198475518810378 0.22115614157819119 0 -0.071037489665671805 0.2254148895094869 0 -0.085672032171139875 0.23530200574850541 0 -0.074672233451624173 0.21357274185864891 0 -0.084198475518810378 0.22115614157819119 0 -0.071037489665671805 0.2254148895094869 0 -0.074672233451624173 0.21357274185864891 0 -0.071037489665671805 0.2254148895094869 0 -0.057536246429524138 0.21898377707186781 0 -0.071037489665671805 0.2254148895094869 0 -0.063161643034113188 0.23697372618425189 0 -0.085672032171139875 0.23530200574850541 0 -0.071037489665671805 0.2254148895094869 0 -0.061081554146564868 0.2272680372320548 0 -0.057536246429524138 0.21898377707186781 0 -0.071037489665671805 0.2254148895094869 0 -0.063161643034113188 0.23697372618425189 0 -0.061081554146564868 0.2272680372320548 0 -0.063161643034113188 0.23697372618425189 0 -0.085672032171139875 0.23530200574850541 0 -0.063161643034113188 0.23697372618425189 0 -0.074550653465175754 0.2446864525953652 0 -0.085672032171139875 0.23530200574850541 0 -0.066099543921763954 0.25154844667530768 0 -0.063161643034113188 0.23697372618425189 0 -0.074550653465175754 0.2446864525953652 0 -0.083269394733685956 0.25492163177339572 0 -0.074550653465175754 0.2446864525953652 0 -0.085672032171139875 0.23530200574850541 0 -0.083269394733685956 0.25492163177339572 0 -0.10797544924065219 0.240125821040613 0 -0.085672032171139875 0.23530200574850541 0 -0.050846139704629277 0.25179692870554921 0 -0.040373008830991992 0.24055159145784641 0 -0.023139987613061779 0.24937707409410681 0 -0.031911656821457857 0.23929448751140939 0 -0.040373008830991992 0.24055159145784641 0 -0.023139987613061779 0.24937707409410681 0 -0.031911656821457857 0.23929448751140939 0 -0.040651253897086487 0.23864544661999831 0 -0.042299462347207092 0.22735423462118901 0 -0.031911656821457857 0.23929448751140939 0 -0.040373008830991992 0.24055159145784641 0 -0.040651253897086487 0.23864544661999831 0 -0.031911656821457857 0.23929448751140939 0 -0.040651253897086487 0.23864544661999831 0 -0.040373008830991992 0.24055159145784641 0 -0.040651253897086487 0.23864544661999831 0 -0.050846139704629277 0.25179692870554921 0 -0.040373008830991992 0.24055159145784641 0 -0.040651253897086487 0.23864544661999831 0 -0.050846139704629277 0.25179692870554921 0 -0.063161643034113188 0.23697372618425189 0 -0.040651253897086487 0.23864544661999831 0 -0.063161643034113188 0.23697372618425189 0 -0.040651253897086487 0.23864544661999831 0 -0.063161643034113188 0.23697372618425189 0 -0.040651253897086487 0.23864544661999831 0 -0.052590837456950368 0.22769975616261259 0 -0.066099543921763954 0.25154844667530768 0 -0.050846139704629277 0.25179692870554921 0 -0.063161643034113188 0.23697372618425189 0 -0.063161643034113188 0.23697372618425189 0 -0.052590837456950368 0.22769975616261259 0 -0.061081554146564868 0.2272680372320548 0 -0.052590837456950368 0.22769975616261259 0 -0.061081554146564868 0.2272680372320548 0 -0.057536246429524138 0.21898377707186781 0 -0.042299462347207092 0.22735423462118901 0 -0.051762956297119231 0.21647643076676429 0 -0.052590837456950368 0.22769975616261259 0 -0.057536246429524138 0.21898377707186781 0 -0.051762956297119231 0.21647643076676429 0 -0.052590837456950368 0.22769975616261259 0 -0.042299462347207092 0.22735423462118901 0 -0.051762956297119231 0.21647643076676429 0 -0.042299462347207092 0.22735423462118901 0 -0.044356843161122442 0.21325994762096009 0 -0.042299462347207092 0.22735423462118901 0 -0.044356843161122442 0.21325994762096009 0 -0.051762956297119231 0.21647643076676429 0 -0.031911656821457857 0.23929448751140939 0 -0.042299462347207092 0.22735423462118901 0 -0.031376147531260418 0.22059028026002589 0 -0.042299462347207092 0.22735423462118901 0 -0.031376147531260418 0.22059028026002589 0 -0.044356843161122442 0.21325994762096009 0 -0.040651253897086487 0.23864544661999831 0 -0.042299462347207092 0.22735423462118901 0 -0.040651253897086487 0.23864544661999831 0 -0.052590837456950368 0.22769975616261259 0 -0.042299462347207092 0.22735423462118901 0 -0.031911656821457857 0.23929448751140939 0 -0.042299462347207092 0.22735423462118901 0 -0.044356843161122442 0.21325994762096009 0 -0.02435551774496382 0.20457334981810671 0 -0.031376147531260418 0.22059028026002589 0 -0.044356843161122442 0.21325994762096009 0 -0.02435551774496382 0.20457334981810671 0 -0.045520757100042372 0.20528644218737699 0 -0.026490961477472531 0.1998772276656165 0 -0.02435551774496382 0.20457334981810671 0 -0.045520757100042372 0.20528644218737699 0 -0.044356843161122442 0.21325994762096009 0 -0.02435551774496382 0.20457334981810671 0 -0.045520757100042372 0.20528644218737699 0 -0.044356843161122442 0.21325994762096009 0 -0.045520757100042372 0.20528644218737699 0 -0.044356843161122442 0.21325994762096009 0 -0.051762956297119231 0.21647643076676429 0 -0.044356843161122442 0.21325994762096009 0 -0.051762956297119231 0.21647643076676429 0 -0.057536246429524138 0.21898377707186781 0 -0.051762956297119231 0.21647643076676429 0 -0.057536246429524138 0.21898377707186781 0 -0.051762956297119231 0.21647643076676429 0 -0.058330336624733893 0.20892756187972089 0 -0.051762956297119231 0.21647643076676429 0 -0.058330336624733893 0.20892756187972089 0 -0.045520757100042372 0.20528644218737699 0 -0.058330336624733893 0.20892756187972089 0 -0.053030053511201977 0.20127460016023299 0 -0.045520757100042372 0.20528644218737699 0 -0.051762956297119231 0.21647643076676429 0 -0.058330336624733893 0.20892756187972089 0 -0.045520757100042372 0.20528644218737699 0 -0.058330336624733893 0.20892756187972089 0 -0.053030053511201977 0.20127460016023299 0 -0.046642425151819322 0.1976023463049715 0 -0.056106904600032148 0.1894478352231482 0 -0.046642425151819322 0.1976023463049715 0 -0.049226533260373982 0.17989966283712119 0 -0.045520757100042372 0.20528644218737699 0 -0.053030053511201977 0.20127460016023299 0 -0.046642425151819322 0.1976023463049715 0 -0.046642425151819322 0.1976023463049715 0 -0.049226533260373982 0.17989966283712119 0 -0.072542618243606194 0.1925912686890475 0 -0.058330336624733893 0.20892756187972089 0 -0.053030053511201977 0.20127460016023299 0 -0.053030053511201977 0.20127460016023299 0 -0.056106904600032148 0.1894478352231482 0 -0.046642425151819322 0.1976023463049715 0 -0.072542618243606194 0.1925912686890475 0 -0.053030053511201977 0.20127460016023299 0 -0.056106904600032148 0.1894478352231482 0 -0.045520757100042372 0.20528644218737699 0 -0.026490961477472531 0.1998772276656165 0 -0.046642425151819322 0.1976023463049715 0 -0.031487289550446849 0.18888964387335069 0 -0.046642425151819322 0.1976023463049715 0 -0.031487289550446849 0.18888964387335069 0 -0.042066990032091973 0.1864460078587197 0 -0.046642425151819322 0.1976023463049715 0 -0.049226533260373982 0.17989966283712119 0 -0.042066990032091973 0.1864460078587197 0 -0.045520757100042372 0.20528644218737699 0 -0.037535358319945478 0.19791391500782901 0 -0.026490961477472531 0.1998772276656165 0 -0.045520757100042372 0.20528644218737699 0 -0.046642425151819322 0.1976023463049715 0 -0.037535358319945478 0.19791391500782901 0 -0.045520757100042372 0.20528644218737699 0 -0.046642425151819322 0.1976023463049715 0 -0.037535358319945478 0.19791391500782901 0 -0.031487289550446849 0.18888964387335069 0 -0.026490961477472531 0.1998772276656165 0 -0.046642425151819322 0.1976023463049715 0 -0.037535358319945478 0.19791391500782901 0 -0.031487289550446849 0.18888964387335069 0 -0.026490961477472531 0.1998772276656165 0 -0.020137950417994821 0.19035858595291941 0 -0.0097280081366586252 0.19511236248066879 0 -0.026490961477472531 0.1998772276656165 0 -0.0097280081366586252 0.19511236248066879 0 -0.02435551774496382 0.20457334981810671 0 -0.026490961477472531 0.1998772276656165 0 -0.0097280081366586252 0.19511236248066879 0 -0.031487289550446849 0.18888964387335069 0 -0.026490961477472531 0.1998772276656165 0 -0.020137950417994821 0.19035858595291941 0 -0.031487289550446849 0.18888964387335069 0 -0.026490961477472531 0.1998772276656165 0 -0.026490961477472531 0.1998772276656165 0 -0.02435551774496382 0.20457334981810671 0 -0.0097280081366586252 0.19511236248066879 0 -0.0039684215854149446 0.19571921135371431 0 -0.02435551774496382 0.20457334981810671 0 -0.0039684215854149446 0.19571921135371431 0 -0.02435551774496382 0.20457334981810671 0 -0.0097280081366586252 0.19511236248066879 0 0.0072515955251371486 0.19084634548344831 0 -0.0097280081366586252 0.19511236248066879 0 -0.0039684215854149446 0.19571921135371431 0 0.0072515955251371486 0.19084634548344831 0 -0.0097280081366586252 0.19511236248066879 0 -0.01231412683936841 0.1873277671156196 0 -0.0037551453458108631 0.18406374113349119 0 -0.020137950417994821 0.19035858595291941 0 -0.0097280081366586252 0.19511236248066879 0 -0.01231412683936841 0.1873277671156196 0 -0.0097280081366586252 0.19511236248066879 0 -0.0037551453458108631 0.18406374113349119 0 0.0072515955251371486 0.19084634548344831 0 -0.0039684215854149446 0.19571921135371431 0 -0.0014517666341171409 0.2126412530505721 0 -0.012341277361638319 0.21657449985340599 0 -0.0039684215854149446 0.19571921135371431 0 -0.012341277361638319 0.21657449985340599 0 -0.02435551774496382 0.20457334981810671 0 -0.0014517666341171409 0.2126412530505721 0 -0.012341277361638319 0.21657449985340599 0 -0.002086922477541876 0.22382617073466241 0 -0.0014517666341171409 0.2126412530505721 0 -0.002086922477541876 0.22382617073466241 0 0.0017531838798161691 0.21857897502398921 0 -0.02435551774496382 0.20457334981810671 0 -0.016053284336835689 0.2228310550573154 0 -0.012341277361638319 0.21657449985340599 0 -0.02435551774496382 0.20457334981810671 0 -0.016053284336835689 0.2228310550573154 0 -0.031376147531260418 0.22059028026002589 0 -0.02435551774496382 0.20457334981810671 0 -0.016053284336835689 0.2228310550573154 0 -0.031911656821457857 0.23929448751140939 0 -0.031376147531260418 0.22059028026002589 0 -0.016053284336835689 0.2228310550573154 0 -0.012341277361638319 0.21657449985340599 0 -0.016053284336835689 0.2228310550573154 0 -0.0085331384227579198 0.23089672833601271 0 -0.016053284336835689 0.2228310550573154 0 -0.0085331384227579198 0.23089672833601271 0 -0.0077510509287081154 0.24108876029652451 0 -0.012341277361638319 0.21657449985340599 0 -0.0085331384227579198 0.23089672833601271 0 -0.00070589218395681339 0.23840257749217331 0 -0.012341277361638319 0.21657449985340599 0 -0.002086922477541876 0.22382617073466241 0 -0.00070589218395681339 0.23840257749217331 0 -0.012341277361638319 0.21657449985340599 0 -0.00070589218395681339 0.23840257749217331 0 -0.016053284336835689 0.2228310550573154 0 -0.0077510509287081154 0.24108876029652451 0 -0.002086922477541876 0.22382617073466241 0 -0.00070589218395681339 0.23840257749217331 0 0.00066277402891192199 0.2296529712618455 0 -0.0077510509287081154 0.24108876029652451 0 -0.0052839620752209932 0.24651421377050101 0 -0.023139987613061779 0.24937707409410681 0 -0.0052839620752209932 0.24651421377050101 0 -0.023139987613061779 0.24937707409410681 0 -0.0085331384227579198 0.23089672833601271 0 -0.004858608108644559 0.2379677313224049 0 -0.0077510509287081154 0.24108876029652451 0 -0.0085331384227579198 0.23089672833601271 0 -0.004858608108644559 0.2379677313224049 0 -0.00070589218395681339 0.23840257749217331 0 -0.004858608108644559 0.2379677313224049 0 -0.0077510509287081154 0.24108876029652451 0 -0.002444350899155684 0.24148285916491 0 -0.0077510509287081154 0.24108876029652451 0 -0.002444350899155684 0.24148285916491 0 -0.004858608108644559 0.2379677313224049 0 -0.002444350899155684 0.24148285916491 0 -0.00070589218395681339 0.23840257749217331 0 -0.002444350899155684 0.24148285916491 0 0.001075375111205677 0.24174424948845771 0 -0.002444350899155684 0.24148285916491 0 -0.00070589218395681339 0.23840257749217331 0 0.001075375111205677 0.24174424948845771 0 -0.002444350899155684 0.24148285916491 0 -0.00070589218395681339 0.23840257749217331 0 -0.00070589218395681339 0.23840257749217331 0 0.00059610376430076911 0.2360956407657859 0 -0.001286980100155164 0.24545305109547139 0 -0.0052839620752209932 0.24651421377050101 0 0.0038858066017371838 0.24701664192213149 0 -0.0052839620752209932 0.24651421377050101 0 0.0038858066017371838 0.24701664192213149 0 -0.002444350899155684 0.24148285916491 0 -0.001286980100155164 0.24545305109547139 0 -0.0052839620752209932 0.24651421377050101 0 -0.002444350899155684 0.24148285916491 0 -0.001286980100155164 0.24545305109547139 0 0.001075375111205677 0.24174424948845771 0 -0.002444350899155684 0.24148285916491 0 -0.0052839620752209932 0.24651421377050101 0 -0.0077510509287081154 0.24108876029652451 0 -0.002444350899155684 0.24148285916491 0 -0.0052839620752209932 0.24651421377050101 0 -0.0077510509287081154 0.24108876029652451 0 -0.0052839620752209932 0.24651421377050101 0 -0.031911656821457857 0.23929448751140939 0 -0.0077510509287081154 0.24108876029652451 0 -0.023139987613061779 0.24937707409410681 0 -0.031911656821457857 0.23929448751140939 0 -0.016053284336835689 0.2228310550573154 0 -0.0077510509287081154 0.24108876029652451 0 -0.031911656821457857 0.23929448751140939 0 -0.0077510509287081154 0.24108876029652451 0 -0.031911656821457857 0.23929448751140939 0 -0.023139987613061779 0.24937707409410681 0 -0.039132365897830257 0.14740940570198141 0 -0.034400284178882003 0.13629870149848469 0 -0.02111029596954115 0.1393086745212942 0 -0.039132365897830257 0.14740940570198141 0 -0.049377950963987421 0.14954572199527921 0 -0.035018989020603172 0.159311844839235 0 -0.043385188846957003 0.13397535155627799 0 -0.033973286001199587 0.1245013742143854 0 -0.049781516339739637 0.1249843469984554 0 -0.039132365897830257 0.14740940570198141 0 -0.034400284178882003 0.13629870149848469 0 -0.043385188846957003 0.13397535155627799 0 -0.034400284178882003 0.13629870149848469 0 -0.043385188846957003 0.13397535155627799 0 -0.033973286001199587 0.1245013742143854 0 -0.058806790164959981 0.1357825515942494 0 -0.060937618900255147 0.1175598836492321 0 -0.039132365897830257 0.14740940570198141 0 -0.043385188846957003 0.13397535155627799 0 -0.058806790164959981 0.1357825515942494 0 -0.058806790164959981 0.1357825515942494 0 -0.049781516339739637 0.1249843469984554 0 -0.060937618900255147 0.1175598836492321 0 -0.043385188846957003 0.13397535155627799 0 -0.058806790164959981 0.1357825515942494 0 -0.049781516339739637 0.1249843469984554 0 -0.058806790164959981 0.1357825515942494 0 -0.049377950963987421 0.14954572199527921 0 -0.056640798997532951 0.15430592569849619 0 -0.039132365897830257 0.14740940570198141 0 -0.058806790164959981 0.1357825515942494 0 -0.058806790164959981 0.1357825515942494 0 -0.056640798997532951 0.15430592569849619 0 -0.067622183864069346 0.14463918348563881 0 -0.058806790164959981 0.1357825515942494 0 -0.056640798997532951 0.15430592569849619 0 -0.039132365897830257 0.14740940570198141 0 -0.058806790164959981 0.1357825515942494 0 -0.049377950963987421 0.14954572199527921 0 -0.049377950963987421 0.14954572199527921 0 -0.056640798997532951 0.15430592569849619 0 -0.051810641368927587 0.1621969793692708 0 -0.049377950963987421 0.14954572199527921 0 -0.051810641368927587 0.1621969793692708 0 -0.040432620257217181 0.16921768293431491 0 -0.056640798997532951 0.15430592569849619 0 -0.062434963576035701 0.1642158861777572 0 -0.054474807830103562 0.1728292998027427 0 -0.056640798997532951 0.15430592569849619 0 -0.054474807830103562 0.1728292998027427 0 -0.051810641368927587 0.1621969793692708 0 -0.049226533260373982 0.17989966283712119 0 -0.040432620257217181 0.16921768293431491 0 -0.051810641368927587 0.1621969793692708 0 -0.054474807830103562 0.1728292998027427 0 -0.049226533260373982 0.17989966283712119 0 -0.051810641368927587 0.1621969793692708 0 -0.049226533260373982 0.17989966283712119 0 -0.056640798997532951 0.15430592569849619 0 -0.051810641368927587 0.1621969793692708 0 -0.054474807830103562 0.1728292998027427 0 -0.066383978546143863 0.15597250385056291 0 -0.056640798997532951 0.15430592569849619 0 -0.062434963576035701 0.1642158861777572 0 -0.062871388453574789 0.17225106793122039 0 -0.062434963576035701 0.1642158861777572 0 -0.054474807830103562 0.1728292998027427 0 -0.067916098723394464 0.17946034298918229 0 -0.056106904600032148 0.1894478352231482 0 -0.057950396506277868 0.1793085976129733 0 -0.062871388453574789 0.17225106793122039 0 -0.057950396506277868 0.1793085976129733 0 -0.054474807830103562 0.1728292998027427 0 -0.057950396506277868 0.1793085976129733 0 -0.054474807830103562 0.1728292998027427 0 -0.049226533260373982 0.17989966283712119 0 -0.056106904600032148 0.1894478352231482 0 -0.057950396506277868 0.1793085976129733 0 -0.049226533260373982 0.17989966283712119 0 -0.031487289550446849 0.18888964387335069 0 -0.040432620257217181 0.16921768293431491 0 -0.049226533260373982 0.17989966283712119 0 -0.042066990032091973 0.1864460078587197 0 -0.040432620257217181 0.16921768293431491 0 -0.031487289550446849 0.18888964387335069 0 -0.042066990032091973 0.1864460078587197 0 -0.040432620257217181 0.16921768293431491 0 -0.031487289550446849 0.18888964387335069 0 -0.040432620257217181 0.16921768293431491 0 -0.026694066353279731 0.17135015375488519 0 -0.049377950963987421 0.14954572199527921 0 -0.040432620257217181 0.16921768293431491 0 -0.049377950963987421 0.14954572199527921 0 -0.040432620257217181 0.16921768293431491 0 -0.035018989020603172 0.159311844839235 0 -0.040432620257217181 0.16921768293431491 0 -0.035018989020603172 0.159311844839235 0 -0.026694066353279731 0.17135015375488519 0 -0.026694066353279731 0.17135015375488519 0 -0.019457941630701279 0.1590362598097145 0 -0.015635403457009318 0.1797763788953991 0 -0.035018989020603172 0.159311844839235 0 -0.026694066353279731 0.17135015375488519 0 -0.019457941630701279 0.1590362598097145 0 -0.031487289550446849 0.18888964387335069 0 -0.020137950417994821 0.19035858595291941 0 -0.015635403457009318 0.1797763788953991 0 -0.031487289550446849 0.18888964387335069 0 -0.015635403457009318 0.1797763788953991 0 -0.031487289550446849 0.18888964387335069 0 -0.026694066353279731 0.17135015375488519 0 -0.015635403457009318 0.1797763788953991 0 -0.020137950417994821 0.19035858595291941 0 -0.015635403457009318 0.1797763788953991 0 -0.01231412683936841 0.1873277671156196 0 -0.015635403457009318 0.1797763788953991 0 -0.0037551453458108631 0.18406374113349119 0 0.00021648263642794549 0.17066311391744721 0 -0.015635403457009318 0.1797763788953991 0 0.00021648263642794549 0.17066311391744721 0 -0.015635403457009318 0.1797763788953991 0 -0.01231412683936841 0.1873277671156196 0 -0.0037551453458108631 0.18406374113349119 0 -0.019457941630701279 0.1590362598097145 0 0.00021648263642794549 0.17066311391744721 0 -0.019457941630701279 0.1590362598097145 0 -0.0086927989589408294 0.15068433493231251 0 0.00021648263642794549 0.17066311391744721 0 -0.019457941630701279 0.1590362598097145 0 -0.015635403457009318 0.1797763788953991 0 0.00021648263642794549 0.17066311391744721 0 -0.0086927989589408294 0.15068433493231251 0 0.003619432850628497 0.15651973498445559 0 0.00021648263642794549 0.17066311391744721 0 -0.0086927989589408294 0.15068433493231251 0 -0.02111029596954115 0.1393086745212942 0 -0.001561785711569529 0.1397671442044712 0 -0.0086927989589408294 0.15068433493231251 0 -0.001561785711569529 0.1397671442044712 0 0.003619432850628497 0.15651973498445559 0 -0.039132365897830257 0.14740940570198141 0 -0.019457941630701279 0.1590362598097145 0 -0.039132365897830257 0.14740940570198141 0 -0.035018989020603172 0.159311844839235 0 -0.019457941630701279 0.1590362598097145 0 -0.019457941630701279 0.1590362598097145 0 -0.0086927989589408294 0.15068433493231251 0 -0.02111029596954115 0.1393086745212942 0 -0.039132365897830257 0.14740940570198141 0 -0.019457941630701279 0.1590362598097145 0 -0.02111029596954115 0.1393086745212942 0 -0.02111029596954115 0.1393086745212942 0 -0.01191878952888009 0.1181920992421175 0 -0.033973286001199587 0.1245013742143854 0 -0.034400284178882003 0.13629870149848469 0 -0.02111029596954115 0.1393086745212942 0 -0.033973286001199587 0.1245013742143854 0 -0.001561785711569529 0.1397671442044712 0 -0.01191878952888009 0.1181920992421175 0 0.01304916444528376 0.12900521594725781 0 -0.02111029596954115 0.1393086745212942 0 -0.001561785711569529 0.1397671442044712 0 -0.01191878952888009 0.1181920992421175 0 -0.01191878952888009 0.1181920992421175 0 -0.02865353471513819 0.10762281480148921 0 -0.0029549549015219778 0.092918491733280997 0 -0.01191878952888009 0.1181920992421175 0 -0.0029549549015219778 0.092918491733280997 0 -0.01191878952888009 0.1181920992421175 0 -0.0029549549015219778 0.092918491733280997 0 0.01307697603093517 0.1088943488213957 0 -0.02865353471513819 0.10762281480148921 0 -0.0029549549015219778 0.092918491733280997 0 -0.02239051441205336 0.089292152351493778 0 -0.01191878952888009 0.1181920992421175 0 -0.02865353471513819 0.10762281480148921 0 -0.033973286001199587 0.1245013742143854 0 -0.0088261443048828631 0.079530263409270607 0 -0.01596798763179225 0.068265525327863188 0 0.0060088797258361377 0.067644884224444479 0 -0.0029549549015219778 0.092918491733280997 0 -0.0088261443048828631 0.079530263409270607 0 -0.02239051441205336 0.089292152351493778 0 -0.0029549549015219778 0.092918491733280997 0 -0.0088261443048828631 0.079530263409270607 0 0.0060088797258361377 0.067644884224444479 0 -0.0088261443048828631 0.079530263409270607 0 -0.02239051441205336 0.089292152351493778 0 -0.01596798763179225 0.068265525327863188 0 -0.02239051441205336 0.089292152351493778 0 -0.01596798763179225 0.068265525327863188 0 -0.039501783332273541 0.061608362680294473 0 -0.02239051441205336 0.089292152351493778 0 -0.048639042508284838 0.078489588691882134 0 -0.039501783332273541 0.061608362680294473 0 -0.02239051441205336 0.089292152351493778 0 -0.042729481023800787 0.094314684027854132 0 -0.02239051441205336 0.089292152351493778 0 -0.048639042508284838 0.078489588691882134 0 -0.042729481023800787 0.094314684027854132 0 -0.048639042508284838 0.078489588691882134 0 -0.063068447635548266 0.099337215704214554 0 -0.065402512717481751 0.07937648763364262 0 -0.048639042508284838 0.078489588691882134 0 -0.042729481023800787 0.094314684027854132 0 -0.063068447635548266 0.099337215704214554 0 -0.048639042508284838 0.078489588691882134 0 -0.065402512717481751 0.07937648763364262 0 -0.067736577799415221 0.05941575956307063 0 -0.048639042508284838 0.078489588691882134 0 -0.067736577799415221 0.05941575956307063 0 -0.039501783332273541 0.061608362680294473 0 -0.02865353471513819 0.10762281480148921 0 -0.033973286001199587 0.1245013742143854 0 -0.046930189770514649 0.1115187086745688 0 -0.033973286001199587 0.1245013742143854 0 -0.046930189770514649 0.1115187086745688 0 -0.049781516339739637 0.1249843469984554 0 -0.02865353471513819 0.10762281480148921 0 -0.02239051441205336 0.089292152351493778 0 -0.042729481023800787 0.094314684027854132 0 -0.02865353471513819 0.10762281480148921 0 -0.042729481023800787 0.094314684027854132 0 -0.046930189770514649 0.1115187086745688 0 -0.042729481023800787 0.094314684027854132 0 -0.063068447635548266 0.099337215704214554 0 -0.060937618900255147 0.1175598836492321 0 -0.063068447635548266 0.099337215704214554 0 -0.042729481023800787 0.094314684027854132 0 -0.046930189770514649 0.1115187086745688 0 -0.063068447635548266 0.099337215704214554 0 -0.046930189770514649 0.1115187086745688 0 -0.060937618900255147 0.1175598836492321 0 -0.063068447635548266 0.099337215704214554 0 -0.046930189770514649 0.1115187086745688 0 -0.049781516339739637 0.1249843469984554 0 -0.060937618900255147 0.1175598836492321 0 -0.060937618900255147 0.1175598836492321 0 -0.072125567091156847 0.1109482217467367 0 -0.081182686546764526 0.1225592277892579 0 -0.081182686546764526 0.1225592277892579 0 -0.083313515282059381 0.1043365598442423 0 -0.1035585829285708 0.1093359039842689 0 -0.072125567091156847 0.1109482217467367 0 -0.081182686546764526 0.1225592277892579 0 -0.083313515282059381 0.1043365598442423 0 -0.081182686546764526 0.1225592277892579 0 -0.1035585829285708 0.1093359039842689 0 -0.083313515282059381 0.1043365598442423 0 -0.082520427496120596 0.089407901883292687 0 -0.099484787603835084 0.097300509616745398 0 -0.083313515282059381 0.1043365598442423 0 -0.1035585829285708 0.1093359039842689 0 -0.060937618900255147 0.1175598836492321 0 -0.072125567091156847 0.1109482217467367 0 -0.063068447635548266 0.099337215704214554 0 -0.072125567091156847 0.1109482217467367 0 -0.083313515282059381 0.1043365598442423 0 -0.063068447635548266 0.099337215704214554 0 -0.083313515282059381 0.1043365598442423 0 -0.063068447635548266 0.099337215704214554 0 -0.082520427496120596 0.089407901883292687 0 -0.083313515282059381 0.1043365598442423 0 -0.063068447635548266 0.099337215704214554 0 -0.063068447635548266 0.099337215704214554 0 -0.065402512717481751 0.07937648763364262 0 -0.063068447635548266 0.099337215704214554 0 -0.065402512717481751 0.07937648763364262 0 -0.082520427496120596 0.089407901883292687 0 -0.065402512717481751 0.07937648763364262 0 -0.083902302412820248 0.072077730054395758 0 -0.082520427496120596 0.089407901883292687 0 -0.065402512717481751 0.07937648763364262 0 -0.067736577799415221 0.05941575956307063 0 -0.065402512717481751 0.07937648763364262 0 -0.083902302412820248 0.072077730054395758 0 -0.067736577799415221 0.05941575956307063 0 -0.083902302412820248 0.072077730054395758 0 -0.094107960301706872 0.057367861691976829 0 -0.067736577799415221 0.05941575956307063 0 -0.083902302412820248 0.072077730054395758 0 -0.082520427496120596 0.089407901883292687 0 -0.09995099932497882 0.084018908446515578 0 -0.082520427496120596 0.089407901883292687 0 -0.09995099932497882 0.084018908446515578 0 -0.099484787603835084 0.097300509616745398 0 -0.09995099932497882 0.084018908446515578 0 -0.10775345623025941 0.069518995218958379 0 -0.11847927161111441 0.083226311160254668 0 -0.09995099932497882 0.084018908446515578 0 -0.1106314965984109 0.095395359827877349 0 -0.099484787603835084 0.097300509616745398 0 -0.083902302412820248 0.072077730054395758 0 -0.10775345623025941 0.069518995218958379 0 -0.094107960301706872 0.057367861691976829 0 -0.083902302412820248 0.072077730054395758 0 -0.09995099932497882 0.084018908446515578 0 -0.10775345623025941 0.069518995218958379 0 -0.12894820963791109 0.071549159605543894 0 -0.10775345623025941 0.069518995218958379 0 -0.1204793428039985 0.055319963820883097 0 -0.12894820963791109 0.071549159605543894 0 -0.10775345623025941 0.069518995218958379 0 -0.11847927161111441 0.083226311160254668 0 -0.09995099932497882 0.084018908446515578 0 -0.11847927161111441 0.083226311160254668 0 -0.1106314965984109 0.095395359827877349 0 -0.11847927161111441 0.083226311160254668 0 -0.12247351799286969 0.094978656904516456 0 -0.1106314965984109 0.095395359827877349 0 -0.13014376881308221 0.103448624029411 0 -0.12247351799286969 0.094978656904516456 0 -0.1184657061071261 0.10189160653600821 0 -0.12247351799286969 0.094978656904516456 0 -0.1106314965984109 0.095395359827877349 0 -0.1184657061071261 0.10189160653600821 0 -0.1106314965984109 0.095395359827877349 0 -0.1106904727331173 0.1051212219613509 0 -0.1184657061071261 0.10189160653600821 0 -0.1106904727331173 0.1051212219613509 0 -0.1184657061071261 0.10189160653600821 0 -0.11838927439815029 0.11051416995688509 0 -0.1106904727331173 0.1051212219613509 0 -0.11838927439815029 0.11051416995688509 0 -0.1101137782607772 0.1112195112971688 0 -0.13014376881308221 0.103448624029411 0 -0.1184657061071261 0.10189160653600821 0 -0.11838927439815029 0.11051416995688509 0 -0.12696926159011401 0.11688853919367979 0 -0.11838927439815029 0.11051416995688509 0 -0.1191439647455993 0.11874681541064031 0 -0.12696926159011401 0.11688853919367979 0 -0.12060300057831359 0.1253336184863498 0 -0.1191439647455993 0.11874681541064031 0 -0.1191439647455993 0.11874681541064031 0 -0.1114571508438128 0.1245729394762651 0 -0.11340623769823301 0.1163217865464854 0 -0.12060300057831359 0.1253336184863498 0 -0.1191439647455993 0.11874681541064031 0 -0.1114571508438128 0.1245729394762651 0 -0.1114571508438128 0.1245729394762651 0 -0.11340623769823301 0.1163217865464854 0 -0.1059838627095834 0.1170457686437221 0 -0.11838927439815029 0.11051416995688509 0 -0.1191439647455993 0.11874681541064031 0 -0.11340623769823301 0.1163217865464854 0 -0.11838927439815029 0.11051416995688509 0 -0.11340623769823301 0.1163217865464854 0 -0.1101137782607772 0.1112195112971688 0 -0.11340623769823301 0.1163217865464854 0 -0.1101137782607772 0.1112195112971688 0 -0.1059838627095834 0.1170457686437221 0 -0.09979871479720083 0.12508316358580929 0 -0.081182686546764526 0.1225592277892579 0 -0.1035585829285708 0.1093359039842689 0 -0.1101137782607772 0.1112195112971688 0 -0.1059838627095834 0.1170457686437221 0 -0.1035585829285708 0.1093359039842689 0 -0.09979871479720083 0.12508316358580929 0 -0.1059838627095834 0.1170457686437221 0 -0.1035585829285708 0.1093359039842689 0 -0.09979871479720083 0.12508316358580929 0 -0.1114571508438128 0.1245729394762651 0 -0.1059838627095834 0.1170457686437221 0 -0.083313515282059381 0.1043365598442423 0 -0.099484787603835084 0.097300509616745398 0 -0.1035585829285708 0.1093359039842689 0 -0.1106314965984109 0.095395359827877349 0 -0.1106904727331173 0.1051212219613509 0 -0.099484787603835084 0.097300509616745398 0 -0.1106904727331173 0.1051212219613509 0 -0.099484787603835084 0.097300509616745398 0 -0.1035585829285708 0.1093359039842689 0 -0.1106904727331173 0.1051212219613509 0 -0.1101137782607772 0.1112195112971688 0 -0.1035585829285708 0.1093359039842689 0 -0.1106904727331173 0.1051212219613509 0 -0.1035585829285708 0.1093359039842689 0 -0.1093150618717733 0.030436618173946439 0 -0.10042491163028169 0.01769715485927199 0 -0.090765246335762564 0.033909786355608318 0 -0.095210434247410186 -0.0022878937736707269 0 -0.10042491163028169 0.01769715485927199 0 -0.1099523175120959 0.0011801964601080731 0 -0.12716660979733599 0.0095071604966818855 0 -0.10042491163028169 0.01769715485927199 0 -0.12716660979733599 0.0095071604966818855 0 -0.10042491163028169 0.01769715485927199 0 -0.1099523175120959 0.0011801964601080731 0 -0.12716660979733599 0.0095071604966818855 0 -0.1093150618717733 0.030436618173946439 0 -0.10042491163028169 0.01769715485927199 0 -0.13112644818408389 0.03324826071597238 0 -0.12716660979733599 0.0095071604966818855 0 -0.1093150618717733 0.030436618173946439 0 -0.13112644818408389 0.03324826071597238 0 -0.1093150618717733 0.030436618173946439 0 -0.13112644818408389 0.03324826071597238 0 -0.1093150618717733 0.030436618173946439 0 -0.1204793428039985 0.055319963820883097 0 -0.1093150618717733 0.030436618173946439 0 -0.1204793428039985 0.055319963820883097 0 -0.10161390486903341 0.044376901459665573 0 -0.1204793428039985 0.055319963820883097 0 -0.094107960301706872 0.057367861691976829 0 -0.10161390486903341 0.044376901459665573 0 -0.1204793428039985 0.055319963820883097 0 -0.094107960301706872 0.057367861691976829 0 -0.10775345623025941 0.069518995218958379 0 -0.1204793428039985 0.055319963820883097 0 -0.094107960301706872 0.057367861691976829 0 -0.1093150618717733 0.030436618173946439 0 -0.10161390486903341 0.044376901459665573 0 -0.090765246335762564 0.033909786355608318 0 -0.10161390486903341 0.044376901459665573 0 -0.090765246335762564 0.033909786355608318 0 -0.083678433811602435 0.046886840116664837 0 -0.090765246335762564 0.033909786355608318 0 -0.083678433811602435 0.046886840116664837 0 -0.069797132412861951 0.041794069991549193 0 -0.094107960301706872 0.057367861691976829 0 -0.10161390486903341 0.044376901459665573 0 -0.083678433811602435 0.046886840116664837 0 -0.094107960301706872 0.057367861691976829 0 -0.083678433811602435 0.046886840116664837 0 -0.067736577799415221 0.05941575956307063 0 -0.094107960301706872 0.057367861691976829 0 -0.067736577799415221 0.05941575956307063 0 -0.067736577799415221 0.05941575956307063 0 -0.069797132412861951 0.041794069991549193 0 -0.083678433811602435 0.046886840116664837 0 -0.067736577799415221 0.05941575956307063 0 -0.069797132412861951 0.041794069991549193 0 -0.067736577799415221 0.05941575956307063 0 -0.069797132412861951 0.041794069991549193 0 -0.052555404240213321 0.042800821153162853 0 -0.090765246335762564 0.033909786355608318 0 -0.069797132412861951 0.041794069991549193 0 -0.07368321346322744 0.0258871492218621 0 -0.069797132412861951 0.041794069991549193 0 -0.07368321346322744 0.0258871492218621 0 -0.062388581290678993 0.033297219591476933 0 -0.07368321346322744 0.0258871492218621 0 -0.068695387013079437 0.0096772019159858218 0 -0.053518575046413268 0.022706837999333589 0 -0.07368321346322744 0.0258871492218621 0 -0.053518575046413268 0.022706837999333589 0 -0.062388581290678993 0.033297219591476933 0 -0.10042491163028169 0.01769715485927199 0 -0.07368321346322744 0.0258871492218621 0 -0.10042491163028169 0.01769715485927199 0 -0.07368321346322744 0.0258871492218621 0 -0.084011186884581784 0.0097579359096388874 0 -0.10042491163028169 0.01769715485927199 0 -0.090765246335762564 0.033909786355608318 0 -0.07368321346322744 0.0258871492218621 0 -0.095210434247410186 -0.0022878937736707269 0 -0.10042491163028169 0.01769715485927199 0 -0.084011186884581784 0.0097579359096388874 0 -0.095210434247410186 -0.0022878937736707269 0 -0.080428613217369896 -0.0033278701301705941 0 -0.084011186884581784 0.0097579359096388874 0 -0.080428613217369896 -0.0033278701301705941 0 -0.084011186884581784 0.0097579359096388874 0 -0.068695387013079437 0.0096772019159858218 0 -0.080428613217369896 -0.0033278701301705941 0 -0.064271127366952091 -0.0052947208783540797 0 -0.068695387013079437 0.0096772019159858218 0 -0.07368321346322744 0.0258871492218621 0 -0.084011186884581784 0.0097579359096388874 0 -0.068695387013079437 0.0096772019159858218 0 -0.064271127366952091 -0.0052947208783540797 0 -0.068695387013079437 0.0096772019159858218 0 -0.05439781635118042 0.006307054599579049 0 -0.05439781635118042 0.006307054599579049 0 -0.053518575046413268 0.022706837999333589 0 -0.035204045994520303 0.0048598144783787243 0 -0.068695387013079437 0.0096772019159858218 0 -0.05439781635118042 0.006307054599579049 0 -0.053518575046413268 0.022706837999333589 0 -0.053518575046413268 0.022706837999333589 0 -0.035770968515258843 0.03908085948569949 0 -0.027700200370757499 0.020837115068481179 0 -0.053518575046413268 0.022706837999333589 0 -0.027700200370757499 0.020837115068481179 0 -0.053518575046413268 0.022706837999333589 0 -0.035204045994520303 0.0048598144783787243 0 -0.027700200370757499 0.020837115068481179 0 -0.05011721311063793 -0.0050823539785914071 0 -0.05439781635118042 0.006307054599579049 0 -0.035204045994520303 0.0048598144783787243 0 -0.067736577799415221 0.05941575956307063 0 -0.052555404240213321 0.042800821153162853 0 -0.039501783332273541 0.061608362680294473 0 -0.067736577799415221 0.05941575956307063 0 -0.039501783332273541 0.061608362680294473 0 -0.069797132412861951 0.041794069991549193 0 -0.062388581290678993 0.033297219591476933 0 -0.052555404240213321 0.042800821153162853 0 -0.053518575046413268 0.022706837999333589 0 -0.052555404240213321 0.042800821153162853 0 -0.035770968515258843 0.03908085948569949 0 -0.053518575046413268 0.022706837999333589 0 -0.062388581290678993 0.033297219591476933 0 -0.052555404240213321 0.042800821153162853 0 -0.052555404240213321 0.042800821153162853 0 -0.035770968515258843 0.03908085948569949 0 -0.039501783332273541 0.061608362680294473 0 -0.035770968515258843 0.03908085948569949 0 -0.039501783332273541 0.061608362680294473 0 -0.015369566765614779 0.04740269431277859 0 -0.01596798763179225 0.068265525327863188 0 -0.039501783332273541 0.061608362680294473 0 -0.015369566765614779 0.04740269431277859 0 -0.035770968515258843 0.03908085948569949 0 -0.015369566765614779 0.04740269431277859 0 -0.027700200370757499 0.020837115068481179 0 -0.0012261298419511621 0.037483843981654968 0 -0.015369566765614779 0.04740269431277859 0 -0.027700200370757499 0.020837115068481179 0 -0.0012261298419511621 0.037483843981654968 0 -0.015369566765614779 0.04740269431277859 0 0.0060088797258361377 0.067644884224444479 0 -0.01596798763179225 0.068265525327863188 0 -0.015369566765614779 0.04740269431277859 0 0.0060088797258361377 0.067644884224444479 0 -0.0089631398119183643 -5.4210394797340562e-05 0 -0.035204045994520303 0.0048598144783787243 0 -0.027700200370757499 0.020837115068481179 0 -0.027700200370757499 0.020837115068481179 0 -0.0018818256951016151 0.018967392137628759 0 -0.0012261298419511621 0.037483843981654968 0 -0.027700200370757499 0.020837115068481179 0 -0.0018818256951016151 0.018967392137628759 0 -0.0089631398119183643 -5.4210394797340562e-05 0 -0.027700200370757499 0.020837115068481179 0 -0.0018818256951016151 0.018967392137628759 0 -0.0089631398119183643 -5.4210394797340562e-05 0 -0.0018818256951016151 0.018967392137628759 0 0.014539710737812159 -0.00031952355959833159 0 -0.0018818256951016151 0.018967392137628759 0 0.02440143103355169 0.015786930328396689 0 0.014539710737812159 -0.00031952355959833159 0 -0.0012261298419511621 0.037483843981654968 0 -0.0018818256951016151 0.018967392137628759 0 0.0116749781922427 0.026975249641749809 0 -0.0018818256951016151 0.018967392137628759 0 0.02440143103355169 0.015786930328396689 0 -0.0018818256951016151 0.018967392137628759 0 0.0116749781922427 0.026975249641749809 0 0.02440143103355169 0.015786930328396689 0 0.02440143103355169 0.015786930328396689 0 0.014972714353194239 0.042371276715607989 0 0.0116749781922427 0.026975249641749809 0 0.02440143103355169 0.015786930328396689 0 0.014972714353194239 0.042371276715607989 0 0.02440143103355169 0.015786930328396689 0 0.014972714353194239 0.042371276715607989 0 0.033429860844410117 0.030532429497785819 0 0.02440143103355169 0.015786930328396689 0 0.033559896453982267 0.02031608070243987 0 0.033429860844410117 0.030532429497785819 0 0.02440143103355169 0.015786930328396689 0 0.033429860844410117 0.030532429497785819 0 0.02440143103355169 0.015786930328396689 0 0.028349239989563391 0.0046560496035753726 0 0.033559896453982267 0.02031608070243987 0 0.02440143103355169 0.015786930328396689 0 0.028349239989563391 0.0046560496035753726 0 0.014539710737812159 -0.00031952355959833159 0 0.02440143103355169 0.015786930328396689 0 0.028349239989563391 0.0046560496035753726 0 0.02440143103355169 0.015786930328396689 0 0.014539710737812159 -0.00031952355959833159 0 -0.0012261298419511621 0.037483843981654968 0 0.014972714353194239 0.042371276715607989 0 0.0060088797258361377 0.067644884224444479 0 0.014972714353194239 0.042371276715607989 0 0.0060088797258361377 0.067644884224444479 0 -0.0012261298419511621 0.037483843981654968 0 0.0116749781922427 0.026975249641749809 0 0.014972714353194239 0.042371276715607989 0 0.014972714353194239 0.042371276715607989 0 0.027730956680300751 0.056220191676821692 0 0.033429860844410117 0.030532429497785819 0 0.014972714353194239 0.042371276715607989 0 0.027730956680300751 0.056220191676821692 0 0.0060088797258361377 0.067644884224444479 0 0.027730956680300751 0.056220191676821692 0 0.044216543633034552 0.059457832705990268 0 0.042458290655268169 0.045277928667175171 0 0.027730956680300751 0.056220191676821692 0 0.042458290655268169 0.045277928667175171 0 0.033429860844410117 0.030532429497785819 0 0.042458290655268169 0.045277928667175171 0 0.033429860844410117 0.030532429497785819 0 0.042458290655268169 0.045277928667175171 0 0.045089406523732931 0.031539737137392353 0 0.033429860844410117 0.030532429497785819 0 0.058761342191417883 0.031741597411952108 0 0.054578102692190662 0.045447007812596793 0 0.073967393292346084 0.045284371316139341 0 0.045089406523732931 0.031539737137392353 0 0.058761342191417883 0.031741597411952108 0 0.054578102692190662 0.045447007812596793 0 0.042458290655268169 0.045277928667175171 0 0.045089406523732931 0.031539737137392353 0 0.054578102692190662 0.045447007812596793 0 0.054578102692190662 0.045447007812596793 0 0.05884666775773794 0.05958657027682622 0 0.073967393292346084 0.045284371316139341 0 0.044216543633034552 0.059457832705990268 0 0.042458290655268169 0.045277928667175171 0 0.054578102692190662 0.045447007812596793 0 0.044216543633034552 0.059457832705990268 0 0.054578102692190662 0.045447007812596793 0 0.05884666775773794 0.05958657027682622 0 0.028349239989563391 0.0046560496035753726 0 0.043555291090489653 0.018198823507764861 0 0.047740627773719187 0.001996661195049852 0 0.028349239989563391 0.0046560496035753726 0 0.033559896453982267 0.02031608070243987 0 0.043555291090489653 0.018198823507764861 0 0.028349239989563391 0.0046560496035753726 0 0.043555291090489653 0.018198823507764861 0 0.045089406523732931 0.031539737137392353 0 0.033559896453982267 0.02031608070243987 0 0.033429860844410117 0.030532429497785819 0 0.045089406523732931 0.031539737137392353 0 0.033559896453982267 0.02031608070243987 0 0.043555291090489653 0.018198823507764861 0 0.058761342191417883 0.031741597411952108 0 0.043555291090489653 0.018198823507764861 0 0.064043398586387551 0.016484687227618051 0 0.058761342191417883 0.031741597411952108 0 0.043555291090489653 0.018198823507764861 0 0.045089406523732931 0.031539737137392353 0 0.058761342191417883 0.031741597411952108 0 0.043555291090489653 0.018198823507764861 0 0.043555291090489653 0.018198823507764861 0 0.047740627773719187 0.001996661195049852 0 0.064043398586387551 0.016484687227618051 0 0.047740627773719187 0.001996661195049852 0 0.064043398586387551 0.016484687227618051 0 0.071777021100217678 -0.0013939366682484619 0 0.087668007647492177 0.01927661724196485 0 0.064043398586387551 0.016484687227618051 0 0.071777021100217678 -0.0013939366682484619 0 0.086294217375082277 0.0038891852048607129 0 0.087668007647492177 0.01927661724196485 0 0.071777021100217678 -0.0013939366682484619 0 0.086294217375082277 0.0038891852048607129 0 0.087668007647492177 0.01927661724196485 0 0.1051296991518323 0.01836888498948714 0 0.087668007647492177 0.01927661724196485 0 0.071777021100217678 -0.0013939366682484619 0 0.087668007647492177 0.01927661724196485 0 0.064043398586387551 0.016484687227618051 0 0.074206459656332324 0.031792870964954187 0 0.058761342191417883 0.031741597411952108 0 0.064043398586387551 0.016484687227618051 0 0.074206459656332324 0.031792870964954187 0 0.058761342191417883 0.031741597411952108 0 0.073967393292346084 0.045284371316139341 0 0.074206459656332324 0.031792870964954187 0 0.058761342191417883 0.031741597411952108 0 0.073967393292346084 0.045284371316139341 0 0.05884666775773794 0.05958657027682622 0 0.073967393292346084 0.045284371316139341 0 0.074191079945247221 0.061438600165591072 0 0.074191079945247221 0.061438600165591072 0 0.086592156564018002 0.046177081627096633 0 0.088450146534461649 0.069882809883079933 0 0.086592156564018002 0.046177081627096633 0 0.102263096645668 0.059296953624644773 0 0.088450146534461649 0.069882809883079933 0 0.073967393292346084 0.045284371316139341 0 0.074191079945247221 0.061438600165591072 0 0.086592156564018002 0.046177081627096633 0 0.087668007647492177 0.01927661724196485 0 0.086592156564018002 0.046177081627096633 0 0.1035589941947667 0.039947171152178183 0 0.087668007647492177 0.01927661724196485 0 0.074206459656332324 0.031792870964954187 0 0.086592156564018002 0.046177081627096633 0 0.073967393292346084 0.045284371316139341 0 0.074206459656332324 0.031792870964954187 0 0.086592156564018002 0.046177081627096633 0 0.1035589941947667 0.039947171152178183 0 0.11548381397339889 0.045760857191489243 0 0.1051296991518323 0.01836888498948714 0 0.1035589941947667 0.039947171152178183 0 0.102263096645668 0.059296953624644773 0 0.11944998074204199 0.060617725062390833 0 0.086592156564018002 0.046177081627096633 0 0.1035589941947667 0.039947171152178183 0 0.102263096645668 0.059296953624644773 0 0.1203117858774304 0.058533332141466138 0 0.12875803810089551 0.038104922492593063 0 0.1203117858774304 0.058533332141466138 0 0.11548381397339889 0.045760857191489243 0 0.12875803810089551 0.038104922492593063 0 0.1035589941947667 0.039947171152178183 0 0.1139150190707512 0.048980390280758318 0 0.11944998074204199 0.060617725062390833 0 0.1035589941947667 0.039947171152178183 0 0.11944998074204199 0.060617725062390833 0 0.1139150190707512 0.048980390280758318 0 0.1203117858774304 0.058533332141466138 0 0.11548381397339889 0.045760857191489243 0 0.1139150190707512 0.048980390280758318 0 0.11548381397339889 0.045760857191489243 0 0.1203117858774304 0.058533332141466138 0 0.11548381397339889 0.045760857191489243 0 0.1139150190707512 0.048980390280758318 0 0.1203117858774304 0.058533332141466138 0 0.11944998074204199 0.060617725062390833 0 0.1203117858774304 0.058533332141466138 0 0.12269544150965531 0.064839330282485258 0 0.12802629524595011 0.059896385033824252 0 0.1203117858774304 0.058533332141466138 0 0.12269544150965531 0.064839330282485258 0 0.1203117858774304 0.058533332141466138 0 0.11944998074204199 0.060617725062390833 0 0.12269544150965531 0.064839330282485258 0 0.1203117858774304 0.058533332141466138 0 0.11944998074204199 0.060617725062390833 0 0.11548381397339889 0.045760857191489243 0 0.1051296991518323 0.01836888498948714 0 0.11548381397339889 0.045760857191489243 0 0.12598116292572639 0.02421784844981693 0 0.11548381397339889 0.045760857191489243 0 0.12598116292572639 0.02421784844981693 0 0.12875803810089551 0.038104922492593063 0 0.1035589941947667 0.039947171152178183 0 0.1139150190707512 0.048980390280758318 0 0.11548381397339889 0.045760857191489243 0 0.11548381397339889 0.045760857191489243 0 0.1051296991518323 0.01836888498948714 0 0.12598116292572639 0.02421784844981693 0 0.1191620246975521 0.0084359164153180715 0 0.1051296991518323 0.01836888498948714 0 0.12598116292572639 0.02421784844981693 0 0.1191620246975521 0.0084359164153180715 0 0.1051296991518323 0.01836888498948714 0 0.1079566754540649 -0.0046028785155016946 0 0.1051296991518323 0.01836888498948714 0 0.1079566754540649 -0.0046028785155016946 0 0.094775584330267032 -0.0090230872125153811 0 0.086294217375082277 0.0038891852048607129 0 0.1051296991518323 0.01836888498948714 0 0.094775584330267032 -0.0090230872125153811 0 0.1051296991518323 0.01836888498948714 0 0.094775584330267032 -0.0090230872125153811 0 0.087668007647492177 0.01927661724196485 0 0.1035589941947667 0.039947171152178183 0 0.087668007647492177 0.01927661724196485 0 0.1035589941947667 0.039947171152178183 0 0.1051296991518323 0.01836888498948714 0 0.1019253257514396 0.10300348641915109 0 0.10719534167879349 0.11343759335724039 0 0.1162760973220357 0.10023178141298671 0 0.1019253257514396 0.10300348641915109 0 0.10719534167879349 0.11343759335724039 0 0.093162998256136331 0.1241963670975304 0 0.1019253257514396 0.10300348641915109 0 0.093162998256136331 0.1241963670975304 0 0.10262549360193481 0.12298499605864981 0 0.10719534167879349 0.11343759335724039 0 0.093162998256136331 0.1241963670975304 0 0.10262549360193481 0.12298499605864981 0 0.093162998256136331 0.1241963670975304 0 0.095660805844260066 0.12529610217238801 0 0.093162998256136331 0.1241963670975304 0 0.095660805844260066 0.12529610217238801 0 0.10262549360193481 0.12298499605864981 0 0.10719534167879349 0.11343759335724039 0 0.1118384908630341 0.1247669536496753 0 0.10719534167879349 0.11343759335724039 0 0.1118384908630341 0.1247669536496753 0 0.1178100177304227 0.11121483550798129 0 0.1118384908630341 0.1247669536496753 0 0.1178100177304227 0.11121483550798129 0 0.12591725066788861 0.1224849421901677 0 0.1019253257514396 0.10300348641915109 0 0.1162760973220357 0.10023178141298671 0 0.1106876532467418 0.081810605740771369 0 0.1178100177304227 0.11121483550798129 0 0.1162760973220357 0.10023178141298671 0 0.12869506425262761 0.1049951383488585 0 0.10719534167879349 0.11343759335724039 0 0.1178100177304227 0.11121483550798129 0 0.1162760973220357 0.10023178141298671 0 0.1106876532467418 0.081810605740771369 0 0.12269544150965531 0.064839330282485258 0 0.13142414888542589 0.087931261743246267 0 0.1162760973220357 0.10023178141298671 0 0.1106876532467418 0.081810605740771369 0 0.13142414888542589 0.087931261743246267 0 0.102263096645668 0.059296953624644773 0 0.11944998074204199 0.060617725062390833 0 0.1106876532467418 0.081810605740771369 0 0.11944998074204199 0.060617725062390833 0 0.1106876532467418 0.081810605740771369 0 0.11944998074204199 0.060617725062390833 0 0.1106876532467418 0.081810605740771369 0 0.12269544150965531 0.064839330282485258 0 0.11944998074204199 0.060617725062390833 0 0.12269544150965531 0.064839330282485258 0 0.102263096645668 0.059296953624644773 0 0.1106876532467418 0.081810605740771369 0 0.088450146534461649 0.069882809883079933 0 0.1019253257514396 0.10300348641915109 0 0.1106876532467418 0.081810605740771369 0 0.1106876532467418 0.081810605740771369 0 0.086133154853185706 0.089588164677732895 0 0.088450146534461649 0.069882809883079933 0 0.1019253257514396 0.10300348641915109 0 0.1106876532467418 0.081810605740771369 0 0.086133154853185706 0.089588164677732895 0 0.086133154853185706 0.089588164677732895 0 0.088450146534461649 0.069882809883079933 0 0.066168493092629718 0.080180177830413812 0 0.074191079945247221 0.061438600165591072 0 0.088450146534461649 0.069882809883079933 0 0.066168493092629718 0.080180177830413812 0 0.05884666775773794 0.05958657027682622 0 0.074191079945247221 0.061438600165591072 0 0.066168493092629718 0.080180177830413812 0 0.086133154853185706 0.089588164677732895 0 0.066168493092629718 0.080180177830413812 0 0.066100536032717025 0.112281302438183 0 0.1019253257514396 0.10300348641915109 0 0.086133154853185706 0.089588164677732895 0 0.084824236133221154 0.10784543651343689 0 0.086133154853185706 0.089588164677732895 0 0.084824236133221154 0.10784543651343689 0 0.066100536032717025 0.112281302438183 0 0.1019253257514396 0.10300348641915109 0 0.084824236133221154 0.10784543651343689 0 0.093162998256136331 0.1241963670975304 0 0.093162998256136331 0.1241963670975304 0 0.066100536032717025 0.112281302438183 0 0.084824236133221154 0.10784543651343689 0 0.093162998256136331 0.1241963670975304 0 0.066100536032717025 0.112281302438183 0 0.093162998256136331 0.1241963670975304 0 0.066100536032717025 0.112281302438183 0 0.072407381218146202 0.1338548844673659 0 0.066100536032717025 0.112281302438183 0 0.039038073809297497 0.10036623777883549 0 0.036435888733326392 0.123361191594173 0 0.066168493092629718 0.080180177830413812 0 0.066100536032717025 0.112281302438183 0 0.039038073809297497 0.10036623777883549 0 0.066100536032717025 0.112281302438183 0 0.039038073809297497 0.10036623777883549 0 0.05884666775773794 0.05958657027682622 0 0.066168493092629718 0.080180177830413812 0 0.049966792831398522 0.073919923382794364 0 0.044216543633034552 0.059457832705990268 0 0.05884666775773794 0.05958657027682622 0 0.049966792831398522 0.073919923382794364 0 0.066168493092629718 0.080180177830413812 0 0.039038073809297497 0.10036623777883549 0 0.049966792831398522 0.073919923382794364 0 0.039038073809297497 0.10036623777883549 0 0.049966792831398522 0.073919923382794364 0 0.035033793697021628 0.072340376857664826 0 0.039038073809297497 0.10036623777883549 0 0.035033793697021628 0.072340376857664826 0 0.02019495604788217 0.075680900087858632 0 0.027730956680300751 0.056220191676821692 0 0.044216543633034552 0.059457832705990268 0 0.035033793697021628 0.072340376857664826 0 0.044216543633034552 0.059457832705990268 0 0.049966792831398522 0.073919923382794364 0 0.035033793697021628 0.072340376857664826 0 0.027730956680300751 0.056220191676821692 0 0.02019495604788217 0.075680900087858632 0 0.0060088797258361377 0.067644884224444479 0 0.027730956680300751 0.056220191676821692 0 0.035033793697021628 0.072340376857664826 0 0.02019495604788217 0.075680900087858632 0 0.039038073809297497 0.10036623777883549 0 0.02019495604788217 0.075680900087858632 0 0.01197561158587802 0.088451173119488094 0 -0.0029549549015219778 0.092918491733280997 0 0.0060088797258361377 0.067644884224444479 0 -0.0029549549015219778 0.092918491733280997 0 0.01197561158587802 0.088451173119488094 0 0.0060088797258361377 0.067644884224444479 0 0.02019495604788217 0.075680900087858632 0 0.01197561158587802 0.088451173119488094 0 0.0060088797258361377 0.067644884224444479 0 0.039038073809297497 0.10036623777883549 0 0.036435888733326392 0.123361191594173 0 0.01307697603093517 0.1088943488213957 0 0.036435888733326392 0.123361191594173 0 0.01307697603093517 0.1088943488213957 0 0.01304916444528376 0.12900521594725781 0 0.039038073809297497 0.10036623777883549 0 0.01197561158587802 0.088451173119488094 0 0.039038073809297497 0.10036623777883549 0 0.01197561158587802 0.088451173119488094 0 0.01307697603093517 0.1088943488213957 0 -0.0029549549015219778 0.092918491733280997 0 0.01197561158587802 0.088451173119488094 0 0.01307697603093517 0.1088943488213957 0 -0.01191878952888009 0.1181920992421175 0 0.01307697603093517 0.1088943488213957 0 0.01304916444528376 0.12900521594725781 0 -0.001561785711569529 0.1397671442044712 0 0.01304916444528376 0.12900521594725781 0 0.016259466253672451 0.14690170898289551 0 0.036435888733326392 0.123361191594173 0 0.01304916444528376 0.12900521594725781 0 0.028970439645018459 0.13746900112289259 0 0.01304916444528376 0.12900521594725781 0 0.028970439645018459 0.13746900112289259 0 0.016259466253672451 0.14690170898289551 0 0.028970439645018459 0.13746900112289259 0 0.016259466253672451 0.14690170898289551 0 0.032000887591859671 0.15239022810322739 0 0.016259466253672451 0.14690170898289551 0 0.013588423968690059 0.162975571633064 0 0.032000887591859671 0.15239022810322739 0 0.016259466253672451 0.14690170898289551 0 0.003619432850628497 0.15651973498445559 0 0.013588423968690059 0.162975571633064 0 -0.001561785711569529 0.1397671442044712 0 0.016259466253672451 0.14690170898289551 0 0.003619432850628497 0.15651973498445559 0 0.003619432850628497 0.15651973498445559 0 0.00021648263642794549 0.17066311391744721 0 0.013588423968690059 0.162975571633064 0 0.00021648263642794549 0.17066311391744721 0 0.013588423968690059 0.162975571633064 0 0.018066875288176149 0.18121203307816669 0 0.00021648263642794549 0.17066311391744721 0 0.013588423968690059 0.162975571633064 0 0.003619432850628497 0.15651973498445559 0 0.013588423968690059 0.162975571633064 0 0.00021648263642794549 0.17066311391744721 0 0.018066875288176149 0.18121203307816669 0 0.00021648263642794549 0.17066311391744721 0 0.0075963664714162396 0.18263029166282899 0 0.018066875288176149 0.18121203307816669 0 -0.0037551453458108631 0.18406374113349119 0 0.0075963664714162396 0.18263029166282899 0 0.0072515955251371486 0.19084634548344831 0 -0.0037551453458108631 0.18406374113349119 0 0.00021648263642794549 0.17066311391744721 0 0.0075963664714162396 0.18263029166282899 0 0.0075963664714162396 0.18263029166282899 0 0.01641867457413335 0.18686507288932069 0 0.0072515955251371486 0.19084634548344831 0 0.0075963664714162396 0.18263029166282899 0 0.018066875288176149 0.18121203307816669 0 0.01641867457413335 0.18686507288932069 0 0.018066875288176149 0.18121203307816669 0 0.01641867457413335 0.18686507288932069 0 0.036805770733681367 0.1780109344249266 0 0.01641867457413335 0.18686507288932069 0 0.036805770733681367 0.1780109344249266 0 0.031391888709460539 0.19102960139719929 0 0.01641867457413335 0.18686507288932069 0 0.036805770733681367 0.1780109344249266 0 0.013588423968690059 0.162975571633064 0 0.018066875288176149 0.18121203307816669 0 0.036805770733681367 0.1780109344249266 0 0.013588423968690059 0.162975571633064 0 0.033259559260870028 0.16732729353997919 0 0.036805770733681367 0.1780109344249266 0 0.013588423968690059 0.162975571633064 0 0.032000887591859671 0.15239022810322739 0 0.013588423968690059 0.162975571633064 0 0.033259559260870028 0.16732729353997919 0 0.032000887591859671 0.15239022810322739 0 0.013588423968690059 0.162975571633064 0 0.036805770733681367 0.1780109344249266 0 0.033259559260870028 0.16732729353997919 0 0.04459472816920583 0.162464212353745 0 0.032000887591859671 0.15239022810322739 0 0.033259559260870028 0.16732729353997919 0 0.04459472816920583 0.162464212353745 0 0.039821591811631127 0.17670115998726171 0 0.04459472816920583 0.162464212353745 0 0.039821591811631127 0.17670115998726171 0 0.054798808724612937 0.17600131707032279 0 0.036805770733681367 0.1780109344249266 0 0.049813388496148629 0.18643456069437689 0 0.031391888709460539 0.19102960139719929 0 0.033259559260870028 0.16732729353997919 0 0.036805770733681367 0.1780109344249266 0 0.039821591811631127 0.17670115998726171 0 0.036805770733681367 0.1780109344249266 0 0.039821591811631127 0.17670115998726171 0 0.036805770733681367 0.1780109344249266 0 0.049813388496148629 0.18643456069437689 0 0.036805770733681367 0.1780109344249266 0 0.039821591811631127 0.17670115998726171 0 0.049813388496148629 0.18643456069437689 0 0.049813388496148629 0.18643456069437689 0 0.054798808724612937 0.17600131707032279 0 0.062821006258615447 0.19485818696382809 0 0.039821591811631127 0.17670115998726171 0 0.049813388496148629 0.18643456069437689 0 0.054798808724612937 0.17600131707032279 0 0.054798808724612937 0.17600131707032279 0 0.057274170411231319 0.16056039084828741 0 0.073753631423299992 0.17114056035574471 0 0.04459472816920583 0.162464212353745 0 0.054798808724612937 0.17600131707032279 0 0.057274170411231319 0.16056039084828741 0 0.04459472816920583 0.162464212353745 0 0.057274170411231319 0.16056039084828741 0 0.05041335121502992 0.14180488457339169 0 0.057274170411231319 0.16056039084828741 0 0.05041335121502992 0.14180488457339169 0 0.066929270391673679 0.14972388196993699 0 0.066100536032717025 0.112281302438183 0 0.036435888733326392 0.123361191594173 0 0.05041335121502992 0.14180488457339169 0 0.036435888733326392 0.123361191594173 0 0.028970439645018459 0.13746900112289259 0 0.05041335121502992 0.14180488457339169 0 0.05041335121502992 0.14180488457339169 0 0.032000887591859671 0.15239022810322739 0 0.028970439645018459 0.13746900112289259 0 0.05041335121502992 0.14180488457339169 0 0.032000887591859671 0.15239022810322739 0 0.04459472816920583 0.162464212353745 0 0.05041335121502992 0.14180488457339169 0 0.032000887591859671 0.15239022810322739 0 0.018147486044665428 0.24301209948230251 0 0.035219596978125163 0.24427994947614681 0 0.019552701789931199 0.2456482956991394 0 0.035219596978125163 0.24427994947614681 0 0.019552701789931199 0.2456482956991394 0 0.035219596978125163 0.24427994947614681 0 0.023831315674361551 0.25784578595971469 0 0.0277561520607402 0.2366471620800556 0 0.018147486044665428 0.24301209948230251 0 0.035219596978125163 0.24427994947614681 0 0.019552701789931199 0.2456482956991394 0 0.018147486044665428 0.24301209948230251 0 0.035219596978125163 0.24427994947614681 0 0.0277561520607402 0.2366471620800556 0 0.018147486044665428 0.24301209948230251 0 0.018285648049168188 0.23186094764767071 0 0.018147486044665428 0.24301209948230251 0 0.001075375111205677 0.24174424948845771 0 0.018147486044665428 0.24301209948230251 0 0.001075375111205677 0.24174424948845771 0 0.0097466044974914914 0.23699758190822601 0 0.019552701789931199 0.2456482956991394 0 0.0038858066017371838 0.24701664192213149 0 0.019552701789931199 0.2456482956991394 0 0.0038858066017371838 0.24701664192213149 0 0.01534911090579608 0.25416688120580838 0 0.018147486044665428 0.24301209948230251 0 0.0038858066017371838 0.24701664192213149 0 0.001075375111205677 0.24174424948845771 0 0.019552701789931199 0.2456482956991394 0 0.018147486044665428 0.24301209948230251 0 0.0038858066017371838 0.24701664192213149 0 -0.001286980100155164 0.24545305109547139 0 0.0038858066017371838 0.24701664192213149 0 0.001075375111205677 0.24174424948845771 0 0.0038858066017371838 0.24701664192213149 0 0.001075375111205677 0.24174424948845771 0 0.00059610376430076911 0.2360956407657859 0 0.0097466044974914914 0.23699758190822601 0 0.0054206033171348041 0.23306164759197009 0 0.00059610376430076911 0.2360956407657859 0 0.001075375111205677 0.24174424948845771 0 0.0097466044974914914 0.23699758190822601 0 -0.00070589218395681339 0.23840257749217331 0 0.00059610376430076911 0.2360956407657859 0 0.00066277402891192199 0.2296529712618455 0 -0.00070589218395681339 0.23840257749217331 0 0.001075375111205677 0.24174424948845771 0 -0.00070589218395681339 0.23840257749217331 0 0.00059610376430076911 0.2360956407657859 0 0.001075375111205677 0.24174424948845771 0 0.018147486044665428 0.24301209948230251 0 0.0097466044974914914 0.23699758190822601 0 0.018285648049168188 0.23186094764767071 0 0.0097466044974914914 0.23699758190822601 0 0.0089183276013548116 0.22806462387347581 0 0.0054206033171348041 0.23306164759197009 0 0.0089183276013548116 0.22806462387347581 0 0.01732812614641353 0.22255887122421311 0 0.018285648049168188 0.23186094764767071 0 0.0097466044974914914 0.23699758190822601 0 0.0089183276013548116 0.22806462387347581 0 0.018285648049168188 0.23186094764767071 0 0.0089183276013548116 0.22806462387347581 0 0.0054206033171348041 0.23306164759197009 0 0.00066277402891192199 0.2296529712618455 0 0.0089183276013548116 0.22806462387347581 0 0.00066277402891192199 0.2296529712618455 0 0.0034165958285795649 0.22343383821244431 0 0.00059610376430076911 0.2360956407657859 0 0.0054206033171348041 0.23306164759197009 0 0.00066277402891192199 0.2296529712618455 0 0.0089183276013548116 0.22806462387347581 0 0.0034165958285795649 0.22343383821244431 0 0.0079032179111760501 0.21730032924584269 0 -0.002086922477541876 0.22382617073466241 0 0.0034165958285795649 0.22343383821244431 0 0.0017531838798161691 0.21857897502398921 0 -0.002086922477541876 0.22382617073466241 0 0.00066277402891192199 0.2296529712618455 0 0.0034165958285795649 0.22343383821244431 0 0.0034165958285795649 0.22343383821244431 0 0.0079032179111760501 0.21730032924584269 0 0.0017531838798161691 0.21857897502398921 0 0.0089183276013548116 0.22806462387347581 0 0.01732812614641353 0.22255887122421311 0 0.0079032179111760501 0.21730032924584269 0 0.01732812614641353 0.22255887122421311 0 0.027817191944343681 0.2238853473177512 0 0.02023059101628635 0.2135554039094725 0 0.01732812614641353 0.22255887122421311 0 0.018285648049168188 0.23186094764767071 0 0.027817191944343681 0.2238853473177512 0 0.0277561520607402 0.2366471620800556 0 0.018285648049168188 0.23186094764767071 0 0.027817191944343681 0.2238853473177512 0 0.027817191944343681 0.2238853473177512 0 0.02023059101628635 0.2135554039094725 0 0.035348568469910871 0.21081770337392039 0 0.02023059101628635 0.2135554039094725 0 0.02350800242527459 0.2027189189720254 0 0.035348568469910871 0.21081770337392039 0 0.02023059101628635 0.2135554039094725 0 0.0094784392005993756 0.20405125332308219 0 0.02350800242527459 0.2027189189720254 0 0.02023059101628635 0.2135554039094725 0 0.0079032179111760501 0.21730032924584269 0 0.0094784392005993756 0.20405125332308219 0 -0.0039684215854149446 0.19571921135371431 0 -0.0014517666341171409 0.2126412530505721 0 0.0094784392005993756 0.20405125332308219 0 0.01732812614641353 0.22255887122421311 0 0.02023059101628635 0.2135554039094725 0 0.0079032179111760501 0.21730032924584269 0 -0.0014517666341171409 0.2126412530505721 0 0.0079032179111760501 0.21730032924584269 0 0.0094784392005993756 0.20405125332308219 0 -0.0014517666341171409 0.2126412530505721 0 0.0079032179111760501 0.21730032924584269 0 0.0017531838798161691 0.21857897502398921 0 0.01641867457413335 0.18686507288932069 0 0.0094784392005993756 0.20405125332308219 0 0.0072515955251371486 0.19084634548344831 0 -0.0039684215854149446 0.19571921135371431 0 0.0094784392005993756 0.20405125332308219 0 0.0072515955251371486 0.19084634548344831 0 -0.0039684215854149446 0.19571921135371431 0 0.0072515955251371486 0.19084634548344831 0 0.01641867457413335 0.18686507288932069 0 0.0072515955251371486 0.19084634548344831 0 0.01641867457413335 0.18686507288932069 0 0.02350800242527459 0.2027189189720254 0 0.031391888709460539 0.19102960139719929 0 0.01641867457413335 0.18686507288932069 0 0.0094784392005993756 0.20405125332308219 0 0.02350800242527459 0.2027189189720254 0 0.049813388496148629 0.18643456069437689 0 0.031391888709460539 0.19102960139719929 0 0.043164504341944958 0.19878855296792669 0 0.02350800242527459 0.2027189189720254 0 0.031391888709460539 0.19102960139719929 0 0.043164504341944958 0.19878855296792669 0 0.02350800242527459 0.2027189189720254 0 0.043164504341944958 0.19878855296792669 0 0.049813388496148629 0.18643456069437689 0 0.043164504341944958 0.19878855296792669 0 0.062821006258615447 0.19485818696382809 0 0.043164504341944958 0.19878855296792669 0 0.062821006258615447 0.19485818696382809 0 0.049813388496148629 0.18643456069437689 0 0.062821006258615447 0.19485818696382809 0 0.043164504341944958 0.19878855296792669 0 0.053488072017114419 0.22015557179034029 0 0.062821006258615447 0.19485818696382809 0 0.053488072017114419 0.22015557179034029 0 0.062821006258615447 0.19485818696382809 0 0.053488072017114419 0.22015557179034029 0 0.06834637000487781 0.2103369913858692 0 0.062821006258615447 0.19485818696382809 0 0.043164504341944958 0.19878855296792669 0 0.035348568469910871 0.21081770337392039 0 0.053488072017114419 0.22015557179034029 0 0.02350800242527459 0.2027189189720254 0 0.043164504341944958 0.19878855296792669 0 0.035348568469910871 0.21081770337392039 0 0.035348568469910871 0.21081770337392039 0 0.038718531141916049 0.2214777301963127 0 0.053488072017114419 0.22015557179034029 0 0.027817191944343681 0.2238853473177512 0 0.035348568469910871 0.21081770337392039 0 0.038718531141916049 0.2214777301963127 0 0.038220292136295228 0.2310522983032389 0 0.053488072017114419 0.22015557179034029 0 0.043266614698450417 0.24487755638058531 0 0.027817191944343681 0.2238853473177512 0 0.038718531141916049 0.2214777301963127 0 0.038220292136295228 0.2310522983032389 0 0.0277561520607402 0.2366471620800556 0 0.027817191944343681 0.2238853473177512 0 0.038220292136295228 0.2310522983032389 0 0.038718531141916049 0.2214777301963127 0 0.038220292136295228 0.2310522983032389 0 0.053488072017114419 0.22015557179034029 0 0.053488072017114419 0.22015557179034029 0 0.060051603146963707 0.23183355716107101 0 0.047257557382846677 0.24517394132545531 0 0.053488072017114419 0.22015557179034029 0 0.043266614698450417 0.24487755638058531 0 0.053488072017114419 0.22015557179034029 0 0.060051603146963707 0.23183355716107101 0 0.072572501162481096 0.22074534469301421 0 0.060051603146963707 0.23183355716107101 0 0.056089914221113729 0.24496176923693691 0 0.047257557382846677 0.24517394132545531 0 0.053488072017114419 0.22015557179034029 0 0.047257557382846677 0.24517394132545531 0 0.043266614698450417 0.24487755638058531 0 0.060051603146963707 0.23183355716107101 0 0.056089914221113729 0.24496176923693691 0 0.064906879439047591 0.24537137174524101 0 0.056089914221113729 0.24496176923693691 0 0.052056269767059488 0.24973518429608971 0 0.056340343509317187 0.25329890119982751 0 0.056089914221113729 0.24496176923693691 0 0.064906879439047591 0.24537137174524101 0 0.056340343509317187 0.25329890119982751 0 0.056089914221113729 0.24496176923693691 0 0.052056269767059488 0.24973518429608971 0 0.047257557382846677 0.24517394132545531 0 0.043266614698450417 0.24487755638058531 0 0.035219596978125163 0.24427994947614681 0 0.039977514057722902 0.24386439312072589 0 0.043266614698450417 0.24487755638058531 0 0.035219596978125163 0.24427994947614681 0 0.047257557382846677 0.24517394132545531 0 0.043266614698450417 0.24487755638058531 0 0.048537263954960358 0.25550612542213902 0 0.039977514057722902 0.24386439312072589 0 0.043266614698450417 0.24487755638058531 0 0.037117602592385703 0.238565495467217 0 0.047257557382846677 0.24517394132545531 0 0.043266614698450417 0.24487755638058531 0 0.038220292136295228 0.2310522983032389 0 0.043266614698450417 0.24487755638058531 0 0.037117602592385703 0.238565495467217 0 0.0277561520607402 0.2366471620800556 0 0.038220292136295228 0.2310522983032389 0 0.037117602592385703 0.238565495467217 0 0.0277561520607402 0.2366471620800556 0 0.037117602592385703 0.238565495467217 0 0.035219596978125163 0.24427994947614681 0 0.039977514057722902 0.24386439312072589 0 0.037117602592385703 0.238565495467217 0 0.035219596978125163 0.24427994947614681 0 0.039977514057722902 0.24386439312072589 0 0.035219596978125163 0.24427994947614681 0 0.081816188966174083 0.24123695037180731 0 0.1012024686794499 0.24514295656717061 0 0.087608092015237171 0.25288097681756239 0 0.081816188966174083 0.24123695037180731 0 0.073280449384348523 0.25430993563771132 0 0.087608092015237171 0.25288097681756239 0 0.081816188966174083 0.24123695037180731 0 0.064906879439047591 0.24537137174524101 0 0.073280449384348523 0.25430993563771132 0 0.060051603146963707 0.23183355716107101 0 0.081816188966174083 0.24123695037180731 0 0.064906879439047591 0.24537137174524101 0 0.060051603146963707 0.23183355716107101 0 0.081816188966174083 0.24123695037180731 0 0.072572501162481096 0.22074534469301421 0 0.081816188966174083 0.24123695037180731 0 0.088394248572197687 0.21483320263799141 0 0.09884979751993779 0.23104834505936619 0 0.081816188966174083 0.24123695037180731 0 0.088394248572197687 0.21483320263799141 0 0.081816188966174083 0.24123695037180731 0 0.072572501162481096 0.22074534469301421 0 0.088394248572197687 0.21483320263799141 0 0.088394248572197687 0.21483320263799141 0 0.082877102206591058 0.20784634972930319 0 0.094972308178221165 0.18842945490417529 0 0.072572501162481096 0.22074534469301421 0 0.088394248572197687 0.21483320263799141 0 0.082877102206591058 0.20784634972930319 0 0.053488072017114419 0.22015557179034029 0 0.072572501162481096 0.22074534469301421 0 0.06834637000487781 0.2103369913858692 0 0.072572501162481096 0.22074534469301421 0 0.082877102206591058 0.20784634972930319 0 0.06834637000487781 0.2103369913858692 0 0.082877102206591058 0.20784634972930319 0 0.06834637000487781 0.2103369913858692 0 0.062821006258615447 0.19485818696382809 0 0.082877102206591058 0.20784634972930319 0 0.062821006258615447 0.19485818696382809 0 0.062821006258615447 0.19485818696382809 0 0.079510628092550037 0.1915210559445123 0 0.082877102206591058 0.20784634972930319 0 0.062821006258615447 0.19485818696382809 0 0.079510628092550037 0.1915210559445123 0 0.088394248572197687 0.21483320263799141 0 0.094972308178221165 0.18842945490417529 0 0.082877102206591058 0.20784634972930319 0 0.079510628092550037 0.1915210559445123 0 0.094972308178221165 0.18842945490417529 0 0.079510628092550037 0.1915210559445123 0 0.094972308178221165 0.18842945490417529 0 0.088394248572197687 0.21483320263799141 0 0.1039044636555107 0.20309558014077961 0 0.094972308178221165 0.18842945490417529 0 0.1039044636555107 0.20309558014077961 0 0.094972308178221165 0.18842945490417529 0 0.1110883931902614 0.1852070039859488 0 0.1039044636555107 0.20309558014077961 0 0.122898260577421 0.20558403843500589 0 0.1110883931902614 0.1852070039859488 0 0.122898260577421 0.20558403843500589 0 0.1110883931902614 0.1852070039859488 0 0.1272044782023018 0.1819845530677229 0 0.1039044636555107 0.20309558014077961 0 0.122898260577421 0.20558403843500589 0 0.1065277626555215 0.21674893801508641 0 0.122898260577421 0.20558403843500589 0 0.1065277626555215 0.21674893801508641 0 0.1185920429525401 0.2291835238022889 0 0.122898260577421 0.20558403843500589 0 0.1185920429525401 0.2291835238022889 0 0.088394248572197687 0.21483320263799141 0 0.1039044636555107 0.20309558014077961 0 0.1065277626555215 0.21674893801508641 0 0.1065277626555215 0.21674893801508641 0 0.09884979751993779 0.23104834505936619 0 0.1185920429525401 0.2291835238022889 0 0.088394248572197687 0.21483320263799141 0 0.1065277626555215 0.21674893801508641 0 0.09884979751993779 0.23104834505936619 0 0.1185920429525401 0.2291835238022889 0 0.1012024686794499 0.24514295656717061 0 0.1142858253276592 0.25278300916957203 0 0.1185920429525401 0.2291835238022889 0 0.13637960325121459 0.23405500250524669 0 0.1142858253276592 0.25278300916957203 0 0.1185920429525401 0.2291835238022889 0 0.1142858253276592 0.25278300916957203 0 0.081816188966174083 0.24123695037180731 0 0.09884979751993779 0.23104834505936619 0 0.1012024686794499 0.24514295656717061 0 0.09884979751993779 0.23104834505936619 0 0.1185920429525401 0.2291835238022889 0 0.1012024686794499 0.24514295656717061 0 0.083458314839718675 0.14766846372663789 0 0.090014862491354125 0.16180648796889421 0 0.095660959804740986 0.1473850715954973 0 0.083458314839718675 0.14766846372663789 0 0.095660959804740986 0.1473850715954973 0 0.095710321917596916 0.13557852172903961 0 0.093162998256136331 0.1241963670975304 0 0.083458314839718675 0.14766846372663789 0 0.072407381218146202 0.1338548844673659 0 0.093162998256136331 0.1241963670975304 0 0.083458314839718675 0.14766846372663789 0 0.095710321917596916 0.13557852172903961 0 0.093162998256136331 0.1241963670975304 0 0.083458314839718675 0.14766846372663789 0 0.066100536032717025 0.112281302438183 0 0.05041335121502992 0.14180488457339169 0 0.072407381218146202 0.1338548844673659 0 0.083458314839718675 0.14766846372663789 0 0.066929270391673679 0.14972388196993699 0 0.073753631423299992 0.17114056035574471 0 0.05041335121502992 0.14180488457339169 0 0.072407381218146202 0.1338548844673659 0 0.066929270391673679 0.14972388196993699 0 0.083458314839718675 0.14766846372663789 0 0.072407381218146202 0.1338548844673659 0 0.066929270391673679 0.14972388196993699 0 0.057274170411231319 0.16056039084828741 0 0.066929270391673679 0.14972388196993699 0 0.073753631423299992 0.17114056035574471 0 0.062821006258615447 0.19485818696382809 0 0.079510628092550037 0.1915210559445123 0 0.073753631423299992 0.17114056035574471 0 0.054798808724612937 0.17600131707032279 0 0.062821006258615447 0.19485818696382809 0 0.073753631423299992 0.17114056035574471 0 0.062821006258615447 0.19485818696382809 0 0.073753631423299992 0.17114056035574471 0 0.079510628092550037 0.1915210559445123 0 0.073753631423299992 0.17114056035574471 0 0.087469291979700353 0.1769557551107758 0 0.079510628092550037 0.1915210559445123 0 0.094972308178221165 0.18842945490417529 0 0.087469291979700353 0.1769557551107758 0 0.073753631423299992 0.17114056035574471 0 0.087469291979700353 0.1769557551107758 0 0.090014862491354125 0.16180648796889421 0 0.083458314839718675 0.14766846372663789 0 0.073753631423299992 0.17114056035574471 0 0.083458314839718675 0.14766846372663789 0 0.073753631423299992 0.17114056035574471 0 0.090014862491354125 0.16180648796889421 0 0.087469291979700353 0.1769557551107758 0 0.090014862491354125 0.16180648796889421 0 0.09909502971307646 0.1718812163805527 0 0.09909502971307646 0.1718812163805527 0 0.1155192942417383 0.1670213027616286 0 0.1032177512479316 0.15533297785693009 0 0.09909502971307646 0.1718812163805527 0 0.1032177512479316 0.15533297785693009 0 0.090014862491354125 0.16180648796889421 0 0.09909502971307646 0.1718812163805527 0 0.1032177512479316 0.15533297785693009 0 0.09909502971307646 0.1718812163805527 0 0.1110883931902614 0.1852070039859488 0 0.1155192942417383 0.1670213027616286 0 0.094972308178221165 0.18842945490417529 0 0.087469291979700353 0.1769557551107758 0 0.09909502971307646 0.1718812163805527 0 0.094972308178221165 0.18842945490417529 0 0.1110883931902614 0.1852070039859488 0 0.094972308178221165 0.18842945490417529 0 0.09909502971307646 0.1718812163805527 0 0.094972308178221165 0.18842945490417529 0 0.09909502971307646 0.1718812163805527 0 0.1110883931902614 0.1852070039859488 0 0.1110883931902614 0.1852070039859488 0 0.1272044782023018 0.1819845530677229 0 0.1110883931902614 0.1852070039859488 0 0.1155192942417383 0.1670213027616286 0 0.1272044782023018 0.1819845530677229 0 0.1155192942417383 0.1670213027616286 0 0.1163926165001576 0.15133259959457099 0 0.13232833694797941 0.15390412610695459 0 0.1155192942417383 0.1670213027616286 0 0.1163926165001576 0.15133259959457099 0 0.1032177512479316 0.15533297785693009 0 0.1163926165001576 0.15133259959457099 0 0.1061729730633013 0.13959022436578081 0 0.1221422126460876 0.13787587359298051 0 0.1163926165001576 0.15133259959457099 0 0.1221422126460876 0.13787587359298051 0 0.13232833694797941 0.15390412610695459 0 0.1163926165001576 0.15133259959457099 0 0.1032177512479316 0.15533297785693009 0 0.1061729730633013 0.13959022436578081 0 0.1032177512479316 0.15533297785693009 0 0.095660959804740986 0.1473850715954973 0 0.1061729730633013 0.13959022436578081 0 0.095660959804740986 0.1473850715954973 0 0.095710321917596916 0.13557852172903961 0 0.1061729730633013 0.13959022436578081 0 0.090014862491354125 0.16180648796889421 0 0.1032177512479316 0.15533297785693009 0 0.095660959804740986 0.1473850715954973 0 0.093162998256136331 0.1241963670975304 0 0.09745033578185866 0.12940643628101009 0 0.095710321917596916 0.13557852172903961 0 0.09745033578185866 0.12940643628101009 0 0.095710321917596916 0.13557852172903961 0 0.1028282210092059 0.13040291573373039 0 0.10262549360193481 0.12298499605864981 0 0.099980036765157404 0.12674688537044221 0 0.095660805844260066 0.12529610217238801 0 0.099980036765157404 0.12674688537044221 0 0.095660805844260066 0.12529610217238801 0 0.09745033578185866 0.12940643628101009 0 0.099980036765157404 0.12674688537044221 0 0.09745033578185866 0.12940643628101009 0 0.1028282210092059 0.13040291573373039 0 0.093162998256136331 0.1241963670975304 0 0.095660805844260066 0.12529610217238801 0 0.09745033578185866 0.12940643628101009 0 0.095710321917596916 0.13557852172903961 0 0.1061729730633013 0.13959022436578081 0 0.1028282210092059 0.13040291573373039 0 0.10262549360193481 0.12298499605864981 0 0.1118384908630341 0.1247669536496753 0 0.1028282210092059 0.13040291573373039 0 0.1118384908630341 0.1247669536496753 0 0.1061729730633013 0.13959022436578081 0 0.1028282210092059 0.13040291573373039 0 0.10262549360193481 0.12298499605864981 0 0.099980036765157404 0.12674688537044221 0 0.1028282210092059 0.13040291573373039 0 0.1118384908630341 0.1247669536496753 0 0.1061729730633013 0.13959022436578081 0 0.1221422126460876 0.13787587359298051 0 0.1118384908630341 0.1247669536496753 0 0.1221422126460876 0.13787587359298051 0 0.12591725066788861 0.1224849421901677 0 0.1221422126460876 0.13787587359298051 0 0.13745219569365461 0.1258236991461858 0 0.13232833694797941 0.15390412610695459 0 0.13745219569365461 0.1258236991461858 0 0.13232833694797941 0.15390412610695459 0 0.1221422126460876 0.13787587359298051 0 0.13745219569365461 0.1258236991461858 0 0.1221422126460876 0.13787587359298051 0 0.13745219569365461 0.1258236991461858 0 0.12591725066788861 0.1224849421901677 0 0.1540132314401286 0.14769103185109689 0 0.14486492495547579 0.11998832324061739 0 0.13745219569365461 0.1258236991461858 0 0.1540132314401286 0.14769103185109689 0 0.14486492495547579 0.11998832324061739 0 0.1539850195189634 0.12941322016359741 0 0.1540132314401286 0.14769103185109689 0 0.14486492495547579 0.11998832324061739 0 0.13745219569365461 0.1258236991461858 0 0.1540132314401286 0.14769103185109689 0 0.13232833694797941 0.15390412610695459 0 0.1540132314401286 0.14769103185109689 0 0.13232833694797941 0.15390412610695459 0 0.1463944733060952 0.1620488742904074 0 0.13232833694797941 0.15390412610695459 0 0.1272044782023018 0.1819845530677229 0 0.1155192942417383 0.1670213027616286 0 0.13232833694797941 0.15390412610695459 0 0.1272044782023018 0.1819845530677229 0 0.13232833694797941 0.15390412610695459 0 0.1272044782023018 0.1819845530677229 0 0.1463944733060952 0.1620488742904074 0 0.1272044782023018 0.1819845530677229 0 0.14569291205842949 0.17828774515117651 0 0.1272044782023018 0.1819845530677229 0 0.14569291205842949 0.17828774515117651 0 0.1386264915501787 0.1910277198831454 0 0.1272044782023018 0.1819845530677229 0 0.14569291205842949 0.17828774515117651 0 0.1463944733060952 0.1620488742904074 0 0.14569291205842949 0.17828774515117651 0 0.16418134591455719 0.17459093723463001 0 0.14569291205842949 0.17828774515117651 0 0.15622730400227819 0.18702681509838509 0 0.16418134591455719 0.17459093723463001 0 0.14569291205842949 0.17828774515117651 0 0.15622730400227819 0.18702681509838509 0 0.1386264915501787 0.1910277198831454 0 0.1540132314401286 0.14769103185109689 0 0.1463944733060952 0.1620488742904074 0 0.16418134591455719 0.17459093723463001 0 0.14569291205842949 0.17828774515117651 0 0.1463944733060952 0.1620488742904074 0 0.16418134591455719 0.17459093723463001 0 0.1540132314401286 0.14769103185109689 0 0.16418134591455719 0.17459093723463001 0 0.1540132314401286 0.14769103185109689 0 0.16418134591455719 0.17459093723463001 0 0.18252296049673619 0.1487964474718973 0 0.15622730400227819 0.18702681509838509 0 0.16418134591455719 0.17459093723463001 0 0.1715731297458396 0.19414601661310821 0 0.16418134591455719 0.17459093723463001 0 0.1715731297458396 0.19414601661310821 0 0.16418134591455719 0.17459093723463001 0 0.1860620182394721 0.17021584287566241 0 0.16418134591455719 0.17459093723463001 0 0.1860620182394721 0.17021584287566241 0 0.1715731297458396 0.19414601661310821 0 0.1860620182394721 0.17021584287566241 0 0.1715731297458396 0.19414601661310821 0 0.1934325787367652 0.1898311453390174 0 0.16418134591455719 0.17459093723463001 0 0.1860620182394721 0.17021584287566241 0 0.18252296049673619 0.1487964474718973 0 0.18252296049673619 0.1487964474718973 0 0.173216804714551 0.12918239909511001 0 0.20156868447362611 0.1383764749496029 0 0.173216804714551 0.12918239909511001 0 0.20156868447362611 0.1383764749496029 0 0.1539850195189634 0.12941322016359741 0 0.173216804714551 0.12918239909511001 0 0.14486492495547579 0.11998832324061739 0 0.1539850195189634 0.12941322016359741 0 0.1540132314401286 0.14769103185109689 0 0.173216804714551 0.12918239909511001 0 0.1540132314401286 0.14769103185109689 0 0.18252296049673619 0.1487964474718973 0 0.173216804714551 0.12918239909511001 0 0.13637960325121459 0.23405500250524669 0 0.16048528187025701 0.23476608104578439 0 0.14383041430382559 0.2509255099306516 0 0.16048528187025701 0.23476608104578439 0 0.14383041430382559 0.2509255099306516 0 0.15460578323957749 0.26216636583925079 0 0.13637960325121459 0.23405500250524669 0 0.14383041430382559 0.2509255099306516 0 0.13155980613391771 0.2555871695969536 0 0.13637960325121459 0.23405500250524669 0 0.1142858253276592 0.25278300916957203 0 0.13155980613391771 0.2555871695969536 0 0.122898260577421 0.20558403843500589 0 0.1185920429525401 0.2291835238022889 0 0.13637960325121459 0.23405500250524669 0 0.122898260577421 0.20558403843500589 0 0.13637960325121459 0.23405500250524669 0 0.14802246745494699 0.21812669230714141 0 0.13637960325121459 0.23405500250524669 0 0.14802246745494699 0.21812669230714141 0 0.16048528187025701 0.23476608104578439 0 0.14802246745494699 0.21812669230714141 0 0.15011542548371751 0.20108357462722931 0 0.16183224362637619 0.21236469211697009 0 0.122898260577421 0.20558403843500589 0 0.14802246745494699 0.21812669230714141 0 0.15011542548371751 0.20108357462722931 0 0.122898260577421 0.20558403843500589 0 0.1386264915501787 0.1910277198831454 0 0.15011542548371751 0.20108357462722931 0 0.122898260577421 0.20558403843500589 0 0.1272044782023018 0.1819845530677229 0 0.1386264915501787 0.1910277198831454 0 0.122898260577421 0.20558403843500589 0 0.1272044782023018 0.1819845530677229 0 0.15622730400227819 0.18702681509838509 0 0.1386264915501787 0.1910277198831454 0 0.15011542548371751 0.20108357462722931 0 0.15622730400227819 0.18702681509838509 0 0.15011542548371751 0.20108357462722931 0 0.1715731297458396 0.19414601661310821 0 0.15011542548371751 0.20108357462722931 0 0.1715731297458396 0.19414601661310821 0 0.16183224362637619 0.21236469211697009 0 0.1715731297458396 0.19414601661310821 0 0.17896491357711969 0.21370109599158729 0 0.1934325787367652 0.1898311453390174 0 0.1715731297458396 0.19414601661310821 0 0.17896491357711969 0.21370109599158729 0 0.1715731297458396 0.19414601661310821 0 0.17896491357711969 0.21370109599158729 0 0.16183224362637619 0.21236469211697009 0 0.17896491357711969 0.21370109599158729 0 0.16183224362637619 0.21236469211697009 0 0.16048528187025701 0.23476608104578439 0 0.14802246745494699 0.21812669230714141 0 0.16183224362637619 0.21236469211697009 0 0.16048528187025701 0.23476608104578439 0 0.17896491357711969 0.21370109599158729 0 0.18635669740839689 0.2332561753700674 0 0.17896491357711969 0.21370109599158729 0 0.18635669740839689 0.2332561753700674 0 0.16048528187025701 0.23476608104578439 0 0.18635669740839689 0.2332561753700674 0 0.16048528187025701 0.23476608104578439 0 0.17314797272478011 0.2550259744686178 0 0.18635669740839689 0.2332561753700674 0 0.17314797272478011 0.2550259744686178 0 0.18231411620178309 0.25385363295164209 0 0.18635669740839689 0.2332561753700674 0 0.18231411620178309 0.25385363295164209 0 0.189551943328616 0.25174004900009123 0 0.18635669740839689 0.2332561753700674 0 0.17314797272478011 0.2550259744686178 0 0.21672450977678229 0.23720686088802539 0 0.2045968088131998 0.23304822964118921 0 0.19623040412247419 0.25678864196592399 0 0.18635669740839689 0.2332561753700674 0 0.19623040412247419 0.25678864196592399 0 0.18635669740839689 0.2332561753700674 0 0.2045968088131998 0.23304822964118921 0 0.19623040412247419 0.25678864196592399 0 0.2045968088131998 0.23304822964118921 0 0.19623040412247419 0.25678864196592399 0 0.18635669740839689 0.2332561753700674 0 0.189551943328616 0.25174004900009123 0 0.19623040412247419 0.25678864196592399 0 0.18635669740839689 0.2332561753700674 0 0.20080313923405621 0.2094464478023729 0 0.18635669740839689 0.2332561753700674 0 0.2045968088131998 0.23304822964118921 0 0.20080313923405621 0.2094464478023729 0 0.17896491357711969 0.21370109599158729 0 0.18635669740839689 0.2332561753700674 0 0.20080313923405621 0.2094464478023729 0 0.2045968088131998 0.23304822964118921 0 0.21296321350392591 0.20930781731645479 0 0.2045968088131998 0.23304822964118921 0 0.21472552396665931 0.2232732931635277 0 0.21296321350392591 0.20930781731645479 0 0.21672450977678229 0.23720686088802539 0 0.2045968088131998 0.23304822964118921 0 0.21472552396665931 0.2232732931635277 0 0.2045968088131998 0.23304822964118921 0 0.21296321350392591 0.20930781731645479 0 0.20080313923405621 0.2094464478023729 0 0.21472552396665931 0.2232732931635277 0 0.21296321350392591 0.20930781731645479 0 0.2279184293619739 0.21059458948927071 0 0.17896491357711969 0.21370109599158729 0 0.20080313923405621 0.2094464478023729 0 0.1934325787367652 0.1898311453390174 0 0.20080313923405621 0.2094464478023729 0 0.1934325787367652 0.1898311453390174 0 0.215249581059717 0.18563672023467931 0 0.20080313923405621 0.2094464478023729 0 0.215249581059717 0.18563672023467931 0 0.21296321350392591 0.20930781731645479 0 0.22132961819465199 0.18556740499172031 0 0.21296321350392591 0.20930781731645479 0 0.215249581059717 0.18563672023467931 0 0.22132961819465199 0.18556740499172031 0 0.21296321350392591 0.20930781731645479 0 0.20080313923405621 0.2094464478023729 0 0.215249581059717 0.18563672023467931 0 0.2279184293619739 0.21059458948927071 0 0.23911234894716549 0.18398231809051591 0 0.21296321350392591 0.20930781731645479 0 0.2279184293619739 0.21059458948927071 0 0.22132961819465199 0.18556740499172031 0 0.2279184293619739 0.21059458948927071 0 0.22132961819465199 0.18556740499172031 0 0.23911234894716549 0.18398231809051591 0 0.2279184293619739 0.21059458948927071 0 0.23911234894716549 0.18398231809051591 0 0.25828688890745899 0.20523855093014351 0 0.2279184293619739 0.21059458948927071 0 0.25207482369939532 0.22432082290178659 0 0.25828688890745899 0.20523855093014351 0 0.21672450977678229 0.23720686088802539 0 0.2279184293619739 0.21059458948927071 0 0.21672450977678229 0.23720686088802539 0 0.21472552396665931 0.2232732931635277 0 0.2279184293619739 0.21059458948927071 0 0.21672450977678229 0.23720686088802539 0 0.2279184293619739 0.21059458948927071 0 0.2369380556066662 0.2338402391918703 0 0.2369380556066662 0.2338402391918703 0 0.25178732403818582 0.24038390480915409 0 0.25207482369939532 0.22432082290178659 0 0.2279184293619739 0.21059458948927071 0 0.2369380556066662 0.2338402391918703 0 0.25207482369939532 0.22432082290178659 0 0.2369380556066662 0.2338402391918703 0 0.2393105250387596 0.2522611276579797 0 0.25178732403818582 0.24038390480915409 0 0.21672450977678229 0.23720686088802539 0 0.2369380556066662 0.2338402391918703 0 0.2393105250387596 0.2522611276579797 0 0.20156868447362611 0.1383764749496029 0 0.20794269056438691 0.16584074851669439 0 0.22130014363195219 0.1430289090114607 0 0.20156868447362611 0.1383764749496029 0 0.22130014363195219 0.1430289090114607 0 0.21737186285805241 0.1219470289354936 0 0.173216804714551 0.12918239909511001 0 0.20156868447362611 0.1383764749496029 0 0.19526257351409601 0.109833233972427 0 0.18252296049673619 0.1487964474718973 0 0.20156868447362611 0.1383764749496029 0 0.20794269056438691 0.16584074851669439 0 0.1860620182394721 0.17021584287566241 0 0.18252296049673619 0.1487964474718973 0 0.20794269056438691 0.16584074851669439 0 0.1860620182394721 0.17021584287566241 0 0.20794269056438691 0.16584074851669439 0 0.1860620182394721 0.17021584287566241 0 0.1934325787367652 0.1898311453390174 0 0.20794269056438691 0.16584074851669439 0 0.1934325787367652 0.1898311453390174 0 0.215249581059717 0.18563672023467931 0 0.20794269056438691 0.16584074851669439 0 0.215249581059717 0.18563672023467931 0 0.20794269056438691 0.16584074851669439 0 0.22969602288537799 0.1618269926669858 0 0.20794269056438691 0.16584074851669439 0 0.22969602288537799 0.1618269926669858 0 0.22130014363195219 0.1430289090114607 0 0.20794269056438691 0.16584074851669439 0 0.22969602288537799 0.1618269926669858 0 0.22969602288537799 0.1618269926669858 0 0.22132961819465199 0.18556740499172031 0 0.215249581059717 0.18563672023467931 0 0.22969602288537799 0.1618269926669858 0 0.215249581059717 0.18563672023467931 0 0.22969602288537799 0.1618269926669858 0 0.22132961819465199 0.18556740499172031 0 0.22969602288537799 0.1618269926669858 0 0.22132961819465199 0.18556740499172031 0 0.23911234894716549 0.18398231809051591 0 0.23911234894716549 0.18398231809051591 0 0.25030626853235921 0.15737004669176199 0 0.22969602288537799 0.1618269926669858 0 0.25030626853235921 0.15737004669176199 0 0.22969602288537799 0.1618269926669858 0 0.23911234894716549 0.18398231809051591 0 0.25030626853235921 0.15737004669176199 0 0.23911234894716549 0.18398231809051591 0 0.25030626853235921 0.15737004669176199 0 0.25987944224844078 0.17121165013060241 0 0.22969602288537799 0.1618269926669858 0 0.2447811059941758 0.13696469622811419 0 0.22969602288537799 0.1618269926669858 0 0.23948115220200791 0.13406082389856189 0 0.2447811059941758 0.13696469622811419 0 0.24876803286489191 0.1391491542580969 0 0.25030626853235921 0.15737004669176199 0 0.22969602288537799 0.1618269926669858 0 0.23948115220200791 0.13406082389856189 0 0.2447811059941758 0.13696469622811419 0 0.22969602288537799 0.1618269926669858 0 0.2447811059941758 0.13696469622811419 0 0.25030626853235921 0.15737004669176199 0 0.22969602288537799 0.1618269926669858 0 0.22130014363195219 0.1430289090114607 0 0.23948115220200791 0.13406082389856189 0 0.23948115220200791 0.13406082389856189 0 0.2349934011527062 0.12407489059266311 0 0.21737186285805241 0.1219470289354936 0 0.23948115220200791 0.13406082389856189 0 0.21737186285805241 0.1219470289354936 0 0.22130014363195219 0.1430289090114607 0 0.23948115220200791 0.13406082389856189 0 0.21737186285805241 0.1219470289354936 0 0.2403047459846524 0.13172380379125731 0 0.23948115220200791 0.13406082389856189 0 0.2349934011527062 0.12407489059266311 0 0.2403047459846524 0.13172380379125731 0 0.2447811059941758 0.13696469622811419 0 0.24467337365317851 0.12048232705927329 0 0.2403047459846524 0.13172380379125731 0 0.24467337365317851 0.12048232705927329 0 0.2349934011527062 0.12407489059266311 0 0.2403047459846524 0.13172380379125731 0 0.23948115220200791 0.13406082389856189 0 0.2447811059941758 0.13696469622811419 0 0.23948115220200791 0.13406082389856189 0 0.2447811059941758 0.13696469622811419 0 0.2403047459846524 0.13172380379125731 0 0.23948115220200791 0.13406082389856189 0 0.2447811059941758 0.13696469622811419 0 0.24876803286489191 0.1391491542580969 0 0.25526460598084039 0.13421800131591349 0 0.2447811059941758 0.13696469622811419 0 0.24876803286489191 0.1391491542580969 0 0.2447811059941758 0.13696469622811419 0 0.24467337365317851 0.12048232705927329 0 0.25729942365779379 0.1163327830709826 0 0.24467337365317851 0.12048232705927329 0 0.24659215389021069 0.1074838069439971 0 0.25729942365779379 0.1163327830709826 0 0.24467337365317851 0.12048232705927329 0 0.24659215389021069 0.1074838069439971 0 0.23313587106563899 0.1121604692787314 0 0.24467337365317851 0.12048232705927329 0 0.2349934011527062 0.12407489059266311 0 0.23313587106563899 0.1121604692787314 0 0.24659215389021069 0.1074838069439971 0 0.23574177984504169 0.097576267928121158 0 0.24861496505675079 0.093352472871679887 0 0.24659215389021069 0.1074838069439971 0 0.23574177984504169 0.097576267928121158 0 0.23313587106563899 0.1121604692787314 0 0.23574177984504169 0.097576267928121158 0 0.21919281441997071 0.1025335143195001 0 0.2270510856863108 0.084965352711788622 0 0.23574177984504169 0.097576267928121158 0 0.21919281441997071 0.1025335143195001 0 0.23313587106563899 0.1121604692787314 0 0.2349934011527062 0.12407489059266311 0 0.23313587106563899 0.1121604692787314 0 0.21737186285805241 0.1219470289354936 0 0.21919281441997071 0.1025335143195001 0 0.23313587106563899 0.1121604692787314 0 0.21737186285805241 0.1219470289354936 0 0.21737186285805241 0.1219470289354936 0 0.19526257351409601 0.109833233972427 0 0.21919281441997071 0.1025335143195001 0 0.21737186285805241 0.1219470289354936 0 0.19526257351409601 0.109833233972427 0 0.20156868447362611 0.1383764749496029 0 0.21737186285805241 0.1219470289354936 0 0.19526257351409601 0.109833233972427 0 0.21919281441997071 0.1025335143195001 0 0.2040021308314352 0.095118588900652348 0 0.19526257351409601 0.109833233972427 0 0.2040021308314352 0.095118588900652348 0 0.19526257351409601 0.109833233972427 0 0.19090309910878731 0.083746604070590883 0 0.19866524742871161 0.069582044471591165 0 0.19090309910878731 0.083746604070590883 0 0.18556921111166311 0.06086404877186341 0 0.19866524742871161 0.069582044471591165 0 0.19090309910878731 0.083746604070590883 0 0.2102818571146359 0.081270074471160553 0 0.2040021308314352 0.095118588900652348 0 0.19090309910878731 0.083746604070590883 0 0.2102818571146359 0.081270074471160553 0 0.21919281441997071 0.1025335143195001 0 0.2040021308314352 0.095118588900652348 0 0.2102818571146359 0.081270074471160553 0 0.19866524742871161 0.069582044471591165 0 0.2102818571146359 0.081270074471160553 0 0.21234115429724071 0.062130096294675773 0 0.2102818571146359 0.081270074471160553 0 0.222464206303921 0.071762141620959161 0 0.21234115429724071 0.062130096294675773 0 0.222464206303921 0.071762141620959161 0 0.231826429871302 0.058136797672779253 0 0.21234115429724071 0.062130096294675773 0 0.222464206303921 0.071762141620959161 0 0.2270510856863108 0.084965352711788622 0 0.23545122929913359 0.072627590506357823 0 0.222464206303921 0.071762141620959161 0 0.23545122929913359 0.072627590506357823 0 0.231826429871302 0.058136797672779253 0 0.21919281441997071 0.1025335143195001 0 0.2102818571146359 0.081270074471160553 0 0.2270510856863108 0.084965352711788622 0 0.2102818571146359 0.081270074471160553 0 0.222464206303921 0.071762141620959161 0 0.2270510856863108 0.084965352711788622 0 0.23574177984504169 0.097576267928121158 0 0.2270510856863108 0.084965352711788622 0 0.2406853680990842 0.084370528581440327 0 0.23574177984504169 0.097576267928121158 0 0.2406853680990842 0.084370528581440327 0 0.24861496505675079 0.093352472871679887 0 0.2270510856863108 0.084965352711788622 0 0.2406853680990842 0.084370528581440327 0 0.23545122929913359 0.072627590506357823 0 0.2406853680990842 0.084370528581440327 0 0.2480843117095122 0.072951059513355856 0 0.25209511555709518 0.083968923794558142 0 0.2406853680990842 0.084370528581440327 0 0.24861496505675079 0.093352472871679887 0 0.25209511555709518 0.083968923794558142 0 0.24190042697664649 0.065155229115515412 0 0.2480843117095122 0.072951059513355856 0 0.2522397370266381 0.056905468769568722 0 0.24190042697664649 0.065155229115515412 0 0.23545122929913359 0.072627590506357823 0 0.2480843117095122 0.072951059513355856 0 0.24190042697664649 0.065155229115515412 0 0.23545122929913359 0.072627590506357823 0 0.231826429871302 0.058136797672779253 0 0.2406853680990842 0.084370528581440327 0 0.23545122929913359 0.072627590506357823 0 0.2480843117095122 0.072951059513355856 0 0.23976497237292541 0.034986271741545859 0 0.231826429871302 0.058136797672779253 0 0.2522397370266381 0.056905468769568722 0 0.24190042697664649 0.065155229115515412 0 0.231826429871302 0.058136797672779253 0 0.2522397370266381 0.056905468769568722 0 0.23976497237292541 0.034986271741545859 0 0.2522397370266381 0.056905468769568722 0 0.23976497237292541 0.034986271741545859 0 0.21987643413602531 0.044525355683167789 0 0.231826429871302 0.058136797672779253 0 0.23976497237292541 0.034986271741545859 0 0.21987643413602531 0.044525355683167789 0 0.22080552875751741 0.028141572872842711 0 0.21987643413602531 0.044525355683167789 0 0.231826429871302 0.058136797672779253 0 0.21234115429724071 0.062130096294675773 0 0.24746525984786619 0.0085428549208306503 0 0.22539929913979101 -0.003291469267495586 0 0.23976497237292541 0.034986271741545859 0 0.24746525984786619 0.0085428549208306503 0 0.2595383551476918 0.037251251118012321 0 0.23976497237292541 0.034986271741545859 0 0.24746525984786619 0.0085428549208306503 0 0.2272902077192126 0.01306707471352297 0 0.23976497237292541 0.034986271741545859 0 0.2272902077192126 0.01306707471352297 0 0.23976497237292541 0.034986271741545859 0 0.22080552875751741 0.028141572872842711 0 0.2272902077192126 0.01306707471352297 0 0.22080552875751741 0.028141572872842711 0 0.2272902077192126 0.01306707471352297 0 0.2108662649403521 0.01430331909166002 0 0.2272902077192126 0.01306707471352297 0 0.21511281489557749 0.002430141183518409 0 0.22539929913979101 -0.003291469267495586 0 0.24746525984786619 0.0085428549208306503 0 0.2272902077192126 0.01306707471352297 0 0.22539929913979101 -0.003291469267495586 0 0.2272902077192126 0.01306707471352297 0 0.2108662649403521 0.01430331909166002 0 0.21511281489557749 0.002430141183518409 0 0.2108662649403521 0.01430331909166002 0 0.19918713171845051 0.01400601335626447 0 0.19968136566923081 -0.0029061045851367742 0 0.2108662649403521 0.01430331909166002 0 0.21511281489557749 0.002430141183518409 0 0.19968136566923081 -0.0029061045851367742 0 0.22080552875751741 0.028141572872842711 0 0.2108662649403521 0.01430331909166002 0 0.20491645712208181 0.032243884240301439 0 0.2108662649403521 0.01430331909166002 0 0.19918713171845051 0.01400601335626447 0 0.20491645712208181 0.032243884240301439 0 0.19047337004628709 0.020255445266243691 0 0.19918713171845051 0.01400601335626447 0 0.20491645712208181 0.032243884240301439 0 0.19047337004628709 0.020255445266243691 0 0.20491645712208181 0.032243884240301439 0 0.19276851334568451 0.031561646922317659 0 0.19047337004628709 0.020255445266243691 0 0.20491645712208181 0.032243884240301439 0 0.19047337004628709 0.020255445266243691 0 0.19276851334568451 0.031561646922317659 0 0.18002189129298329 0.022905470073567549 0 0.19918713171845051 0.01400601335626447 0 0.18999820081430099 0.0061335227682539793 0 0.19968136566923081 -0.0029061045851367742 0 0.19047337004628709 0.020255445266243691 0 0.19918713171845051 0.01400601335626447 0 0.18999820081430099 0.0061335227682539793 0 0.21987643413602531 0.044525355683167789 0 0.21234115429724071 0.062130096294675773 0 0.19767401172005 0.047550071283078012 0 0.21987643413602531 0.044525355683167789 0 0.22080552875751741 0.028141572872842711 0 0.20491645712208181 0.032243884240301439 0 0.21987643413602531 0.044525355683167789 0 0.20491645712208181 0.032243884240301439 0 0.19767401172005 0.047550071283078012 0 0.20491645712208181 0.032243884240301439 0 0.19276851334568451 0.031561646922317659 0 0.19767401172005 0.047550071283078012 0 0.19276851334568451 0.031561646922317659 0 0.19767401172005 0.047550071283078012 0 0.18401349961547361 0.037543933854949689 0 0.19767401172005 0.047550071283078012 0 0.18556921111166311 0.06086404877186341 0 0.18401349961547361 0.037543933854949689 0 0.19866524742871161 0.069582044471591165 0 0.19767401172005 0.047550071283078012 0 0.18556921111166311 0.06086404877186341 0 0.19866524742871161 0.069582044471591165 0 0.21234115429724071 0.062130096294675773 0 0.19767401172005 0.047550071283078012 0 0.1727222064039039 0.050787185464868149 0 0.18556921111166311 0.06086404877186341 0 0.18401349961547361 0.037543933854949689 0 0.1727222064039039 0.050787185464868149 0 0.18556921111166311 0.06086404877186341 0 0.16676116418316281 0.062861904398928969 0 0.1727222064039039 0.050787185464868149 0 0.18401349961547361 0.037543933854949689 0 0.16846834898467131 0.034682362107571703 0 0.18401349961547361 0.037543933854949689 0 0.16846834898467131 0.034682362107571703 0 0.18002189129298329 0.022905470073567549 0 0.16846834898467131 0.034682362107571703 0 0.15589022238822861 0.0247772637161718 0 0.1506246951124936 0.053634080700235481 0 0.1727222064039039 0.050787185464868149 0 0.16846834898467131 0.034682362107571703 0 0.1506246951124936 0.053634080700235481 0 0.1727222064039039 0.050787185464868149 0 0.1506246951124936 0.053634080700235481 0 0.16676116418316281 0.062861904398928969 0 0.18999820081430099 0.0061335227682539793 0 0.1760302829704927 0.0082670062921855296 0 0.185053587794585 -0.0054068720776893706 0 0.19047337004628709 0.020255445266243691 0 0.18999820081430099 0.0061335227682539793 0 0.1760302829704927 0.0082670062921855296 0 0.19047337004628709 0.020255445266243691 0 0.1760302829704927 0.0082670062921855296 0 0.1760302829704927 0.0082670062921855296 0 0.18002189129298329 0.022905470073567549 0 0.16846834898467131 0.034682362107571703 0 0.18002189129298329 0.022905470073567549 0 0.16831329906006801 0.017310509784320929 0 0.1760302829704927 0.0082670062921855296 0 0.18002189129298329 0.022905470073567549 0 0.16831329906006801 0.017310509784320929 0 0.19047337004628709 0.020255445266243691 0 0.1760302829704927 0.0082670062921855296 0 0.18002189129298329 0.022905470073567549 0 0.19276851334568451 0.031561646922317659 0 0.18401349961547361 0.037543933854949689 0 0.18002189129298329 0.022905470073567549 0 0.18401349961547361 0.037543933854949689 0 0.18002189129298329 0.022905470073567549 0 0.16846834898467131 0.034682362107571703 0 0.16831329906006801 0.017310509784320929 0 0.15589022238822861 0.0247772637161718 0 0.16831329906006801 0.017310509784320929 0 0.15589022238822861 0.0247772637161718 0 0.16115574966396809 -0.0040795532678909443 0 0.15589022238822861 0.0247772637161718 0 0.16115574966396809 -0.0040795532678909443 0 0.1760302829704927 0.0082670062921855296 0 0.16831329906006801 0.017310509784320929 0 0.16115574966396809 -0.0040795532678909443 0 0.1760302829704927 0.0082670062921855296 0 0.16115574966396809 -0.0040795532678909443 0 0.1494657066715751 0.010137863502540241 0 0.15589022238822861 0.0247772637161718 0 0.16115574966396809 -0.0040795532678909443 0 0.14361256430973879 0.002177230718157321 0 0.1494657066715751 0.010137863502540241 0 0.16115574966396809 -0.0040795532678909443 0 0.14361256430973879 0.002177230718157321 0 0.1494657066715751 0.010137863502540241 0 0.13720429032436421 0.01767651284372147 0 0.15589022238822861 0.0247772637161718 0 0.13720429032436421 0.01767651284372147 0 0.1385785349272684 0.046081831913429377 0 0.1494657066715751 0.010137863502540241 0 0.15589022238822861 0.0247772637161718 0 0.13720429032436421 0.01767651284372147 0 0.13720429032436421 0.01767651284372147 0 0.12875803810089551 0.038104922492593063 0 0.12598116292572639 0.02421784844981693 0 0.13720429032436421 0.01767651284372147 0 0.12875803810089551 0.038104922492593063 0 0.12598116292572639 0.02421784844981693 0 0.13647851187805399 0.002674839708144514 0 0.1191620246975521 0.0084359164153180715 0 0.13647851187805399 0.002674839708144514 0 0.12052097409862091 -0.0066076135460219889 0 0.12598116292572639 0.02421784844981693 0 0.13720429032436421 0.01767651284372147 0 0.13647851187805399 0.002674839708144514 0 0.1191620246975521 0.0084359164153180715 0 0.12598116292572639 0.02421784844981693 0 0.13647851187805399 0.002674839708144514 0 0.14361256430973879 0.002177230718157321 0 0.13720429032436421 0.01767651284372147 0 0.13720429032436421 0.01767651284372147 0 0.13647851187805399 0.002674839708144514 0 0.14361256430973879 0.002177230718157321 0 0.13720429032436421 0.01767651284372147 0 0.13647851187805399 0.002674839708144514 0 0.1506246951124936 0.053634080700235481 0 0.1385785349272684 0.046081831913429377 0 0.1361611143486135 0.058161042103930929 0 0.1506246951124936 0.053634080700235481 0 0.1361611143486135 0.058161042103930929 0 0.1385004678327916 0.066808064961385485 0 0.15589022238822861 0.0247772637161718 0 0.1506246951124936 0.053634080700235481 0 0.1385785349272684 0.046081831913429377 0 0.15589022238822861 0.0247772637161718 0 0.1506246951124936 0.053634080700235481 0 0.13720429032436421 0.01767651284372147 0 0.1385785349272684 0.046081831913429377 0 0.13720429032436421 0.01767651284372147 0 0.1385785349272684 0.046081831913429377 0 0.12875803810089551 0.038104922492593063 0 0.1385785349272684 0.046081831913429377 0 0.12875803810089551 0.038104922492593063 0 0.13025329660627899 0.052076322378381917 0 0.1203117858774304 0.058533332141466138 0 0.12875803810089551 0.038104922492593063 0 0.13025329660627899 0.052076322378381917 0 0.1385785349272684 0.046081831913429377 0 0.13025329660627899 0.052076322378381917 0 0.1361611143486135 0.058161042103930929 0 0.1361611143486135 0.058161042103930929 0 0.12802629524595011 0.059896385033824252 0 0.1307098378877822 0.065871898262859829 0 0.1203117858774304 0.058533332141466138 0 0.13025329660627899 0.052076322378381917 0 0.12802629524595011 0.059896385033824252 0 0.13025329660627899 0.052076322378381917 0 0.1361611143486135 0.058161042103930929 0 0.12802629524595011 0.059896385033824252 0 0.12269544150965531 0.064839330282485258 0 0.12964752397831039 0.073882406055600564 0 0.13142414888542589 0.087931261743246267 0 0.12964752397831039 0.073882406055600564 0 0.1385004678327916 0.066808064961385485 0 0.1453591678367602 0.082490897684299597 0 0.12269544150965531 0.064839330282485258 0 0.12802629524595011 0.059896385033824252 0 0.1307098378877822 0.065871898262859829 0 0.12269544150965531 0.064839330282485258 0 0.1307098378877822 0.065871898262859829 0 0.12964752397831039 0.073882406055600564 0 0.12269544150965531 0.064839330282485258 0 0.13142414888542589 0.087931261743246267 0 0.12269544150965531 0.064839330282485258 0 0.12964752397831039 0.073882406055600564 0 0.12964752397831039 0.073882406055600564 0 0.13531246325865129 0.081251201721248986 0 0.1307098378877822 0.065871898262859829 0 0.12964752397831039 0.073882406055600564 0 0.1385004678327916 0.066808064961385485 0 0.1361611143486135 0.058161042103930929 0 0.1307098378877822 0.065871898262859829 0 0.1385004678327916 0.066808064961385485 0 0.1506246951124936 0.053634080700235481 0 0.1453591678367602 0.082490897684299597 0 0.15999791395868729 0.075103843159336492 0 0.1506246951124936 0.053634080700235481 0 0.1453591678367602 0.082490897684299597 0 0.1506246951124936 0.053634080700235481 0 0.1385004678327916 0.066808064961385485 0 0.1453591678367602 0.082490897684299597 0 0.1453591678367602 0.082490897684299597 0 0.15925622600344999 0.090105168346829745 0 0.1453591678367602 0.082490897684299597 0 0.15999791395868729 0.075103843159336492 0 0.15925622600344999 0.090105168346829745 0 0.12964752397831039 0.073882406055600564 0 0.1453591678367602 0.082490897684299597 0 0.13531246325865129 0.081251201721248986 0 0.12964752397831039 0.073882406055600564 0 0.1453591678367602 0.082490897684299597 0 0.1453591678367602 0.082490897684299597 0 0.13531246325865129 0.081251201721248986 0 0.13142414888542589 0.087931261743246267 0 0.12964752397831039 0.073882406055600564 0 0.13531246325865129 0.081251201721248986 0 0.13142414888542589 0.087931261743246267 0 0.1162760973220357 0.10023178141298671 0 0.13142414888542589 0.087931261743246267 0 0.12869506425262761 0.1049951383488585 0 0.1453591678367602 0.082490897684299597 0 0.13142414888542589 0.087931261743246267 0 0.14015285626118951 0.1110231932040099 0 0.13142414888542589 0.087931261743246267 0 0.14015285626118951 0.1110231932040099 0 0.13142414888542589 0.087931261743246267 0 0.12869506425262761 0.1049951383488585 0 0.14015285626118951 0.1110231932040099 0 0.1178100177304227 0.11121483550798129 0 0.12869506425262761 0.1049951383488585 0 0.13887162018464491 0.11804478725107651 0 0.1178100177304227 0.11121483550798129 0 0.12591725066788861 0.1224849421901677 0 0.13887162018464491 0.11804478725107651 0 0.1178100177304227 0.11121483550798129 0 0.13887162018464491 0.11804478725107651 0 0.12869506425262761 0.1049951383488585 0 0.14015285626118951 0.1110231932040099 0 0.13887162018464491 0.11804478725107651 0 0.14015285626118951 0.1110231932040099 0 0.13887162018464491 0.11804478725107651 0 0.13745219569365461 0.1258236991461858 0 0.12591725066788861 0.1224849421901677 0 0.13887162018464491 0.11804478725107651 0 0.13745219569365461 0.1258236991461858 0 0.13887162018464491 0.11804478725107651 0 0.13745219569365461 0.1258236991461858 0 0.13887162018464491 0.11804478725107651 0 0.14335679368229659 0.1194992596073709 0 0.14015285626118951 0.1110231932040099 0 0.14486492495547579 0.11998832324061739 0 0.15900910456280759 0.1088538811249882 0 0.13745219569365461 0.1258236991461858 0 0.14335679368229659 0.1194992596073709 0 0.14486492495547579 0.11998832324061739 0 0.13745219569365461 0.1258236991461858 0 0.14486492495547579 0.11998832324061739 0 0.13887162018464491 0.11804478725107651 0 0.14335679368229659 0.1194992596073709 0 0.14335679368229659 0.1194992596073709 0 0.14486492495547579 0.11998832324061739 0 0.14015285626118951 0.1110231932040099 0 0.14335679368229659 0.1194992596073709 0 0.14015285626118951 0.1110231932040099 0 0.14335679368229659 0.1194992596073709 0 0.14486492495547579 0.11998832324061739 0 0.14015285626118951 0.1110231932040099 0 0.13887162018464491 0.11804478725107651 0 0.14335679368229659 0.1194992596073709 0 0.14486492495547579 0.11998832324061739 0 0.15900910456280759 0.1088538811249882 0 0.14015285626118951 0.1110231932040099 0 0.15900910456280759 0.1088538811249882 0 0.15925622600344999 0.090105168346829745 0 0.1453591678367602 0.082490897684299597 0 0.14015285626118951 0.1110231932040099 0 0.15925622600344999 0.090105168346829745 0 0.1453591678367602 0.082490897684299597 0 0.14015285626118951 0.1110231932040099 0 0.15900910456280759 0.1088538811249882 0 0.17485208074188999 0.1119834873141744 0 0.17315328417013981 0.097719439009359754 0 0.15900910456280759 0.1088538811249882 0 0.17315328417013981 0.097719439009359754 0 0.15925622600344999 0.090105168346829745 0 0.15900910456280759 0.1088538811249882 0 0.17315328417013981 0.097719439009359754 0 0.17315328417013981 0.097719439009359754 0 0.15925622600344999 0.090105168346829745 0 0.173216804714551 0.12918239909511001 0 0.14486492495547579 0.11998832324061739 0 0.15900910456280759 0.1088538811249882 0 0.173216804714551 0.12918239909511001 0 0.15900910456280759 0.1088538811249882 0 0.17485208074188999 0.1119834873141744 0 0.173216804714551 0.12918239909511001 0 0.14486492495547579 0.11998832324061739 0 0.173216804714551 0.12918239909511001 0 0.19526257351409601 0.109833233972427 0 0.17485208074188999 0.1119834873141744 0 0.19526257351409601 0.109833233972427 0 0.19090309910878731 0.083746604070590883 0 0.17315328417013981 0.097719439009359754 0 0.19526257351409601 0.109833233972427 0 0.17315328417013981 0.097719439009359754 0 0.19526257351409601 0.109833233972427 0 0.17485208074188999 0.1119834873141744 0 0.17315328417013981 0.097719439009359754 0 0.19090309910878731 0.083746604070590883 0 0.1739648914840515 0.073898621891626867 0 0.17089924521466621 0.08523452945460519 0 0.19090309910878731 0.083746604070590883 0 0.17315328417013981 0.097719439009359754 0 0.17089924521466621 0.08523452945460519 0 0.19090309910878731 0.083746604070590883 0 0.17315328417013981 0.097719439009359754 0 0.18556921111166311 0.06086404877186341 0 0.1739648914840515 0.073898621891626867 0 0.16676116418316281 0.062861904398928969 0 0.19090309910878731 0.083746604070590883 0 0.18556921111166311 0.06086404877186341 0 0.1739648914840515 0.073898621891626867 0 0.1739648914840515 0.073898621891626867 0 0.16676116418316281 0.062861904398928969 0 0.15999791395868729 0.075103843159336492 0 0.1506246951124936 0.053634080700235481 0 0.16676116418316281 0.062861904398928969 0 0.15999791395868729 0.075103843159336492 0 0.1739648914840515 0.073898621891626867 0 0.15999791395868729 0.075103843159336492 0 0.17089924521466621 0.08523452945460519 0 0.15999791395868729 0.075103843159336492 0 0.15925622600344999 0.090105168346829745 0 0.17089924521466621 0.08523452945460519 0 0.17315328417013981 0.097719439009359754 0 0.15925622600344999 0.090105168346829745 0 0.17089924521466621 0.08523452945460519 0 0.1095986504424994 0.48036225317159897 0 0.098719335235949959 0.4663610050451546 0 0.090867580320622809 0.47429750451713859 0 0.1095986504424994 0.48036225317159897 0 0.090867580320622809 0.47429750451713859 0 0.086717908386922365 0.48603496083916059 0 0.1095986504424994 0.48036225317159897 0 0.1128148027898503 0.4617472099399591 0 0.098719335235949959 0.4663610050451546 0 0.096752070421184722 0.5 0 0.1095986504424994 0.48036225317159897 0 0.086717908386922365 0.48603496083916059 0 0.12432820441761661 0.5 0 0.1095986504424994 0.48036225317159897 0 0.13396438461794399 0.48549093095616741 0 0.096752070421184722 0.5 0 0.12432820441761661 0.5 0 0.1095986504424994 0.48036225317159897 0 0.1095986504424994 0.48036225317159897 0 0.12739285513161719 0.46936070920994732 0 0.13396438461794399 0.48549093095616741 0 0.1095986504424994 0.48036225317159897 0 0.1128148027898503 0.4617472099399591 0 0.12739285513161719 0.46936070920994732 0 0.1128148027898503 0.4617472099399591 0 0.12581727049103361 0.45184727258381452 0 0.12739285513161719 0.46936070920994732 0 0.1128148027898503 0.4617472099399591 0 0.1122207517955528 0.44622979507619492 0 0.12581727049103361 0.45184727258381452 0 0.1122207517955528 0.44622979507619492 0 0.1240675572909157 0.43647709985435379 0 0.12581727049103361 0.45184727258381452 0 0.1122207517955528 0.44622979507619492 0 0.11105916273292871 0.43284062951532037 0 0.1240675572909157 0.43647709985435379 0 0.097092730371080987 0.43939020630234787 0 0.1024729870975076 0.45507635226137372 0 0.089248045979560764 0.45630093074522871 0 0.1122207517955528 0.44622979507619492 0 0.097092730371080987 0.43939020630234787 0 0.1024729870975076 0.45507635226137372 0 0.1122207517955528 0.44622979507619492 0 0.097092730371080987 0.43939020630234787 0 0.11105916273292871 0.43284062951532037 0 0.1128148027898503 0.4617472099399591 0 0.1024729870975076 0.45507635226137372 0 0.098719335235949959 0.4663610050451546 0 0.1128148027898503 0.4617472099399591 0 0.1122207517955528 0.44622979507619492 0 0.1024729870975076 0.45507635226137372 0 0.1024729870975076 0.45507635226137372 0 0.098719335235949959 0.4663610050451546 0 0.089248045979560764 0.45630093074522871 0 0.089248045979560764 0.45630093074522871 0 0.079623299033476466 0.44274502533573201 0 0.075318621692991972 0.46633606943918687 0 0.098719335235949959 0.4663610050451546 0 0.089248045979560764 0.45630093074522871 0 0.083722133774500052 0.4680190827886217 0 0.083722133774500052 0.4680190827886217 0 0.075318621692991972 0.46633606943918687 0 0.089248045979560764 0.45630093074522871 0 0.083722133774500052 0.4680190827886217 0 0.075318621692991972 0.46633606943918687 0 0.097092730371080987 0.43939020630234787 0 0.089248045979560764 0.45630093074522871 0 0.079623299033476466 0.44274502533573201 0 0.074406143004535102 0.44304363552662829 0 0.075318621692991972 0.46633606943918687 0 0.05726110456407138 0.447960061856507 0 0.079623299033476466 0.44274502533573201 0 0.074406143004535102 0.44304363552662829 0 0.075318621692991972 0.46633606943918687 0 0.079623299033476466 0.44274502533573201 0 0.074406143004535102 0.44304363552662829 0 0.071383979533768779 0.42796147058037781 0 0.079623299033476466 0.44274502533573201 0 0.075318621692991972 0.46633606943918687 0 0.075318621692991972 0.46633606943918687 0 0.072247279058871267 0.48316803471958708 0 0.060075200374656162 0.47513033385441372 0 0.075318621692991972 0.46633606943918687 0 0.072247279058871267 0.48316803471958708 0 0.081743627220159903 0.47637422822242842 0 0.075318621692991972 0.46633606943918687 0 0.072247279058871267 0.48316803471958708 0 0.072247279058871267 0.48316803471958708 0 0.060075200374656162 0.47513033385441372 0 0.058340999978783288 0.48436331939784172 0 0.083722133774500052 0.4680190827886217 0 0.081743627220159903 0.47637422822242842 0 0.090867580320622809 0.47429750451713859 0 0.083722133774500052 0.4680190827886217 0 0.075318621692991972 0.46633606943918687 0 0.081743627220159903 0.47637422822242842 0 0.072247279058871267 0.48316803471958708 0 0.081743627220159903 0.47637422822242842 0 0.086717908386922365 0.48603496083916059 0 0.081743627220159903 0.47637422822242842 0 0.090867580320622809 0.47429750451713859 0 0.086717908386922365 0.48603496083916059 0 0.098719335235949959 0.4663610050451546 0 0.083722133774500052 0.4680190827886217 0 0.090867580320622809 0.47429750451713859 0 0.096752070421184722 0.5 0 0.086717908386922365 0.48603496083916059 0 0.06917593642475274 0.49999999999998779 0 0.072247279058871267 0.48316803471958708 0 0.06917593642475274 0.49999999999998779 0 0.06288892177307169 0.49172107139198229 0 0.072247279058871267 0.48316803471958708 0 0.06917593642475274 0.49999999999998779 0 0.072247279058871267 0.48316803471958708 0 0.086717908386922365 0.48603496083916059 0 0.06917593642475274 0.49999999999998779 0 0.072247279058871267 0.48316803471958708 0 0.06288892177307169 0.49172107139198229 0 0.058340999978783288 0.48436331939784172 0 0.06917593642475274 0.49999999999998779 0 0.053127905570023518 0.49756580693482122 0 0.0435223129831393 0.5 0 0.06917593642475274 0.49999999999998779 0 0.06288892177307169 0.49172107139198229 0 0.053127905570023518 0.49756580693482122 0 0.053127905570023518 0.49756580693482122 0 0.058340999978783288 0.48436331939784172 0 0.045392924034403863 0.48070388176339718 0 0.06288892177307169 0.49172107139198229 0 0.053127905570023518 0.49756580693482122 0 0.058340999978783288 0.48436331939784172 0 0.060075200374656162 0.47513033385441372 0 0.045392924034403863 0.48070388176339718 0 0.049076177108230458 0.46108036395205548 0 0.060075200374656162 0.47513033385441372 0 0.058340999978783288 0.48436331939784172 0 0.045392924034403863 0.48070388176339718 0 0.032574517141213753 0.47332198547068971 0 0.045392924034403863 0.48070388176339718 0 0.027853062682991672 0.49230898582413418 0 0.032574517141213753 0.47332198547068971 0 0.045392924034403863 0.48070388176339718 0 0.049076177108230458 0.46108036395205548 0 0.053127905570023518 0.49756580693482122 0 0.0435223129831393 0.5 0 0.027853062682991672 0.49230898582413418 0 0.053127905570023518 0.49756580693482122 0 0.045392924034403863 0.48070388176339718 0 0.027853062682991672 0.49230898582413418 0 0.053127905570023518 0.49756580693482122 0 0.027853062682991672 0.49230898582413418 0 0.0435223129831393 0.5 0 0.027853062682991672 0.49230898582413418 0 0.017868689541525751 0.50000000000000144 0 0.027853062682991672 0.49230898582413418 0 0.017716689356973989 0.476692037348937 0 0.0025782197959596351 0.48705216471344781 0 0.027853062682991672 0.49230898582413418 0 0.017868689541525751 0.50000000000000144 0 0.0025782197959596351 0.48705216471344781 0 0.032574517141213753 0.47332198547068971 0 0.027853062682991672 0.49230898582413418 0 0.017716689356973989 0.476692037348937 0 0.017716689356973989 0.476692037348937 0 0.0025782197959596351 0.48705216471344781 0 0.00474029898156135 0.46867440512690051 0 -0.0043479113537027896 0.47213461157433478 0 0.0025782197959596351 0.48705216471344781 0 0.00474029898156135 0.46867440512690051 0 0.027853062682991672 0.49230898582413418 0 0.0025782197959596351 0.48705216471344781 0 -0.0093043341943110924 0.5 0 0.017868689541525751 0.50000000000000144 0 0.0025782197959596351 0.48705216471344781 0 0.017868689541525751 0.50000000000000144 0 0.0025782197959596351 0.48705216471344781 0 -0.00055649961999283334 0.44146950287698272 0 0.02283373252346876 0.45582465846492409 0 0.017709044554186228 0.43480097630436543 0 -0.0034087120612929442 0.45056895297779281 0 -0.00055649961999283334 0.44146950287698272 0 0.02283373252346876 0.45582465846492409 0 -0.0034087120612929442 0.45056895297779281 0 0.0039172354096816339 0.45918515846397029 0 0.02283373252346876 0.45582465846492409 0 0.017716689356973989 0.476692037348937 0 0.00474029898156135 0.46867440512690051 0 0.02283373252346876 0.45582465846492409 0 0.0039172354096816339 0.45918515846397029 0 0.00474029898156135 0.46867440512690051 0 0.02283373252346876 0.45582465846492409 0 -0.0034087120612929442 0.45056895297779281 0 0.02283373252346876 0.45582465846492409 0 -0.0084963778050106287 0.4616726172862638 0 0.0039172354096816339 0.45918515846397029 0 0.00474029898156135 0.46867440512690051 0 0.032574517141213753 0.47332198547068971 0 0.017716689356973989 0.476692037348937 0 0.02283373252346876 0.45582465846492409 0 0.02283373252346876 0.45582465846492409 0 0.037631048449795632 0.44251567791554891 0 0.017709044554186228 0.43480097630436543 0 0.02283373252346876 0.45582465846492409 0 0.037631048449795632 0.44251567791554891 0 0.049076177108230458 0.46108036395205548 0 0.032574517141213753 0.47332198547068971 0 0.02283373252346876 0.45582465846492409 0 0.049076177108230458 0.46108036395205548 0 0.02283373252346876 0.45582465846492409 0 0.049076177108230458 0.46108036395205548 0 0.075318621692991972 0.46633606943918687 0 0.060075200374656162 0.47513033385441372 0 0.049076177108230458 0.46108036395205548 0 0.075318621692991972 0.46633606943918687 0 0.049076177108230458 0.46108036395205548 0 0.05726110456407138 0.447960061856507 0 0.075318621692991972 0.46633606943918687 0 0.049076177108230458 0.46108036395205548 0 0.037631048449795632 0.44251567791554891 0 0.049076177108230458 0.46108036395205548 0 0.05726110456407138 0.447960061856507 0 0.037631048449795632 0.44251567791554891 0 0.05726110456407138 0.447960061856507 0 0.049873532564803771 0.42682456244911521 0 0.074406143004535102 0.44304363552662829 0 0.05726110456407138 0.447960061856507 0 0.049873532564803771 0.42682456244911521 0 0.074406143004535102 0.44304363552662829 0 0.049873532564803771 0.42682456244911521 0 0.037631048449795632 0.44251567791554891 0 0.049873532564803771 0.42682456244911521 0 0.02534092212507244 0.41060548937160207 0 0.049873532564803771 0.42682456244911521 0 0.04640925572198866 0.40477711665710059 0 0.069088946692067596 0.40804014835813612 0 0.049873532564803771 0.42682456244911521 0 0.02534092212507244 0.41060548937160207 0 0.04640925572198866 0.40477711665710059 0 0.049873532564803771 0.42682456244911521 0 0.02534092212507244 0.41060548937160207 0 0.037631048449795632 0.44251567791554891 0 0.017709044554186228 0.43480097630436543 0 0.02534092212507244 0.41060548937160207 0 0.02534092212507244 0.41060548937160207 0 0.005058598613043204 0.40980309247480551 0 0.0032960192925871388 0.42358955289276901 0 -0.00055649961999283334 0.44146950287698272 0 0.017709044554186228 0.43480097630436543 0 0.0032960192925871388 0.42358955289276901 0 0.017709044554186228 0.43480097630436543 0 0.02534092212507244 0.41060548937160207 0 0.0032960192925871388 0.42358955289276901 0 -0.0077465772954661768 0.3815284444822295 0 0.014495243569886081 0.38295097737104289 0 0.00080831168534120645 0.3943864162940891 0 -0.0077465772954661768 0.3815284444822295 0 0.014495243569886081 0.38295097737104289 0 0.0026724101620130801 0.3695972521235823 0 0.02534092212507244 0.41060548937160207 0 0.014495243569886081 0.38295097737104289 0 0.00080831168534120645 0.3943864162940891 0 0.02534092212507244 0.41060548937160207 0 0.005058598613043204 0.40980309247480551 0 0.00080831168534120645 0.3943864162940891 0 0.02534092212507244 0.41060548937160207 0 0.00080831168534120645 0.3943864162940891 0 0.02534092212507244 0.41060548937160207 0 0.014495243569886081 0.38295097737104289 0 0.037027686481781771 0.38636737854444309 0 0.014495243569886081 0.38295097737104289 0 0.037027686481781771 0.38636737854444309 0 0.023740261302617159 0.36769873114642448 0 0.037027686481781771 0.38636737854444309 0 0.058555314658644567 0.37700817978135542 0 0.044808112443221408 0.36580021016926878 0 0.02534092212507244 0.41060548937160207 0 0.037027686481781771 0.38636737854444309 0 0.04640925572198866 0.40477711665710059 0 0.04640925572198866 0.40477711665710059 0 0.057901777373880053 0.39325632863180487 0 0.069088946692067596 0.40804014835813612 0 0.037027686481781771 0.38636737854444309 0 0.04640925572198866 0.40477711665710059 0 0.057901777373880053 0.39325632863180487 0 0.037027686481781771 0.38636737854444309 0 0.057901777373880053 0.39325632863180487 0 0.058555314658644567 0.37700817978135542 0 0.057901777373880053 0.39325632863180487 0 0.058555314658644567 0.37700817978135542 0 0.074085308185031173 0.38182878843226831 0 0.058555314658644567 0.37700817978135542 0 0.074085308185031173 0.38182878843226831 0 0.071633039884127392 0.37089468371823409 0 0.088232653714445525 0.39556293712882262 0 0.092537331054925065 0.37197189302536682 0 0.088232653714445525 0.39556293712882262 0 0.094521917650538592 0.37301904553552701 0 0.092537331054925065 0.37197189302536682 0 0.074085308185031173 0.38182878843226831 0 0.088232653714445525 0.39556293712882262 0 0.092537331054925065 0.37197189302536682 0 0.074085308185031173 0.38182878843226831 0 0.092537331054925065 0.37197189302536682 0 0.080635891402685955 0.37189196226740873 0 0.057901777373880053 0.39325632863180487 0 0.074085308185031173 0.38182878843226831 0 0.069088946692067596 0.40804014835813612 0 0.074085308185031173 0.38182878843226831 0 0.088232653714445525 0.39556293712882262 0 0.069088946692067596 0.40804014835813612 0 0.069088946692067596 0.40804014835813612 0 0.071383979533768779 0.42796147058037781 0 0.083927976373960989 0.41915398123227732 0 0.049873532564803771 0.42682456244911521 0 0.069088946692067596 0.40804014835813612 0 0.071383979533768779 0.42796147058037781 0 0.074406143004535102 0.44304363552662829 0 0.049873532564803771 0.42682456244911521 0 0.071383979533768779 0.42796147058037781 0 0.079623299033476466 0.44274502533573201 0 0.083927976373960989 0.41915398123227732 0 0.079623299033476466 0.44274502533573201 0 0.071383979533768779 0.42796147058037781 0 0.083927976373960989 0.41915398123227732 0 0.097092730371080987 0.43939020630234787 0 0.079623299033476466 0.44274502533573201 0 0.083927976373960989 0.41915398123227732 0 0.088232653714445525 0.39556293712882262 0 0.083927976373960989 0.41915398123227732 0 0.088232653714445525 0.39556293712882262 0 0.083927976373960989 0.41915398123227732 0 0.097372286503530914 0.40749404176717019 0 0.088232653714445525 0.39556293712882262 0 0.069088946692067596 0.40804014835813612 0 0.083927976373960989 0.41915398123227732 0 0.083927976373960989 0.41915398123227732 0 0.097372286503530914 0.40749404176717019 0 0.1026914341997598 0.42143212398888291 0 0.097372286503530914 0.40749404176717019 0 0.1026914341997598 0.42143212398888291 0 0.11133994704289329 0.40940327336556692 0 0.097092730371080987 0.43939020630234787 0 0.083927976373960989 0.41915398123227732 0 0.1026914341997598 0.42143212398888291 0 0.097092730371080987 0.43939020630234787 0 0.1026914341997598 0.42143212398888291 0 0.11105916273292871 0.43284062951532037 0 0.11105916273292871 0.43284062951532037 0 0.1240675572909157 0.43647709985435379 0 0.1207841289584564 0.41861445094320349 0 0.1026914341997598 0.42143212398888291 0 0.11105916273292871 0.43284062951532037 0 0.1207841289584564 0.41861445094320349 0 0.1026914341997598 0.42143212398888291 0 0.11133994704289329 0.40940327336556692 0 0.1207841289584564 0.41861445094320349 0 0.11133994704289329 0.40940327336556692 0 0.1207841289584564 0.41861445094320349 0 0.12523198865508839 0.40452397943286489 0 0.11133994704289329 0.40940327336556692 0 0.1170633646186576 0.39543608672047031 0 0.12523198865508839 0.40452397943286489 0 0.11133994704289329 0.40940327336556692 0 0.1170633646186576 0.39543608672047031 0 0.1029309323467166 0.39121115945054658 0 0.1170633646186576 0.39543608672047031 0 0.13153493247113179 0.39254869038096368 0 0.12523198865508839 0.40452397943286489 0 0.1130284250608348 0.38278386795824609 0 0.121260272565483 0.36424145571470951 0 0.13515494786428409 0.38574963395918899 0 0.1170633646186576 0.39543608672047031 0 0.1130284250608348 0.38278386795824609 0 0.13153493247113179 0.39254869038096368 0 0.1130284250608348 0.38278386795824609 0 0.13153493247113179 0.39254869038096368 0 0.1170633646186576 0.39543608672047031 0 0.1130284250608348 0.38278386795824609 0 0.1029309323467166 0.39121115945054658 0 0.1130284250608348 0.38278386795824609 0 0.094521917650538592 0.37301904553552701 0 0.10736553642766281 0.37324863915463807 0 0.1029309323467166 0.39121115945054658 0 0.094521917650538592 0.37301904553552701 0 0.088232653714445525 0.39556293712882262 0 0.1029309323467166 0.39121115945054658 0 0.094521917650538592 0.37301904553552701 0 0.1130284250608348 0.38278386795824609 0 0.1029309323467166 0.39121115945054658 0 0.094521917650538592 0.37301904553552701 0 0.1130284250608348 0.38278386795824609 0 0.094521917650538592 0.37301904553552701 0 0.088232653714445525 0.39556293712882262 0 0.097372286503530914 0.40749404176717019 0 0.1029309323467166 0.39121115945054658 0 0.097372286503530914 0.40749404176717019 0 0.11133994704289329 0.40940327336556692 0 0.1029309323467166 0.39121115945054658 0 0.11133994704289329 0.40940327336556692 0 0.1029309323467166 0.39121115945054658 0 0.1066693993723055 0.3566321911821192 0 0.096962293468820349 0.3477216472565488 0 0.1008273209387785 0.36564904005381482 0 0.096962293468820349 0.3477216472565488 0 0.092962033720196374 0.36964438308334108 0 0.1066693993723055 0.3566321911821192 0 0.096962293468820349 0.3477216472565488 0 0.107365597266682 0.34273327747022991 0 0.096962293468820349 0.3477216472565488 0 0.1008273209387785 0.36564904005381482 0 0.092962033720196374 0.36964438308334108 0 0.1008273209387785 0.36564904005381482 0 0.094521917650538592 0.37301904553552701 0 0.10736553642766281 0.37324863915463807 0 0.1008273209387785 0.36564904005381482 0 0.094521917650538592 0.37301904553552701 0 0.092962033720196374 0.36964438308334108 0 0.1008273209387785 0.36564904005381482 0 0.10736553642766281 0.37324863915463807 0 0.10819905093193941 0.3653694265948752 0 0.1066693993723055 0.3566321911821192 0 0.1008273209387785 0.36564904005381482 0 0.10819905093193941 0.3653694265948752 0 0.1066693993723055 0.3566321911821192 0 0.10819905093193941 0.3653694265948752 0 0.121260272565483 0.36424145571470951 0 0.1130284250608348 0.38278386795824609 0 0.10736553642766281 0.37324863915463807 0 0.121260272565483 0.36424145571470951 0 0.10736553642766281 0.37324863915463807 0 0.10819905093193941 0.3653694265948752 0 0.121260272565483 0.36424145571470951 0 0.1066693993723055 0.3566321911821192 0 0.121260272565483 0.36424145571470951 0 0.107365597266682 0.34273327747022991 0 0.121260272565483 0.36424145571470951 0 0.107365597266682 0.34273327747022991 0 0.1273382652159849 0.34507276573136542 0 0.121260272565483 0.36424145571470951 0 0.107365597266682 0.34273327747022991 0 0.12118616471353801 0.32592773165605221 0 0.10096255321744289 0.32579891142975609 0 0.107365597266682 0.34273327747022991 0 0.12118616471353801 0.32592773165605221 0 0.107365597266682 0.34273327747022991 0 0.1273382652159849 0.34507276573136542 0 0.12118616471353801 0.32592773165605221 0 0.10096255321744289 0.32579891142975609 0 0.12118616471353801 0.32592773165605221 0 0.1179258657302 0.31121682662562039 0 0.13290408152121899 0.31029981655808381 0 0.12118616471353801 0.32592773165605221 0 0.10096255321744289 0.32579891142975609 0 0.1179258657302 0.31121682662562039 0 0.10096255321744289 0.32579891142975609 0 0.093194125689663079 0.30913187248504392 0 0.105052065890159 0.30338704029689911 0 0.10096255321744289 0.32579891142975609 0 0.105052065890159 0.30338704029689911 0 0.1179258657302 0.31121682662562039 0 0.10096255321744289 0.32579891142975609 0 0.105052065890159 0.30338704029689911 0 0.096962293468820349 0.3477216472565488 0 0.10096255321744289 0.32579891142975609 0 0.088794772649910633 0.33624228770793102 0 0.096962293468820349 0.3477216472565488 0 0.10096255321744289 0.32579891142975609 0 0.107365597266682 0.34273327747022991 0 0.096962293468820349 0.3477216472565488 0 0.10096255321744289 0.32579891142975609 0 0.10096255321744289 0.32579891142975609 0 0.088794772649910633 0.33624228770793102 0 0.072611688838739252 0.32561832228198417 0 0.088794772649910633 0.33624228770793102 0 0.072611688838739252 0.32561832228198417 0 0.082786861279466703 0.3476313526826631 0 0.10096255321744289 0.32579891142975609 0 0.086135382526474444 0.31616756073427699 0 0.072611688838739252 0.32561832228198417 0 0.10096255321744289 0.32579891142975609 0 0.072611688838739252 0.32561832228198417 0 0.086135382526474444 0.31616756073427699 0 0.072611688838739252 0.32561832228198417 0 0.077773162360052564 0.30412113674032432 0 0.10096255321744289 0.32579891142975609 0 0.086135382526474444 0.31616756073427699 0 0.093194125689663079 0.30913187248504392 0 0.072611688838739252 0.32561832228198417 0 0.064841350485462856 0.32556882683230842 0 0.061697137537306032 0.30200571512393709 0 0.072611688838739252 0.32561832228198417 0 0.061697137537306032 0.30200571512393709 0 0.072611688838739252 0.32561832228198417 0 0.064841350485462856 0.32556882683230842 0 0.062361298675659822 0.33309125936536821 0 0.072611688838739252 0.32561832228198417 0 0.064841350485462856 0.32556882683230842 0 0.072611688838739252 0.32561832228198417 0 0.082786861279466703 0.3476313526826631 0 0.072611688838739252 0.32561832228198417 0 0.067802491976296925 0.34201954141111618 0 0.082786861279466703 0.3476313526826631 0 0.072611688838739252 0.32561832228198417 0 0.067802491976296925 0.34201954141111618 0 0.062361298675659822 0.33309125936536821 0 0.068180952938850681 0.35244167088081307 0 0.073852175522189714 0.36211280823575692 0 0.055167019989462288 0.35225372344613182 0 0.073852175522189714 0.36211280823575692 0 0.055167019989462288 0.35225372344613182 0 0.067802491976296925 0.34201954141111618 0 0.068180952938850681 0.35244167088081307 0 0.055167019989462288 0.35225372344613182 0 0.068180952938850681 0.35244167088081307 0 0.076769823424558528 0.35437299673631228 0 0.073852175522189714 0.36211280823575692 0 0.067802491976296925 0.34201954141111618 0 0.076769823424558528 0.35437299673631228 0 0.082786861279466703 0.3476313526826631 0 0.067802491976296925 0.34201954141111618 0 0.068180952938850681 0.35244167088081307 0 0.076769823424558528 0.35437299673631228 0 0.082786861279466703 0.3476313526826631 0 0.092962033720196374 0.36964438308334108 0 0.096962293468820349 0.3477216472565488 0 0.082786861279466703 0.3476313526826631 0 0.092962033720196374 0.36964438308334108 0 0.076769823424558528 0.35437299673631228 0 0.082786861279466703 0.3476313526826631 0 0.092962033720196374 0.36964438308334108 0 0.096962293468820349 0.3477216472565488 0 0.088794772649910633 0.33624228770793102 0 0.082786861279466703 0.3476313526826631 0 0.092537331054925065 0.37197189302536682 0 0.092962033720196374 0.36964438308334108 0 0.073852175522189714 0.36211280823575692 0 0.076769823424558528 0.35437299673631228 0 0.092962033720196374 0.36964438308334108 0 0.073852175522189714 0.36211280823575692 0 0.092537331054925065 0.37197189302536682 0 0.073852175522189714 0.36211280823575692 0 0.092537331054925065 0.37197189302536682 0 0.080635891402685955 0.37189196226740873 0 0.073852175522189714 0.36211280823575692 0 0.094521917650538592 0.37301904553552701 0 0.092537331054925065 0.37197189302536682 0 0.092962033720196374 0.36964438308334108 0 0.094521917650538592 0.37301904553552701 0 0.092962033720196374 0.36964438308334108 0 0.094521917650538592 0.37301904553552701 0 0.092537331054925065 0.37197189302536682 0 0.092537331054925065 0.37197189302536682 0 0.092962033720196374 0.36964438308334108 0 0.080635891402685955 0.37189196226740873 0 0.071633039884127392 0.37089468371823409 0 0.073852175522189714 0.36211280823575692 0 0.074085308185031173 0.38182878843226831 0 0.080635891402685955 0.37189196226740873 0 0.071633039884127392 0.37089468371823409 0 0.073852175522189714 0.36211280823575692 0 0.065875963583825636 0.36390168919211308 0 0.055167019989462288 0.35225372344613182 0 0.071633039884127392 0.37089468371823409 0 0.073852175522189714 0.36211280823575692 0 0.065875963583825636 0.36390168919211308 0 0.058555314658644567 0.37700817978135542 0 0.071633039884127392 0.37089468371823409 0 0.065875963583825636 0.36390168919211308 0 0.065875963583825636 0.36390168919211308 0 0.055167019989462288 0.35225372344613182 0 0.044808112443221408 0.36580021016926878 0 0.058555314658644567 0.37700817978135542 0 0.065875963583825636 0.36390168919211308 0 0.044808112443221408 0.36580021016926878 0 0.065875963583825636 0.36390168919211308 0 0.044808112443221408 0.36580021016926878 0 0.055167019989462288 0.35225372344613182 0 0.03648186445673491 0.34239463865650682 0 0.053006622790175727 0.33669398698370978 0 0.055167019989462288 0.35225372344613182 0 0.03648186445673491 0.34239463865650682 0 0.055167019989462288 0.35225372344613182 0 0.033366300336564229 0.35668582465186821 0 0.044808112443221408 0.36580021016926878 0 0.055167019989462288 0.35225372344613182 0 0.033366300336564229 0.35668582465186821 0 0.03648186445673491 0.34239463865650682 0 0.044808112443221408 0.36580021016926878 0 0.023740261302617159 0.36769873114642448 0 0.033366300336564229 0.35668582465186821 0 0.044808112443221408 0.36580021016926878 0 0.023740261302617159 0.36769873114642448 0 0.037027686481781771 0.38636737854444309 0 0.044808112443221408 0.36580021016926878 0 0.023740261302617159 0.36769873114642448 0 0.023740261302617159 0.36769873114642448 0 0.022347319287112581 0.34706673979036867 0 0.0026724101620130801 0.3695972521235823 0 0.033366300336564229 0.35668582465186821 0 0.023740261302617159 0.36769873114642448 0 0.022347319287112581 0.34706673979036867 0 0.033366300336564229 0.35668582465186821 0 0.022347319287112581 0.34706673979036867 0 0.03648186445673491 0.34239463865650682 0 0.022347319287112581 0.34706673979036867 0 0.0026724101620130801 0.3695972521235823 0 0.022347319287112581 0.34706673979036867 0 4.0509382391099018e-05 0.34942577061310842 0 0.0026724101620130801 0.3695972521235823 0 0.014495243569886081 0.38295097737104289 0 0.023740261302617159 0.36769873114642448 0 0.0026724101620130801 0.3695972521235823 0 0.023740261302617159 0.36769873114642448 0 0.0026724101620130801 0.3695972521235823 0 -0.0078697945137191361 0.31546547343540748 0 0.0088051504294338334 0.32822729429521302 0 0.01756979147647493 0.30702881797731713 0 0.0088051504294338334 0.32822729429521302 0 0.01756979147647493 0.30702881797731713 0 4.0509382391099018e-05 0.34942577061310842 0 0.0088051504294338334 0.32822729429521302 0 0.022347319287112581 0.34706673979036867 0 4.0509382391099018e-05 0.34942577061310842 0 0.0088051504294338334 0.32822729429521302 0 0.022347319287112581 0.34706673979036867 0 0.0088051504294338334 0.32822729429521302 0 0.024982899832100891 0.32250494910589439 0 0.022347319287112581 0.34706673979036867 0 0.024982899832100891 0.32250494910589439 0 0.042022228412209803 0.32453622745715338 0 0.0088051504294338334 0.32822729429521302 0 0.024982899832100891 0.32250494910589439 0 0.01756979147647493 0.30702881797731713 0 0.024982899832100891 0.32250494910589439 0 0.042022228412209803 0.32453622745715338 0 0.037707430732410632 0.30035047328227399 0 0.022347319287112581 0.34706673979036867 0 0.042022228412209803 0.32453622745715338 0 0.022347319287112581 0.34706673979036867 0 0.042022228412209803 0.32453622745715338 0 0.03648186445673491 0.34239463865650682 0 0.042022228412209803 0.32453622745715338 0 0.03648186445673491 0.34239463865650682 0 0.053006622790175727 0.33669398698370978 0 0.042022228412209803 0.32453622745715338 0 0.053006622790175727 0.33669398698370978 0 0.05464382359812376 0.324919395935311 0 0.053006622790175727 0.33669398698370978 0 0.062361298675659822 0.33309125936536821 0 0.05464382359812376 0.324919395935311 0 0.067802491976296925 0.34201954141111618 0 0.055167019989462288 0.35225372344613182 0 0.053006622790175727 0.33669398698370978 0 0.067802491976296925 0.34201954141111618 0 0.053006622790175727 0.33669398698370978 0 0.062361298675659822 0.33309125936536821 0 0.064841350485462856 0.32556882683230842 0 0.05464382359812376 0.324919395935311 0 0.061697137537306032 0.30200571512393709 0 0.042022228412209803 0.32453622745715338 0 0.061697137537306032 0.30200571512393709 0 0.042022228412209803 0.32453622745715338 0 0.05464382359812376 0.324919395935311 0 0.061697137537306032 0.30200571512393709 0 0.064841350485462856 0.32556882683230842 0 0.062361298675659822 0.33309125936536821 0 0.05464382359812376 0.324919395935311 0 0.057845069988346882 0.29367212858723241 0 0.037707430732410632 0.30035047328227399 0 0.042022228412209803 0.32453622745715338 0 0.061697137537306032 0.30200571512393709 0 0.037707430732410632 0.30035047328227399 0 0.061697137537306032 0.30200571512393709 0 0.057845069988346882 0.29367212858723241 0 0.037707430732410632 0.30035047328227399 0 0.061697137537306032 0.30200571512393709 0 0.057845069988346882 0.29367212858723241 0 0.057845069988346882 0.29367212858723241 0 0.052894500101847479 0.28296203536306941 0 0.063705043357013602 0.28214295185395932 0 0.057845069988346882 0.29367212858723241 0 0.052894500101847479 0.28296203536306941 0 0.057845069988346882 0.29367212858723241 0 0.052894500101847479 0.28296203536306941 0 0.042706758505679433 0.2886210559850087 0 0.042706758505679433 0.2886210559850087 0 0.026135399217135299 0.28631173077840733 0 0.041174334479937423 0.27805722943819611 0 0.042706758505679433 0.2886210559850087 0 0.037707430732410632 0.30035047328227399 0 0.026135399217135299 0.28631173077840733 0 0.057845069988346882 0.29367212858723241 0 0.042706758505679433 0.2886210559850087 0 0.037707430732410632 0.30035047328227399 0 0.052894500101847479 0.28296203536306941 0 0.042706758505679433 0.2886210559850087 0 0.041174334479937423 0.27805722943819611 0 0.024982899832100891 0.32250494910589439 0 0.037707430732410632 0.30035047328227399 0 0.01756979147647493 0.30702881797731713 0 0.037707430732410632 0.30035047328227399 0 0.01756979147647493 0.30702881797731713 0 0.037707430732410632 0.30035047328227399 0 0.01756979147647493 0.30702881797731713 0 0.026135399217135299 0.28631173077840733 0 0.01756979147647493 0.30702881797731713 0 0.026135399217135299 0.28631173077840733 0 0.01756979147647493 0.30702881797731713 0 0.026135399217135299 0.28631173077840733 0 0.016602305708361471 0.29437469659486082 0 0.02351957976052195 0.28384976074951179 0 0.015937280241268149 0.28369046741748272 0 0.01462937807394929 0.2767639442938441 0 0.026135399217135299 0.28631173077840733 0 0.02351957976052195 0.28384976074951179 0 0.018970721517315801 0.28739742139373858 0 0.018970721517315801 0.28739742139373858 0 0.015937280241268149 0.28369046741748272 0 0.01265904265929213 0.28876045142843038 0 0.02351957976052195 0.28384976074951179 0 0.018970721517315801 0.28739742139373858 0 0.015937280241268149 0.28369046741748272 0 0.026135399217135299 0.28631173077840733 0 0.018970721517315801 0.28739742139373858 0 0.016602305708361471 0.29437469659486082 0 0.018970721517315801 0.28739742139373858 0 0.016602305708361471 0.29437469659486082 0 0.01265904265929213 0.28876045142843038 0 0.016602305708361471 0.29437469659486082 0 0.01265904265929213 0.28876045142843038 0 0.010167076674657971 0.29825243278197971 0 0.01265904265929213 0.28876045142843038 0 0.0049443039259697008 0.28761687874266101 0 0.010167076674657971 0.29825243278197971 0 0.015937280241268149 0.28369046741748272 0 0.01265904265929213 0.28876045142843038 0 0.0099766012844644258 0.28185619953908009 0 0.01265904265929213 0.28876045142843038 0 0.0099766012844644258 0.28185619953908009 0 0.0049443039259697008 0.28761687874266101 0 0.0099766012844644258 0.28185619953908009 0 0.0049443039259697008 0.28761687874266101 0 0.0034427418201543052 0.27993256641229641 0 -0.001660643000739298 0.28540143448832911 0 0.0049443039259697008 0.28761687874266101 0 0.0034427418201543052 0.27993256641229641 0 -0.0042868264351340014 0.29199423495856552 0 0.0049443039259697008 0.28761687874266101 0 0.010167076674657971 0.29825243278197971 0 -0.0089709971350864174 0.30579241992498002 0 0.010167076674657971 0.29825243278197971 0 -0.0078697945137191361 0.31546547343540748 0 0.01756979147647493 0.30702881797731713 0 -0.0078697945137191361 0.31546547343540748 0 0.01756979147647493 0.30702881797731713 0 0.010167076674657971 0.29825243278197971 0 0.01756979147647493 0.30702881797731713 0 0.016602305708361471 0.29437469659486082 0 0.010167076674657971 0.29825243278197971 0 0.0038858066017371838 0.24701664192213149 0 0.013702693181129381 0.26543320133582182 0 -0.0052839620752209932 0.24651421377050101 0 0.0045767526390982759 0.25757465709898492 0 0.005432461206957475 0.27008104065747518 0 0.0038858066017371838 0.24701664192213149 0 0.013702693181129381 0.26543320133582182 0 0.0045767526390982759 0.25757465709898492 0 0.0038858066017371838 0.24701664192213149 0 0.013702693181129381 0.26543320133582182 0 0.01534911090579608 0.25416688120580838 0 -0.0052839620752209932 0.24651421377050101 0 0.005432461206957475 0.27008104065747518 0 0.013702693181129381 0.26543320133582182 0 0.0045767526390982759 0.25757465709898492 0 0.005432461206957475 0.27008104065747518 0 -0.0052839620752209932 0.24651421377050101 0 0.0038858066017371838 0.24701664192213149 0 0.0045767526390982759 0.25757465709898492 0 0.005432461206957475 0.27008104065747518 0 0.0034427418201543052 0.27993256641229641 0 0.0091890197507344031 0.27597430631063519 0 0.0099766012844644258 0.28185619953908009 0 0.0034427418201543052 0.27993256641229641 0 0.0091890197507344031 0.27597430631063519 0 0.0099766012844644258 0.28185619953908009 0 0.0091890197507344031 0.27597430631063519 0 0.01462937807394929 0.2767639442938441 0 0.0091890197507344031 0.27597430631063519 0 0.01462937807394929 0.2767639442938441 0 0.010738388053192639 0.27206312314944398 0 0.015937280241268149 0.28369046741748272 0 0.0099766012844644258 0.28185619953908009 0 0.01462937807394929 0.2767639442938441 0 0.013702693181129381 0.26543320133582182 0 0.005432461206957475 0.27008104065747518 0 0.010738388053192639 0.27206312314944398 0 0.013702693181129381 0.26543320133582182 0 0.01462937807394929 0.2767639442938441 0 0.010738388053192639 0.27206312314944398 0 0.005432461206957475 0.27008104065747518 0 0.0091890197507344031 0.27597430631063519 0 0.010738388053192639 0.27206312314944398 0 0.026135399217135299 0.28631173077840733 0 0.034701006957794017 0.26559464357949669 0 0.026135399217135299 0.28631173077840733 0 0.024462784233393441 0.27195174446187581 0 0.034701006957794017 0.26559464357949669 0 0.02351957976052195 0.28384976074951179 0 0.013702693181129381 0.26543320133582182 0 0.024462784233393441 0.27195174446187581 0 0.02351957976052195 0.28384976074951179 0 0.013702693181129381 0.26543320133582182 0 0.02351957976052195 0.28384976074951179 0 0.013702693181129381 0.26543320133582182 0 0.01462937807394929 0.2767639442938441 0 0.026135399217135299 0.28631173077840733 0 0.02351957976052195 0.28384976074951179 0 0.024462784233393441 0.27195174446187581 0 0.024462784233393441 0.27195174446187581 0 0.023831315674361551 0.25784578595971469 0 0.034701006957794017 0.26559464357949669 0 0.013702693181129381 0.26543320133582182 0 0.01534911090579608 0.25416688120580838 0 0.023831315674361551 0.25784578595971469 0 0.013702693181129381 0.26543320133582182 0 0.024462784233393441 0.27195174446187581 0 0.023831315674361551 0.25784578595971469 0 0.019552701789931199 0.2456482956991394 0 0.01534911090579608 0.25416688120580838 0 0.023831315674361551 0.25784578595971469 0 0.043266614698450417 0.24487755638058531 0 0.034701006957794017 0.26559464357949669 0 0.048537263954960358 0.25550612542213902 0 0.035219596978125163 0.24427994947614681 0 0.023831315674361551 0.25784578595971469 0 0.034701006957794017 0.26559464357949669 0 0.043266614698450417 0.24487755638058531 0 0.034701006957794017 0.26559464357949669 0 0.043266614698450417 0.24487755638058531 0 0.035219596978125163 0.24427994947614681 0 0.034701006957794017 0.26559464357949669 0 0.034701006957794017 0.26559464357949669 0 0.049422484883533013 0.26899032943675621 0 0.048537263954960358 0.25550612542213902 0 0.026135399217135299 0.28631173077840733 0 0.034701006957794017 0.26559464357949669 0 0.041174334479937423 0.27805722943819611 0 0.034701006957794017 0.26559464357949669 0 0.041174334479937423 0.27805722943819611 0 0.049422484883533013 0.26899032943675621 0 0.052894500101847479 0.28296203536306941 0 0.041174334479937423 0.27805722943819611 0 0.049422484883533013 0.26899032943675621 0 0.049422484883533013 0.26899032943675621 0 0.06176382660997895 0.27122544433225582 0 0.056879652625385517 0.26147643127976178 0 0.052894500101847479 0.28296203536306941 0 0.049422484883533013 0.26899032943675621 0 0.06176382660997895 0.27122544433225582 0 0.052894500101847479 0.28296203536306941 0 0.06176382660997895 0.27122544433225582 0 0.063705043357013602 0.28214295185395932 0 0.052056269767059488 0.24973518429608971 0 0.047257557382846677 0.24517394132545531 0 0.048537263954960358 0.25550612542213902 0 0.048537263954960358 0.25550612542213902 0 0.056879652625385517 0.26147643127976178 0 0.056340343509317187 0.25329890119982751 0 0.052056269767059488 0.24973518429608971 0 0.048537263954960358 0.25550612542213902 0 0.056340343509317187 0.25329890119982751 0 0.049422484883533013 0.26899032943675621 0 0.048537263954960358 0.25550612542213902 0 0.056879652625385517 0.26147643127976178 0 0.056879652625385517 0.26147643127976178 0 0.064329910563781179 0.25385838807599909 0 0.065186910011170635 0.26140319433681392 0 0.06176382660997895 0.27122544433225582 0 0.056879652625385517 0.26147643127976178 0 0.065186910011170635 0.26140319433681392 0 0.064906879439047591 0.24537137174524101 0 0.056340343509317187 0.25329890119982751 0 0.064329910563781179 0.25385838807599909 0 0.056879652625385517 0.26147643127976178 0 0.056340343509317187 0.25329890119982751 0 0.064329910563781179 0.25385838807599909 0 0.064329910563781179 0.25385838807599909 0 0.065186910011170635 0.26140319433681392 0 0.073280449384348523 0.25430993563771132 0 0.064906879439047591 0.24537137174524101 0 0.064329910563781179 0.25385838807599909 0 0.073280449384348523 0.25430993563771132 0 0.065186910011170635 0.26140319433681392 0 0.073280449384348523 0.25430993563771132 0 0.071308311850700343 0.265761078679979 0 0.073280449384348523 0.25430993563771132 0 0.080165326977007512 0.2628909879736227 0 0.071308311850700343 0.265761078679979 0 0.080165326977007512 0.2628909879736227 0 0.087608092015237171 0.25288097681756239 0 0.098775260401848738 0.25954609819862212 0 0.080165326977007512 0.2628909879736227 0 0.086143399180358043 0.27401133934574501 0 0.098775260401848738 0.25954609819862212 0 0.073280449384348523 0.25430993563771132 0 0.080165326977007512 0.2628909879736227 0 0.087608092015237171 0.25288097681756239 0 0.086143399180358043 0.27401133934574501 0 0.091745572830825503 0.28242953751486571 0 0.097928807276843804 0.27224337160379841 0 0.086143399180358043 0.27401133934574501 0 0.098775260401848738 0.25954609819862212 0 0.080165326977007512 0.2628909879736227 0 0.086143399180358043 0.27401133934574501 0 0.07251028212602223 0.27437857049436287 0 0.086143399180358043 0.27401133934574501 0 0.073511537958870887 0.28847658049287089 0 0.086143399180358043 0.27401133934574501 0 0.07251028212602223 0.27437857049436287 0 0.073511537958870887 0.28847658049287089 0 0.080165326977007512 0.2628909879736227 0 0.07251028212602223 0.27437857049436287 0 0.071308311850700343 0.265761078679979 0 0.06176382660997895 0.27122544433225582 0 0.07251028212602223 0.27437857049436287 0 0.071308311850700343 0.265761078679979 0 0.06176382660997895 0.27122544433225582 0 0.065186910011170635 0.26140319433681392 0 0.071308311850700343 0.265761078679979 0 0.06176382660997895 0.27122544433225582 0 0.07251028212602223 0.27437857049436287 0 0.063705043357013602 0.28214295185395932 0 0.061697137537306032 0.30200571512393709 0 0.057845069988346882 0.29367212858723241 0 0.073511537958870887 0.28847658049287089 0 0.057845069988346882 0.29367212858723241 0 0.073511537958870887 0.28847658049287089 0 0.057845069988346882 0.29367212858723241 0 0.063705043357013602 0.28214295185395932 0 0.073511537958870887 0.28847658049287089 0 0.07251028212602223 0.27437857049436287 0 0.063705043357013602 0.28214295185395932 0 0.073511537958870887 0.28847658049287089 0 0.061697137537306032 0.30200571512393709 0 0.073511537958870887 0.28847658049287089 0 0.061697137537306032 0.30200571512393709 0 0.073511537958870887 0.28847658049287089 0 0.077773162360052564 0.30412113674032432 0 0.072611688838739252 0.32561832228198417 0 0.061697137537306032 0.30200571512393709 0 0.077773162360052564 0.30412113674032432 0 0.077773162360052564 0.30412113674032432 0 0.093194125689663079 0.30913187248504392 0 0.09345159598273263 0.29525243421805308 0 0.086135382526474444 0.31616756073427699 0 0.077773162360052564 0.30412113674032432 0 0.093194125689663079 0.30913187248504392 0 0.086143399180358043 0.27401133934574501 0 0.073511537958870887 0.28847658049287089 0 0.091745572830825503 0.28242953751486571 0 0.073511537958870887 0.28847658049287089 0 0.091745572830825503 0.28242953751486571 0 0.073511537958870887 0.28847658049287089 0 0.09345159598273263 0.29525243421805308 0 0.091745572830825503 0.28242953751486571 0 0.073511537958870887 0.28847658049287089 0 0.077773162360052564 0.30412113674032432 0 0.09345159598273263 0.29525243421805308 0 0.09345159598273263 0.29525243421805308 0 0.105052065890159 0.30338704029689911 0 0.1099796077027783 0.27638249453685509 0 0.09345159598273263 0.29525243421805308 0 0.091745572830825503 0.28242953751486571 0 0.1099796077027783 0.27638249453685509 0 0.105052065890159 0.30338704029689911 0 0.1099796077027783 0.27638249453685509 0 0.093194125689663079 0.30913187248504392 0 0.105052065890159 0.30338704029689911 0 0.093194125689663079 0.30913187248504392 0 0.09345159598273263 0.29525243421805308 0 0.105052065890159 0.30338704029689911 0 0.105052065890159 0.30338704029689911 0 0.123347793273833 0.29452328472033279 0 0.105052065890159 0.30338704029689911 0 0.1179258657302 0.31121682662562039 0 0.123347793273833 0.29452328472033279 0 0.1179258657302 0.31121682662562039 0 0.123347793273833 0.29452328472033279 0 0.13290408152121899 0.31029981655808381 0 0.105052065890159 0.30338704029689911 0 0.119830279307533 0.28412445454142882 0 0.1099796077027783 0.27638249453685509 0 0.105052065890159 0.30338704029689911 0 0.123347793273833 0.29452328472033279 0 0.119830279307533 0.28412445454142882 0 0.1099796077027783 0.27638249453685509 0 0.12307966925931189 0.2720380564679783 0 0.1142858253276592 0.25278300916957203 0 0.119830279307533 0.28412445454142882 0 0.1099796077027783 0.27638249453685509 0 0.12307966925931189 0.2720380564679783 0 0.1099796077027783 0.27638249453685509 0 0.12307966925931189 0.2720380564679783 0 0.1099796077027783 0.27638249453685509 0 0.1142858253276592 0.25278300916957203 0 0.12307966925931189 0.2720380564679783 0 0.1142858253276592 0.25278300916957203 0 0.13155980613391771 0.2555871695969536 0 0.1099796077027783 0.27638249453685509 0 0.1142858253276592 0.25278300916957203 0 0.098775260401848738 0.25954609819862212 0 0.1012024686794499 0.24514295656717061 0 0.1142858253276592 0.25278300916957203 0 0.098775260401848738 0.25954609819862212 0 0.1012024686794499 0.24514295656717061 0 0.087608092015237171 0.25288097681756239 0 0.098775260401848738 0.25954609819862212 0 0.1099796077027783 0.27638249453685509 0 0.098775260401848738 0.25954609819862212 0 0.097928807276843804 0.27224337160379841 0 0.086143399180358043 0.27401133934574501 0 0.098775260401848738 0.25954609819862212 0 0.097928807276843804 0.27224337160379841 0 0.091745572830825503 0.28242953751486571 0 0.1099796077027783 0.27638249453685509 0 0.091745572830825503 0.28242953751486571 0 0.1099796077027783 0.27638249453685509 0 0.097928807276843804 0.27224337160379841 0 0.15460578323957749 0.26216636583925079 0 0.14022351852757739 0.26813426991131961 0 0.15993924804116641 0.27679577356717028 0 0.14022351852757739 0.26813426991131961 0 0.14164352065750019 0.28565952914375259 0 0.15993924804116641 0.27679577356717028 0 0.14164352065750019 0.28565952914375259 0 0.15993924804116641 0.27679577356717028 0 0.14383041430382559 0.2509255099306516 0 0.15460578323957749 0.26216636583925079 0 0.14022351852757739 0.26813426991131961 0 0.12307966925931189 0.2720380564679783 0 0.13155980613391771 0.2555871695969536 0 0.14022351852757739 0.26813426991131961 0 0.14383041430382559 0.2509255099306516 0 0.13155980613391771 0.2555871695969536 0 0.14022351852757739 0.26813426991131961 0 0.12307966925931189 0.2720380564679783 0 0.14022351852757739 0.26813426991131961 0 0.14164352065750019 0.28565952914375259 0 0.119830279307533 0.28412445454142882 0 0.12307966925931189 0.2720380564679783 0 0.14164352065750019 0.28565952914375259 0 0.123347793273833 0.29452328472033279 0 0.14688925378863149 0.29830396303434059 0 0.14164352065750019 0.28565952914375259 0 0.123347793273833 0.29452328472033279 0 0.119830279307533 0.28412445454142882 0 0.14164352065750019 0.28565952914375259 0 0.123347793273833 0.29452328472033279 0 0.14164352065750019 0.28565952914375259 0 0.123347793273833 0.29452328472033279 0 0.13290408152121899 0.31029981655808381 0 0.14688925378863149 0.29830396303434059 0 0.13290408152121899 0.31029981655808381 0 0.1460220099428802 0.31143794252409279 0 0.14688925378863149 0.29830396303434059 0 0.1460220099428802 0.31143794252409279 0 0.14688925378863149 0.29830396303434059 0 0.16119137620701521 0.30075713334268439 0 0.1460220099428802 0.31143794252409279 0 0.16119137620701521 0.30075713334268439 0 0.15933708749110659 0.31556273425360942 0 0.14688925378863149 0.29830396303434059 0 0.16119137620701521 0.30075713334268439 0 0.15993924804116641 0.27679577356717028 0 0.14688925378863149 0.29830396303434059 0 0.15993924804116641 0.27679577356717028 0 0.14688925378863149 0.29830396303434059 0 0.14164352065750019 0.28565952914375259 0 0.15993924804116641 0.27679577356717028 0 0.16119137620701521 0.30075713334268439 0 0.17198566490255299 0.28978446771594402 0 0.15993924804116641 0.27679577356717028 0 0.17198566490255299 0.28978446771594402 0 0.17492623113893049 0.27885868973688638 0 0.15993924804116641 0.27679577356717028 0 0.16119137620701521 0.30075713334268439 0 0.17847099086289661 0.30718254580075333 0 0.15933708749110659 0.31556273425360942 0 0.16119137620701521 0.30075713334268439 0 0.17847099086289661 0.30718254580075333 0 0.17198566490255299 0.28978446771594402 0 0.17847099086289661 0.30718254580075333 0 0.18735069749268521 0.2819855938833386 0 0.19357693924923489 0.29223757862838012 0 0.17847099086289661 0.30718254580075333 0 0.18735069749268521 0.2819855938833386 0 0.17847099086289661 0.30718254580075333 0 0.17198566490255299 0.28978446771594402 0 0.18735069749268521 0.2819855938833386 0 0.17198566490255299 0.28978446771594402 0 0.18735069749268521 0.2819855938833386 0 0.17492623113893049 0.27885868973688638 0 0.18735069749268521 0.2819855938833386 0 0.18042931411931901 0.26686892378109361 0 0.17492623113893049 0.27885868973688638 0 0.18735069749268521 0.2819855938833386 0 0.18042931411931901 0.26686892378109361 0 0.18930722703480479 0.26056568242568617 0 0.18042931411931901 0.26686892378109361 0 0.15993924804116641 0.27679577356717028 0 0.15993924804116641 0.27679577356717028 0 0.17314797272478011 0.2550259744686178 0 0.18042931411931901 0.26686892378109361 0 0.17492623113893049 0.27885868973688638 0 0.15993924804116641 0.27679577356717028 0 0.18042931411931901 0.26686892378109361 0 0.15993924804116641 0.27679577356717028 0 0.17314797272478011 0.2550259744686178 0 0.15460578323957749 0.26216636583925079 0 0.15993924804116641 0.27679577356717028 0 0.17314797272478011 0.2550259744686178 0 0.16048528187025701 0.23476608104578439 0 0.15460578323957749 0.26216636583925079 0 0.17314797272478011 0.2550259744686178 0 0.18042931411931901 0.26686892378109361 0 0.17314797272478011 0.2550259744686178 0 0.18231411620178309 0.25385363295164209 0 0.18042931411931901 0.26686892378109361 0 0.18231411620178309 0.25385363295164209 0 0.18930722703480479 0.26056568242568617 0 0.18231411620178309 0.25385363295164209 0 0.189551943328616 0.25174004900009123 0 0.18930722703480479 0.26056568242568617 0 0.189551943328616 0.25174004900009123 0 0.18930722703480479 0.26056568242568617 0 0.19623040412247419 0.25678864196592399 0 0.189551943328616 0.25174004900009123 0 0.19623040412247419 0.25678864196592399 0 0.19623040412247419 0.25678864196592399 0 0.19721116492219409 0.27080348688121392 0 0.2055305901915892 0.26381913228677961 0 0.19623040412247419 0.25678864196592399 0 0.2055305901915892 0.26381913228677961 0 0.18735069749268521 0.2819855938833386 0 0.18930722703480479 0.26056568242568617 0 0.19623040412247419 0.25678864196592399 0 0.18735069749268521 0.2819855938833386 0 0.19623040412247419 0.25678864196592399 0 0.19721116492219409 0.27080348688121392 0 0.18735069749268521 0.2819855938833386 0 0.19623040412247419 0.25678864196592399 0 0.18735069749268521 0.2819855938833386 0 0.19721116492219409 0.27080348688121392 0 0.2004291431558152 0.27594724273185972 0 0.2004291431558152 0.27594724273185972 0 0.2055305901915892 0.26381913228677961 0 0.19721116492219409 0.27080348688121392 0 0.2004291431558152 0.27594724273185972 0 0.2055305901915892 0.26381913228677961 0 0.19721116492219409 0.27080348688121392 0 0.2004291431558152 0.27594724273185972 0 0.2055305901915892 0.26381913228677961 0 0.22368476840064311 0.26088578410735508 0 0.22485030542561929 0.27842390147582369 0 0.2055305901915892 0.26381913228677961 0 0.22485030542561929 0.27842390147582369 0 0.2004291431558152 0.27594724273185972 0 0.2055305901915892 0.26381913228677961 0 0.22485030542561929 0.27842390147582369 0 0.21672450977678229 0.23720686088802539 0 0.19623040412247419 0.25678864196592399 0 0.2055305901915892 0.26381913228677961 0 0.21672450977678229 0.23720686088802539 0 0.2055305901915892 0.26381913228677961 0 0.22368476840064311 0.26088578410735508 0 0.21672450977678229 0.23720686088802539 0 0.2055305901915892 0.26381913228677961 0 0.21672450977678229 0.23720686088802539 0 0.22368476840064311 0.26088578410735508 0 0.2393105250387596 0.2522611276579797 0 0.22368476840064311 0.26088578410735508 0 0.22485030542561929 0.27842390147582369 0 0.2442711053158253 0.27071593300353508 0 0.22485030542561929 0.27842390147582369 0 0.2442711053158253 0.27071593300353508 0 0.24417002065964971 0.2930286706648676 0 0.2442711053158253 0.27071593300353508 0 0.2393105250387596 0.2522611276579797 0 0.2630771961758292 0.25483384150313898 0 0.22368476840064311 0.26088578410735508 0 0.2442711053158253 0.27071593300353508 0 0.2393105250387596 0.2522611276579797 0 0.24417002065964971 0.2930286706648676 0 0.23237089805861141 0.30492030095977007 0 0.24614155513057029 0.31445964941925542 0 0.22485030542561929 0.27842390147582369 0 0.24417002065964971 0.2930286706648676 0 0.22485030542561929 0.27842390147582369 0 0.24417002065964971 0.2930286706648676 0 0.23237089805861141 0.30492030095977007 0 0.22485030542561929 0.27842390147582369 0 0.23237089805861141 0.30492030095977007 0 0.21461125876163861 0.29861655085823158 0 0.23237089805861141 0.30492030095977007 0 0.21461125876163861 0.29861655085823158 0 0.22879337436746039 0.32128585898460432 0 0.21461125876163861 0.29861655085823158 0 0.21420168428208169 0.31487021677087879 0 0.22879337436746039 0.32128585898460432 0 0.21461125876163861 0.29861655085823158 0 0.22879337436746039 0.32128585898460432 0 0.21461125876163861 0.29861655085823158 0 0.19886043272573889 0.31268479918417552 0 0.21420168428208169 0.31487021677087879 0 0.2004291431558152 0.27594724273185972 0 0.21461125876163861 0.29861655085823158 0 0.2004291431558152 0.27594724273185972 0 0.22485030542561929 0.27842390147582369 0 0.21461125876163861 0.29861655085823158 0 0.18735069749268521 0.2819855938833386 0 0.2004291431558152 0.27594724273185972 0 0.19357693924923489 0.29223757862838012 0 0.2004291431558152 0.27594724273185972 0 0.19357693924923489 0.29223757862838012 0 0.2004291431558152 0.27594724273185972 0 0.21461125876163861 0.29861655085823158 0 0.19357693924923489 0.29223757862838012 0 0.21461125876163861 0.29861655085823158 0 0.19357693924923489 0.29223757862838012 0 0.19886043272573889 0.31268479918417552 0 0.17847099086289661 0.30718254580075333 0 0.19357693924923489 0.29223757862838012 0 0.19886043272573889 0.31268479918417552 0 0.19886043272573889 0.31268479918417552 0 0.19266229599868659 0.33380722811631719 0 0.2145416712734893 0.32689365805650339 0 0.19886043272573889 0.31268479918417552 0 0.19266229599868659 0.33380722811631719 0 0.18489625095510751 0.32151351770485348 0 0.19266229599868659 0.33380722811631719 0 0.2079829991553841 0.34032791117179262 0 0.19499117037187219 0.35478863043576497 0 0.19266229599868659 0.33380722811631719 0 0.2079829991553841 0.34032791117179262 0 0.2145416712734893 0.32689365805650339 0 0.2079829991553841 0.34032791117179262 0 0.22440054341317939 0.33558652322654148 0 0.2205724084329713 0.34839029982279901 0 0.2079829991553841 0.34032791117179262 0 0.2145416712734893 0.32689365805650339 0 0.22440054341317939 0.33558652322654148 0 0.19886043272573889 0.31268479918417552 0 0.2145416712734893 0.32689365805650339 0 0.21420168428208169 0.31487021677087879 0 0.2145416712734893 0.32689365805650339 0 0.22879337436746039 0.32128585898460432 0 0.2145416712734893 0.32689365805650339 0 0.21420168428208169 0.31487021677087879 0 0.22879337436746039 0.32128585898460432 0 0.2145416712734893 0.32689365805650339 0 0.22879337436746039 0.32128585898460432 0 0.22440054341317939 0.33558652322654148 0 0.22879337436746039 0.32128585898460432 0 0.22440054341317939 0.33558652322654148 0 0.24214058251549189 0.34262061485208378 0 0.22440054341317939 0.33558652322654148 0 0.24214058251549189 0.34262061485208378 0 0.2205724084329713 0.34839029982279901 0 0.22879337436746039 0.32128585898460432 0 0.24214058251549189 0.34262061485208378 0 0.246531437400972 0.32887974404432718 0 0.22879337436746039 0.32128585898460432 0 0.24214058251549189 0.34262061485208378 0 0.24214058251549189 0.34262061485208378 0 0.246531437400972 0.32887974404432718 0 0.2567373432211304 0.34209573919306951 0 0.22879337436746039 0.32128585898460432 0 0.246531437400972 0.32887974404432718 0 0.24614155513057029 0.31445964941925542 0 0.22879337436746039 0.32128585898460432 0 0.24614155513057029 0.31445964941925542 0 0.23237089805861141 0.30492030095977007 0 0.22879337436746039 0.32128585898460432 0 0.24614155513057029 0.31445964941925542 0 0.2369073015839207 0.37014984782797261 0 0.24573168072093279 0.36697096956990921 0 0.24156975365787209 0.35782017280483153 0 0.2369073015839207 0.37014984782797261 0 0.24156975365787209 0.35782017280483153 0 0.22932643485065751 0.35903597765923401 0 0.2369073015839207 0.37014984782797261 0 0.24645995420460509 0.37498275800661462 0 0.24573168072093279 0.36697096956990921 0 0.24645995420460509 0.37498275800661462 0 0.24573168072093279 0.36697096956990921 0 0.25548779066352317 0.36395537071956358 0 0.24573168072093279 0.36697096956990921 0 0.24156975365787209 0.35782017280483153 0 0.25548779066352317 0.36395537071956358 0 0.24214058251549189 0.34262061485208378 0 0.25548779066352317 0.36395537071956358 0 0.24214058251549189 0.34262061485208378 0 0.24156975365787209 0.35782017280483153 0 0.22932643485065751 0.35903597765923401 0 0.24214058251549189 0.34262061485208378 0 0.24156975365787209 0.35782017280483153 0 0.25548779066352317 0.36395537071956358 0 0.24214058251549189 0.34262061485208378 0 0.2205724084329713 0.34839029982279901 0 0.22932643485065751 0.35903597765923401 0 0.2369073015839207 0.37014984782797261 0 0.22932643485065751 0.35903597765923401 0 0.22096051859306981 0.37071348885167282 0 0.2205724084329713 0.34839029982279901 0 0.22932643485065751 0.35903597765923401 0 0.22096051859306981 0.37071348885167282 0 0.2205724084329713 0.34839029982279901 0 0.22096051859306981 0.37071348885167282 0 0.205233903287172 0.36855661440033322 0 0.2079829991553841 0.34032791117179262 0 0.2205724084329713 0.34839029982279901 0 0.19499117037187219 0.35478863043576497 0 0.2205724084329713 0.34839029982279901 0 0.205233903287172 0.36855661440033322 0 0.19499117037187219 0.35478863043576497 0 0.19266229599868659 0.33380722811631719 0 0.19499117037187219 0.35478863043576497 0 0.1768477852604565 0.34909990856557083 0 0.205233903287172 0.36855661440033322 0 0.19499117037187219 0.35478863043576497 0 0.19050330334353779 0.38010237645982292 0 0.19499117037187219 0.35478863043576497 0 0.17291717288253741 0.37146220523714107 0 0.19050330334353779 0.38010237645982292 0 0.17291717288253741 0.37146220523714107 0 0.16071157760331961 0.35757644963558283 0 0.1768477852604565 0.34909990856557083 0 0.17291717288253741 0.37146220523714107 0 0.16071157760331961 0.35757644963558283 0 0.1601569517168607 0.38484007952827187 0 0.16071157760331961 0.35757644963558283 0 0.1768477852604565 0.34909990856557083 0 0.1695912842331081 0.3323794977181681 0 0.16071157760331961 0.35757644963558283 0 0.1695912842331081 0.3323794977181681 0 0.16071157760331961 0.35757644963558283 0 0.1695912842331081 0.3323794977181681 0 0.14706696348368481 0.34476596070091831 0 0.19499117037187219 0.35478863043576497 0 0.17291717288253741 0.37146220523714107 0 0.1768477852604565 0.34909990856557083 0 0.19266229599868659 0.33380722811631719 0 0.18489625095510751 0.32151351770485348 0 0.1695912842331081 0.3323794977181681 0 0.19266229599868659 0.33380722811631719 0 0.1768477852604565 0.34909990856557083 0 0.1695912842331081 0.3323794977181681 0 0.17847099086289661 0.30718254580075333 0 0.19886043272573889 0.31268479918417552 0 0.18489625095510751 0.32151351770485348 0 0.17847099086289661 0.30718254580075333 0 0.18489625095510751 0.32151351770485348 0 0.1695912842331081 0.3323794977181681 0 0.17847099086289661 0.30718254580075333 0 0.1695912842331081 0.3323794977181681 0 0.15933708749110659 0.31556273425360942 0 0.1695912842331081 0.3323794977181681 0 0.1414097762096331 0.32605655188234828 0 0.17847099086289661 0.30718254580075333 0 0.15933708749110659 0.31556273425360942 0 0.1695912842331081 0.3323794977181681 0 0.1695912842331081 0.3323794977181681 0 0.1414097762096331 0.32605655188234828 0 0.14706696348368481 0.34476596070091831 0 0.1460220099428802 0.31143794252409279 0 0.15933708749110659 0.31556273425360942 0 0.1414097762096331 0.32605655188234828 0 0.12118616471353801 0.32592773165605221 0 0.1414097762096331 0.32605655188234828 0 0.12118616471353801 0.32592773165605221 0 0.13290408152121899 0.31029981655808381 0 0.1414097762096331 0.32605655188234828 0 0.13290408152121899 0.31029981655808381 0 0.1460220099428802 0.31143794252409279 0 0.1414097762096331 0.32605655188234828 0 0.1414097762096331 0.32605655188234828 0 0.1273382652159849 0.34507276573136542 0 0.14706696348368481 0.34476596070091831 0 0.12118616471353801 0.32592773165605221 0 0.1414097762096331 0.32605655188234828 0 0.1273382652159849 0.34507276573136542 0 0.1273382652159849 0.34507276573136542 0 0.14076522463041469 0.36439376089645759 0 0.14706696348368481 0.34476596070091831 0 0.121260272565483 0.36424145571470951 0 0.1273382652159849 0.34507276573136542 0 0.14076522463041469 0.36439376089645759 0 0.121260272565483 0.36424145571470951 0 0.14076522463041469 0.36439376089645759 0 0.13515494786428409 0.38574963395918899 0 0.121260272565483 0.36424145571470951 0 0.13515494786428409 0.38574963395918899 0 0.16071157760331961 0.35757644963558283 0 0.14076522463041469 0.36439376089645759 0 0.14718564380204599 0.37893335384407878 0 0.16071157760331961 0.35757644963558283 0 0.14718564380204599 0.37893335384407878 0 0.1601569517168607 0.38484007952827187 0 0.16071157760331961 0.35757644963558283 0 0.14076522463041469 0.36439376089645759 0 0.14706696348368481 0.34476596070091831 0 0.14964046358361799 0.39122972072295742 0 0.13515494786428409 0.38574963395918899 0 0.14904962316308509 0.40725781220366858 0 0.13515494786428409 0.38574963395918899 0 0.14904962316308509 0.40725781220366858 0 0.14964046358361799 0.39122972072295742 0 0.14904962316308509 0.40725781220366858 0 0.1582962660670221 0.39775169579284869 0 0.14904962316308509 0.40725781220366858 0 0.15983056781224211 0.40985649332909219 0 0.1582962660670221 0.39775169579284869 0 0.14964046358361799 0.39122972072295742 0 0.1582962660670221 0.39775169579284869 0 0.1601569517168607 0.38484007952827187 0 0.14964046358361799 0.39122972072295742 0 0.14718564380204599 0.37893335384407878 0 0.1601569517168607 0.38484007952827187 0 0.14076522463041469 0.36439376089645759 0 0.14718564380204599 0.37893335384407878 0 0.13515494786428409 0.38574963395918899 0 0.14964046358361799 0.39122972072295742 0 0.14718564380204599 0.37893335384407878 0 0.13515494786428409 0.38574963395918899 0 0.1130284250608348 0.38278386795824609 0 0.13515494786428409 0.38574963395918899 0 0.13153493247113179 0.39254869038096368 0 0.13515494786428409 0.38574963395918899 0 0.13153493247113179 0.39254869038096368 0 0.13708271848542311 0.40165838548715571 0 0.13515494786428409 0.38574963395918899 0 0.13708271848542311 0.40165838548715571 0 0.14904962316308509 0.40725781220366858 0 0.13153493247113179 0.39254869038096368 0 0.13708271848542311 0.40165838548715571 0 0.12523198865508839 0.40452397943286489 0 0.13708271848542311 0.40165838548715571 0 0.12523198865508839 0.40452397943286489 0 0.1325679823741974 0.41086208693633752 0 0.1207841289584564 0.41861445094320349 0 0.12523198865508839 0.40452397943286489 0 0.1325679823741974 0.41086208693633752 0 0.1207841289584564 0.41861445094320349 0 0.1325679823741974 0.41086208693633752 0 0.1339456159494716 0.42332276326867851 0 0.1325679823741974 0.41086208693633752 0 0.1339456159494716 0.42332276326867851 0 0.14073722149729331 0.41401875881578593 0 0.13708271848542311 0.40165838548715571 0 0.1325679823741974 0.41086208693633752 0 0.14073722149729331 0.41401875881578593 0 0.1240675572909157 0.43647709985435379 0 0.1207841289584564 0.41861445094320349 0 0.1339456159494716 0.42332276326867851 0 0.1240675572909157 0.43647709985435379 0 0.1339456159494716 0.42332276326867851 0 0.13628188343751171 0.43739005957489852 0 0.1339456159494716 0.42332276326867851 0 0.13628188343751171 0.43739005957489852 0 0.14738843085669609 0.42357316863437511 0 0.13628188343751171 0.43739005957489852 0 0.14738843085669609 0.42357316863437511 0 0.1484216496450079 0.44235481117325598 0 0.14738843085669609 0.42357316863437511 0 0.1629442984618861 0.42876599044814812 0 0.1484216496450079 0.44235481117325598 0 0.14738843085669609 0.42357316863437511 0 0.14073722149729331 0.41401875881578593 0 0.14904962316308509 0.40725781220366858 0 0.14904962316308509 0.40725781220366858 0 0.1629442984618861 0.42876599044814812 0 0.14738843085669609 0.42357316863437511 0 0.14904962316308509 0.40725781220366858 0 0.1629442984618861 0.42876599044814812 0 0.13708271848542311 0.40165838548715571 0 0.14073722149729331 0.41401875881578593 0 0.14904962316308509 0.40725781220366858 0 0.1339456159494716 0.42332276326867851 0 0.14738843085669609 0.42357316863437511 0 0.14073722149729331 0.41401875881578593 0 0.1714615001018549 0.41765239655405961 0 0.15983056781224211 0.40985649332909219 0 0.1629442984618861 0.42876599044814812 0 0.1714615001018549 0.41765239655405961 0 0.15983056781224211 0.40985649332909219 0 0.182497705599652 0.40903515446456179 0 0.15983056781224211 0.40985649332909219 0 0.182497705599652 0.40903515446456179 0 0.14904962316308509 0.40725781220366858 0 0.15983056781224211 0.40985649332909219 0 0.1629442984618861 0.42876599044814812 0 0.1629442984618861 0.42876599044814812 0 0.1895568179496834 0.42949122936062889 0 0.17683897376068711 0.45027416869262771 0 0.1714615001018549 0.41765239655405961 0 0.1629442984618861 0.42876599044814812 0 0.1895568179496834 0.42949122936062889 0 0.1714615001018549 0.41765239655405961 0 0.182497705599652 0.40903515446456179 0 0.1895568179496834 0.42949122936062889 0 0.17280372405930469 0.39557437318025379 0 0.19050330334353779 0.38010237645982292 0 0.19339536104055369 0.39659423695225487 0 0.182497705599652 0.40903515446456179 0 0.17280372405930469 0.39557437318025379 0 0.19339536104055369 0.39659423695225487 0 0.15983056781224211 0.40985649332909219 0 0.182497705599652 0.40903515446456179 0 0.17280372405930469 0.39557437318025379 0 0.17280372405930469 0.39557437318025379 0 0.1582962660670221 0.39775169579284869 0 0.1601569517168607 0.38484007952827187 0 0.15983056781224211 0.40985649332909219 0 0.17280372405930469 0.39557437318025379 0 0.1582962660670221 0.39775169579284869 0 0.17291717288253741 0.37146220523714107 0 0.17280372405930469 0.39557437318025379 0 0.1601569517168607 0.38484007952827187 0 0.17291717288253741 0.37146220523714107 0 0.17280372405930469 0.39557437318025379 0 0.19050330334353779 0.38010237645982292 0 0.19050330334353779 0.38010237645982292 0 0.19339536104055369 0.39659423695225487 0 0.21097159065292889 0.38832741591240488 0 0.205233903287172 0.36855661440033322 0 0.19050330334353779 0.38010237645982292 0 0.21097159065292889 0.38832741591240488 0 0.182497705599652 0.40903515446456179 0 0.19339536104055369 0.39659423695225487 0 0.20516484338706201 0.40821381560003139 0 0.19339536104055369 0.39659423695225487 0 0.21097159065292889 0.38832741591240488 0 0.20516484338706201 0.40821381560003139 0 0.21097159065292889 0.38832741591240488 0 0.22783198117447201 0.40739247673550111 0 0.20516484338706201 0.40821381560003139 0 0.22096051859306981 0.37071348885167282 0 0.205233903287172 0.36855661440033322 0 0.21097159065292889 0.38832741591240488 0 0.22096051859306981 0.37071348885167282 0 0.21097159065292889 0.38832741591240488 0 0.23617569769432689 0.38662288977905118 0 0.2369073015839207 0.37014984782797261 0 0.22096051859306981 0.37071348885167282 0 0.23617569769432689 0.38662288977905118 0 0.21097159065292889 0.38832741591240488 0 0.23617569769432689 0.38662288977905118 0 0.22783198117447201 0.40739247673550111 0 0.23617569769432689 0.38662288977905118 0 0.25049911896188198 0.40657113787097038 0 0.25299345481270241 0.38526325429526698 0 0.23617569769432689 0.38662288977905118 0 0.22783198117447201 0.40739247673550111 0 0.25049911896188198 0.40657113787097038 0 0.24645995420460509 0.37498275800661462 0 0.23617569769432689 0.38662288977905118 0 0.25299345481270241 0.38526325429526698 0 0.2369073015839207 0.37014984782797261 0 0.24645995420460509 0.37498275800661462 0 0.23617569769432689 0.38662288977905118 0 0.24703841110162819 0.43613426191922339 0 0.23840931675243229 0.42004477541745061 0 0.22826775577174699 0.43008122514410763 0 0.24703841110162819 0.43613426191922339 0 0.24977140174778059 0.42499340612939768 0 0.25049911896188198 0.40657113787097038 0 0.23840931675243229 0.42004477541745061 0 0.22783198117447201 0.40739247673550111 0 0.25049911896188198 0.40657113787097038 0 0.24703841110162819 0.43613426191922339 0 0.23840931675243229 0.42004477541745061 0 0.25049911896188198 0.40657113787097038 0 0.22783198117447201 0.40739247673550111 0 0.25049911896188198 0.40657113787097038 0 0.24703841110162819 0.43613426191922339 0 0.25049911896188198 0.40657113787097038 0 0.23840931675243229 0.42004477541745061 0 0.22783198117447201 0.40739247673550111 0 0.22826775577174699 0.43008122514410763 0 0.22783198117447201 0.40739247673550111 0 0.22826775577174699 0.43008122514410763 0 0.20969744763210471 0.42549714019907531 0 0.20969744763210471 0.42549714019907531 0 0.1895568179496834 0.42949122936062889 0 0.21207820348607001 0.44320560743940701 0 0.22826775577174699 0.43008122514410763 0 0.20969744763210471 0.42549714019907531 0 0.21207820348607001 0.44320560743940701 0 0.22783198117447201 0.40739247673550111 0 0.20516484338706201 0.40821381560003139 0 0.22783198117447201 0.40739247673550111 0 0.20969744763210471 0.42549714019907531 0 0.20516484338706201 0.40821381560003139 0 0.182497705599652 0.40903515446456179 0 0.20516484338706201 0.40821381560003139 0 0.20969744763210471 0.42549714019907531 0 0.20516484338706201 0.40821381560003139 0 0.1895568179496834 0.42949122936062889 0 0.182497705599652 0.40903515446456179 0 0.20516484338706201 0.40821381560003139 0 0.1895568179496834 0.42949122936062889 0 0.1895568179496834 0.42949122936062889 0 0.19577157116815061 0.45328556148712001 0 0.21207820348607001 0.44320560743940701 0 0.19577157116815061 0.45328556148712001 0 0.19073364905948831 0.47178234693710741 0 0.17683897376068711 0.45027416869262771 0 0.19577157116815061 0.45328556148712001 0 0.21342708824301951 0.46377853475217912 0 0.19073364905948831 0.47178234693710741 0 0.19577157116815061 0.45328556148712001 0 0.21342708824301951 0.46377853475217912 0 0.21207820348607001 0.44320560743940701 0 0.22826775577174699 0.43008122514410763 0 0.21207820348607001 0.44320560743940701 0 0.23124048585414439 0.4477303040589366 0 0.21342708824301951 0.46377853475217912 0 0.21207820348607001 0.44320560743940701 0 0.23124048585414439 0.4477303040589366 0 0.21342708824301951 0.46377853475217912 0 0.23124048585414439 0.4477303040589366 0 0.2359903679092803 0.46516770797114437 0 0.23124048585414439 0.4477303040589366 0 0.2359903679092803 0.46516770797114437 0 0.24458969723878921 0.44935745629110391 0 0.2359903679092803 0.46516770797114437 0 0.24458969723878921 0.44935745629110391 0 0.25614129822204601 0.45794934120878678 0 0.2359903679092803 0.46516770797114437 0 0.25188265884249778 0.47641603613978911 0 0.25614129822204601 0.45794934120878678 0 0.24703841110162819 0.43613426191922339 0 0.22826775577174699 0.43008122514410763 0 0.23124048585414439 0.4477303040589366 0 0.24703841110162819 0.43613426191922339 0 0.23124048585414439 0.4477303040589366 0 0.24458969723878921 0.44935745629110391 0 0.24703841110162819 0.43613426191922339 0 0.24458969723878921 0.44935745629110391 0 0.2574224563510934 0.44408838631983127 0 0.2346327404033445 0.5 0 0.25188265884249778 0.47641603613978911 0 0.26220887439977653 0.5 0 0.2346327404033445 0.5 0 0.22470632831416351 0.48122104021392981 0 0.25188265884249778 0.47641603613978911 0 0.2359903679092803 0.46516770797114437 0 0.22470632831416351 0.48122104021392981 0 0.25188265884249778 0.47641603613978911 0 0.21342708824301951 0.46377853475217912 0 0.2359903679092803 0.46516770797114437 0 0.22470632831416351 0.48122104021392981 0 0.2346327404033445 0.5 0 0.22470632831416351 0.48122104021392981 0 0.20705660640691259 0.5 0 0.22470632831416351 0.48122104021392981 0 0.20705660640691259 0.5 0 0.20524850807992651 0.48196396242046607 0 0.21342708824301951 0.46377853475217912 0 0.22470632831416351 0.48122104021392981 0 0.20524850807992651 0.48196396242046607 0 0.21342708824301951 0.46377853475217912 0 0.20524850807992651 0.48196396242046607 0 0.19073364905948831 0.47178234693710741 0 0.20705660640691259 0.5 0 0.20524850807992651 0.48196396242046607 0 0.1794804724104806 0.5 0 0.20524850807992651 0.48196396242046607 0 0.19073364905948831 0.47178234693710741 0 0.1794804724104806 0.5 0 0.1794804724104806 0.5 0 0.1673941017168043 0.47584471746468321 0 0.1519043384140486 0.5 0 0.1673941017168043 0.47584471746468321 0 0.15719674266903 0.45759138842742958 0 0.14657059951423521 0.47492675656492561 0 0.19073364905948831 0.47178234693710741 0 0.1794804724104806 0.5 0 0.1673941017168043 0.47584471746468321 0 0.19073364905948831 0.47178234693710741 0 0.1673941017168043 0.47584471746468321 0 0.17683897376068711 0.45027416869262771 0 0.19073364905948831 0.47178234693710741 0 0.17683897376068711 0.45027416869262771 0 0.1895568179496834 0.42949122936062889 0 0.19577157116815061 0.45328556148712001 0 0.17683897376068711 0.45027416869262771 0 0.17683897376068711 0.45027416869262771 0 0.16135041613415271 0.44474658968536529 0 0.15719674266903 0.45759138842742958 0 0.1629442984618861 0.42876599044814812 0 0.16135041613415271 0.44474658968536529 0 0.1484216496450079 0.44235481117325598 0 0.1629442984618861 0.42876599044814812 0 0.17683897376068711 0.45027416869262771 0 0.1629442984618861 0.42876599044814812 0 0.17683897376068711 0.45027416869262771 0 0.16135041613415271 0.44474658968536529 0 0.1673941017168043 0.47584471746468321 0 0.17683897376068711 0.45027416869262771 0 0.15719674266903 0.45759138842742958 0 0.15719674266903 0.45759138842742958 0 0.14025858460544499 0.4554931804949508 0 0.14657059951423521 0.47492675656492561 0 0.15719674266903 0.45759138842742958 0 0.1484216496450079 0.44235481117325598 0 0.14025858460544499 0.4554931804949508 0 0.13628188343751171 0.43739005957489852 0 0.1484216496450079 0.44235481117325598 0 0.14025858460544499 0.4554931804949508 0 0.16135041613415271 0.44474658968536529 0 0.15719674266903 0.45759138842742958 0 0.1484216496450079 0.44235481117325598 0 0.13628188343751171 0.43739005957489852 0 0.12581727049103361 0.45184727258381452 0 0.14025858460544499 0.4554931804949508 0 0.1240675572909157 0.43647709985435379 0 0.13628188343751171 0.43739005957489852 0 0.12581727049103361 0.45184727258381452 0 0.12581727049103361 0.45184727258381452 0 0.14025858460544499 0.4554931804949508 0 0.12739285513161719 0.46936070920994732 0 0.14025858460544499 0.4554931804949508 0 0.12739285513161719 0.46936070920994732 0 0.14657059951423521 0.47492675656492561 0 0.12739285513161719 0.46936070920994732 0 0.13396438461794399 0.48549093095616741 0 0.14657059951423521 0.47492675656492561 0 0.12432820441761661 0.5 0 0.13396438461794399 0.48549093095616741 0 0.1519043384140486 0.5 0 0.13396438461794399 0.48549093095616741 0 0.1519043384140486 0.5 0 0.14657059951423521 0.47492675656492561 0 0.1673941017168043 0.47584471746468321 0 0.1519043384140486 0.5 0 0.14657059951423521 0.47492675656492561 0 0.36438320113356992 0.48171160779965699 0 0.35852646383378539 0.45796088912983413 0 0.33836762456761282 0.47343897738958879 0 0.3449372763890724 0.5 0 0.36438320113356992 0.48171160779965699 0 0.33836762456761282 0.47343897738958879 0 0.3449372763890724 0.5 0 0.37251341038550451 0.5 0 0.36438320113356992 0.48171160779965699 0 0.37251341038550451 0.5 0 0.36438320113356992 0.48171160779965699 0 0.38512274335116659 0.48632708492225468 0 0.36438320113356992 0.48171160779965699 0 0.35852646383378539 0.45796088912983413 0 0.38363947782250851 0.47138225664371558 0 0.35852646383378539 0.45796088912983413 0 0.38568593820516062 0.45938274722044248 0 0.37288563135531327 0.44378361071592748 0 0.35852646383378539 0.45796088912983413 0 0.38568593820516062 0.45938274722044248 0 0.37288563135531327 0.44378361071592748 0 0.35755202935170849 0.43752509956600361 0 0.35852646383378539 0.45796088912983413 0 0.35755202935170849 0.43752509956600361 0 0.35852646383378539 0.45796088912983413 0 0.34137671152026888 0.44446280267119309 0 0.35852646383378539 0.45796088912983413 0 0.34137671152026888 0.44446280267119309 0 0.33836762456761282 0.47343897738958879 0 0.34137671152026888 0.44446280267119309 0 0.32347400806073923 0.45610103953313369 0 0.33836762456761282 0.47343897738958879 0 0.34137671152026888 0.44446280267119309 0 0.31994301121587793 0.44035076744256801 0 0.32347400806073923 0.45610103953313369 0 0.31994301121587793 0.44035076744256801 0 0.32347400806073923 0.45610103953313369 0 0.30241563052774117 0.45039956135922471 0 0.32347400806073923 0.45610103953313369 0 0.31526706247219538 0.47185308880309412 0 0.30241563052774117 0.45039956135922471 0 0.32347400806073923 0.45610103953313369 0 0.31526706247219538 0.47185308880309412 0 0.33836762456761282 0.47343897738958879 0 0.31526706247219538 0.47185308880309412 0 0.33836762456761282 0.47343897738958879 0 0.31736114239264052 0.5 0 0.3449372763890724 0.5 0 0.33836762456761282 0.47343897738958879 0 0.31736114239264052 0.5 0 0.31736114239264052 0.5 0 0.29345135449705412 0.47694543670536732 0 0.28978500839620852 0.5 0 0.31526706247219538 0.47185308880309412 0 0.31736114239264052 0.5 0 0.29345135449705412 0.47694543670536732 0 0.29345135449705412 0.47694543670536732 0 0.27510084469771912 0.47898352549656809 0 0.283693437542825 0.45783876934347728 0 0.29345135449705412 0.47694543670536732 0 0.28978500839620852 0.5 0 0.27510084469771912 0.47898352549656809 0 0.28978500839620852 0.5 0 0.27510084469771912 0.47898352549656809 0 0.26220887439977653 0.5 0 0.27510084469771912 0.47898352549656809 0 0.25188265884249778 0.47641603613978911 0 0.26962359662561391 0.46315503069427572 0 0.27510084469771912 0.47898352549656809 0 0.25188265884249778 0.47641603613978911 0 0.26220887439977653 0.5 0 0.2574224563510934 0.44408838631983127 0 0.25614129822204601 0.45794934120878678 0 0.26992748931122862 0.44987598510729632 0 0.24458969723878921 0.44935745629110391 0 0.2574224563510934 0.44408838631983127 0 0.25614129822204601 0.45794934120878678 0 0.25188265884249778 0.47641603613978911 0 0.25614129822204601 0.45794934120878678 0 0.26962359662561391 0.46315503069427572 0 0.25614129822204601 0.45794934120878678 0 0.26962359662561391 0.46315503069427572 0 0.26992748931122862 0.44987598510729632 0 0.27510084469771912 0.47898352549656809 0 0.26962359662561391 0.46315503069427572 0 0.283693437542825 0.45783876934347728 0 0.26962359662561391 0.46315503069427572 0 0.26992748931122862 0.44987598510729632 0 0.283693437542825 0.45783876934347728 0 0.26992748931122862 0.44987598510729632 0 0.28315432113935018 0.44264395593315919 0 0.283693437542825 0.45783876934347728 0 0.2574224563510934 0.44408838631983127 0 0.26992748931122862 0.44987598510729632 0 0.26971319072201932 0.43554880772301752 0 0.26992748931122862 0.44987598510729632 0 0.28315432113935018 0.44264395593315919 0 0.26971319072201932 0.43554880772301752 0 0.28315432113935018 0.44264395593315919 0 0.30241563052774117 0.45039956135922471 0 0.29216144437218361 0.43286913471290023 0 0.28315432113935018 0.44264395593315919 0 0.283693437542825 0.45783876934347728 0 0.30241563052774117 0.45039956135922471 0 0.29345135449705412 0.47694543670536732 0 0.283693437542825 0.45783876934347728 0 0.30241563052774117 0.45039956135922471 0 0.31526706247219538 0.47185308880309412 0 0.29345135449705412 0.47694543670536732 0 0.30241563052774117 0.45039956135922471 0 0.31994301121587793 0.44035076744256801 0 0.30241563052774117 0.45039956135922471 0 0.30776444085891208 0.42382042549937399 0 0.30241563052774117 0.45039956135922471 0 0.30776444085891208 0.42382042549937399 0 0.29216144437218361 0.43286913471290023 0 0.30776444085891208 0.42382042549937399 0 0.29543816685855723 0.40842312416925702 0 0.31827154941394542 0.4001379831891867 0 0.30776444085891208 0.42382042549937399 0 0.29543816685855723 0.40842312416925702 0 0.28954835400095158 0.42166438213460528 0 0.29543816685855723 0.40842312416925702 0 0.28954835400095158 0.42166438213460528 0 0.27260478430316892 0.41670826514932741 0 0.29543816685855723 0.40842312416925702 0 0.27260478430316892 0.41670826514932741 0 0.27669591934792409 0.40562190244101931 0 0.29543816685855723 0.40842312416925702 0 0.27260478430316892 0.41670826514932741 0 0.30776444085891208 0.42382042549937399 0 0.28954835400095158 0.42166438213460528 0 0.29216144437218361 0.43286913471290023 0 0.28954835400095158 0.42166438213460528 0 0.29216144437218361 0.43286913471290023 0 0.28101473436010388 0.42933147735303928 0 0.28315432113935018 0.44264395593315919 0 0.29216144437218361 0.43286913471290023 0 0.28101473436010388 0.42933147735303928 0 0.28315432113935018 0.44264395593315919 0 0.26971319072201932 0.43554880772301752 0 0.28101473436010388 0.42933147735303928 0 0.26971319072201932 0.43554880772301752 0 0.27260478430316892 0.41670826514932741 0 0.25931004884513809 0.43149462544815947 0 0.26971319072201932 0.43554880772301752 0 0.28101473436010388 0.42933147735303928 0 0.27260478430316892 0.41670826514932741 0 0.28954835400095158 0.42166438213460528 0 0.28101473436010388 0.42933147735303928 0 0.27260478430316892 0.41670826514932741 0 0.27260478430316892 0.41670826514932741 0 0.26239280609018889 0.41347367789767869 0 0.27669591934792409 0.40562190244101931 0 0.24977140174778059 0.42499340612939768 0 0.27260478430316892 0.41670826514932741 0 0.24977140174778059 0.42499340612939768 0 0.25049911896188198 0.40657113787097038 0 0.26239280609018889 0.41347367789767869 0 0.24977140174778059 0.42499340612939768 0 0.27260478430316892 0.41670826514932741 0 0.26239280609018889 0.41347367789767869 0 0.25049911896188198 0.40657113787097038 0 0.26239280609018889 0.41347367789767869 0 0.27669591934792409 0.40562190244101931 0 0.24977140174778059 0.42499340612939768 0 0.27260478430316892 0.41670826514932741 0 0.25931004884513809 0.43149462544815947 0 0.24703841110162819 0.43613426191922339 0 0.2574224563510934 0.44408838631983127 0 0.25931004884513809 0.43149462544815947 0 0.24703841110162819 0.43613426191922339 0 0.24977140174778059 0.42499340612939768 0 0.25931004884513809 0.43149462544815947 0 0.2574224563510934 0.44408838631983127 0 0.26971319072201932 0.43554880772301752 0 0.25931004884513809 0.43149462544815947 0 0.26459095578761332 0.37850626431392431 0 0.25299345481270241 0.38526325429526698 0 0.25548779066352317 0.36395537071956358 0 0.26459095578761332 0.37850626431392431 0 0.25299345481270241 0.38526325429526698 0 0.26595056748614548 0.39324027757425323 0 0.25049911896188198 0.40657113787097038 0 0.25299345481270241 0.38526325429526698 0 0.25049911896188198 0.40657113787097038 0 0.27669591934792409 0.40562190244101931 0 0.25049911896188198 0.40657113787097038 0 0.25299345481270241 0.38526325429526698 0 0.26595056748614548 0.39324027757425323 0 0.25049911896188198 0.40657113787097038 0 0.26595056748614548 0.39324027757425323 0 0.27669591934792409 0.40562190244101931 0 0.26595056748614548 0.39324027757425323 0 0.27669591934792409 0.40562190244101931 0 0.28079065191256752 0.39205403840979453 0 0.28079065191256752 0.39205403840979453 0 0.27219331634106281 0.38542284876725069 0 0.27832884403912411 0.37731467770205851 0 0.26595056748614548 0.39324027757425323 0 0.28079065191256752 0.39205403840979453 0 0.27219331634106281 0.38542284876725069 0 0.26459095578761332 0.37850626431392431 0 0.26595056748614548 0.39324027757425323 0 0.27219331634106281 0.38542284876725069 0 0.26459095578761332 0.37850626431392431 0 0.27219331634106281 0.38542284876725069 0 0.27832884403912411 0.37731467770205851 0 0.28079065191256752 0.39205403840979453 0 0.27832884403912411 0.37731467770205851 0 0.29265931324547578 0.37796853508972289 0 0.28079065191256752 0.39205403840979453 0 0.29265931324547578 0.37796853508972289 0 0.29965212442465 0.39119166895696239 0 0.29543816685855723 0.40842312416925702 0 0.28079065191256752 0.39205403840979453 0 0.29965212442465 0.39119166895696239 0 0.29543816685855723 0.40842312416925702 0 0.27669591934792409 0.40562190244101931 0 0.28079065191256752 0.39205403840979453 0 0.29543816685855723 0.40842312416925702 0 0.31827154941394542 0.4001379831891867 0 0.29543816685855723 0.40842312416925702 0 0.29965212442465 0.39119166895696239 0 0.31827154941394542 0.4001379831891867 0 0.29965212442465 0.39119166895696239 0 0.31110094069270439 0.37737466392685121 0 0.31827154941394542 0.4001379831891867 0 0.29265931324547578 0.37796853508972289 0 0.29965212442465 0.39119166895696239 0 0.31110094069270439 0.37737466392685121 0 0.31110094069270439 0.37737466392685121 0 0.32917956152606132 0.37856252095522608 0 0.31827154941394542 0.4001379831891867 0 0.32917956152606132 0.37856252095522608 0 0.34110493196933372 0.39185284220911631 0 0.34384859879851359 0.36838084895401352 0 0.32917956152606132 0.37856252095522608 0 0.34110493196933372 0.39185284220911631 0 0.31827154941394542 0.4001379831891867 0 0.34110493196933372 0.39185284220911631 0 0.31827154941394542 0.4001379831891867 0 0.34110493196933372 0.39185284220911631 0 0.31827154941394542 0.4001379831891867 0 0.33974780678612548 0.40877076594805462 0 0.30776444085891208 0.42382042549937399 0 0.31827154941394542 0.4001379831891867 0 0.32957929577189288 0.42333249826749247 0 0.31994301121587793 0.44035076744256801 0 0.30776444085891208 0.42382042549937399 0 0.32957929577189288 0.42333249826749247 0 0.34137671152026888 0.44446280267119309 0 0.31994301121587793 0.44035076744256801 0 0.32957929577189288 0.42333249826749247 0 0.34137671152026888 0.44446280267119309 0 0.32957929577189288 0.42333249826749247 0 0.34847055176180858 0.42261230871572902 0 0.32957929577189288 0.42333249826749247 0 0.33974780678612548 0.40877076594805462 0 0.34847055176180858 0.42261230871572902 0 0.31827154941394542 0.4001379831891867 0 0.32957929577189288 0.42333249826749247 0 0.33974780678612548 0.40877076594805462 0 0.33974780678612548 0.40877076594805462 0 0.34847055176180858 0.42261230871572902 0 0.35750929886480892 0.40623832508104818 0 0.34847055176180858 0.42261230871572902 0 0.36725657112224458 0.42555379464928023 0 0.35750929886480892 0.40623832508104818 0 0.35755202935170849 0.43752509956600361 0 0.34137671152026888 0.44446280267119309 0 0.34847055176180858 0.42261230871572902 0 0.35755202935170849 0.43752509956600361 0 0.34847055176180858 0.42261230871572902 0 0.36725657112224458 0.42555379464928023 0 0.37288563135531327 0.44378361071592748 0 0.35755202935170849 0.43752509956600361 0 0.36725657112224458 0.42555379464928023 0 0.36725657112224458 0.42555379464928023 0 0.35750929886480892 0.40623832508104818 0 0.37704240093825642 0.41032944556453849 0 0.36395209324018812 0.38734997565451762 0 0.3792969771823943 0.39517810647831442 0 0.37704240093825642 0.41032944556453849 0 0.36395209324018812 0.38734997565451762 0 0.35750929886480892 0.40623832508104818 0 0.37704240093825642 0.41032944556453849 0 0.36395209324018812 0.38734997565451762 0 0.37704240093825642 0.41032944556453849 0 0.36393831452472042 0.38356770122904132 0 0.36772638076209568 0.37167641941316942 0 0.38540191497717541 0.37577958857175092 0 0.36393831452472042 0.38356770122904132 0 0.3792969771823943 0.39517810647831442 0 0.36395209324018812 0.38734997565451762 0 0.36393831452472042 0.38356770122904132 0 0.3792969771823943 0.39517810647831442 0 0.36393831452472042 0.38356770122904132 0 0.38540191497717541 0.37577958857175092 0 0.36393831452472042 0.38356770122904132 0 0.34384859879851359 0.36838084895401352 0 0.34110493196933372 0.39185284220911631 0 0.36393831452472042 0.38356770122904132 0 0.34384859879851359 0.36838084895401352 0 0.34110493196933372 0.39185284220911631 0 0.36393831452472042 0.38356770122904132 0 0.34110493196933372 0.39185284220911631 0 0.36395209324018812 0.38734997565451762 0 0.36393831452472042 0.38356770122904132 0 0.34110493196933372 0.39185284220911631 0 0.36395209324018812 0.38734997565451762 0 0.35750929886480892 0.40623832508104818 0 0.34110493196933372 0.39185284220911631 0 0.33974780678612548 0.40877076594805462 0 0.35750929886480892 0.40623832508104818 0 0.34987788566541272 0.3497562454731773 0 0.34384859879851359 0.36838084895401352 0 0.35608846178720038 0.35946995799006182 0 0.34987788566541272 0.3497562454731773 0 0.36487591595878671 0.35403474841109522 0 0.34987788566541272 0.3497562454731773 0 0.35608846178720038 0.35946995799006182 0 0.36487591595878671 0.35403474841109522 0 0.34987788566541272 0.3497562454731773 0 0.36004923054921051 0.3460129734744668 0 0.35150808801235067 0.34113111086926301 0 0.34987788566541272 0.3497562454731773 0 0.36487591595878671 0.35403474841109522 0 0.36004923054921051 0.3460129734744668 0 0.34987788566541272 0.3497562454731773 0 0.35150808801235067 0.34113111086926301 0 0.33867086241765632 0.34040130645430727 0 0.36393831452472042 0.38356770122904132 0 0.34384859879851359 0.36838084895401352 0 0.35901961078927042 0.36803415870977008 0 0.34384859879851359 0.36838084895401352 0 0.35901961078927042 0.36803415870977008 0 0.35608846178720038 0.35946995799006182 0 0.35901961078927042 0.36803415870977008 0 0.35608846178720038 0.35946995799006182 0 0.36429349216857732 0.36352638439915852 0 0.36393831452472042 0.38356770122904132 0 0.35901961078927042 0.36803415870977008 0 0.36772638076209568 0.37167641941316942 0 0.35901961078927042 0.36803415870977008 0 0.36429349216857732 0.36352638439915852 0 0.36772638076209568 0.37167641941316942 0 0.36429349216857732 0.36352638439915852 0 0.36772638076209568 0.37167641941316942 0 0.37375709154553338 0.36441663747169639 0 0.36429349216857732 0.36352638439915852 0 0.37375709154553338 0.36441663747169639 0 0.36487591595878671 0.35403474841109522 0 0.37375709154553338 0.36441663747169639 0 0.36487591595878671 0.35403474841109522 0 0.37987394625216042 0.35831325134901421 0 0.36487591595878671 0.35403474841109522 0 0.37632644483499522 0.34718883729116617 0 0.37987394625216042 0.35831325134901421 0 0.36487591595878671 0.35403474841109522 0 0.37987394625216042 0.35831325134901421 0 0.36487591595878671 0.35403474841109522 0 0.36004923054921051 0.3460129734744668 0 0.37632644483499522 0.34718883729116617 0 0.35608846178720038 0.35946995799006182 0 0.36429349216857732 0.36352638439915852 0 0.36487591595878671 0.35403474841109522 0 0.36086961065215739 0.33403420307743548 0 0.36560583160821619 0.32501119334595041 0 0.38346080841866259 0.3327386168018337 0 0.36004923054921051 0.3460129734744668 0 0.38346080841866259 0.3327386168018337 0 0.37632644483499522 0.34718883729116617 0 0.36004923054921051 0.3460129734744668 0 0.38346080841866259 0.3327386168018337 0 0.36004923054921051 0.3460129734744668 0 0.36086961065215739 0.33403420307743548 0 0.38346080841866259 0.3327386168018337 0 0.36086961065215739 0.33403420307743548 0 0.36560583160821619 0.32501119334595041 0 0.3556838859205137 0.32563825151132703 0 0.37457942136784322 0.31709133299994607 0 0.36560583160821619 0.32501119334595041 0 0.38346080841866259 0.3327386168018337 0 0.37457942136784322 0.31709133299994607 0 0.36560583160821619 0.32501119334595041 0 0.35620673879379372 0.31402699033205428 0 0.35620673879379372 0.31402699033205428 0 0.34726039358059618 0.32226803335584758 0 0.33957096848936152 0.31218120618761158 0 0.35620673879379372 0.31402699033205428 0 0.3556838859205137 0.32563825151132703 0 0.34726039358059618 0.32226803335584758 0 0.36560583160821619 0.32501119334595041 0 0.35620673879379372 0.31402699033205428 0 0.3556838859205137 0.32563825151132703 0 0.3556838859205137 0.32563825151132703 0 0.34726039358059618 0.32226803335584758 0 0.34847685496780478 0.33285083744534738 0 0.34726039358059618 0.32226803335584758 0 0.34847685496780478 0.33285083744534738 0 0.33599499323131721 0.32813299976032761 0 0.36086961065215739 0.33403420307743548 0 0.34847685496780478 0.33285083744534738 0 0.35150808801235067 0.34113111086926301 0 0.36004923054921051 0.3460129734744668 0 0.36086961065215739 0.33403420307743548 0 0.35150808801235067 0.34113111086926301 0 0.36086961065215739 0.33403420307743548 0 0.3556838859205137 0.32563825151132703 0 0.34847685496780478 0.33285083744534738 0 0.34847685496780478 0.33285083744534738 0 0.35150808801235067 0.34113111086926301 0 0.33867086241765632 0.34040130645430727 0 0.33867086241765632 0.34040130645430727 0 0.32333572133047978 0.3336606133753367 0 0.32375888307230521 0.35319399667898799 0 0.34847685496780478 0.33285083744534738 0 0.33867086241765632 0.34040130645430727 0 0.33599499323131721 0.32813299976032761 0 0.33867086241765632 0.34040130645430727 0 0.33599499323131721 0.32813299976032761 0 0.32333572133047978 0.3336606133753367 0 0.33599499323131721 0.32813299976032761 0 0.32704631426555142 0.31950268778041119 0 0.33957096848936152 0.31218120618761158 0 0.34726039358059618 0.32226803335584758 0 0.33599499323131721 0.32813299976032761 0 0.33957096848936152 0.31218120618761158 0 0.33599499323131721 0.32813299976032761 0 0.32704631426555142 0.31950268778041119 0 0.32333572133047978 0.3336606133753367 0 0.32704631426555142 0.31950268778041119 0 0.32333572133047978 0.3336606133753367 0 0.31087410764995271 0.32272554517402391 0 0.32704631426555142 0.31950268778041119 0 0.31087410764995271 0.32272554517402391 0 0.32771165531365792 0.29810539701464711 0 0.32333572133047978 0.3336606133753367 0 0.30366916734609678 0.33800714440396251 0 0.31087410764995271 0.32272554517402391 0 0.32333572133047978 0.3336606133753367 0 0.32375888307230521 0.35319399667898799 0 0.30366916734609678 0.33800714440396251 0 0.32375888307230521 0.35319399667898799 0 0.30366916734609678 0.33800714440396251 0 0.34987788566541272 0.3497562454731773 0 0.33867086241765632 0.34040130645430727 0 0.32375888307230521 0.35319399667898799 0 0.34987788566541272 0.3497562454731773 0 0.34384859879851359 0.36838084895401352 0 0.32375888307230521 0.35319399667898799 0 0.34384859879851359 0.36838084895401352 0 0.32375888307230521 0.35319399667898799 0 0.32917956152606132 0.37856252095522608 0 0.34384859879851359 0.36838084895401352 0 0.32375888307230521 0.35319399667898799 0 0.31110094069270439 0.37737466392685121 0 0.32917956152606132 0.37856252095522608 0 0.32375888307230521 0.35319399667898799 0 0.31110094069270439 0.37737466392685121 0 0.32375888307230521 0.35319399667898799 0 0.29977717643570079 0.3608407176491224 0 0.29265931324547578 0.37796853508972289 0 0.31110094069270439 0.37737466392685121 0 0.29977717643570079 0.3608407176491224 0 0.32375888307230521 0.35319399667898799 0 0.29977717643570079 0.3608407176491224 0 0.30366916734609678 0.33800714440396251 0 0.29977717643570079 0.3608407176491224 0 0.28540402627182088 0.3500017177851365 0 0.28622336555042799 0.36594937186087961 0 0.29977717643570079 0.3608407176491224 0 0.28540402627182088 0.3500017177851365 0 0.30366916734609678 0.33800714440396251 0 0.28540402627182088 0.3500017177851365 0 0.28622336555042799 0.36594937186087961 0 0.27407030756084672 0.36362692210267161 0 0.29265931324547578 0.37796853508972289 0 0.29977717643570079 0.3608407176491224 0 0.28622336555042799 0.36594937186087961 0 0.27832884403912411 0.37731467770205851 0 0.29265931324547578 0.37796853508972289 0 0.28622336555042799 0.36594937186087961 0 0.27832884403912411 0.37731467770205851 0 0.28622336555042799 0.36594937186087961 0 0.27407030756084672 0.36362692210267161 0 0.26459095578761332 0.37850626431392431 0 0.27407030756084672 0.36362692210267161 0 0.26462977074038152 0.36134635491871958 0 0.26459095578761332 0.37850626431392431 0 0.27832884403912411 0.37731467770205851 0 0.27407030756084672 0.36362692210267161 0 0.28540402627182088 0.3500017177851365 0 0.26792142715046469 0.35199429809804972 0 0.27034958451059549 0.3381985939264201 0 0.28540402627182088 0.3500017177851365 0 0.27407030756084672 0.36362692210267161 0 0.26792142715046469 0.35199429809804972 0 0.27407030756084672 0.36362692210267161 0 0.26792142715046469 0.35199429809804972 0 0.26462977074038152 0.36134635491871958 0 0.26792142715046469 0.35199429809804972 0 0.25633753059801367 0.35669646066228128 0 0.26462977074038152 0.36134635491871958 0 0.24214058251549189 0.34262061485208378 0 0.25633753059801367 0.35669646066228128 0 0.25548779066352317 0.36395537071956358 0 0.26792142715046469 0.35199429809804972 0 0.25633753059801367 0.35669646066228128 0 0.2567373432211304 0.34209573919306951 0 0.26792142715046469 0.35199429809804972 0 0.2567373432211304 0.34209573919306951 0 0.27034958451059549 0.3381985939264201 0 0.24214058251549189 0.34262061485208378 0 0.25633753059801367 0.35669646066228128 0 0.2567373432211304 0.34209573919306951 0 0.24645995420460509 0.37498275800661462 0 0.25299345481270241 0.38526325429526698 0 0.25548779066352317 0.36395537071956358 0 0.25299345481270241 0.38526325429526698 0 0.25548779066352317 0.36395537071956358 0 0.26459095578761332 0.37850626431392431 0 0.25548779066352317 0.36395537071956358 0 0.26462977074038152 0.36134635491871958 0 0.25633753059801367 0.35669646066228128 0 0.25548779066352317 0.36395537071956358 0 0.26459095578761332 0.37850626431392431 0 0.25548779066352317 0.36395537071956358 0 0.25633753059801367 0.35669646066228128 0 0.25548779066352317 0.36395537071956358 0 0.26462977074038152 0.36134635491871958 0 0.24614155513057029 0.31445964941925542 0 0.26113818462947291 0.32568124309431962 0 0.26348973589368141 0.30763343985390962 0 0.246531437400972 0.32887974404432718 0 0.24614155513057029 0.31445964941925542 0 0.26113818462947291 0.32568124309431962 0 0.246531437400972 0.32887974404432718 0 0.26113818462947291 0.32568124309431962 0 0.2567373432211304 0.34209573919306951 0 0.26113818462947291 0.32568124309431962 0 0.2567373432211304 0.34209573919306951 0 0.27034958451059549 0.3381985939264201 0 0.28540402627182088 0.3500017177851365 0 0.27034958451059549 0.3381985939264201 0 0.2835794516198884 0.32282029212893693 0 0.26113818462947291 0.32568124309431962 0 0.27034958451059549 0.3381985939264201 0 0.2835794516198884 0.32282029212893693 0 0.26113818462947291 0.32568124309431962 0 0.2835794516198884 0.32282029212893693 0 0.26348973589368141 0.30763343985390962 0 0.2835794516198884 0.32282029212893693 0 0.26348973589368141 0.30763343985390962 0 0.2835794516198884 0.32282029212893693 0 0.30366916734609678 0.33800714440396251 0 0.29719119159589058 0.31252073392435042 0 0.2835794516198884 0.32282029212893693 0 0.30366916734609678 0.33800714440396251 0 0.28540402627182088 0.3500017177851365 0 0.2835794516198884 0.32282029212893693 0 0.30366916734609678 0.33800714440396251 0 0.29719119159589058 0.31252073392435042 0 0.31087410764995271 0.32272554517402391 0 0.31052154660535919 0.30603409592549169 0 0.30366916734609678 0.33800714440396251 0 0.29719119159589058 0.31252073392435042 0 0.31087410764995271 0.32272554517402391 0 0.29719119159589058 0.31252073392435042 0 0.31052154660535919 0.30603409592549169 0 0.30630923186193559 0.29078470758894542 0 0.30630923186193559 0.29078470758894542 0 0.28789484859892378 0.28031410957179592 0 0.30192681414922129 0.27453899307834151 0 0.30630923186193559 0.29078470758894542 0 0.28489948387780839 0.29920907372142691 0 0.28789484859892378 0.28031410957179592 0 0.30630923186193559 0.29078470758894542 0 0.28489948387780839 0.29920907372142691 0 0.2835794516198884 0.32282029212893693 0 0.29719119159589058 0.31252073392435042 0 0.28489948387780839 0.29920907372142691 0 0.29719119159589058 0.31252073392435042 0 0.30630923186193559 0.29078470758894542 0 0.28489948387780839 0.29920907372142691 0 0.2835794516198884 0.32282029212893693 0 0.28489948387780839 0.29920907372142691 0 0.26348973589368141 0.30763343985390962 0 0.28489948387780839 0.29920907372142691 0 0.26348973589368141 0.30763343985390962 0 0.28489948387780839 0.29920907372142691 0 0.26623206212990502 0.27929056966389088 0 0.28789484859892378 0.28031410957179592 0 0.28489948387780839 0.29920907372142691 0 0.26348973589368141 0.30763343985390962 0 0.26623206212990502 0.27929056966389088 0 0.24417002065964971 0.2930286706648676 0 0.26348973589368141 0.30763343985390962 0 0.26623206212990502 0.27929056966389088 0 0.24417002065964971 0.2930286706648676 0 0.24614155513057029 0.31445964941925542 0 0.26348973589368141 0.30763343985390962 0 0.24417002065964971 0.2930286706648676 0 0.26348973589368141 0.30763343985390962 0 0.24614155513057029 0.31445964941925542 0 0.26348973589368141 0.30763343985390962 0 0.2442711053158253 0.27071593300353508 0 0.2630771961758292 0.25483384150313898 0 0.26623206212990502 0.27929056966389088 0 0.2442711053158253 0.27071593300353508 0 0.24417002065964971 0.2930286706648676 0 0.26623206212990502 0.27929056966389088 0 0.26623206212990502 0.27929056966389088 0 0.27674113366463071 0.26523451207930021 0 0.28789484859892378 0.28031410957179592 0 0.2630771961758292 0.25483384150313898 0 0.26623206212990502 0.27929056966389088 0 0.27674113366463071 0.26523451207930021 0 0.2630771961758292 0.25483384150313898 0 0.27674113366463071 0.26523451207930021 0 0.28445948182574871 0.2487690486917552 0 0.2909169145616794 0.26661947130739783 0 0.30135459129844822 0.25763952472011981 0 0.28445948182574871 0.2487690486917552 0 0.27674113366463071 0.26523451207930021 0 0.2909169145616794 0.26661947130739783 0 0.28445948182574871 0.2487690486917552 0 0.27674113366463071 0.26523451207930021 0 0.28789484859892378 0.28031410957179592 0 0.2909169145616794 0.26661947130739783 0 0.28789484859892378 0.28031410957179592 0 0.2909169145616794 0.26661947130739783 0 0.30192681414922129 0.27453899307834151 0 0.2909169145616794 0.26661947130739783 0 0.30192681414922129 0.27453899307834151 0 0.30135459129844822 0.25763952472011981 0 0.30192681414922129 0.27453899307834151 0 0.30135459129844822 0.25763952472011981 0 0.31861315377206512 0.27267167297839701 0 0.30630923186193559 0.29078470758894542 0 0.30192681414922129 0.27453899307834151 0 0.31861315377206512 0.27267167297839701 0 0.30135459129844822 0.25763952472011981 0 0.31861315377206512 0.27267167297839701 0 0.31437302155916219 0.24615086979874731 0 0.31861315377206512 0.27267167297839701 0 0.31437302155916219 0.24615086979874731 0 0.33208811001678562 0.25691794732956041 0 0.31861315377206512 0.27267167297839701 0 0.31437302155916219 0.24615086979874731 0 0.33129319472773539 0.26987778391811018 0 0.32771897984606291 0.28236034145646388 0 0.34454920297736308 0.27348524885527031 0 0.33208811001678562 0.25691794732956041 0 0.33129319472773539 0.26987778391811018 0 0.34454920297736308 0.27348524885527031 0 0.33129319472773539 0.26987778391811018 0 0.31861315377206512 0.27267167297839701 0 0.32771897984606291 0.28236034145646388 0 0.33208811001678562 0.25691794732956041 0 0.33129319472773539 0.26987778391811018 0 0.31861315377206512 0.27267167297839701 0 0.30630923186193559 0.29078470758894542 0 0.32771897984606291 0.28236034145646388 0 0.30630923186193559 0.29078470758894542 0 0.32771897984606291 0.28236034145646388 0 0.32771165531365792 0.29810539701464711 0 0.30630923186193559 0.29078470758894542 0 0.31861315377206512 0.27267167297839701 0 0.32771897984606291 0.28236034145646388 0 0.31087410764995271 0.32272554517402391 0 0.32771165531365792 0.29810539701464711 0 0.31052154660535919 0.30603409592549169 0 0.30630923186193559 0.29078470758894542 0 0.32771165531365792 0.29810539701464711 0 0.31087410764995271 0.32272554517402391 0 0.31052154660535919 0.30603409592549169 0 0.32771165531365792 0.29810539701464711 0 0.32771165531365792 0.29810539701464711 0 0.33957096848936152 0.31218120618761158 0 0.34723751741214431 0.29621186484151729 0 0.32704631426555142 0.31950268778041119 0 0.32771165531365792 0.29810539701464711 0 0.33957096848936152 0.31218120618761158 0 0.32771165531365792 0.29810539701464711 0 0.34723751741214431 0.29621186484151729 0 0.34454920297736308 0.27348524885527031 0 0.32771897984606291 0.28236034145646388 0 0.32771165531365792 0.29810539701464711 0 0.34454920297736308 0.27348524885527031 0 0.32771165531365792 0.29810539701464711 0 0.34454920297736308 0.27348524885527031 0 0.34723751741214431 0.29621186484151729 0 0.36240062794362199 0.2887825139727857 0 0.34454920297736308 0.27348524885527031 0 0.34723751741214431 0.29621186484151729 0 0.36703247047710569 0.30295364588881601 0 0.36240062794362199 0.2887825139727857 0 0.35620673879379372 0.31402699033205428 0 0.34723751741214431 0.29621186484151729 0 0.36703247047710569 0.30295364588881601 0 0.35620673879379372 0.31402699033205428 0 0.33957096848936152 0.31218120618761158 0 0.34723751741214431 0.29621186484151729 0 0.37457942136784322 0.31709133299994607 0 0.35620673879379372 0.31402699033205428 0 0.36703247047710569 0.30295364588881601 0 0.36240062794362199 0.2887825139727857 0 0.38333854324872829 0.27826227255104541 0 0.37752682944964278 0.29448616838113828 0 0.36703247047710569 0.30295364588881601 0 0.36240062794362199 0.2887825139727857 0 0.37752682944964278 0.29448616838113828 0 0.36410905782432612 0.27121392887136392 0 0.37554482271017747 0.26184587428777711 0 0.38333854324872829 0.27826227255104541 0 0.36240062794362199 0.2887825139727857 0 0.36410905782432612 0.27121392887136392 0 0.38333854324872829 0.27826227255104541 0 0.38478262156910109 0.2516570865505221 0 0.37554482271017747 0.26184587428777711 0 0.36138675064106829 0.2488651006958936 0 0.36410905782432612 0.27121392887136392 0 0.37554482271017747 0.26184587428777711 0 0.36138675064106829 0.2488651006958936 0 0.33208811001678562 0.25691794732956041 0 0.34454920297736308 0.27348524885527031 0 0.36138675064106829 0.2488651006958936 0 0.34454920297736308 0.27348524885527031 0 0.36138675064106829 0.2488651006958936 0 0.36410905782432612 0.27121392887136392 0 0.34454920297736308 0.27348524885527031 0 0.36138675064106829 0.2488651006958936 0 0.36240062794362199 0.2887825139727857 0 0.36410905782432612 0.27121392887136392 0 0.34454920297736308 0.27348524885527031 0 0.38744446946732852 0.25681666577303658 0 0.38333854324872829 0.27826227255104541 0 0.40687911569572582 0.2719360777224516 0 0.38333854324872829 0.27826227255104541 0 0.39254117278905309 0.29252943183919861 0 0.40687911569572582 0.2719360777224516 0 0.38744446946732852 0.25681666577303658 0 0.40687911569572582 0.2719360777224516 0 0.40688248039953212 0.24817198651907729 0 0.38744446946732852 0.25681666577303658 0 0.38478262156910109 0.2516570865505221 0 0.37554482271017747 0.26184587428777711 0 0.38744446946732852 0.25681666577303658 0 0.37554482271017747 0.26184587428777711 0 0.38333854324872829 0.27826227255104541 0 0.38744446946732852 0.25681666577303658 0 0.38333854324872829 0.27826227255104541 0 0.38333854324872829 0.27826227255104541 0 0.37752682944964278 0.29448616838113828 0 0.39254117278905309 0.29252943183919861 0 0.37457942136784322 0.31709133299994607 0 0.36703247047710569 0.30295364588881601 0 0.38424368789558871 0.30712300480545413 0 0.36703247047710569 0.30295364588881601 0 0.37752682944964278 0.29448616838113828 0 0.38424368789558871 0.30712300480545413 0 0.37752682944964278 0.29448616838113828 0 0.38424368789558871 0.30712300480545413 0 0.39254117278905309 0.29252943183919861 0 0.38424368789558871 0.30712300480545413 0 0.39638310945271388 0.30766889864927649 0 0.38910788268458429 0.31681722267714207 0 0.39638310945271388 0.30766889864927649 0 0.40687575099191953 0.29570016892582568 0 0.40687238628811462 0.31946426012919987 0 0.38424368789558871 0.30712300480545413 0 0.39638310945271388 0.30766889864927649 0 0.39254117278905309 0.29252943183919861 0 0.39638310945271388 0.30766889864927649 0 0.39254117278905309 0.29252943183919861 0 0.40687575099191953 0.29570016892582568 0 0.39254117278905309 0.29252943183919861 0 0.40687575099191953 0.29570016892582568 0 0.40687911569572582 0.2719360777224516 0 0.40687575099191953 0.29570016892582568 0 0.4290981504955641 0.28879696678697042 0 0.40687911569572582 0.2719360777224516 0 0.40687575099191953 0.29570016892582568 0 0.40687911569572582 0.2719360777224516 0 0.40687575099191953 0.29570016892582568 0 0.42685697471639789 0.30813300530169258 0 0.40687238628811462 0.31946426012919987 0 0.40687575099191953 0.29570016892582568 0 0.40687238628811462 0.31946426012919987 0 0.40687575099191953 0.29570016892582568 0 0.42685697471639789 0.30813300530169258 0 0.4290981504955641 0.28879696678697042 0 0.42685697471639789 0.30813300530169258 0 0.43350023875984889 0.30436627685327339 0 0.4290981504955641 0.28879696678697042 0 0.42685697471639789 0.30813300530169258 0 0.43350023875984889 0.30436627685327339 0 0.42026491263757759 0.31801122105044211 0 0.43350023875984889 0.30436627685327339 0 0.42026491263757759 0.31801122105044211 0 0.42685697471639789 0.30813300530169258 0 0.43350023875984889 0.30436627685327339 0 0.43350023875984889 0.30436627685327339 0 0.4290981504955641 0.28879696678697042 0 0.44684156314468099 0.29680175047418489 0 0.4290981504955641 0.28879696678697042 0 0.42709654002746389 0.26504892902868171 0 0.4473105996553956 0.28192587153828641 0 0.42709654002746389 0.26504892902868171 0 0.4473105996553956 0.28192587153828641 0 0.4290981504955641 0.28879696678697042 0 0.40687911569572582 0.2719360777224516 0 0.42709654002746389 0.26504892902868171 0 0.40687911569572582 0.2719360777224516 0 0.40688248039953212 0.24817198651907729 0 0.42709654002746389 0.26504892902868171 0 0.40688248039953212 0.24817198651907729 0 0.40687911569572582 0.2719360777224516 0 0.42709654002746389 0.26504892902868171 0 0.40688248039953212 0.24817198651907729 0 0.42709654002746389 0.26504892902868171 0 0.43177874053093152 0.248062112012498 0 0.40688248039953212 0.24817198651907729 0 0.42709654002746389 0.26504892902868171 0 0.4478275402056564 0.26553067656501872 0 0.43177874053093152 0.248062112012498 0 0.4478275402056564 0.26553067656501872 0 0.45962883625395112 0.25782747246785809 0 0.44834448075591737 0.249135481591751 0 0.4478275402056564 0.26553067656501872 0 0.43177874053093152 0.248062112012498 0 0.44834448075591737 0.249135481591751 0 0.4478275402056564 0.26553067656501872 0 0.44834448075591737 0.249135481591751 0 0.42709654002746389 0.26504892902868171 0 0.4478275402056564 0.26553067656501872 0 0.4473105996553956 0.28192587153828641 0 0.4478275402056564 0.26553067656501872 0 0.4473105996553956 0.28192587153828641 0 0.4478275402056564 0.26553067656501872 0 0.46437529864175109 0.27425817449699308 0 0.45962883625395112 0.25782747246785809 0 0.4478275402056564 0.26553067656501872 0 0.46437529864175109 0.27425817449699308 0 0.4473105996553956 0.28192587153828641 0 0.45962883625395112 0.25782747246785809 0 0.46427494519719698 0.244682470428701 0 0.44834448075591737 0.249135481591751 0 0.46437529864175109 0.27425817449699308 0 0.45962883625395112 0.25782747246785809 0 0.47479196790678913 0.2562030606507627 0 0.45962883625395112 0.25782747246785809 0 0.47479196790678913 0.2562030606507627 0 0.46427494519719698 0.244682470428701 0 0.46437529864175109 0.27425817449699308 0 0.47479196790678913 0.2562030606507627 0 0.48423353321256002 0.26920583227359168 0 0.46437529864175109 0.27425817449699308 0 0.48423353321256002 0.26920583227359168 0 0.48200039951425988 0.28863326183228821 0 0.48423353321256002 0.26920583227359168 0 0.5 0.27595723297260089 0 0.48200039951425988 0.28863326183228821 0 0.47479196790678913 0.2562030606507627 0 0.48423353321256002 0.26920583227359168 0 0.5 0.25097743141531381 0 0.48423353321256002 0.26920583227359168 0 0.5 0.27595723297260089 0 0.5 0.25097743141531381 0 0.5 0.30093703452988801 0 0.48200039951425988 0.28863326183228821 0 0.48243686655180013 0.31125318123754492 0 0.5 0.27595723297260089 0 0.5 0.30093703452988801 0 0.48200039951425988 0.28863326183228821 0 0.46437529864175109 0.27425817449699308 0 0.48200039951425988 0.28863326183228821 0 0.46487373310359792 0.29658952638791558 0 0.48243686655180013 0.31125318123754492 0 0.46487373310359792 0.29658952638791558 0 0.46760426052891207 0.31861154180170059 0 0.48200039951425988 0.28863326183228821 0 0.48243686655180013 0.31125318123754492 0 0.46487373310359792 0.29658952638791558 0 0.48243686655180013 0.31125318123754492 0 0.46487373310359792 0.29658952638791558 0 0.45530678295152471 0.30686568561377192 0 0.46487373310359792 0.29658952638791558 0 0.46760426052891207 0.31861154180170059 0 0.45530678295152471 0.30686568561377192 0 0.46487373310359792 0.29658952638791558 0 0.45106581751846653 0.29440659968399707 0 0.46487373310359792 0.29658952638791558 0 0.4473105996553956 0.28192587153828641 0 0.45106581751846653 0.29440659968399707 0 0.46487373310359792 0.29658952638791558 0 0.4473105996553956 0.28192587153828641 0 0.46437529864175109 0.27425817449699308 0 0.46487373310359792 0.29658952638791558 0 0.4473105996553956 0.28192587153828641 0 0.4290981504955641 0.28879696678697042 0 0.4473105996553956 0.28192587153828641 0 0.44684156314468099 0.29680175047418489 0 0.4473105996553956 0.28192587153828641 0 0.44684156314468099 0.29680175047418489 0 0.4473105996553956 0.28192587153828641 0 0.45106581751846653 0.29440659968399707 0 0.44684156314468099 0.29680175047418489 0 0.45106581751846653 0.29440659968399707 0 0.44684156314468099 0.29680175047418489 0 0.45530678295152471 0.30686568561377192 0 0.44684156314468099 0.29680175047418489 0 0.44593759247240722 0.32547192427767041 0 0.44684156314468099 0.29680175047418489 0 0.44593759247240722 0.32547192427767041 0 0.43350023875984889 0.30436627685327339 0 0.44684156314468099 0.29680175047418489 0 0.44593759247240722 0.32547192427767041 0 0.45530678295152471 0.30686568561377192 0 0.45106581751846653 0.29440659968399707 0 0.44684156314468099 0.29680175047418489 0 0.43350023875984889 0.30436627685327339 0 0.44684156314468099 0.29680175047418489 0 0.44593759247240722 0.32547192427767041 0 0.44503362180013178 0.35414209808115571 0 0.44593759247240722 0.32547192427767041 0 0.44503362180013178 0.35414209808115571 0 0.42877574669215529 0.34073843584652619 0 0.44593759247240722 0.32547192427767041 0 0.46760426052891207 0.31861154180170059 0 0.47251681090007153 0.34416976499723068 0 0.44593759247240722 0.32547192427767041 0 0.47251681090007153 0.34416976499723068 0 0.44503362180013178 0.35414209808115571 0 0.45530678295152471 0.30686568561377192 0 0.44593759247240722 0.32547192427767041 0 0.46760426052891207 0.31861154180170059 0 0.48243686655180013 0.31125318123754492 0 0.46760426052891207 0.31861154180170059 0 0.48455377719407128 0.32731916829607011 0 0.46760426052891207 0.31861154180170059 0 0.48455377719407128 0.32731916829607011 0 0.47251681090007153 0.34416976499723068 0 0.5000000000000111 0.3341974319133052 0 0.47251681090007153 0.34416976499723068 0 0.5000000000000111 0.3341974319133052 0 0.48455377719407128 0.32731916829607011 0 0.47251681090007153 0.34416976499723068 0 0.5000000000000111 0.3341974319133052 0 0.50000000000000167 0.32591683608717498 0 0.48455377719407128 0.32731916829607011 0 0.48243686655180013 0.31125318123754492 0 0.50000000000000167 0.32591683608717498 0 0.5 0.30093703452988801 0 0.48243686655180013 0.31125318123754492 0 0.50000000000000167 0.32591683608717498 0 0.48243686655180013 0.31125318123754492 0 0.50000000000000167 0.32591683608717498 0 0.48455377719407128 0.32731916829607011 0 0.5 0.36338958072213012 0 0.47251681090007153 0.34416976499723068 0 0.46680681176433858 0.36460802085425781 0 0.5 0.36338958072213012 0 0.46680681176433858 0.36460802085425781 0 0.47216120870716211 0.38464013000057601 0 0.5000000000000111 0.3341974319133052 0 0.5 0.36338958072213012 0 0.47251681090007153 0.34416976499723068 0 0.47251681090007153 0.34416976499723068 0 0.44503362180013178 0.35414209808115571 0 0.47251681090007153 0.34416976499723068 0 0.46680681176433858 0.36460802085425781 0 0.44503362180013178 0.35414209808115571 0 0.44503362180013178 0.35414209808115571 0 0.42747575471768379 0.3605130071540652 0 0.44432241741432671 0.37669853047019591 0 0.44503362180013178 0.35414209808115571 0 0.44432241741432671 0.37669853047019591 0 0.46680681176433858 0.36460802085425781 0 0.44503362180013178 0.35414209808115571 0 0.44432241741432671 0.37669853047019591 0 0.42712015252478192 0.37179122334858877 0 0.44432241741432671 0.37669853047019591 0 0.42712015252478192 0.37179122334858877 0 0.42747575471768379 0.3605130071540652 0 0.44432241741432671 0.37669853047019591 0 0.42747575471768379 0.3605130071540652 0 0.40991788763523768 0.3668839162269798 0 0.42712015252478192 0.37179122334858877 0 0.42747575471768379 0.3605130071540652 0 0.40991788763523768 0.3668839162269798 0 0.42747575471768379 0.3605130071540652 0 0.40991788763523768 0.3668839162269798 0 0.41608472219815379 0.3564996638200153 0 0.42712015252478192 0.37179122334858877 0 0.40991788763523768 0.3668839162269798 0 0.41395334180241761 0.3768082936852124 0 0.42712015252478192 0.37179122334858877 0 0.40991788763523768 0.3668839162269798 0 0.40991788763523768 0.3668839162269798 0 0.40686579552315982 0.36601324289102438 0 0.41608472219815379 0.3564996638200153 0 0.40991788763523768 0.3668839162269798 0 0.40686579552315982 0.36601324289102438 0 0.40686579552315982 0.36601324289102438 0 0.4068655154296289 0.36799147591445669 0 0.40991788763523768 0.3668839162269798 0 0.40686579552315982 0.36601324289102438 0 0.4068655154296289 0.36799147591445669 0 0.40991788763523768 0.3668839162269798 0 0.4068655154296289 0.36799147591445669 0 0.41395334180241761 0.3768082936852124 0 0.40991788763523768 0.3668839162269798 0 0.4068655154296289 0.36799147591445669 0 0.41608472219815379 0.3564996638200153 0 0.42877574669215529 0.34073843584652619 0 0.41524818239343958 0.34109247471991722 0 0.40686579552315982 0.36601324289102438 0 0.40686824763165452 0.34869459219042498 0 0.41608472219815379 0.3564996638200153 0 0.40686579552315982 0.36601324289102438 0 0.40686824763165452 0.34869459219042498 0 0.40686824763165452 0.34869459219042498 0 0.41608472219815379 0.3564996638200153 0 0.41524818239343958 0.34109247471991722 0 0.44503362180013178 0.35414209808115571 0 0.42747575471768379 0.3605130071540652 0 0.42877574669215529 0.34073843584652619 0 0.42747575471768379 0.3605130071540652 0 0.41608472219815379 0.3564996638200153 0 0.42877574669215529 0.34073843584652619 0 0.44503362180013178 0.35414209808115571 0 0.42747575471768379 0.3605130071540652 0 0.42877574669215529 0.34073843584652619 0 0.43173993240810571 0.32116894549517849 0 0.42031276758617647 0.33026616158696109 0 0.44593759247240722 0.32547192427767041 0 0.42877574669215529 0.34073843584652619 0 0.43173993240810571 0.32116894549517849 0 0.43350023875984889 0.30436627685327339 0 0.43173993240810571 0.32116894549517849 0 0.42026491263757759 0.31801122105044211 0 0.43350023875984889 0.30436627685327339 0 0.44593759247240722 0.32547192427767041 0 0.43173993240810571 0.32116894549517849 0 0.43173993240810571 0.32116894549517849 0 0.42026491263757759 0.31801122105044211 0 0.42031276758617647 0.33026616158696109 0 0.42685697471639789 0.30813300530169258 0 0.42026491263757759 0.31801122105044211 0 0.40687238628811462 0.31946426012919987 0 0.42685697471639789 0.30813300530169258 0 0.40687238628811462 0.31946426012919987 0 0.42026491263757759 0.31801122105044211 0 0.42031276758617647 0.33026616158696109 0 0.40687069974015039 0.33137594148982552 0 0.42026491263757759 0.31801122105044211 0 0.40687238628811462 0.31946426012919987 0 0.40687069974015039 0.33137594148982552 0 0.40687238628811462 0.31946426012919987 0 0.40687069974015039 0.33137594148982552 0 0.42026491263757759 0.31801122105044211 0 0.40687069974015039 0.33137594148982552 0 0.40686824763165452 0.34869459219042498 0 0.41524818239343958 0.34109247471991722 0 0.40687069974015039 0.33137594148982552 0 0.40686824763165452 0.34869459219042498 0 0.40687069974015039 0.33137594148982552 0 0.42877574669215529 0.34073843584652619 0 0.41524818239343958 0.34109247471991722 0 0.42031276758617647 0.33026616158696109 0 0.41524818239343958 0.34109247471991722 0 0.42031276758617647 0.33026616158696109 0 0.40687069974015039 0.33137594148982552 0 0.40687069974015039 0.33137594148982552 0 0.39337232299615571 0.34484459641942011 0 0.40686824763165452 0.34869459219042498 0 0.40687069974015039 0.33137594148982552 0 0.39337232299615571 0.34484459641942011 0 0.40687069974015039 0.33137594148982552 0 0.39764405436077049 0.33210585371006979 0 0.39337232299615571 0.34484459641942011 0 0.39764405436077049 0.33210585371006979 0 0.38346080841866259 0.3327386168018337 0 0.39337232299615571 0.34484459641942011 0 0.40687238628811462 0.31946426012919987 0 0.39764405436077049 0.33210585371006979 0 0.38346080841866259 0.3327386168018337 0 0.40687238628811462 0.31946426012919987 0 0.38910788268458429 0.31681722267714207 0 0.38346080841866259 0.3327386168018337 0 0.40687238628811462 0.31946426012919987 0 0.38346080841866259 0.3327386168018337 0 0.39638310945271388 0.30766889864927649 0 0.40687238628811462 0.31946426012919987 0 0.38910788268458429 0.31681722267714207 0 0.40687238628811462 0.31946426012919987 0 0.40687069974015039 0.33137594148982552 0 0.39764405436077049 0.33210585371006979 0 0.37457942136784322 0.31709133299994607 0 0.38910788268458429 0.31681722267714207 0 0.38346080841866259 0.3327386168018337 0 0.37457942136784322 0.31709133299994607 0 0.38424368789558871 0.30712300480545413 0 0.38910788268458429 0.31681722267714207 0 0.38346080841866259 0.3327386168018337 0 0.37632644483499522 0.34718883729116617 0 0.39337232299615571 0.34484459641942011 0 0.37632644483499522 0.34718883729116617 0 0.37987394625216042 0.35831325134901421 0 0.39337232299615571 0.34484459641942011 0 0.37987394625216042 0.35831325134901421 0 0.39337232299615571 0.34484459641942011 0 0.37375709154553338 0.36441663747169639 0 0.37987394625216042 0.35831325134901421 0 0.38540191497717541 0.37577958857175092 0 0.36772638076209568 0.37167641941316942 0 0.37375709154553338 0.36441663747169639 0 0.38540191497717541 0.37577958857175092 0 0.37375709154553338 0.36441663747169639 0 0.37987394625216042 0.35831325134901421 0 0.40686579552315982 0.36601324289102438 0 0.37987394625216042 0.35831325134901421 0 0.38540191497717541 0.37577958857175092 0 0.4068655154296289 0.36799147591445669 0 0.38540191497717541 0.37577958857175092 0 0.40686579552315982 0.36601324289102438 0 0.37987394625216042 0.35831325134901421 0 0.40686579552315982 0.36601324289102438 0 0.4068655154296289 0.36799147591445669 0 0.38540191497717541 0.37577958857175092 0 0.4068655154296289 0.36799147591445669 0 0.39912311769864522 0.38059326108080599 0 0.38540191497717541 0.37577958857175092 0 0.40686579552315982 0.36601324289102438 0 0.40686824763165452 0.34869459219042498 0 0.39337232299615571 0.34484459641942011 0 0.40686579552315982 0.36601324289102438 0 0.37987394625216042 0.35831325134901421 0 0.39337232299615571 0.34484459641942011 0 0.39912311769864522 0.38059326108080599 0 0.39465563984006619 0.40678851172759001 0 0.40686256833714679 0.38880607909128317 0 0.39912311769864522 0.38059326108080599 0 0.39465563984006619 0.40678851172759001 0 0.39912311769864522 0.38059326108080599 0 0.38897291089034108 0.38756332845543778 0 0.39465563984006619 0.40678851172759001 0 0.39465563984006619 0.40678851172759001 0 0.40685962124466452 0.40962068226810971 0 0.40686256833714679 0.38880607909128317 0 0.4068655154296289 0.36799147591445669 0 0.39912311769864522 0.38059326108080599 0 0.40686256833714679 0.38880607909128317 0 0.39912311769864522 0.38059326108080599 0 0.38897291089034108 0.38756332845543778 0 0.38540191497717541 0.37577958857175092 0 0.36393831452472042 0.38356770122904132 0 0.38540191497717541 0.37577958857175092 0 0.3792969771823943 0.39517810647831442 0 0.38897291089034108 0.38756332845543778 0 0.38540191497717541 0.37577958857175092 0 0.3792969771823943 0.39517810647831442 0 0.38897291089034108 0.38756332845543778 0 0.3792969771823943 0.39517810647831442 0 0.39465563984006619 0.40678851172759001 0 0.3792969771823943 0.39517810647831442 0 0.37704240093825642 0.41032944556453849 0 0.39465563984006619 0.40678851172759001 0 0.3792969771823943 0.39517810647831442 0 0.39465563984006619 0.40678851172759001 0 0.37704240093825642 0.41032944556453849 0 0.39013270863632449 0.4333089154745593 0 0.39465563984006619 0.40678851172759001 0 0.37704240093825642 0.41032944556453849 0 0.39013270863632449 0.4333089154745593 0 0.37288563135531327 0.44378361071592748 0 0.36725657112224458 0.42555379464928023 0 0.39013270863632449 0.4333089154745593 0 0.36725657112224458 0.42555379464928023 0 0.37704240093825642 0.41032944556453849 0 0.39013270863632449 0.4333089154745593 0 0.39013270863632449 0.4333089154745593 0 0.40483991394661611 0.43293907795713082 0 0.39465563984006619 0.40678851172759001 0 0.39013270863632449 0.4333089154745593 0 0.39465563984006619 0.40678851172759001 0 0.40483991394661611 0.43293907795713082 0 0.39465563984006619 0.40678851172759001 0 0.41839025897793392 0.42473073448291471 0 0.39465563984006619 0.40678851172759001 0 0.40685962124466452 0.40962068226810971 0 0.41839025897793392 0.42473073448291471 0 0.39465563984006619 0.40678851172759001 0 0.41839025897793392 0.42473073448291471 0 0.40685962124466452 0.40962068226810971 0 0.41898130323061072 0.40989902825842928 0 0.4152434458568266 0.39933313096042422 0 0.40685962124466452 0.40962068226810971 0 0.41898130323061072 0.40989902825842928 0 0.41839025897793392 0.42473073448291471 0 0.40483991394661611 0.43293907795713082 0 0.41839025897793392 0.42473073448291471 0 0.4121913192474741 0.44546425723051442 0 0.41839025897793392 0.42473073448291471 0 0.43659335858211518 0.42449101373685388 0 0.44212487811580181 0.44267295723823857 0 0.41839025897793392 0.42473073448291471 0 0.44212487811580181 0.44267295723823857 0 0.41839025897793392 0.42473073448291471 0 0.43659335858211518 0.42449101373685388 0 0.4296108023953219 0.41355072887368671 0 0.41898130323061072 0.40989902825842928 0 0.4296108023953219 0.41355072887368671 0 0.42466194828918802 0.40009384167753742 0 0.41898130323061072 0.40989902825842928 0 0.41839025897793392 0.42473073448291471 0 0.4296108023953219 0.41355072887368671 0 0.43659335858211518 0.42449101373685388 0 0.4296108023953219 0.41355072887368671 0 0.44269807510895881 0.41000035760898912 0 0.4296108023953219 0.41355072887368671 0 0.43553093930180242 0.3996131048276278 0 0.44269807510895881 0.41000035760898912 0 0.4296108023953219 0.41355072887368671 0 0.43553093930180242 0.3996131048276278 0 0.42466194828918802 0.40009384167753742 0 0.43553093930180242 0.3996131048276278 0 0.43249806398552848 0.38782375797727803 0 0.44387397004867141 0.39092140772654482 0 0.43553093930180242 0.3996131048276278 0 0.42466194828918802 0.40009384167753742 0 0.43249806398552848 0.38782375797727803 0 0.42466194828918802 0.40009384167753742 0 0.41900058508529309 0.3885687738447523 0 0.43249806398552848 0.38782375797727803 0 0.40685962124466452 0.40962068226810971 0 0.40686256833714679 0.38880607909128317 0 0.40685962124466452 0.40962068226810971 0 0.4152434458568266 0.39933313096042422 0 0.40686256833714679 0.38880607909128317 0 0.41898130323061072 0.40989902825842928 0 0.42466194828918802 0.40009384167753742 0 0.4152434458568266 0.39933313096042422 0 0.42466194828918802 0.40009384167753742 0 0.4152434458568266 0.39933313096042422 0 0.41900058508529309 0.3885687738447523 0 0.4152434458568266 0.39933313096042422 0 0.40686256833714679 0.38880607909128317 0 0.41900058508529309 0.3885687738447523 0 0.42712015252478192 0.37179122334858877 0 0.41395334180241761 0.3768082936852124 0 0.41900058508529309 0.3885687738447523 0 0.4068655154296289 0.36799147591445669 0 0.40686256833714679 0.38880607909128317 0 0.4068655154296289 0.36799147591445669 0 0.41395334180241761 0.3768082936852124 0 0.40686256833714679 0.38880607909128317 0 0.41395334180241761 0.3768082936852124 0 0.40686256833714679 0.38880607909128317 0 0.41900058508529309 0.3885687738447523 0 0.42712015252478192 0.37179122334858877 0 0.43249806398552848 0.38782375797727803 0 0.44432241741432671 0.37669853047019591 0 0.42712015252478192 0.37179122334858877 0 0.41900058508529309 0.3885687738447523 0 0.43249806398552848 0.38782375797727803 0 0.44432241741432671 0.37669853047019591 0 0.44387397004867141 0.39092140772654482 0 0.43249806398552848 0.38782375797727803 0 0.44432241741432671 0.37669853047019591 0 0.44387397004867141 0.39092140772654482 0 0.43553093930180242 0.3996131048276278 0 0.44387397004867141 0.39092140772654482 0 0.44269807510895881 0.41000035760898912 0 0.44387397004867141 0.39092140772654482 0 0.4597990660012885 0.40746277537802139 0 0.44269807510895881 0.41000035760898912 0 0.44387397004867141 0.39092140772654482 0 0.47216120870716211 0.38464013000057601 0 0.4597990660012885 0.40746277537802139 0 0.46680681176433858 0.36460802085425781 0 0.44432241741432671 0.37669853047019591 0 0.47216120870716211 0.38464013000057601 0 0.44432241741432671 0.37669853047019591 0 0.47216120870716211 0.38464013000057601 0 0.44432241741432671 0.37669853047019591 0 0.44387397004867141 0.39092140772654482 0 0.47216120870716211 0.38464013000057601 0 0.47216120870716211 0.38464013000057601 0 0.48065950990263429 0.40823149075827142 0 0.4597990660012885 0.40746277537802139 0 0.47216120870716211 0.38464013000057601 0 0.49999999999999778 0.39258172953095499 0 0.48065950990263429 0.40823149075827142 0 0.49999999999999778 0.39258172953095499 0 0.5 0.41684359943464522 0 0.48065950990263429 0.40823149075827142 0 0.47216120870716211 0.38464013000057601 0 0.49999999999999778 0.39258172953095499 0 0.5 0.36338958072213012 0 0.47216120870716211 0.38464013000057601 0 0.49999999999999778 0.39258172953095499 0 0.4860130570169397 0.42578690866427232 0 0.47659798984247659 0.4385776767811263 0 0.5 0.4411054693383355 0 0.4860130570169397 0.42578690866427232 0 0.5 0.41684359943464522 0 0.5 0.4411054693383355 0 0.4860130570169397 0.42578690866427232 0 0.5 0.41684359943464522 0 0.48065950990263429 0.40823149075827142 0 0.4860130570169397 0.42578690866427232 0 0.48065950990263429 0.40823149075827142 0 0.46926001175861531 0.42391901531006537 0 0.48065950990263429 0.40823149075827142 0 0.46926001175861531 0.42391901531006537 0 0.4597990660012885 0.40746277537802139 0 0.4860130570169397 0.42578690866427232 0 0.46926001175861531 0.42391901531006537 0 0.47659798984247659 0.4385776767811263 0 0.46926001175861531 0.42391901531006537 0 0.4523854925163287 0.42452250468027442 0 0.46010495527202422 0.43893273559842733 0 0.46926001175861531 0.42391901531006537 0 0.46010495527202422 0.43893273559842733 0 0.47659798984247659 0.4385776767811263 0 0.46926001175861531 0.42391901531006537 0 0.4597990660012885 0.40746277537802139 0 0.4523854925163287 0.42452250468027442 0 0.4597990660012885 0.40746277537802139 0 0.44269807510895881 0.41000035760898912 0 0.4523854925163287 0.42452250468027442 0 0.43659335858211518 0.42449101373685388 0 0.44269807510895881 0.41000035760898912 0 0.4523854925163287 0.42452250468027442 0 0.4523854925163287 0.42452250468027442 0 0.44212487811580181 0.44267295723823857 0 0.46010495527202422 0.43893273559842733 0 0.4523854925163287 0.42452250468027442 0 0.44212487811580181 0.44267295723823857 0 0.43659335858211518 0.42449101373685388 0 0.4523854925163287 0.42452250468027442 0 0.44212487811580181 0.44267295723823857 0 0.44212487811580181 0.44267295723823857 0 0.46010495527202422 0.43893273559842733 0 0.45494433495668168 0.45236384584720762 0 0.44212487811580181 0.44267295723823857 0 0.45494433495668168 0.45236384584720762 0 0.43132790169949481 0.46177220418040682 0 0.44212487811580181 0.44267295723823857 0 0.45494433495668168 0.45236384584720762 0 0.45421860113299628 0.46297058253428047 0 0.44040623365337311 0.47989502753348812 0 0.43132790169949481 0.46177220418040682 0 0.45421860113299628 0.46297058253428047 0 0.43132790169949481 0.46177220418040682 0 0.45421860113299628 0.46297058253428047 0 0.45494433495668168 0.45236384584720762 0 0.43132790169949481 0.46177220418040682 0 0.45421860113299628 0.46297058253428047 0 0.46776379179756239 0.46205473445617562 0 0.47710930056649792 0.46416896088815313 0 0.45421860113299628 0.46297058253428047 0 0.47710930056649792 0.46416896088815313 0 0.45421860113299628 0.46297058253428047 0 0.47710930056649792 0.46416896088815313 0 0.46269075233132217 0.47787667683214152 0 0.45421860113299628 0.46297058253428047 0 0.46776379179756239 0.46205473445617562 0 0.45494433495668168 0.45236384584720762 0 0.46776379179756239 0.46205473445617562 0 0.45494433495668168 0.45236384584720762 0 0.46756089647688098 0.4489986675502437 0 0.46776379179756239 0.46205473445617562 0 0.45494433495668168 0.45236384584720762 0 0.46010495527202422 0.43893273559842733 0 0.46756089647688098 0.4489986675502437 0 0.47659798984247659 0.4385776767811263 0 0.46010495527202422 0.43893273559842733 0 0.45494433495668168 0.45236384584720762 0 0.46756089647688098 0.4489986675502437 0 0.46756089647688098 0.4489986675502437 0 0.47659798984247659 0.4385776767811263 0 0.48111290868883327 0.45105893235759359 0 0.46776379179756239 0.46205473445617562 0 0.48111290868883327 0.45105893235759359 0 0.47710930056649792 0.46416896088815313 0 0.46776379179756239 0.46205473445617562 0 0.46756089647688098 0.4489986675502437 0 0.48111290868883327 0.45105893235759359 0 0.47710930056649792 0.46416896088815313 0 0.49999999999999939 0.46536733924202572 0 0.48111290868883327 0.45105893235759359 0 0.47710930056649792 0.46416896088815313 0 0.49999999999999939 0.46536733924202572 0 0.47659798984247659 0.4385776767811263 0 0.48111290868883327 0.45105893235759359 0 0.5 0.4411054693383355 0 0.48111290868883327 0.45105893235759359 0 0.49999999999999939 0.46536733924202572 0 0.5 0.4411054693383355 0 0.5 0.5 0 0.48371866712403971 0.4823488132047854 0 0.45800095917970368 0.5 0 0.49999999999999939 0.46536733924202572 0 0.5 0.5 0 0.48371866712403971 0.4823488132047854 0 0.47710930056649792 0.46416896088815313 0 0.49999999999999939 0.46536733924202572 0 0.48371866712403971 0.4823488132047854 0 0.47710930056649792 0.46416896088815313 0 0.48371866712403971 0.4823488132047854 0 0.46269075233132217 0.47787667683214152 0 0.45800095917970368 0.5 0 0.46269075233132217 0.47787667683214152 0 0.44040623365337311 0.47989502753348812 0 0.48371866712403971 0.4823488132047854 0 0.45800095917970368 0.5 0 0.46269075233132217 0.47787667683214152 0 0.45421860113299628 0.46297058253428047 0 0.46269075233132217 0.47787667683214152 0 0.44040623365337311 0.47989502753348812 0 0.45800095917970368 0.5 0 0.44040623365337311 0.47989502753348812 0 0.41230242124080591 0.49542721420012142 0 0.44040623365337311 0.47989502753348812 0 0.41230242124080591 0.49542721420012142 0 0.42181516147014919 0.47859970919026351 0 0.45800095917970368 0.5 0 0.41230242124080591 0.49542721420012142 0 0.40008954438193639 0.49999999999999978 0 0.41230242124080591 0.49542721420012142 0 0.42181516147014919 0.47859970919026351 0 0.41306907112146091 0.47357270939975937 0 0.40008954438193639 0.49999999999999978 0 0.41230242124080591 0.49542721420012142 0 0.4154721650149113 0.47779123696146791 0 0.40008954438193639 0.49999999999999978 0 0.41230242124080591 0.49542721420012142 0 0.42181516147014919 0.47859970919026351 0 0.4154721650149113 0.47779123696146791 0 0.41306907112146091 0.47357270939975937 0 0.4154721650149113 0.47779123696146791 0 0.40008954438193639 0.49999999999999978 0 0.41306907112146091 0.47357270939975937 0 0.4154721650149113 0.47779123696146791 0 0.42106566455724959 0.46978187633337348 0 0.42181516147014919 0.47859970919026351 0 0.4154721650149113 0.47779123696146791 0 0.42106566455724959 0.46978187633337348 0 0.41306907112146091 0.47357270939975937 0 0.4154721650149113 0.47779123696146791 0 0.42181516147014919 0.47859970919026351 0 0.42106566455724959 0.46978187633337348 0 0.43132790169949481 0.46177220418040682 0 0.42181516147014919 0.47859970919026351 0 0.43132790169949481 0.46177220418040682 0 0.44040623365337311 0.47989502753348812 0 0.42181516147014919 0.47859970919026351 0 0.43132790169949481 0.46177220418040682 0 0.43132790169949481 0.46177220418040682 0 0.42653333294144641 0.44615846179466262 0 0.41917720588368151 0.4611360885871536 0 0.42653333294144641 0.44615846179466262 0 0.41917720588368151 0.4611360885871536 0 0.42106566455724959 0.46978187633337348 0 0.43132790169949481 0.46177220418040682 0 0.41917720588368151 0.4611360885871536 0 0.43132790169949481 0.46177220418040682 0 0.41917720588368151 0.4611360885871536 0 0.41839025897793392 0.42473073448291471 0 0.44212487811580181 0.44267295723823857 0 0.42653333294144641 0.44615846179466262 0 0.44212487811580181 0.44267295723823857 0 0.43132790169949481 0.46177220418040682 0 0.42653333294144641 0.44615846179466262 0 0.44212487811580181 0.44267295723823857 0 0.43132790169949481 0.46177220418040682 0 0.42653333294144641 0.44615846179466262 0 0.4121913192474741 0.44546425723051442 0 0.41917720588368151 0.4611360885871536 0 0.41839025897793392 0.42473073448291471 0 0.42653333294144641 0.44615846179466262 0 0.4121913192474741 0.44546425723051442 0 0.4121913192474741 0.44546425723051442 0 0.41917720588368151 0.4611360885871536 0 0.40557898807436499 0.46042419204064161 0 0.41306907112146091 0.47357270939975937 0 0.42106566455724959 0.46978187633337348 0 0.41917720588368151 0.4611360885871536 0 0.41306907112146091 0.47357270939975937 0 0.41917720588368151 0.4611360885871536 0 0.41917720588368151 0.4611360885871536 0 0.40557898807436499 0.46042419204064161 0 0.41306907112146091 0.47357270939975937 0 0.40557898807436499 0.46042419204064161 0 0.41306907112146091 0.47357270939975937 0 0.41917720588368151 0.4611360885871536 0 0.40557898807436499 0.46042419204064161 0 0.40557898807436499 0.46042419204064161 0 0.39302247163476511 0.46693428780712448 0 0.38568593820516062 0.45938274722044248 0 0.40557898807436499 0.46042419204064161 0 0.39302247163476511 0.46693428780712448 0 0.39718548243702623 0.47654795532369842 0 0.40557898807436499 0.46042419204064161 0 0.38568593820516062 0.45938274722044248 0 0.40557898807436499 0.46042419204064161 0 0.39785584835534488 0.44686655375760043 0 0.38568593820516062 0.45938274722044248 0 0.40557898807436499 0.46042419204064161 0 0.39785584835534488 0.44686655375760043 0 0.39013270863632449 0.4333089154745593 0 0.39785584835534488 0.44686655375760043 0 0.38568593820516062 0.45938274722044248 0 0.40483991394661611 0.43293907795713082 0 0.4121913192474741 0.44546425723051442 0 0.39785584835534488 0.44686655375760043 0 0.4121913192474741 0.44546425723051442 0 0.40557898807436499 0.46042419204064161 0 0.39785584835534488 0.44686655375760043 0 0.39013270863632449 0.4333089154745593 0 0.40483991394661611 0.43293907795713082 0 0.39785584835534488 0.44686655375760043 0 0.39013270863632449 0.4333089154745593 0 0.39785584835534488 0.44686655375760043 0 0.39013270863632449 0.4333089154745593 0 0.38568593820516062 0.45938274722044248 0 0.37288563135531327 0.44378361071592748 0 0.39013270863632449 0.4333089154745593 0 0.38568593820516062 0.45938274722044248 0 0.35852646383378539 0.45796088912983413 0 0.38568593820516062 0.45938274722044248 0 0.38363947782250851 0.47138225664371558 0 0.39302247163476511 0.46693428780712448 0 0.38568593820516062 0.45938274722044248 0 0.38363947782250851 0.47138225664371558 0 0.38568593820516062 0.45938274722044248 0 0.38363947782250851 0.47138225664371558 0 0.36438320113356992 0.48171160779965699 0 0.38363947782250851 0.47138225664371558 0 0.38512274335116659 0.48632708492225468 0 0.38363947782250851 0.47138225664371558 0 0.38512274335116659 0.48632708492225468 0 0.39718548243702623 0.47654795532369842 0 0.37251341038550451 0.5 0 0.38512274335116659 0.48632708492225468 0 0.40008954438193639 0.49999999999999978 0 0.38512274335116659 0.48632708492225468 0 0.40008954438193639 0.49999999999999978 0 0.39718548243702623 0.47654795532369842 0 0.41306907112146091 0.47357270939975937 0 0.40557898807436499 0.46042419204064161 0 0.39718548243702623 0.47654795532369842 0 0.41306907112146091 0.47357270939975937 0 0.40008954438193639 0.49999999999999978 0 0.39718548243702623 0.47654795532369842 0 0.39302247163476511 0.46693428780712448 0 0.38363947782250851 0.47138225664371558 0 0.39718548243702623 0.47654795532369842 0 0.33955391792553691 0.088186011862377386 0 0.31893868095076239 0.087698136774640112 0 0.32612338373751182 0.10245195394161991 0 0.33955391792553691 0.088186011862377386 0 0.32785340947143482 0.070032792760977486 0 0.31893868095076239 0.087698136774640112 0 0.33955391792553691 0.088186011862377386 0 0.32785340947143482 0.070032792760977486 0 0.35051428120030359 0.070013409569901028 0 0.32785340947143482 0.070032792760977486 0 0.35051428120030359 0.070013409569901028 0 0.32785340947143482 0.070032792760977486 0 0.31893868095076239 0.087698136774640112 0 0.30519253774256622 0.07005217595205393 0 0.32785340947143482 0.070032792760977486 0 0.30519253774256622 0.07005217595205393 0 0.31893868095076239 0.087698136774640112 0 0.32612338373751182 0.10245195394161991 0 0.31069103804889719 0.10502805118424161 0 0.32612338373751182 0.10245195394161991 0 0.31862673215692089 0.1137404204204388 0 0.31069103804889719 0.10502805118424161 0 0.31467364624284633 0.1212307821100541 0 0.31862673215692089 0.1137404204204388 0 0.32147480965151781 0.12537623458101749 0 0.31467364624284633 0.1212307821100541 0 0.31862673215692089 0.1137404204204388 0 0.30716244024823341 0.1181597317648078 0 0.31467364624284633 0.1212307821100541 0 0.31143060291471308 0.12764674167395221 0 0.32147480965151781 0.12537623458101749 0 0.32612338373751182 0.10245195394161991 0 0.31862673215692089 0.1137404204204388 0 0.32955127447461019 0.1152524210907486 0 0.32955127447461019 0.1152524210907486 0 0.33103593653502589 0.12554019720050741 0 0.32147480965151781 0.12537623458101749 0 0.31862673215692089 0.1137404204204388 0 0.32955127447461019 0.1152524210907486 0 0.32147480965151781 0.12537623458101749 0 0.32955127447461019 0.1152524210907486 0 0.34013736707093628 0.12275915985272989 0 0.33103593653502589 0.12554019720050741 0 0.34013736707093628 0.12275915985272989 0 0.33967914497528212 0.1072160922803579 0 0.34966170998679391 0.1177990503262981 0 0.32955127447461019 0.1152524210907486 0 0.34013736707093628 0.12275915985272989 0 0.33967914497528212 0.1072160922803579 0 0.33955391792553691 0.088186011862377386 0 0.32612338373751182 0.10245195394161991 0 0.33967914497528212 0.1072160922803579 0 0.32612338373751182 0.10245195394161991 0 0.32955127447461019 0.1152524210907486 0 0.33967914497528212 0.1072160922803579 0 0.33967914497528212 0.1072160922803579 0 0.35537205641283959 0.096953736858369444 0 0.34966170998679391 0.1177990503262981 0 0.33955391792553691 0.088186011862377386 0 0.33967914497528212 0.1072160922803579 0 0.35537205641283959 0.096953736858369444 0 0.35537205641283959 0.096953736858369444 0 0.34966170998679391 0.1177990503262981 0 0.36002838906270479 0.12672705334189591 0 0.35537205641283959 0.096953736858369444 0 0.36002838906270479 0.12672705334189591 0 0.34966170998679391 0.1177990503262981 0 0.34861093313886832 0.12754848915366729 0 0.35319092988301348 0.1253767182915437 0 0.34013736707093628 0.12275915985272989 0 0.34966170998679391 0.1177990503262981 0 0.34861093313886832 0.12754848915366729 0 0.34966170998679391 0.1177990503262981 0 0.35319092988301348 0.1253767182915437 0 0.36002838906270479 0.12672705334189591 0 0.36462904193439089 0.1210825720403283 0 0.36319195466750198 0.1072844018983974 0 0.36002838906270479 0.12672705334189591 0 0.35537205641283959 0.096953736858369444 0 0.36319195466750198 0.1072844018983974 0 0.36002838906270479 0.12672705334189591 0 0.36462904193439089 0.1210825720403283 0 0.38061762841208691 0.13131396911547899 0 0.37614435479736957 0.1069545841330323 0 0.36462904193439089 0.1210825720403283 0 0.36002838906270479 0.12672705334189591 0 0.36462904193439089 0.1210825720403283 0 0.37614435479736957 0.1069545841330323 0 0.36462904193439089 0.1210825720403283 0 0.36319195466750198 0.1072844018983974 0 0.37614435479736957 0.1069545841330323 0 0.35537205641283959 0.096953736858369444 0 0.36319195466750198 0.1072844018983974 0 0.3718500718099455 0.083569899554369831 0 0.3718500718099455 0.083569899554369831 0 0.37614435479736957 0.1069545841330323 0 0.36319195466750198 0.1072844018983974 0 0.3718500718099455 0.083569899554369831 0 0.37614435479736957 0.1069545841330323 0 0.35537205641283959 0.096953736858369444 0 0.3718500718099455 0.083569899554369831 0 0.35732198168114387 0.081919336875894311 0 0.33955391792553691 0.088186011862377386 0 0.35732198168114387 0.081919336875894311 0 0.35051428120030359 0.070013409569901028 0 0.33955391792553691 0.088186011862377386 0 0.35537205641283959 0.096953736858369444 0 0.35732198168114387 0.081919336875894311 0 0.35732198168114387 0.081919336875894311 0 0.35051428120030359 0.070013409569901028 0 0.36755578882252182 0.060185214975707363 0 0.3718500718099455 0.083569899554369831 0 0.36755578882252182 0.060185214975707363 0 0.38029075433068271 0.064925872639936613 0 0.3718500718099455 0.083569899554369831 0 0.36755578882252182 0.060185214975707363 0 0.3718500718099455 0.083569899554369831 0 0.35732198168114387 0.081919336875894311 0 0.36755578882252182 0.060185214975707363 0 0.36755578882252182 0.060185214975707363 0 0.37077682834232761 0.039021008922369503 0 0.3808681944261707 0.051274931688473309 0 0.36755578882252182 0.060185214975707363 0 0.37077682834232761 0.039021008922369503 0 0.35643203206974861 0.048283979350633922 0 0.37077682834232761 0.039021008922369503 0 0.35643203206974861 0.048283979350633922 0 0.35414911931832771 0.02521153708800743 0 0.35643203206974861 0.048283979350633922 0 0.35414911931832771 0.02521153708800743 0 0.33916414266526229 0.04698872619718425 0 0.35051428120030359 0.070013409569901028 0 0.35643203206974861 0.048283979350633922 0 0.33916414266526229 0.04698872619718425 0 0.35051428120030359 0.070013409569901028 0 0.36755578882252182 0.060185214975707363 0 0.35643203206974861 0.048283979350633922 0 0.36290153503243161 0.011170950009298901 0 0.37194384359057009 5.2896986445487987e-05 0 0.37454864260371062 0.01887543306276827 0 0.36290153503243161 0.011170950009298901 0 0.37194384359057009 5.2896986445487987e-05 0 0.35096453461711818 0.00054393289997440794 0 0.36290153503243161 0.011170950009298901 0 0.37454864260371062 0.01887543306276827 0 0.35414911931832771 0.02521153708800743 0 0.37077682834232761 0.039021008922369503 0 0.37454864260371062 0.01887543306276827 0 0.35414911931832771 0.02521153708800743 0 0.35414911931832771 0.02521153708800743 0 0.35096453461711818 0.00054393289997440794 0 0.33311282974394713 0.009365580851112049 0 0.35414911931832771 0.02521153708800743 0 0.35096453461711818 0.00054393289997440794 0 0.36290153503243161 0.011170950009298901 0 0.35414911931832771 0.02521153708800743 0 0.35096453461711818 0.00054393289997440794 0 0.33311282974394713 0.009365580851112049 0 0.3344978178951411 0.027733600522858028 0 0.31891144874692662 0.01905626157563356 0 0.35414911931832771 0.02521153708800743 0 0.33311282974394713 0.009365580851112049 0 0.3344978178951411 0.027733600522858028 0 0.3344978178951411 0.027733600522858028 0 0.31891144874692662 0.01905626157563356 0 0.313663141972092 0.044045827485809437 0 0.33311282974394713 0.009365580851112049 0 0.31891144874692662 0.01905626157563356 0 0.31204676142463961 0.00073078847262742224 0 0.32785340947143482 0.070032792760977486 0 0.35051428120030359 0.070013409569901028 0 0.33916414266526229 0.04698872619718425 0 0.3344978178951411 0.027733600522858028 0 0.33916414266526229 0.04698872619718425 0 0.313663141972092 0.044045827485809437 0 0.35414911931832771 0.02521153708800743 0 0.3344978178951411 0.027733600522858028 0 0.33916414266526229 0.04698872619718425 0 0.32785340947143482 0.070032792760977486 0 0.33916414266526229 0.04698872619718425 0 0.313663141972092 0.044045827485809437 0 0.32785340947143482 0.070032792760977486 0 0.313663141972092 0.044045827485809437 0 0.30519253774256622 0.07005217595205393 0 0.313663141972092 0.044045827485809437 0 0.29085687672214411 0.052049626586114603 0 0.30519253774256622 0.07005217595205393 0 0.313663141972092 0.044045827485809437 0 0.29159718126401668 0.032211503297483172 0 0.313663141972092 0.044045827485809437 0 0.29159718126401668 0.032211503297483172 0 0.29085687672214411 0.052049626586114603 0 0.29159718126401668 0.032211503297483172 0 0.29085687672214411 0.052049626586114603 0 0.27635577502270159 0.039250152863872623 0 0.31204676142463961 0.00073078847262742224 0 0.30354689486854519 0.015292107044039559 0 0.29232541252341099 0.0057153733471674018 0 0.31891144874692662 0.01905626157563356 0 0.31204676142463961 0.00073078847262742224 0 0.30354689486854519 0.015292107044039559 0 0.31891144874692662 0.01905626157563356 0 0.313663141972092 0.044045827485809437 0 0.30354689486854519 0.015292107044039559 0 0.313663141972092 0.044045827485809437 0 0.29159718126401668 0.032211503297483172 0 0.30354689486854519 0.015292107044039559 0 0.29159718126401668 0.032211503297483172 0 0.30354689486854519 0.015292107044039559 0 0.29232541252341099 0.0057153733471674018 0 0.29159718126401668 0.032211503297483172 0 0.29232541252341099 0.0057153733471674018 0 0.26953122055594142 0.020377179109156911 0 0.29232541252341099 0.0057153733471674018 0 0.27916872667575549 0.00020771242004494539 0 0.26953122055594142 0.020377179109156911 0 0.27916872667575549 0.00020771242004494539 0 0.26953122055594142 0.020377179109156911 0 0.26719303569965269 -0.001809782501044328 0 0.29159718126401668 0.032211503297483172 0 0.26953122055594142 0.020377179109156911 0 0.29159718126401668 0.032211503297483172 0 0.26953122055594142 0.020377179109156911 0 0.27635577502270159 0.039250152863872623 0 0.24746525984786619 0.0085428549208306503 0 0.26953122055594142 0.020377179109156911 0 0.2595383551476918 0.037251251118012321 0 0.24746525984786619 0.0085428549208306503 0 0.2540330741481821 -0.0041517063591771696 0 0.26719303569965269 -0.001809782501044328 0 0.24746525984786619 0.0085428549208306503 0 0.26953122055594142 0.020377179109156911 0 0.24746525984786619 0.0085428549208306503 0 0.26953122055594142 0.020377179109156911 0 0.26719303569965269 -0.001809782501044328 0 0.29085687672214411 0.052049626586114603 0 0.27025524142371432 0.054361204208596109 0 0.27635577502270159 0.039250152863872623 0 0.29085687672214411 0.052049626586114603 0 0.27025524142371432 0.054361204208596109 0 0.28253166601369739 0.070071559143130374 0 0.27025524142371432 0.054361204208596109 0 0.27635577502270159 0.039250152863872623 0 0.2595383551476918 0.037251251118012321 0 0.26953122055594142 0.020377179109156911 0 0.27635577502270159 0.039250152863872623 0 0.2595383551476918 0.037251251118012321 0 0.23976497237292541 0.034986271741545859 0 0.2595383551476918 0.037251251118012321 0 0.2522397370266381 0.056905468769568722 0 0.27025524142371432 0.054361204208596109 0 0.2595383551476918 0.037251251118012321 0 0.2522397370266381 0.056905468769568722 0 0.27025524142371432 0.054361204208596109 0 0.2522397370266381 0.056905468769568722 0 0.25977496128766708 0.070145483295909028 0 0.2522397370266381 0.056905468769568722 0 0.25977496128766708 0.070145483295909028 0 0.2480843117095122 0.072951059513355856 0 0.2522397370266381 0.056905468769568722 0 0.25977496128766708 0.070145483295909028 0 0.2480843117095122 0.072951059513355856 0 0.25977496128766708 0.070145483295909028 0 0.26471450168035088 0.078824665797591634 0 0.25977496128766708 0.070145483295909028 0 0.26471450168035088 0.078824665797591634 0 0.2480843117095122 0.072951059513355856 0 0.25209511555709518 0.083968923794558142 0 0.26471450168035088 0.078824665797591634 0 0.26471450168035088 0.078824665797591634 0 0.25907783811034701 0.090287369103362144 0 0.26981774132141167 0.095700869913850919 0 0.24861496505675079 0.093352472871679887 0 0.25209511555709518 0.083968923794558142 0 0.25907783811034701 0.090287369103362144 0 0.25209511555709518 0.083968923794558142 0 0.26471450168035088 0.078824665797591634 0 0.25907783811034701 0.090287369103362144 0 0.26471450168035088 0.078824665797591634 0 0.27718926633406371 0.10074386282561459 0 0.26981774132141167 0.095700869913850919 0 0.26471450168035088 0.078824665797591634 0 0.27718926633406371 0.10074386282561459 0 0.26471450168035088 0.078824665797591634 0 0.27748567389677109 0.087147000252177365 0 0.27718926633406371 0.10074386282561459 0 0.26471450168035088 0.078824665797591634 0 0.27472498210222612 0.078412261127114913 0 0.27748567389677109 0.087147000252177365 0 0.27472498210222612 0.078412261127114913 0 0.27748567389677109 0.087147000252177365 0 0.28902227463548241 0.085927138108468359 0 0.27025524142371432 0.054361204208596109 0 0.25977496128766708 0.070145483295909028 0 0.28253166601369739 0.070071559143130374 0 0.25977496128766708 0.070145483295909028 0 0.27472498210222612 0.078412261127114913 0 0.28253166601369739 0.070071559143130374 0 0.25977496128766708 0.070145483295909028 0 0.28253166601369739 0.070071559143130374 0 0.25977496128766708 0.070145483295909028 0 0.26471450168035088 0.078824665797591634 0 0.27472498210222612 0.078412261127114913 0 0.28253166601369739 0.070071559143130374 0 0.30519253774256622 0.07005217595205393 0 0.29085687672214411 0.052049626586114603 0 0.28253166601369739 0.070071559143130374 0 0.30519253774256622 0.07005217595205393 0 0.28253166601369739 0.070071559143130374 0 0.28902227463548241 0.085927138108468359 0 0.30519253774256622 0.07005217595205393 0 0.27472498210222612 0.078412261127114913 0 0.28253166601369739 0.070071559143130374 0 0.28902227463548241 0.085927138108468359 0 0.28902227463548241 0.085927138108468359 0 0.28236253707532499 0.094330663043065061 0 0.28855257946442309 0.098566517397138467 0 0.27748567389677109 0.087147000252177365 0 0.28902227463548241 0.085927138108468359 0 0.28236253707532499 0.094330663043065061 0 0.31893868095076239 0.087698136774640112 0 0.30460847936444918 0.090055896631801011 0 0.30519253774256622 0.07005217595205393 0 0.28902227463548241 0.085927138108468359 0 0.30460847936444918 0.090055896631801011 0 0.30519253774256622 0.07005217595205393 0 0.28902227463548241 0.085927138108468359 0 0.30460847936444918 0.090055896631801011 0 0.29917585880638992 0.10107900019483899 0 0.29881360637008481 0.11190111083715649 0 0.30716244024823341 0.1181597317648078 0 0.29655542096659898 0.1194587011894222 0 0.30071128801505509 0.1243108032121915 0 0.30716244024823341 0.1181597317648078 0 0.30547289595369731 0.12710347173382319 0 0.30071128801505509 0.1243108032121915 0 0.30716244024823341 0.1181597317648078 0 0.29655542096659898 0.1194587011894222 0 0.30071128801505509 0.1243108032121915 0 0.2955248419015698 0.12454284648065619 0 0.29655542096659898 0.1194587011894222 0 0.30716244024823341 0.1181597317648078 0 0.31143060291471308 0.12764674167395221 0 0.30547289595369731 0.12710347173382319 0 0.31467364624284633 0.1212307821100541 0 0.30716244024823341 0.1181597317648078 0 0.31143060291471308 0.12764674167395221 0 0.31862673215692089 0.1137404204204388 0 0.30716244024823341 0.1181597317648078 0 0.31069103804889719 0.10502805118424161 0 0.29881360637008481 0.11190111083715649 0 0.30716244024823341 0.1181597317648078 0 0.31069103804889719 0.10502805118424161 0 0.31893868095076239 0.087698136774640112 0 0.30460847936444918 0.090055896631801011 0 0.31069103804889719 0.10502805118424161 0 0.30460847936444918 0.090055896631801011 0 0.31069103804889719 0.10502805118424161 0 0.29917585880638992 0.10107900019483899 0 0.29881360637008481 0.11190111083715649 0 0.31069103804889719 0.10502805118424161 0 0.29917585880638992 0.10107900019483899 0 0.29881360637008481 0.11190111083715649 0 0.29917585880638992 0.10107900019483899 0 0.29237609339628301 0.10669547895038579 0 0.29917585880638992 0.10107900019483899 0 0.29237609339628301 0.10669547895038579 0 0.28855257946442309 0.098566517397138467 0 0.28902227463548241 0.085927138108468359 0 0.29917585880638992 0.10107900019483899 0 0.28855257946442309 0.098566517397138467 0 0.28236253707532499 0.094330663043065061 0 0.28855257946442309 0.098566517397138467 0 0.28356472493352169 0.1035661065143348 0 0.29237609339628301 0.10669547895038579 0 0.28356472493352169 0.1035661065143348 0 0.28623200896357298 0.1105785179792005 0 0.29237609339628301 0.10669547895038579 0 0.28855257946442309 0.098566517397138467 0 0.28356472493352169 0.1035661065143348 0 0.28356472493352169 0.1035661065143348 0 0.28623200896357298 0.1105785179792005 0 0.27609258341241222 0.1088381904127729 0 0.28391189819730278 0.1164863318917234 0 0.28623200896357298 0.1105785179792005 0 0.27609258341241222 0.1088381904127729 0 0.28391189819730278 0.1164863318917234 0 0.28623200896357298 0.1105785179792005 0 0.29147949655227928 0.11533511060300571 0 0.29237609339628301 0.10669547895038579 0 0.28623200896357298 0.1105785179792005 0 0.29147949655227928 0.11533511060300571 0 0.29881360637008481 0.11190111083715649 0 0.29237609339628301 0.10669547895038579 0 0.29147949655227928 0.11533511060300571 0 0.29881360637008481 0.11190111083715649 0 0.29147949655227928 0.11533511060300571 0 0.29655542096659898 0.1194587011894222 0 0.2955248419015698 0.12454284648065619 0 0.29655542096659898 0.1194587011894222 0 0.29019877065842498 0.122424981218258 0 0.29147949655227928 0.11533511060300571 0 0.29655542096659898 0.1194587011894222 0 0.29019877065842498 0.122424981218258 0 0.28391189819730278 0.1164863318917234 0 0.29019877065842498 0.122424981218258 0 0.28212701182482047 0.12344827276776139 0 0.29019877065842498 0.122424981218258 0 0.28212701182482047 0.12344827276776139 0 0.28737965130483067 0.12748900281737041 0 0.28391189819730278 0.1164863318917234 0 0.29147949655227928 0.11533511060300571 0 0.29019877065842498 0.122424981218258 0 0.28212701182482047 0.12344827276776139 0 0.27522332008128092 0.11777410716127421 0 0.27234495171852419 0.12533147151330859 0 0.27522332008128092 0.11777410716127421 0 0.25729942365779379 0.1163327830709826 0 0.27234495171852419 0.12533147151330859 0 0.27522332008128092 0.11777410716127421 0 0.27609258341241222 0.1088381904127729 0 0.25729942365779379 0.1163327830709826 0 0.28391189819730278 0.1164863318917234 0 0.28212701182482047 0.12344827276776139 0 0.27522332008128092 0.11777410716127421 0 0.28391189819730278 0.1164863318917234 0 0.27522332008128092 0.11777410716127421 0 0.27609258341241222 0.1088381904127729 0 0.27609258341241222 0.1088381904127729 0 0.26981774132141167 0.095700869913850919 0 0.25729942365779379 0.1163327830709826 0 0.28236253707532499 0.094330663043065061 0 0.28356472493352169 0.1035661065143348 0 0.27718926633406371 0.10074386282561459 0 0.27748567389677109 0.087147000252177365 0 0.28236253707532499 0.094330663043065061 0 0.27718926633406371 0.10074386282561459 0 0.28356472493352169 0.1035661065143348 0 0.27718926633406371 0.10074386282561459 0 0.27609258341241222 0.1088381904127729 0 0.27718926633406371 0.10074386282561459 0 0.27609258341241222 0.1088381904127729 0 0.26981774132141167 0.095700869913850919 0 0.26981774132141167 0.095700869913850919 0 0.25657327715003803 0.10096738815572991 0 0.25729942365779379 0.1163327830709826 0 0.26981774132141167 0.095700869913850919 0 0.25729942365779379 0.1163327830709826 0 0.25907783811034701 0.090287369103362144 0 0.26981774132141167 0.095700869913850919 0 0.25657327715003803 0.10096738815572991 0 0.24659215389021069 0.1074838069439971 0 0.25657327715003803 0.10096738815572991 0 0.25729942365779379 0.1163327830709826 0 0.24861496505675079 0.093352472871679887 0 0.25907783811034701 0.090287369103362144 0 0.25657327715003803 0.10096738815572991 0 0.24659215389021069 0.1074838069439971 0 0.24861496505675079 0.093352472871679887 0 0.25657327715003803 0.10096738815572991 0 0.25729942365779379 0.1163327830709826 0 0.26424761707784972 0.12959117529461731 0 0.27234495171852419 0.12533147151330859 0 0.25729942365779379 0.1163327830709826 0 0.25526460598084039 0.13421800131591349 0 0.26424761707784972 0.12959117529461731 0 0.2447811059941758 0.13696469622811419 0 0.25729942365779379 0.1163327830709826 0 0.2447811059941758 0.13696469622811419 0 0.25729942365779379 0.1163327830709826 0 0.25526460598084039 0.13421800131591349 0 0.24876803286489191 0.1391491542580969 0 0.25526460598084039 0.13421800131591349 0 0.25666496425427848 0.1422529704070849 0 0.25526460598084039 0.13421800131591349 0 0.26424761707784972 0.12959117529461731 0 0.26645856981613952 0.1390008167617906 0 0.25526460598084039 0.13421800131591349 0 0.26645856981613952 0.1390008167617906 0 0.25666496425427848 0.1422529704070849 0 0.26424761707784972 0.12959117529461731 0 0.27234495171852419 0.12533147151330859 0 0.27408777335703172 0.1339379461683291 0 0.26645856981613952 0.1390008167617906 0 0.27408777335703172 0.1339379461683291 0 0.2745798134969345 0.14158924269317141 0 0.26424761707784972 0.12959117529461731 0 0.26645856981613952 0.1390008167617906 0 0.27408777335703172 0.1339379461683291 0 0.27408777335703172 0.1339379461683291 0 0.2745798134969345 0.14158924269317141 0 0.28330285671992123 0.140879769628596 0 0.27408777335703172 0.1339379461683291 0 0.28220121841389328 0.13138569642939449 0 0.28330285671992123 0.140879769628596 0 0.27234495171852419 0.12533147151330859 0 0.27408777335703172 0.1339379461683291 0 0.28220121841389328 0.13138569642939449 0 0.28212701182482047 0.12344827276776139 0 0.27234495171852419 0.12533147151330859 0 0.28220121841389328 0.13138569642939449 0 0.26645856981613952 0.1390008167617906 0 0.27447005409464559 0.15253843821397009 0 0.25666496425427848 0.1422529704070849 0 0.27447005409464559 0.15253843821397009 0 0.2745798134969345 0.14158924269317141 0 0.28330285671992123 0.140879769628596 0 0.26645856981613952 0.1390008167617906 0 0.27447005409464559 0.15253843821397009 0 0.2745798134969345 0.14158924269317141 0 0.24876803286489191 0.1391491542580969 0 0.25666496425427848 0.1422529704070849 0 0.25030626853235921 0.15737004669176199 0 0.27447005409464559 0.15253843821397009 0 0.25030626853235921 0.15737004669176199 0 0.27447005409464559 0.15253843821397009 0 0.25666496425427848 0.1422529704070849 0 0.25030626853235921 0.15737004669176199 0 0.25666496425427848 0.1422529704070849 0 0.25030626853235921 0.15737004669176199 0 0.27447005409464559 0.15253843821397009 0 0.25030626853235921 0.15737004669176199 0 0.25987944224844078 0.17121165013060241 0 0.23911234894716549 0.18398231809051591 0 0.25987944224844078 0.17121165013060241 0 0.26073382819428947 0.18647186586626771 0 0.25987944224844078 0.17121165013060241 0 0.26073382819428947 0.18647186586626771 0 0.27477471147374399 0.1756955817904948 0 0.27477471147374399 0.1756955817904948 0 0.27168477620901998 0.19262902074940319 0 0.28358951704613289 0.18953966750446799 0 0.26073382819428947 0.18647186586626771 0 0.27477471147374399 0.1756955817904948 0 0.27168477620901998 0.19262902074940319 0 0.27447005409464559 0.15253843821397009 0 0.27477471147374399 0.1756955817904948 0 0.28764980724909162 0.16368871781641681 0 0.27447005409464559 0.15253843821397009 0 0.25987944224844078 0.17121165013060241 0 0.27477471147374399 0.1756955817904948 0 0.28764980724909162 0.16368871781641681 0 0.30164918955177189 0.16656697302023041 0 0.29863383965693208 0.14770682973617719 0 0.28764980724909162 0.16368871781641681 0 0.29095110927996282 0.17829964050373129 0 0.30164918955177189 0.16656697302023041 0 0.27477471147374399 0.1756955817904948 0 0.28764980724909162 0.16368871781641681 0 0.29095110927996282 0.17829964050373129 0 0.27477471147374399 0.1756955817904948 0 0.29095110927996282 0.17829964050373129 0 0.28358951704613289 0.18953966750446799 0 0.29095110927996282 0.17829964050373129 0 0.28358951704613289 0.18953966750446799 0 0.29547691908157508 0.19145088892969889 0 0.30466453944660798 0.18542711630428421 0 0.30164918955177189 0.16656697302023041 0 0.31117196998955959 0.16891117725204369 0 0.30466453944660798 0.18542711630428421 0 0.30164918955177189 0.16656697302023041 0 0.30466453944660798 0.18542711630428421 0 0.31117196998955959 0.16891117725204369 0 0.31842084544008659 0.1743143866605513 0 0.29095110927996282 0.17829964050373129 0 0.30466453944660798 0.18542711630428421 0 0.30164918955177189 0.16656697302023041 0 0.30466453944660798 0.18542711630428421 0 0.30590612373216841 0.19310712639458469 0 0.32081364376527699 0.17483911542322469 0 0.29095110927996282 0.17829964050373129 0 0.30466453944660798 0.18542711630428421 0 0.29547691908157508 0.19145088892969889 0 0.30164918955177189 0.16656697302023041 0 0.29863383965693208 0.14770682973617719 0 0.30164918955177189 0.16656697302023041 0 0.30709609403636318 0.1546972524473097 0 0.29863383965693208 0.14770682973617719 0 0.30164918955177189 0.16656697302023041 0 0.31117196998955959 0.16891117725204369 0 0.31499555159807763 0.15970208050312401 0 0.30164918955177189 0.16656697302023041 0 0.30709609403636318 0.1546972524473097 0 0.31499555159807763 0.15970208050312401 0 0.30709609403636318 0.1546972524473097 0 0.29863383965693208 0.14770682973617719 0 0.31310579533867278 0.14481312652970571 0 0.30709609403636318 0.1546972524473097 0 0.31310579533867278 0.14481312652970571 0 0.31499555159807763 0.15970208050312401 0 0.30067032505985902 0.14382774302161869 0 0.29820700035333447 0.14208698373214529 0 0.3010599724016792 0.14010210393321701 0 0.30067032505985902 0.14382774302161869 0 0.29820700035333447 0.14208698373214529 0 0.29863383965693208 0.14770682973617719 0 0.30067032505985902 0.14382774302161869 0 0.29863383965693208 0.14770682973617719 0 0.30451359722466143 0.14259902187050039 0 0.30067032505985902 0.14382774302161869 0 0.30451359722466143 0.14259902187050039 0 0.3010599724016792 0.14010210393321701 0 0.30843421299037682 0.14112051349670399 0 0.31018173231588542 0.13654248097221741 0 0.31310579533867278 0.14481312652970571 0 0.29863383965693208 0.14770682973617719 0 0.30451359722466143 0.14259902187050039 0 0.31310579533867278 0.14481312652970571 0 0.30451359722466143 0.14259902187050039 0 0.30843421299037682 0.14112051349670399 0 0.31310579533867278 0.14481312652970571 0 0.29863383965693208 0.14770682973617719 0 0.31310579533867278 0.14481312652970571 0 0.30843421299037682 0.14112051349670399 0 0.31310579533867278 0.14481312652970571 0 0.31018173231588542 0.13654248097221741 0 0.30522295142713007 0.13808340976808731 0 0.30589071772586002 0.1327342517771013 0 0.30451359722466143 0.14259902187050039 0 0.30843421299037682 0.14112051349670399 0 0.30522295142713007 0.13808340976808731 0 0.30843421299037682 0.14112051349670399 0 0.31018173231588542 0.13654248097221741 0 0.30522295142713007 0.13808340976808731 0 0.31018173231588542 0.13654248097221741 0 0.31143060291471308 0.12764674167395221 0 0.30589071772586002 0.1327342517771013 0 0.31143060291471308 0.12764674167395221 0 0.30589071772586002 0.1327342517771013 0 0.30547289595369731 0.12710347173382319 0 0.30071128801505509 0.1243108032121915 0 0.30547289595369731 0.12710347173382319 0 0.30147889186756921 0.13070800019543211 0 0.30589071772586002 0.1327342517771013 0 0.30547289595369731 0.12710347173382319 0 0.30147889186756921 0.13070800019543211 0 0.30147889186756921 0.13070800019543211 0 0.29759519153457797 0.12847001153016099 0 0.29751373389721097 0.1337850144949756 0 0.30071128801505509 0.1243108032121915 0 0.30147889186756921 0.13070800019543211 0 0.29759519153457797 0.12847001153016099 0 0.30071128801505509 0.1243108032121915 0 0.2955248419015698 0.12454284648065619 0 0.29759519153457797 0.12847001153016099 0 0.30451359722466143 0.14259902187050039 0 0.30522295142713007 0.13808340976808731 0 0.3010599724016792 0.14010210393321701 0 0.30522295142713007 0.13808340976808731 0 0.3010599724016792 0.14010210393321701 0 0.30141825354566842 0.13558796678634341 0 0.30589071772586002 0.1327342517771013 0 0.30147889186756921 0.13070800019543211 0 0.30141825354566842 0.13558796678634341 0 0.30522295142713007 0.13808340976808731 0 0.30589071772586002 0.1327342517771013 0 0.30141825354566842 0.13558796678634341 0 0.30141825354566842 0.13558796678634341 0 0.29751373389721097 0.1337850144949756 0 0.29734325395456118 0.1381150205492469 0 0.30147889186756921 0.13070800019543211 0 0.30141825354566842 0.13558796678634341 0 0.29751373389721097 0.1337850144949756 0 0.3010599724016792 0.14010210393321701 0 0.30141825354566842 0.13558796678634341 0 0.29734325395456118 0.1381150205492469 0 0.29820700035333447 0.14208698373214529 0 0.3010599724016792 0.14010210393321701 0 0.29734325395456118 0.1381150205492469 0 0.29820700035333447 0.14208698373214529 0 0.29734325395456118 0.1381150205492469 0 0.29345611684931527 0.14148699033403681 0 0.29734325395456118 0.1381150205492469 0 0.2927009437436221 0.13546944812283551 0 0.29345611684931527 0.14148699033403681 0 0.29751373389721097 0.1337850144949756 0 0.2927009437436221 0.13546944812283551 0 0.292795534533141 0.12925435590289211 0 0.29751373389721097 0.1337850144949756 0 0.29734325395456118 0.1381150205492469 0 0.2927009437436221 0.13546944812283551 0 0.2927009437436221 0.13546944812283551 0 0.28772577859054038 0.13205803829591831 0 0.2875155341299177 0.13711853907816349 0 0.2927009437436221 0.13546944812283551 0 0.2875155341299177 0.13711853907816349 0 0.29345611684931527 0.14148699033403681 0 0.2955248419015698 0.12454284648065619 0 0.29759519153457797 0.12847001153016099 0 0.292795534533141 0.12925435590289211 0 0.29759519153457797 0.12847001153016099 0 0.29751373389721097 0.1337850144949756 0 0.292795534533141 0.12925435590289211 0 0.2927009437436221 0.13546944812283551 0 0.292795534533141 0.12925435590289211 0 0.28772577859054038 0.13205803829591831 0 0.292795534533141 0.12925435590289211 0 0.28737965130483067 0.12748900281737041 0 0.28772577859054038 0.13205803829591831 0 0.2955248419015698 0.12454284648065619 0 0.29019877065842498 0.122424981218258 0 0.292795534533141 0.12925435590289211 0 0.29019877065842498 0.122424981218258 0 0.292795534533141 0.12925435590289211 0 0.28737965130483067 0.12748900281737041 0 0.28212701182482047 0.12344827276776139 0 0.28737965130483067 0.12748900281737041 0 0.28220121841389328 0.13138569642939449 0 0.28737965130483067 0.12748900281737041 0 0.28772577859054038 0.13205803829591831 0 0.28220121841389328 0.13138569642939449 0 0.28220121841389328 0.13138569642939449 0 0.2875155341299177 0.13711853907816349 0 0.28330285671992123 0.140879769628596 0 0.2875155341299177 0.13711853907816349 0 0.28330285671992123 0.140879769628596 0 0.29345611684931527 0.14148699033403681 0 0.28772577859054038 0.13205803829591831 0 0.28220121841389328 0.13138569642939449 0 0.2875155341299177 0.13711853907816349 0 0.27447005409464559 0.15253843821397009 0 0.28764980724909162 0.16368871781641681 0 0.29863383965693208 0.14770682973617719 0 0.27447005409464559 0.15253843821397009 0 0.29863383965693208 0.14770682973617719 0 0.28330285671992123 0.140879769628596 0 0.27447005409464559 0.15253843821397009 0 0.29863383965693208 0.14770682973617719 0 0.29863383965693208 0.14770682973617719 0 0.28330285671992123 0.140879769628596 0 0.29345611684931527 0.14148699033403681 0 0.29820700035333447 0.14208698373214529 0 0.29863383965693208 0.14770682973617719 0 0.29345611684931527 0.14148699033403681 0 0.26753601967027851 0.23666349279099499 0 0.28255117011413039 0.23023024448762111 0 0.28445948182574871 0.2487690486917552 0 0.2630771961758292 0.25483384150313898 0 0.26753601967027851 0.23666349279099499 0 0.28445948182574871 0.2487690486917552 0 0.2393105250387596 0.2522611276579797 0 0.2630771961758292 0.25483384150313898 0 0.25178732403818582 0.24038390480915409 0 0.2630771961758292 0.25483384150313898 0 0.26753601967027851 0.23666349279099499 0 0.25178732403818582 0.24038390480915409 0 0.26753601967027851 0.23666349279099499 0 0.25207482369939532 0.22432082290178659 0 0.27118450044170772 0.21949733489450621 0 0.26753601967027851 0.23666349279099499 0 0.25178732403818582 0.24038390480915409 0 0.25207482369939532 0.22432082290178659 0 0.26753601967027851 0.23666349279099499 0 0.27118450044170772 0.21949733489450621 0 0.28255117011413039 0.23023024448762111 0 0.27118450044170772 0.21949733489450621 0 0.27633622174300149 0.2040002982520889 0 0.25828688890745899 0.20523855093014351 0 0.27118450044170772 0.21949733489450621 0 0.27633622174300149 0.2040002982520889 0 0.29052597644850098 0.21834093794684559 0 0.25207482369939532 0.22432082290178659 0 0.27118450044170772 0.21949733489450621 0 0.25828688890745899 0.20523855093014351 0 0.26073382819428947 0.18647186586626771 0 0.25828688890745899 0.20523855093014351 0 0.27168477620901998 0.19262902074940319 0 0.23911234894716549 0.18398231809051591 0 0.26073382819428947 0.18647186586626771 0 0.25828688890745899 0.20523855093014351 0 0.27633622174300149 0.2040002982520889 0 0.25828688890745899 0.20523855093014351 0 0.27168477620901998 0.19262902074940319 0 0.27633622174300149 0.2040002982520889 0 0.27168477620901998 0.19262902074940319 0 0.28358951704613289 0.18953966750446799 0 0.27633622174300149 0.2040002982520889 0 0.29547691908157508 0.19145088892969889 0 0.29032050430315481 0.2044578445285406 0 0.27633622174300149 0.2040002982520889 0 0.28358951704613289 0.18953966750446799 0 0.29547691908157508 0.19145088892969889 0 0.27633622174300149 0.2040002982520889 0 0.29547691908157508 0.19145088892969889 0 0.29681316764317911 0.20028375905400109 0 0.29547691908157508 0.19145088892969889 0 0.29032050430315481 0.2044578445285406 0 0.28358951704613289 0.18953966750446799 0 0.29547691908157508 0.19145088892969889 0 0.30466453944660798 0.18542711630428421 0 0.29547691908157508 0.19145088892969889 0 0.29547691908157508 0.19145088892969889 0 0.30590612373216841 0.19310712639458469 0 0.29547691908157508 0.19145088892969889 0 0.30590612373216841 0.19310712639458469 0 0.30241141147775918 0.1974165753948971 0 0.30466453944660798 0.18542711630428421 0 0.29794520787855 0.19054687039932611 0 0.30590612373216841 0.19310712639458469 0 0.30590612373216841 0.19310712639458469 0 0.30241141147775918 0.1974165753948971 0 0.30170777833488432 0.21010991077901489 0 0.29794520787855 0.19054687039932611 0 0.30590612373216841 0.19310712639458469 0 0.30466453944660798 0.18542711630428421 0 0.29547691908157508 0.19145088892969889 0 0.29794520787855 0.19054687039932611 0 0.29547691908157508 0.19145088892969889 0 0.29794520787855 0.19054687039932611 0 0.30590612373216841 0.19310712639458469 0 0.30590612373216841 0.19310712639458469 0 0.30241141147775918 0.1974165753948971 0 0.30466453944660798 0.18542711630428421 0 0.30590612373216841 0.19310712639458469 0 0.29681316764317911 0.20028375905400109 0 0.29547691908157508 0.19145088892969889 0 0.30241141147775918 0.1974165753948971 0 0.29681316764317911 0.20028375905400109 0 0.30241141147775918 0.1974165753948971 0 0.30170777833488432 0.21010991077901489 0 0.30590612373216841 0.19310712639458469 0 0.30170777833488432 0.21010991077901489 0 0.31013288934625932 0.21963006661909759 0 0.30590612373216841 0.19310712639458469 0 0.31013288934625932 0.21963006661909759 0 0.30170777833488432 0.21010991077901489 0 0.29052597644850098 0.21834093794684559 0 0.31013288934625932 0.21963006661909759 0 0.30170777833488432 0.21010991077901489 0 0.29052597644850098 0.21834093794684559 0 0.29032050430315481 0.2044578445285406 0 0.29681316764317911 0.20028375905400109 0 0.30170777833488432 0.21010991077901489 0 0.29032050430315481 0.2044578445285406 0 0.27633622174300149 0.2040002982520889 0 0.29052597644850098 0.21834093794684559 0 0.29032050430315481 0.2044578445285406 0 0.27118450044170772 0.21949733489450621 0 0.29052597644850098 0.21834093794684559 0 0.28255117011413039 0.23023024448762111 0 0.29052597644850098 0.21834093794684559 0 0.28255117011413039 0.23023024448762111 0 0.29783816192281293 0.23708709246608031 0 0.31013288934625932 0.21963006661909759 0 0.31437302155916219 0.24615086979874731 0 0.31013288934625932 0.21963006661909759 0 0.29783816192281293 0.23708709246608031 0 0.31437302155916219 0.24615086979874731 0 0.29052597644850098 0.21834093794684559 0 0.31013288934625932 0.21963006661909759 0 0.29783816192281293 0.23708709246608031 0 0.30135459129844822 0.25763952472011981 0 0.29783816192281293 0.23708709246608031 0 0.31437302155916219 0.24615086979874731 0 0.28255117011413039 0.23023024448762111 0 0.29783816192281293 0.23708709246608031 0 0.28445948182574871 0.2487690486917552 0 0.30135459129844822 0.25763952472011981 0 0.29783816192281293 0.23708709246608031 0 0.28445948182574871 0.2487690486917552 0 0.33208811001678562 0.25691794732956041 0 0.31437302155916219 0.24615086979874731 0 0.34035604248352791 0.22985227759774809 0 0.31013288934625932 0.21963006661909759 0 0.31437302155916219 0.24615086979874731 0 0.34035604248352791 0.22985227759774809 0 0.31013288934625932 0.21963006661909759 0 0.34035604248352791 0.22985227759774809 0 0.33427430093633997 0.20205331686583089 0 0.30590612373216841 0.19310712639458469 0 0.31013288934625932 0.21963006661909759 0 0.33427430093633997 0.20205331686583089 0 0.30590612373216841 0.19310712639458469 0 0.33427430093633997 0.20205331686583089 0 0.30590612373216841 0.19310712639458469 0 0.32779977345821582 0.19664766208710521 0 0.30590612373216841 0.19310712639458469 0 0.32779977345821582 0.19664766208710521 0 0.33427430093633997 0.20205331686583089 0 0.30590612373216841 0.19310712639458469 0 0.31810201014352141 0.1883328619099105 0 0.32779977345821582 0.19664766208710521 0 0.31810201014352141 0.1883328619099105 0 0.32779977345821582 0.19664766208710521 0 0.33470602886921019 0.1879110668698003 0 0.32779977345821582 0.19664766208710521 0 0.34931286078660378 0.20010647279294499 0 0.32779977345821582 0.19664766208710521 0 0.33427430093633997 0.20205331686583089 0 0.34931286078660378 0.20010647279294499 0 0.32779977345821582 0.19664766208710521 0 0.33470602886921019 0.1879110668698003 0 0.34931286078660378 0.20010647279294499 0 0.33470602886921019 0.1879110668698003 0 0.34931286078660378 0.20010647279294499 0 0.33470602886921019 0.1879110668698003 0 0.34931286078660378 0.20010647279294499 0 0.3561984040286752 0.18968098606523731 0 0.34931286078660378 0.20010647279294499 0 0.3561984040286752 0.18968098606523731 0 0.36124660487053012 0.1957220942996076 0 0.34931286078660378 0.20010647279294499 0 0.36952575518518183 0.2033562423157742 0 0.3561984040286752 0.18968098606523731 0 0.36989471232635329 0.18981386159770461 0 0.36124660487053012 0.1957220942996076 0 0.34931286078660378 0.20010647279294499 0 0.36124660487053012 0.1957220942996076 0 0.36952575518518183 0.2033562423157742 0 0.36989471232635329 0.18981386159770461 0 0.37707160809602153 0.195374366007945 0 0.36989471232635329 0.18981386159770461 0 0.36952575518518183 0.2033562423157742 0 0.37707160809602153 0.195374366007945 0 0.36989471232635329 0.18981386159770461 0 0.36124660487053012 0.1957220942996076 0 0.36952575518518183 0.2033562423157742 0 0.36226191574285249 0.21091778235039541 0 0.36952575518518183 0.2033562423157742 0 0.38145479684634648 0.21699670809192231 0 0.36226191574285249 0.21091778235039541 0 0.378224298304771 0.224244952536515 0 0.36226191574285249 0.21091778235039541 0 0.378224298304771 0.224244952536515 0 0.38145479684634648 0.21699670809192231 0 0.36226191574285249 0.21091778235039541 0 0.38145479684634648 0.21699670809192231 0 0.34931286078660378 0.20010647279294499 0 0.36226191574285249 0.21091778235039541 0 0.36952575518518183 0.2033562423157742 0 0.33427430093633997 0.20205331686583089 0 0.36226191574285249 0.21091778235039541 0 0.34035604248352791 0.22985227759774809 0 0.33427430093633997 0.20205331686583089 0 0.36226191574285249 0.21091778235039541 0 0.33427430093633997 0.20205331686583089 0 0.34931286078660378 0.20010647279294499 0 0.36226191574285249 0.21091778235039541 0 0.34931286078660378 0.20010647279294499 0 0.36226191574285249 0.21091778235039541 0 0.34035604248352791 0.22985227759774809 0 0.36226191574285249 0.21091778235039541 0 0.36003005032826729 0.22981387560716299 0 0.36003005032826729 0.22981387560716299 0 0.36138675064106829 0.2488651006958936 0 0.378224298304771 0.224244952536515 0 0.36226191574285249 0.21091778235039541 0 0.36003005032826729 0.22981387560716299 0 0.378224298304771 0.224244952536515 0 0.36138675064106829 0.2488651006958936 0 0.378224298304771 0.224244952536515 0 0.34035604248352791 0.22985227759774809 0 0.36003005032826729 0.22981387560716299 0 0.36138675064106829 0.2488651006958936 0 0.33208811001678562 0.25691794732956041 0 0.34035604248352791 0.22985227759774809 0 0.36138675064106829 0.2488651006958936 0 0.33232934167285838 0.14096933106139389 0 0.33267754365668328 0.1602834506146785 0 0.35155288800704482 0.13712553559308541 0 0.33267754365668328 0.1602834506146785 0 0.35155288800704482 0.13712553559308541 0 0.33232934167285838 0.14096933106139389 0 0.35155288800704482 0.13712553559308541 0 0.34013736707093628 0.12275915985272989 0 0.33232934167285838 0.14096933106139389 0 0.33103593653502589 0.12554019720050741 0 0.34013736707093628 0.12275915985272989 0 0.33232934167285838 0.14096933106139389 0 0.34861093313886832 0.12754848915366729 0 0.33232934167285838 0.14096933106139389 0 0.33103593653502589 0.12554019720050741 0 0.32147480965151781 0.12537623458101749 0 0.33232934167285838 0.14096933106139389 0 0.32147480965151781 0.12537623458101749 0 0.317006113498561 0.13485684258775679 0 0.33232934167285838 0.14096933106139389 0 0.317006113498561 0.13485684258775679 0 0.31310579533867278 0.14481312652970571 0 0.31143060291471308 0.12764674167395221 0 0.32147480965151781 0.12537623458101749 0 0.317006113498561 0.13485684258775679 0 0.31018173231588542 0.13654248097221741 0 0.31143060291471308 0.12764674167395221 0 0.317006113498561 0.13485684258775679 0 0.31018173231588542 0.13654248097221741 0 0.317006113498561 0.13485684258775679 0 0.31310579533867278 0.14481312652970571 0 0.31310579533867278 0.14481312652970571 0 0.31499555159807763 0.15970208050312401 0 0.33267754365668328 0.1602834506146785 0 0.33232934167285838 0.14096933106139389 0 0.31310579533867278 0.14481312652970571 0 0.33232934167285838 0.14096933106139389 0 0.31310579533867278 0.14481312652970571 0 0.33267754365668328 0.1602834506146785 0 0.31310579533867278 0.14481312652970571 0 0.33267754365668328 0.1602834506146785 0 0.31499555159807763 0.15970208050312401 0 0.31961591088993702 0.16761004209072461 0 0.33267754365668328 0.1602834506146785 0 0.31117196998955959 0.16891117725204369 0 0.31499555159807763 0.15970208050312401 0 0.31961591088993702 0.16761004209072461 0 0.31117196998955959 0.16891117725204369 0 0.31961591088993702 0.16761004209072461 0 0.31842084544008659 0.1743143866605513 0 0.32081364376527699 0.17483911542322469 0 0.33267754365668328 0.1602834506146785 0 0.31961591088993702 0.16761004209072461 0 0.32081364376527699 0.17483911542322469 0 0.33267754365668328 0.1602834506146785 0 0.30466453944660798 0.18542711630428421 0 0.32081364376527699 0.17483911542322469 0 0.30466453944660798 0.18542711630428421 0 0.31842084544008659 0.1743143866605513 0 0.32081364376527699 0.17483911542322469 0 0.30590612373216841 0.19310712639458469 0 0.31810201014352141 0.1883328619099105 0 0.32081364376527699 0.17483911542322469 0 0.31810201014352141 0.1883328619099105 0 0.33470602886921019 0.1879110668698003 0 0.32081364376527699 0.17483911542322469 0 0.30590612373216841 0.19310712639458469 0 0.32081364376527699 0.17483911542322469 0 0.31961591088993702 0.16761004209072461 0 0.31842084544008659 0.1743143866605513 0 0.32081364376527699 0.17483911542322469 0 0.31842084544008659 0.1743143866605513 0 0.32081364376527699 0.17483911542322469 0 0.33470602886921019 0.1879110668698003 0 0.32081364376527699 0.17483911542322469 0 0.33324817522753741 0.1757496968180188 0 0.3373641500682697 0.16398793929233149 0 0.35365677477496499 0.17686630765840231 0 0.33470602886921019 0.1879110668698003 0 0.33324817522753741 0.1757496968180188 0 0.35365677477496499 0.17686630765840231 0 0.33470602886921019 0.1879110668698003 0 0.32081364376527699 0.17483911542322469 0 0.33324817522753741 0.1757496968180188 0 0.32081364376527699 0.17483911542322469 0 0.33324817522753741 0.1757496968180188 0 0.3373641500682697 0.16398793929233149 0 0.33267754365668328 0.1602834506146785 0 0.3373641500682697 0.16398793929233149 0 0.35028506032531193 0.1555164719907372 0 0.32081364376527699 0.17483911542322469 0 0.33267754365668328 0.1602834506146785 0 0.3373641500682697 0.16398793929233149 0 0.32081364376527699 0.17483911542322469 0 0.3373641500682697 0.16398793929233149 0 0.33267754365668328 0.1602834506146785 0 0.3373641500682697 0.16398793929233149 0 0.3373641500682697 0.16398793929233149 0 0.35517428418122921 0.16478264970034801 0 0.35028506032531193 0.1555164719907372 0 0.3373641500682697 0.16398793929233149 0 0.35517428418122921 0.16478264970034801 0 0.35365677477496499 0.17686630765840231 0 0.3373641500682697 0.16398793929233149 0 0.35028506032531193 0.1555164719907372 0 0.3373641500682697 0.16398793929233149 0 0.35365677477496499 0.17686630765840231 0 0.35517428418122921 0.16478264970034801 0 0.35365677477496499 0.17686630765840231 0 0.36655034145435161 0.16842943314342321 0 0.33470602886921019 0.1879110668698003 0 0.3561984040286752 0.18968098606523731 0 0.35365677477496499 0.17686630765840231 0 0.36989471232635329 0.18981386159770461 0 0.36955549856246178 0.17670389986338139 0 0.36655034145435161 0.16842943314342321 0 0.36989471232635329 0.18981386159770461 0 0.36655034145435161 0.16842943314342321 0 0.3561984040286752 0.18968098606523731 0 0.36989471232635329 0.18981386159770461 0 0.35365677477496499 0.17686630765840231 0 0.36989471232635329 0.18981386159770461 0 0.35365677477496499 0.17686630765840231 0 0.36655034145435161 0.16842943314342321 0 0.36989471232635329 0.18981386159770461 0 0.35365677477496499 0.17686630765840231 0 0.36989471232635329 0.18981386159770461 0 0.36955549856246178 0.17670389986338139 0 0.38021879505415562 0.18584380546120249 0 0.35517428418122921 0.16478264970034801 0 0.36655034145435161 0.16842943314342321 0 0.36320597058235321 0.14704500468914139 0 0.36655034145435161 0.16842943314342321 0 0.36320597058235321 0.14704500468914139 0 0.36655034145435161 0.16842943314342321 0 0.37362381498027281 0.15766578270041159 0 0.36320597058235321 0.14704500468914139 0 0.36655034145435161 0.16842943314342321 0 0.37362381498027281 0.15766578270041159 0 0.37695630763708149 0.16767397336244819 0 0.36955549856246178 0.17670389986338139 0 0.36655034145435161 0.16842943314342321 0 0.37695630763708149 0.16767397336244819 0 0.37362381498027281 0.15766578270041159 0 0.36320597058235321 0.14704500468914139 0 0.37609558478149402 0.14830930164959921 0 0.36320597058235321 0.14704500468914139 0 0.37709661486536272 0.13793774084312191 0 0.36320597058235321 0.14704500468914139 0 0.37709661486536272 0.13793774084312191 0 0.37609558478149402 0.14830930164959921 0 0.36320597058235321 0.14704500468914139 0 0.36134832263960021 0.1351669142962556 0 0.33267754365668328 0.1602834506146785 0 0.35028506032531193 0.1555164719907372 0 0.35155288800704482 0.13712553559308541 0 0.36320597058235321 0.14704500468914139 0 0.35028506032531193 0.1555164719907372 0 0.35517428418122921 0.16478264970034801 0 0.36320597058235321 0.14704500468914139 0 0.35028506032531193 0.1555164719907372 0 0.36320597058235321 0.14704500468914139 0 0.35028506032531193 0.1555164719907372 0 0.35155288800704482 0.13712553559308541 0 0.33232934167285838 0.14096933106139389 0 0.34861093313886832 0.12754848915366729 0 0.35155288800704482 0.13712553559308541 0 0.35155288800704482 0.13712553559308541 0 0.35689595948406111 0.13057019053965471 0 0.35155288800704482 0.13712553559308541 0 0.35689595948406111 0.13057019053965471 0 0.36134832263960021 0.1351669142962556 0 0.35155288800704482 0.13712553559308541 0 0.36134832263960021 0.1351669142962556 0 0.36320597058235321 0.14704500468914139 0 0.35155288800704482 0.13712553559308541 0 0.36134832263960021 0.1351669142962556 0 0.35689595948406111 0.13057019053965471 0 0.36002838906270479 0.12672705334189591 0 0.36085526418888042 0.132014221737107 0 0.34861093313886832 0.12754848915366729 0 0.35155288800704482 0.13712553559308541 0 0.35689595948406111 0.13057019053965471 0 0.34861093313886832 0.12754848915366729 0 0.35689595948406111 0.13057019053965471 0 0.35319092988301348 0.1253767182915437 0 0.35689595948406111 0.13057019053965471 0 0.36085526418888042 0.132014221737107 0 0.34861093313886832 0.12754848915366729 0 0.35689595948406111 0.13057019053965471 0 0.35689595948406111 0.13057019053965471 0 0.35319092988301348 0.1253767182915437 0 0.36002838906270479 0.12672705334189591 0 0.35689595948406111 0.13057019053965471 0 0.36002838906270479 0.12672705334189591 0 0.36462904193439089 0.1210825720403283 0 0.36002838906270479 0.12672705334189591 0 0.36558619835258099 0.12904670499636711 0 0.36462904193439089 0.1210825720403283 0 0.37625372212520553 0.13218654293292301 0 0.38061762841208691 0.13131396911547899 0 0.35689595948406111 0.13057019053965471 0 0.36085526418888042 0.132014221737107 0 0.36134832263960021 0.1351669142962556 0 0.36002838906270479 0.12672705334189591 0 0.36085526418888042 0.132014221737107 0 0.36558619835258099 0.12904670499636711 0 0.36002838906270479 0.12672705334189591 0 0.36085526418888042 0.132014221737107 0 0.36085526418888042 0.132014221737107 0 0.36558619835258099 0.12904670499636711 0 0.36661309787753088 0.13411420951173841 0 0.36320597058235321 0.14704500468914139 0 0.36134832263960021 0.1351669142962556 0 0.36661309787753088 0.13411420951173841 0 0.36085526418888042 0.132014221737107 0 0.36134832263960021 0.1351669142962556 0 0.36661309787753088 0.13411420951173841 0 0.36085526418888042 0.132014221737107 0 0.36134832263960021 0.1351669142962556 0 0.36085526418888042 0.132014221737107 0 0.36661309787753088 0.13411420951173841 0 0.36134832263960021 0.1351669142962556 0 0.36661309787753088 0.13411420951173841 0 0.36661309787753088 0.13411420951173841 0 0.37709661486536272 0.13793774084312191 0 0.36661309787753088 0.13411420951173841 0 0.37625372212520553 0.13218654293292301 0 0.36320597058235321 0.14704500468914139 0 0.36661309787753088 0.13411420951173841 0 0.37709661486536272 0.13793774084312191 0 0.36661309787753088 0.13411420951173841 0 0.37625372212520553 0.13218654293292301 0 0.37709661486536272 0.13793774084312191 0 0.36462904193439089 0.1210825720403283 0 0.37625372212520553 0.13218654293292301 0 0.36558619835258099 0.12904670499636711 0 0.36661309787753088 0.13411420951173841 0 0.37625372212520553 0.13218654293292301 0 0.36462904193439089 0.1210825720403283 0 0.36558619835258099 0.12904670499636711 0 0.37625372212520553 0.13218654293292301 0 0.37625372212520553 0.13218654293292301 0 0.38061762841208691 0.13131396911547899 0 0.37709661486536272 0.13793774084312191 0 0.38016708781723069 0.13592461555281979 0 0.37625372212520553 0.13218654293292301 0 0.38016708781723069 0.13592461555281979 0 0.37625372212520553 0.13218654293292301 0 0.37709661486536272 0.13793774084312191 0 0.38016708781723069 0.13592461555281979 0 0.37625372212520553 0.13218654293292301 0 0.38061762841208691 0.13131396911547899 0 0.38016708781723069 0.13592461555281979 0 0.38061762841208691 0.13131396911547899 0 0.38016708781723069 0.13592461555281979 0 0.38016708781723069 0.13592461555281979 0 0.38174026378244658 0.13742732357058449 0 0.37709661486536272 0.13793774084312191 0 0.38217406013912092 0.1397895784573612 0 0.37709661486536272 0.13793774084312191 0 0.38174026378244658 0.13742732357058449 0 0.38217406013912092 0.1397895784573612 0 0.37709661486536272 0.13793774084312191 0 0.38016708781723069 0.13592461555281979 0 0.38174026378244658 0.13742732357058449 0 0.38174026378244658 0.13742732357058449 0 0.38217406013912092 0.1397895784573612 0 0.38174026378244658 0.13742732357058449 0 0.39008739082820543 0.12942046678098409 0 0.38547283865732951 0.14099270361414751 0 0.38016708781723069 0.13592461555281979 0 0.38174026378244658 0.13742732357058449 0 0.39008739082820543 0.12942046678098409 0 0.38174026378244658 0.13742732357058449 0 0.38547283865732951 0.14099270361414751 0 0.38217406013912092 0.1397895784573612 0 0.38547283865732951 0.14099270361414751 0 0.38174026378244658 0.13742732357058449 0 0.38217406013912092 0.1397895784573612 0 0.38547283865732951 0.14099270361414751 0 0.38016708781723069 0.13592461555281979 0 0.39008739082820543 0.12942046678098409 0 0.38061762841208691 0.13131396911547899 0 0.38016708781723069 0.13592461555281979 0 0.39008739082820543 0.12942046678098409 0 0.38061762841208691 0.13131396911547899 0 0.39008739082820543 0.12942046678098409 0 0.39008739082820543 0.12942046678098409 0 0.41268694011442708 0.1249730644070905 0 0.39008739082820543 0.12942046678098409 0 0.39944049845369811 0.13802253731345279 0 0.41149935834458917 0.13117590642049559 0 0.39008739082820543 0.12942046678098409 0 0.41149935834458917 0.13117590642049559 0 0.41268694011442708 0.1249730644070905 0 0.39008739082820543 0.12942046678098409 0 0.39944049845369811 0.13802253731345279 0 0.38547283865732951 0.14099270361414751 0 0.38547283865732951 0.14099270361414751 0 0.4076007759080052 0.15153853874154791 0 0.40940638287599151 0.1497217070866875 0 0.38547283865732951 0.14099270361414751 0 0.40940638287599151 0.1497217070866875 0 0.38547283865732951 0.14099270361414751 0 0.40220116799831079 0.1569717137060353 0 0.39271484255498401 0.15605801794272239 0 0.38547283865732951 0.14099270361414751 0 0.40220116799831079 0.1569717137060353 0 0.38547283865732951 0.14099270361414751 0 0.40220116799831079 0.1569717137060353 0 0.4076007759080052 0.15153853874154791 0 0.39944049845369811 0.13802253731345279 0 0.38547283865732951 0.14099270361414751 0 0.40940638287599151 0.1497217070866875 0 0.40220116799831079 0.1569717137060353 0 0.4076007759080052 0.15153853874154791 0 0.39271484255498401 0.15605801794272239 0 0.38547283865732951 0.14099270361414751 0 0.3853108704460827 0.1568712006574447 0 0.38217406013912092 0.1397895784573612 0 0.3853108704460827 0.1568712006574447 0 0.38217406013912092 0.1397895784573612 0 0.38547283865732951 0.14099270361414751 0 0.3853108704460827 0.1568712006574447 0 0.38217406013912092 0.1397895784573612 0 0.37609558478149402 0.14830930164959921 0 0.3853108704460827 0.1568712006574447 0 0.37709661486536272 0.13793774084312191 0 0.38217406013912092 0.1397895784573612 0 0.37609558478149402 0.14830930164959921 0 0.37362381498027281 0.15766578270041159 0 0.37609558478149402 0.14830930164959921 0 0.3853108704460827 0.1568712006574447 0 0.37695630763708149 0.16767397336244819 0 0.3853108704460827 0.1568712006574447 0 0.38844768075304531 0.173952822857528 0 0.3853108704460827 0.1568712006574447 0 0.38844768075304531 0.173952822857528 0 0.39243028267026597 0.16406551392755039 0 0.3853108704460827 0.1568712006574447 0 0.38844768075304531 0.173952822857528 0 0.37362381498027281 0.15766578270041159 0 0.37695630763708149 0.16767397336244819 0 0.3853108704460827 0.1568712006574447 0 0.39271484255498401 0.15605801794272239 0 0.3853108704460827 0.1568712006574447 0 0.39243028267026597 0.16406551392755039 0 0.36955549856246178 0.17670389986338139 0 0.38021879505415562 0.18584380546120249 0 0.39309876289250328 0.17606205299393921 0 0.36955549856246178 0.17670389986338139 0 0.38844768075304531 0.173952822857528 0 0.39309876289250328 0.17606205299393921 0 0.36955549856246178 0.17670389986338139 0 0.39309876289250328 0.17606205299393921 0 0.36955549856246178 0.17670389986338139 0 0.37695630763708149 0.16767397336244819 0 0.38844768075304531 0.173952822857528 0 0.38021879505415562 0.18584380546120249 0 0.39309876289250328 0.17606205299393921 0 0.39141870623813119 0.19133403241627339 0 0.41151969820481932 0.17555985332032381 0 0.39968993742641762 0.19285753044477111 0 0.40295701683214291 0.17579329292139201 0 0.41151969820481932 0.17555985332032381 0 0.39968993742641762 0.19285753044477111 0 0.40295701683214291 0.17579329292139201 0 0.39968993742641762 0.19285753044477111 0 0.39679110584729882 0.18401172719409409 0 0.40295701683214291 0.17579329292139201 0 0.39968993742641762 0.19285753044477111 0 0.39309876289250328 0.17606205299393921 0 0.39141870623813119 0.19133403241627339 0 0.39679110584729882 0.18401172719409409 0 0.39309876289250328 0.17606205299393921 0 0.39141870623813119 0.19133403241627339 0 0.39309876289250328 0.17606205299393921 0 0.40295701683214291 0.17579329292139201 0 0.39679110584729882 0.18401172719409409 0 0.39309876289250328 0.17606205299393921 0 0.40295701683214291 0.17579329292139201 0 0.39309876289250328 0.17606205299393921 0 0.40295701683214291 0.17579329292139201 0 0.39364174200957702 0.17112628735703289 0 0.39309876289250328 0.17606205299393921 0 0.39364174200957702 0.17112628735703289 0 0.38844768075304531 0.173952822857528 0 0.39309876289250328 0.17606205299393921 0 0.39364174200957702 0.17112628735703289 0 0.39271484255498401 0.15605801794272239 0 0.39869149769430801 0.16050320213041419 0 0.40220116799831079 0.1569717137060353 0 0.39271484255498401 0.15605801794272239 0 0.39243028267026597 0.16406551392755039 0 0.39869149769430801 0.16050320213041419 0 0.39243028267026597 0.16406551392755039 0 0.39577506256359929 0.16588155262016019 0 0.39869149769430801 0.16050320213041419 0 0.38844768075304531 0.173952822857528 0 0.39243028267026597 0.16406551392755039 0 0.39364174200957702 0.17112628735703289 0 0.39243028267026597 0.16406551392755039 0 0.39364174200957702 0.17112628735703289 0 0.39577506256359929 0.16588155262016019 0 0.39577506256359929 0.16588155262016019 0 0.39939037620585421 0.16675927224626799 0 0.39869149769430801 0.16050320213041419 0 0.39364174200957702 0.17112628735703289 0 0.39577506256359929 0.16588155262016019 0 0.39939037620585421 0.16675927224626799 0 0.40295701683214291 0.17579329292139201 0 0.39364174200957702 0.17112628735703289 0 0.39939037620585421 0.16675927224626799 0 0.40295701683214291 0.17579329292139201 0 0.40588656192964451 0.16049202620233971 0 0.40816062666988379 0.17072158578677149 0 0.40295701683214291 0.17579329292139201 0 0.39939037620585421 0.16675927224626799 0 0.40588656192964451 0.16049202620233971 0 0.40295701683214291 0.17579329292139201 0 0.40588656192964451 0.16049202620233971 0 0.40588656192964451 0.16049202620233971 0 0.40220116799831079 0.1569717137060353 0 0.4076007759080052 0.15153853874154791 0 0.39939037620585421 0.16675927224626799 0 0.40588656192964451 0.16049202620233971 0 0.39869149769430801 0.16050320213041419 0 0.40588656192964451 0.16049202620233971 0 0.39869149769430801 0.16050320213041419 0 0.40220116799831079 0.1569717137060353 0 0.39869149769430801 0.16050320213041419 0 0.40220116799831079 0.1569717137060353 0 0.40588656192964451 0.16049202620233971 0 0.40220116799831079 0.1569717137060353 0 0.40588656192964451 0.16049202620233971 0 0.41298955132569709 0.15625734303972089 0 0.41062637125849538 0.16178116986723071 0 0.41062637125849538 0.16178116986723071 0 0.43093143636592929 0.1681291230784708 0 0.41062637125849538 0.16178116986723071 0 0.41735563344263682 0.17144735866352881 0 0.43093143636592929 0.1681291230784708 0 0.41298955132569709 0.15625734303972089 0 0.41062637125849538 0.16178116986723071 0 0.43142766465635018 0.15775327330079919 0 0.40588656192964451 0.16049202620233971 0 0.41062637125849538 0.16178116986723071 0 0.41735563344263682 0.17144735866352881 0 0.40588656192964451 0.16049202620233971 0 0.41519394477586341 0.17018730758148401 0 0.41735563344263682 0.17144735866352881 0 0.40588656192964451 0.16049202620233971 0 0.41735563344263682 0.17144735866352881 0 0.40588656192964451 0.16049202620233971 0 0.41096382392444641 0.16772156473981681 0 0.41519394477586341 0.17018730758148401 0 0.40588656192964451 0.16049202620233971 0 0.40816062666988379 0.17072158578677149 0 0.41096382392444641 0.16772156473981681 0 0.41150777150950257 0.1714714672392548 0 0.41096382392444641 0.16772156473981681 0 0.41519394477586341 0.17018730758148401 0 0.41096382392444641 0.16772156473981681 0 0.41519394477586341 0.17018730758148401 0 0.40816062666988379 0.17072158578677149 0 0.41150777150950257 0.1714714672392548 0 0.41096382392444641 0.16772156473981681 0 0.41519394477586341 0.17018730758148401 0 0.41735563344263682 0.17144735866352881 0 0.42137956983779562 0.17529104914550761 0 0.41702781005415129 0.18533157036413911 0 0.42678758959270718 0.1953566163022579 0 0.41151969820481932 0.17555985332032381 0 0.39968993742641762 0.19285753044477111 0 0.41048603813207102 0.1884621777418852 0 0.41151969820481932 0.17555985332032381 0 0.41702781005415129 0.18533157036413911 0 0.41048603813207102 0.1884621777418852 0 0.40295701683214291 0.17579329292139201 0 0.40816062666988379 0.17072158578677149 0 0.41151969820481932 0.17555985332032381 0 0.40295701683214291 0.17579329292139201 0 0.41151969820481932 0.17555985332032381 0 0.41519394477586341 0.17018730758148401 0 0.41151969820481932 0.17555985332032381 0 0.41150777150950257 0.1714714672392548 0 0.41519394477586341 0.17018730758148401 0 0.41151969820481932 0.17555985332032381 0 0.40816062666988379 0.17072158578677149 0 0.41150777150950257 0.1714714672392548 0 0.41151969820481932 0.17555985332032381 0 0.41151969820481932 0.17555985332032381 0 0.42137956983779562 0.17529104914550761 0 0.41702781005415129 0.18533157036413911 0 0.41735563344263682 0.17144735866352881 0 0.41151969820481932 0.17555985332032381 0 0.42137956983779562 0.17529104914550761 0 0.41151969820481932 0.17555985332032381 0 0.42137956983779562 0.17529104914550761 0 0.41519394477586341 0.17018730758148401 0 0.41735563344263682 0.17144735866352881 0 0.41151969820481932 0.17555985332032381 0 0.41735563344263682 0.17144735866352881 0 0.42137956983779562 0.17529104914550761 0 0.42383486630957468 0.17522411176877359 0 0.41735563344263682 0.17144735866352881 0 0.42383486630957468 0.17522411176877359 0 0.41735563344263682 0.17144735866352881 0 0.42137956983779562 0.17529104914550761 0 0.42383486630957468 0.17522411176877359 0 0.43093143636592929 0.1681291230784708 0 0.45123650147336308 0.17447707628971151 0 0.42137956983779562 0.17529104914550761 0 0.42678758959270718 0.1953566163022579 0 0.43828400512138221 0.19143827679079289 0 0.42383486630957468 0.17522411176877359 0 0.44916625347027861 0.18998980966605189 0 0.42137956983779562 0.17529104914550761 0 0.43828400512138221 0.19143827679079289 0 0.42137956983779562 0.17529104914550761 0 0.42383486630957468 0.17522411176877359 0 0.43828400512138221 0.19143827679079289 0 0.42383486630957468 0.17522411176877359 0 0.43828400512138221 0.19143827679079289 0 0.44916625347027861 0.18998980966605189 0 0.42137956983779562 0.17529104914550761 0 0.42383486630957468 0.17522411176877359 0 0.41062637125849538 0.16178116986723071 0 0.43142766465635018 0.15775327330079919 0 0.43093143636592929 0.1681291230784708 0 0.41735563344263682 0.17144735866352881 0 0.42383486630957468 0.17522411176877359 0 0.43093143636592929 0.1681291230784708 0 0.43142766465635018 0.15775327330079919 0 0.42477854598962272 0.13425398180445139 0 0.4493677092550642 0.14404668587817729 0 0.42477854598962272 0.13425398180445139 0 0.44015070910325421 0.1187862565222155 0 0.41149935834458917 0.13117590642049559 0 0.40940638287599151 0.1497217070866875 0 0.39944049845369811 0.13802253731345279 0 0.41149935834458917 0.13117590642049559 0 0.40940638287599151 0.1497217070866875 0 0.42477854598962272 0.13425398180445139 0 0.41149935834458917 0.13117590642049559 0 0.40940638287599151 0.1497217070866875 0 0.41149935834458917 0.13117590642049559 0 0.42493576185118281 0.1202398756582692 0 0.41268694011442708 0.1249730644070905 0 0.42477854598962272 0.13425398180445139 0 0.41149935834458917 0.13117590642049559 0 0.42493576185118281 0.1202398756582692 0 0.41149935834458917 0.13117590642049559 0 0.41268694011442708 0.1249730644070905 0 0.43142766465635018 0.15775327330079919 0 0.42477854598962272 0.13425398180445139 0 0.40940638287599151 0.1497217070866875 0 0.43142766465635018 0.15775327330079919 0 0.40940638287599151 0.1497217070866875 0 0.41298955132569709 0.15625734303972089 0 0.43142766465635018 0.15775327330079919 0 0.40940638287599151 0.1497217070866875 0 0.40588656192964451 0.16049202620233971 0 0.4076007759080052 0.15153853874154791 0 0.40588656192964451 0.16049202620233971 0 0.41298955132569709 0.15625734303972089 0 0.4076007759080052 0.15153853874154791 0 0.4076007759080052 0.15153853874154791 0 0.40940638287599151 0.1497217070866875 0 0.41298955132569709 0.15625734303972089 0 0.4076007759080052 0.15153853874154791 0 0.40940638287599151 0.1497217070866875 0 0.42477854598962272 0.13425398180445139 0 0.40940638287599151 0.1497217070866875 0 0.38744446946732852 0.25681666577303658 0 0.39155039568592481 0.235371058995027 0 0.40688248039953212 0.24817198651907729 0 0.39155039568592481 0.235371058995027 0 0.4068852278214779 0.22876760816889599 0 0.40688248039953212 0.24817198651907729 0 0.39155039568592481 0.235371058995027 0 0.40688248039953212 0.24817198651907729 0 0.38478262156910109 0.2516570865505221 0 0.38699283475207119 0.23156590083875569 0 0.36138675064106829 0.2488651006958936 0 0.38699283475207119 0.23156590083875569 0 0.378224298304771 0.224244952536515 0 0.38478262156910109 0.2516570865505221 0 0.39155039568592481 0.235371058995027 0 0.38699283475207119 0.23156590083875569 0 0.38744446946732852 0.25681666577303658 0 0.39155039568592481 0.235371058995027 0 0.38744446946732852 0.25681666577303658 0 0.38478262156910109 0.2516570865505221 0 0.39155039568592481 0.235371058995027 0 0.38478262156910109 0.2516570865505221 0 0.36138675064106829 0.2488651006958936 0 0.38699283475207119 0.23156590083875569 0 0.38699283475207119 0.23156590083875569 0 0.3897386495837592 0.20660601183860761 0 0.38699283475207119 0.23156590083875569 0 0.378224298304771 0.224244952536515 0 0.3897386495837592 0.20660601183860761 0 0.39155039568592481 0.235371058995027 0 0.38699283475207119 0.23156590083875569 0 0.38699283475207119 0.23156590083875569 0 0.378224298304771 0.224244952536515 0 0.39155039568592481 0.235371058995027 0 0.38699283475207119 0.23156590083875569 0 0.39683911837020219 0.20774760426000541 0 0.39155039568592481 0.235371058995027 0 0.39683911837020219 0.20774760426000541 0 0.4068852278214779 0.22876760816889599 0 0.39155039568592481 0.235371058995027 0 0.39683911837020219 0.20774760426000541 0 0.38699283475207119 0.23156590083875569 0 0.39683911837020219 0.20774760426000541 0 0.3897386495837592 0.20660601183860761 0 0.39683911837020219 0.20774760426000541 0 0.40688797524342329 0.20936322981871461 0 0.4068852278214779 0.22876760816889599 0 0.39683911837020219 0.20774760426000541 0 0.40688797524342329 0.20936322981871461 0 0.39683911837020219 0.20774760426000541 0 0.4068887736713851 0.2037241257587569 0 0.40688797524342329 0.20936322981871461 0 0.39683911837020219 0.20774760426000541 0 0.3897386495837592 0.20660601183860761 0 0.36952575518518183 0.2033562423157742 0 0.38145479684634648 0.21699670809192231 0 0.3897386495837592 0.20660601183860761 0 0.36952575518518183 0.2033562423157742 0 0.3897386495837592 0.20660601183860761 0 0.378224298304771 0.224244952536515 0 0.38145479684634648 0.21699670809192231 0 0.3897386495837592 0.20660601183860761 0 0.378224298304771 0.224244952536515 0 0.3897386495837592 0.20660601183860761 0 0.36952575518518183 0.2033562423157742 0 0.3897386495837592 0.20660601183860761 0 0.37707160809602153 0.195374366007945 0 0.3897386495837592 0.20660601183860761 0 0.37707160809602153 0.195374366007945 0 0.39141870623813119 0.19133403241627339 0 0.3897386495837592 0.20660601183860761 0 0.39141870623813119 0.19133403241627339 0 0.36989471232635329 0.18981386159770461 0 0.38021879505415562 0.18584380546120249 0 0.37707160809602153 0.195374366007945 0 0.38021879505415562 0.18584380546120249 0 0.37707160809602153 0.195374366007945 0 0.39141870623813119 0.19133403241627339 0 0.39679110584729882 0.18401172719409409 0 0.39141870623813119 0.19133403241627339 0 0.39968993742641762 0.19285753044477111 0 0.3897386495837592 0.20660601183860761 0 0.39141870623813119 0.19133403241627339 0 0.39968993742641762 0.19285753044477111 0 0.39683911837020219 0.20774760426000541 0 0.3897386495837592 0.20660601183860761 0 0.39968993742641762 0.19285753044477111 0 0.3897386495837592 0.20660601183860761 0 0.39968993742641762 0.19285753044477111 0 0.39683911837020219 0.20774760426000541 0 0.39968993742641762 0.19285753044477111 0 0.39683911837020219 0.20774760426000541 0 0.39968993742641762 0.19285753044477111 0 0.4068887736713851 0.2037241257587569 0 0.39968993742641762 0.19285753044477111 0 0.40867140257681478 0.19493845986770311 0 0.4068887736713851 0.2037241257587569 0 0.39968993742641762 0.19285753044477111 0 0.41048603813207102 0.1884621777418852 0 0.40867140257681478 0.19493845986770311 0 0.41048603813207102 0.1884621777418852 0 0.40867140257681478 0.19493845986770311 0 0.41552134239815158 0.19362347471248989 0 0.40867140257681478 0.19493845986770311 0 0.41152231375001452 0.20059130836234901 0 0.4068887736713851 0.2037241257587569 0 0.40867140257681478 0.19493845986770311 0 0.41152231375001452 0.20059130836234901 0 0.41552134239815158 0.19362347471248989 0 0.41826600351299847 0.20228543675990809 0 0.41552134239815158 0.19362347471248989 0 0.42678758959270718 0.1953566163022579 0 0.41152231375001452 0.20059130836234901 0 0.41826600351299847 0.20228543675990809 0 0.41552134239815158 0.19362347471248989 0 0.41702781005415129 0.18533157036413911 0 0.41048603813207102 0.1884621777418852 0 0.41552134239815158 0.19362347471248989 0 0.41702781005415129 0.18533157036413911 0 0.41552134239815158 0.19362347471248989 0 0.42678758959270718 0.1953566163022579 0 0.42678758959270718 0.1953566163022579 0 0.43966270641506638 0.20986098856407431 0 0.43828400512138221 0.19143827679079289 0 0.42413697242516413 0.21213647269206701 0 0.44555013217404349 0.21557921733650939 0 0.43966270641506638 0.20986098856407431 0 0.42678758959270718 0.1953566163022579 0 0.42413697242516413 0.21213647269206701 0 0.43966270641506638 0.20986098856407431 0 0.42413697242516413 0.21213647269206701 0 0.43256562532617659 0.22075881174464801 0 0.44555013217404349 0.21557921733650939 0 0.42413697242516413 0.21213647269206701 0 0.44555013217404349 0.21557921733650939 0 0.41826600351299847 0.20228543675990809 0 0.42678758959270718 0.1953566163022579 0 0.42413697242516413 0.21213647269206701 0 0.42413697242516413 0.21213647269206701 0 0.43966270641506638 0.20986098856407431 0 0.42413697242516413 0.21213647269206701 0 0.42359445487476749 0.21813067970453501 0 0.43256562532617659 0.22075881174464801 0 0.42413697242516413 0.21213647269206701 0 0.42359445487476749 0.21813067970453501 0 0.42135465563917113 0.2125442548741984 0 0.42413697242516413 0.21213647269206701 0 0.42135465563917113 0.2125442548741984 0 0.41826600351299847 0.20228543675990809 0 0.42413697242516413 0.21213647269206701 0 0.40688797524342329 0.20936322981871461 0 0.42413697242516413 0.21213647269206701 0 0.42135465563917113 0.2125442548741984 0 0.40688797524342329 0.20936322981871461 0 0.42135465563917113 0.2125442548741984 0 0.40688797524342329 0.20936322981871461 0 0.41611518025447197 0.22141695949702581 0 0.42359445487476749 0.21813067970453501 0 0.42135465563917113 0.2125442548741984 0 0.41611518025447197 0.22141695949702581 0 0.42413697242516413 0.21213647269206701 0 0.40688797524342329 0.20936322981871461 0 0.41152231375001452 0.20059130836234901 0 0.41826600351299847 0.20228543675990809 0 0.40688797524342329 0.20936322981871461 0 0.41152231375001452 0.20059130836234901 0 0.4068887736713851 0.2037241257587569 0 0.40688797524342329 0.20936322981871461 0 0.4068887736713851 0.2037241257587569 0 0.40688797524342329 0.20936322981871461 0 0.40688797524342329 0.20936322981871461 0 0.4068852278214779 0.22876760816889599 0 0.41611518025447197 0.22141695949702581 0 0.40688797524342329 0.20936322981871461 0 0.4068852278214779 0.22876760816889599 0 0.41611518025447197 0.22141695949702581 0 0.42440829858245549 0.22523527916049749 0 0.41925830285235283 0.23475098140272621 0 0.4068852278214779 0.22876760816889599 0 0.41611518025447197 0.22141695949702581 0 0.41925830285235283 0.23475098140272621 0 0.42359445487476749 0.21813067970453501 0 0.41611518025447197 0.22141695949702581 0 0.42440829858245549 0.22523527916049749 0 0.42359445487476749 0.21813067970453501 0 0.42440829858245549 0.22523527916049749 0 0.43256562532617659 0.22075881174464801 0 0.42440829858245549 0.22523527916049749 0 0.43256562532617659 0.22075881174464801 0 0.4318103626461976 0.23329730420820721 0 0.43256562532617659 0.22075881174464801 0 0.4318103626461976 0.23329730420820721 0 0.44196209441378181 0.2271851983590859 0 0.42440829858245549 0.22523527916049749 0 0.4318103626461976 0.23329730420820721 0 0.41925830285235283 0.23475098140272621 0 0.4318103626461976 0.23329730420820721 0 0.43177874053093152 0.248062112012498 0 0.41925830285235283 0.23475098140272621 0 0.4318103626461976 0.23329730420820721 0 0.43177874053093152 0.248062112012498 0 0.44192699069336661 0.23861813516144101 0 0.43177874053093152 0.248062112012498 0 0.41925830285235283 0.23475098140272621 0 0.40688248039953212 0.24817198651907729 0 0.4068852278214779 0.22876760816889599 0 0.40688248039953212 0.24817198651907729 0 0.4068852278214779 0.22876760816889599 0 0.41925830285235283 0.23475098140272621 0 0.40688248039953212 0.24817198651907729 0 0.46427494519719698 0.244682470428701 0 0.44834448075591737 0.249135481591751 0 0.45441679542514202 0.23348966720517461 0 0.46427494519719698 0.244682470428701 0 0.45441679542514202 0.23348966720517461 0 0.46934022165809047 0.23178680643577201 0 0.44834448075591737 0.249135481591751 0 0.44192699069336661 0.23861813516144101 0 0.45441679542514202 0.23348966720517461 0 0.43177874053093152 0.248062112012498 0 0.44834448075591737 0.249135481591751 0 0.44192699069336661 0.23861813516144101 0 0.44192699069336661 0.23861813516144101 0 0.44196209441378181 0.2271851983590859 0 0.45441679542514202 0.23348966720517461 0 0.44196209441378181 0.2271851983590859 0 0.45222307848397247 0.22381901122043071 0 0.45441679542514202 0.23348966720517461 0 0.4318103626461976 0.23329730420820721 0 0.44192699069336661 0.23861813516144101 0 0.44196209441378181 0.2271851983590859 0 0.43256562532617659 0.22075881174464801 0 0.44196209441378181 0.2271851983590859 0 0.44555013217404349 0.21557921733650939 0 0.44196209441378181 0.2271851983590859 0 0.45222307848397247 0.22381901122043071 0 0.44555013217404349 0.21557921733650939 0 0.45222307848397247 0.22381901122043071 0 0.45441679542514202 0.23348966720517461 0 0.46696329192292269 0.219021961980953 0 0.45222307848397247 0.22381901122043071 0 0.46696329192292269 0.219021961980953 0 0.44555013217404349 0.21557921733650939 0 0.45441679542514202 0.23348966720517461 0 0.46696329192292269 0.219021961980953 0 0.46934022165809047 0.23178680643577201 0 0.46696329192292269 0.219021961980953 0 0.45518844040496842 0.2075855044360784 0 0.47449764063098182 0.20475550756333161 0 0.46696329192292269 0.219021961980953 0 0.45264465237162499 0.21205468089387719 0 0.44555013217404349 0.21557921733650939 0 0.46696329192292269 0.219021961980953 0 0.44555013217404349 0.21557921733650939 0 0.45518844040496842 0.2075855044360784 0 0.47449764063098182 0.20475550756333161 0 0.46696329192292269 0.219021961980953 0 0.45518844040496842 0.2075855044360784 0 0.45264465237162499 0.21205468089387719 0 0.45264465237162499 0.21205468089387719 0 0.44555013217404349 0.21557921733650939 0 0.43966270641506638 0.20986098856407431 0 0.45518844040496842 0.2075855044360784 0 0.45264465237162499 0.21205468089387719 0 0.43966270641506638 0.20986098856407431 0 0.45518844040496842 0.2075855044360784 0 0.43966270641506638 0.20986098856407431 0 0.45518844040496842 0.2075855044360784 0 0.43828400512138221 0.19143827679079289 0 0.45518844040496842 0.2075855044360784 0 0.43966270641506638 0.20986098856407431 0 0.43828400512138221 0.19143827679079289 0 0.45518844040496842 0.2075855044360784 0 0.43828400512138221 0.19143827679079289 0 0.44916625347027861 0.18998980966605189 0 0.44916625347027861 0.18998980966605189 0 0.46903013439277252 0.19107689753856519 0 0.46135747718003361 0.18491535650662139 0 0.44916625347027861 0.18998980966605189 0 0.46903013439277252 0.19107689753856519 0 0.47449764063098182 0.20475550756333161 0 0.44916625347027861 0.18998980966605189 0 0.47449764063098182 0.20475550756333161 0 0.45518844040496842 0.2075855044360784 0 0.44916625347027861 0.18998980966605189 0 0.47449764063098182 0.20475550756333161 0 0.46903013439277252 0.19107689753856519 0 0.48483411259118392 0.19372529332959901 0 0.47529518809138432 0.18199852062722119 0 0.46903013439277252 0.19107689753856519 0 0.48483411259118392 0.19372529332959901 0 0.47449764063098182 0.20475550756333161 0 0.48483411259118392 0.19372529332959901 0 0.49999999999999861 0.18951996496473139 0 0.47529518809138432 0.18199852062722119 0 0.48483411259118392 0.19372529332959901 0 0.49999999999999761 0.20101782830073989 0 0.47449764063098182 0.20475550756333161 0 0.49999999999999761 0.20101782830073989 0 0.47449764063098182 0.20475550756333161 0 0.48483411259118392 0.19372529332959901 0 0.49999999999999861 0.18951996496473139 0 0.49999999999999761 0.20101782830073989 0 0.49999999999999761 0.20101782830073989 0 0.49035667801912292 0.21399976069204221 0 0.5 0.22599762985802679 0 0.49999999999999761 0.20101782830073989 0 0.49035667801912292 0.21399976069204221 0 0.47449764063098182 0.20475550756333161 0 0.46696329192292269 0.219021961980953 0 0.47449764063098182 0.20475550756333161 0 0.48004098371603288 0.22291744526335891 0 0.49035667801912292 0.21399976069204221 0 0.47449764063098182 0.20475550756333161 0 0.48004098371603288 0.22291744526335891 0 0.49035667801912292 0.21399976069204221 0 0.47449764063098182 0.20475550756333161 0 0.46934022165809047 0.23178680643577201 0 0.48004098371603288 0.22291744526335891 0 0.48100509202915798 0.2388224873006726 0 0.46696329192292269 0.219021961980953 0 0.46934022165809047 0.23178680643577201 0 0.48004098371603288 0.22291744526335891 0 0.48004098371603288 0.22291744526335891 0 0.5 0.22599762985802679 0 0.48100509202915798 0.2388224873006726 0 0.49035667801912292 0.21399976069204221 0 0.48004098371603288 0.22291744526335891 0 0.5 0.22599762985802679 0 0.5 0.25097743141531381 0 0.5 0.22599762985802679 0 0.48100509202915798 0.2388224873006726 0 0.47479196790678913 0.2562030606507627 0 0.5 0.25097743141531381 0 0.48100509202915798 0.2388224873006726 0 0.47479196790678913 0.2562030606507627 0 0.46427494519719698 0.244682470428701 0 0.48100509202915798 0.2388224873006726 0 0.46427494519719698 0.244682470428701 0 0.46934022165809047 0.23178680643577201 0 0.48100509202915798 0.2388224873006726 0 0.4493677092550642 0.14404668587817729 0 0.4668399884443204 0.1592150352718488 0 0.47172381206838648 0.1441629586695331 0 0.45691161617533438 0.12511403876967819 0 0.4493677092550642 0.14404668587817729 0 0.47172381206838648 0.1441629586695331 0 0.45691161617533438 0.12511403876967819 0 0.47172381206838648 0.1441629586695331 0 0.47462028775366522 0.1223989356443751 0 0.42477854598962272 0.13425398180445139 0 0.4493677092550642 0.14404668587817729 0 0.44015070910325421 0.1187862565222155 0 0.45691161617533438 0.12511403876967819 0 0.4493677092550642 0.14404668587817729 0 0.44015070910325421 0.1187862565222155 0 0.43142766465635018 0.15775327330079919 0 0.4493677092550642 0.14404668587817729 0 0.45344894643670902 0.16578483951491019 0 0.43142766465635018 0.15775327330079919 0 0.45344894643670902 0.16578483951491019 0 0.43093143636592929 0.1681291230784708 0 0.45123650147336308 0.17447707628971151 0 0.45344894643670902 0.16578483951491019 0 0.43142766465635018 0.15775327330079919 0 0.43093143636592929 0.1681291230784708 0 0.45344894643670902 0.16578483951491019 0 0.43093143636592929 0.1681291230784708 0 0.45123650147336308 0.17447707628971151 0 0.42383486630957468 0.17522411176877359 0 0.45123650147336308 0.17447707628971151 0 0.42383486630957468 0.17522411176877359 0 0.44916625347027861 0.18998980966605189 0 0.45123650147336308 0.17447707628971151 0 0.45123650147336308 0.17447707628971151 0 0.47529518809138432 0.18199852062722119 0 0.45123650147336308 0.17447707628971151 0 0.47529518809138432 0.18199852062722119 0 0.47547022821706753 0.17381640572902241 0 0.45123650147336308 0.17447707628971151 0 0.46135747718003361 0.18491535650662139 0 0.47529518809138432 0.18199852062722119 0 0.45123650147336308 0.17447707628971151 0 0.47547022821706753 0.17381640572902241 0 0.44916625347027861 0.18998980966605189 0 0.45123650147336308 0.17447707628971151 0 0.46135747718003361 0.18491535650662139 0 0.46903013439277252 0.19107689753856519 0 0.46135747718003361 0.18491535650662139 0 0.47529518809138432 0.18199852062722119 0 0.45344894643670902 0.16578483951491019 0 0.47547022821706753 0.17381640572902241 0 0.4493677092550642 0.14404668587817729 0 0.45344894643670902 0.16578483951491019 0 0.4668399884443204 0.1592150352718488 0 0.45123650147336308 0.17447707628971151 0 0.45344894643670902 0.16578483951491019 0 0.47547022821706753 0.17381640572902241 0 0.45344894643670902 0.16578483951491019 0 0.4668399884443204 0.1592150352718488 0 0.47547022821706753 0.17381640572902241 0 0.4668399884443204 0.1592150352718488 0 0.48360388242143099 0.16175145197999019 0 0.47547022821706753 0.17381640572902241 0 0.48360388242143099 0.16175145197999019 0 0.47547022821706753 0.17381640572902241 0 0.48729658388734021 0.17349399039793509 0 0.47529518809138432 0.18199852062722119 0 0.47547022821706753 0.17381640572902241 0 0.49540911796391152 0.1810884852943653 0 0.47547022821706753 0.17381640572902241 0 0.48729658388734021 0.17349399039793509 0 0.47547022821706753 0.17381640572902241 0 0.48729658388734021 0.17349399039793509 0 0.49540911796391152 0.1810884852943653 0 0.49999999999999861 0.18951996496473139 0 0.47529518809138432 0.18199852062722119 0 0.49540911796391152 0.1810884852943653 0 0.49999999999999861 0.18951996496473139 0 0.47529518809138432 0.18199852062722119 0 0.49999999999999861 0.18951996496473139 0 0.5 0.1725272442728453 0 0.49540911796391152 0.1810884852943653 0 0.47547022821706753 0.17381640572902241 0 0.49540911796391152 0.1810884852943653 0 0.48729658388734021 0.17349399039793509 0 0.5 0.1725272442728453 0 0.49540911796391152 0.1810884852943653 0 0.48360388242143099 0.16175145197999019 0 0.48729658388734021 0.17349399039793509 0 0.5 0.1725272442728453 0 0.48360388242143099 0.16175145197999019 0 0.5 0.1725272442728453 0 0.5 0.14403666024495071 0 0.48360388242143099 0.16175145197999019 0 0.5 0.14403666024495071 0 0.47172381206838648 0.1441629586695331 0 0.4668399884443204 0.1592150352718488 0 0.48360388242143099 0.16175145197999019 0 0.47172381206838648 0.1441629586695331 0 0.5 0.14403666024495071 0 0.47172381206838648 0.1441629586695331 0 0.47462028775366522 0.1223989356443751 0 0.5 0.14403666024495071 0 0.5 0.115546076217056 0 0.47462028775366522 0.1223989356443751 0 0.5 0.115546076217056 0 0.48579002957104273 0.1013007842031087 0 0.47462028775366522 0.1223989356443751 0 0.5 0.115546076217056 0 0.48579002957104273 0.1013007842031087 0 0.5 0.087055492189161421 0 0.48579002957104273 0.1013007842031087 0 0.47034858147792108 0.088400656880407782 0 0.45552287221688559 0.1033185312399796 0 0.48579002957104273 0.1013007842031087 0 0.47462028775366522 0.1223989356443751 0 0.45552287221688559 0.1033185312399796 0 0.48517429073895663 0.073482782520835982 0 0.5 0.087055492189161421 0 0.49999999999999473 0.058564908161266797 0 0.48517429073895663 0.073482782520835982 0 0.49457593965729879 0.060913580873753578 0 0.49999999999999473 0.058564908161266797 0 0.48517429073895663 0.073482782520835982 0 0.49999999999999473 0.058564908161266797 0 0.48579002957104273 0.1013007842031087 0 0.48517429073895663 0.073482782520835982 0 0.5 0.087055492189161421 0 0.48579002957104273 0.1013007842031087 0 0.48517429073895663 0.073482782520835982 0 0.47034858147792108 0.088400656880407782 0 0.48517429073895663 0.073482782520835982 0 0.47034858147792108 0.088400656880407782 0 0.46997305046774512 0.077044222380257946 0 0.48517429073895663 0.073482782520835982 0 0.47034858147792108 0.088400656880407782 0 0.46997305046774512 0.077044222380257946 0 0.46357679969211352 0.062849403317552191 0 0.47687359947815011 0.061367455412039501 0 0.48517429073895663 0.073482782520835982 0 0.46997305046774512 0.077044222380257946 0 0.49457593965729879 0.060913580873753578 0 0.46997305046774512 0.077044222380257946 0 0.49457593965729879 0.060913580873753578 0 0.46997305046774512 0.077044222380257946 0 0.47687359947815011 0.061367455412039501 0 0.49457593965729879 0.060913580873753578 0 0.46997305046774512 0.077044222380257946 0 0.46357679969211352 0.062849403317552191 0 0.44909424428436889 0.070776179220002594 0 0.46997305046774512 0.077044222380257946 0 0.44537016127819129 0.093174863886762022 0 0.47034858147792108 0.088400656880407782 0 0.46997305046774512 0.077044222380257946 0 0.44537016127819129 0.093174863886762022 0 0.46997305046774512 0.077044222380257946 0 0.44537016127819129 0.093174863886762022 0 0.44909424428436889 0.070776179220002594 0 0.44537016127819129 0.093174863886762022 0 0.44909424428436889 0.070776179220002594 0 0.43103392795243722 0.078851400643034864 0 0.44537016127819129 0.093174863886762022 0 0.43103392795243722 0.078851400643034864 0 0.44909424428436889 0.070776179220002594 0 0.43103392795243722 0.078851400643034864 0 0.43277734026870002 0.062770194969384796 0 0.47462028775366522 0.1223989356443751 0 0.45552287221688559 0.1033185312399796 0 0.45691161617533438 0.12511403876967819 0 0.47462028775366522 0.1223989356443751 0 0.45552287221688559 0.1033185312399796 0 0.47034858147792108 0.088400656880407782 0 0.44537016127819129 0.093174863886762022 0 0.45552287221688559 0.1033185312399796 0 0.47034858147792108 0.088400656880407782 0 0.45552287221688559 0.1033185312399796 0 0.44280095640812073 0.1046067133094033 0 0.44015070910325421 0.1187862565222155 0 0.43016008303415132 0.1031472015886558 0 0.45552287221688559 0.1033185312399796 0 0.44280095640812073 0.1046067133094033 0 0.44015070910325421 0.1187862565222155 0 0.44537016127819129 0.093174863886762022 0 0.45552287221688559 0.1033185312399796 0 0.44537016127819129 0.093174863886762022 0 0.45552287221688559 0.1033185312399796 0 0.44280095640812073 0.1046067133094033 0 0.44537016127819129 0.093174863886762022 0 0.43016008303415132 0.1031472015886558 0 0.44537016127819129 0.093174863886762022 0 0.44280095640812073 0.1046067133094033 0 0.43016008303415132 0.1031472015886558 0 0.45691161617533438 0.12511403876967819 0 0.45552287221688559 0.1033185312399796 0 0.44015070910325421 0.1187862565222155 0 0.45552287221688559 0.1033185312399796 0 0.44015070910325421 0.1187862565222155 0 0.42477854598962272 0.13425398180445139 0 0.44015070910325421 0.1187862565222155 0 0.42493576185118281 0.1202398756582692 0 0.42493576185118281 0.1202398756582692 0 0.41495494574704972 0.11312707537124379 0 0.43016008303415132 0.1031472015886558 0 0.44015070910325421 0.1187862565222155 0 0.42493576185118281 0.1202398756582692 0 0.43016008303415132 0.1031472015886558 0 0.42493576185118281 0.1202398756582692 0 0.41495494574704972 0.11312707537124379 0 0.41268694011442708 0.1249730644070905 0 0.41495494574704972 0.11312707537124379 0 0.41268694011442708 0.1249730644070905 0 0.41495494574704972 0.11312707537124379 0 0.41446214858850378 0.098626580389546886 0 0.39683131069100819 0.1054185583381443 0 0.41495494574704972 0.11312707537124379 0 0.41446214858850378 0.098626580389546886 0 0.43016008303415132 0.1031472015886558 0 0.41446214858850378 0.098626580389546886 0 0.43016008303415132 0.1031472015886558 0 0.42743555963591889 0.091315050754336047 0 0.44537016127819129 0.093174863886762022 0 0.43016008303415132 0.1031472015886558 0 0.42743555963591889 0.091315050754336047 0 0.41495494574704972 0.11312707537124379 0 0.43016008303415132 0.1031472015886558 0 0.43103392795243722 0.078851400643034864 0 0.42743555963591889 0.091315050754336047 0 0.41513278924984498 0.088840294411285048 0 0.44537016127819129 0.093174863886762022 0 0.43103392795243722 0.078851400643034864 0 0.42743555963591889 0.091315050754336047 0 0.43103392795243722 0.078851400643034864 0 0.43277734026870002 0.062770194969384796 0 0.41669769462668488 0.064527937399305985 0 0.43103392795243722 0.078851400643034864 0 0.41669769462668488 0.064527937399305985 0 0.43103392795243722 0.078851400643034864 0 0.41669769462668488 0.064527937399305985 0 0.40957146437727282 0.07090441204062492 0 0.43103392795243722 0.078851400643034864 0 0.40957146437727282 0.07090441204062492 0 0.41073766005874007 0.080925810399997355 0 0.40957146437727282 0.07090441204062492 0 0.41073766005874007 0.080925810399997355 0 0.40072044745372931 0.076802494998418736 0 0.40957146437727282 0.07090441204062492 0 0.4105501976390018 0.064827917298123455 0 0.40260858374900688 0.065037193561942985 0 0.4105501976390018 0.064827917298123455 0 0.40260858374900688 0.065037193561942985 0 0.41084469906165788 0.058680155423641377 0 0.41669769462668488 0.064527937399305985 0 0.40957146437727282 0.07090441204062492 0 0.41669769462668488 0.064527937399305985 0 0.40957146437727282 0.07090441204062492 0 0.4105501976390018 0.064827917298123455 0 0.41669769462668488 0.064527937399305985 0 0.4105501976390018 0.064827917298123455 0 0.41084469906165788 0.058680155423641377 0 0.43103392795243722 0.078851400643034864 0 0.41513278924984498 0.088840294411285048 0 0.41073766005874007 0.080925810399997355 0 0.41446214858850378 0.098626580389546886 0 0.42743555963591889 0.091315050754336047 0 0.41513278924984498 0.088840294411285048 0 0.41446214858850378 0.098626580389546886 0 0.41513278924984498 0.088840294411285048 0 0.40219144592640821 0.090345716272695373 0 0.41513278924984498 0.088840294411285048 0 0.41073766005874007 0.080925810399997355 0 0.40219144592640821 0.090345716272695373 0 0.40072044745372931 0.076802494998418736 0 0.38557474467503239 0.075316157177642729 0 0.38843240112554972 0.091878539565725698 0 0.41073766005874007 0.080925810399997355 0 0.40219144592640821 0.090345716272695373 0 0.40072044745372931 0.076802494998418736 0 0.40072044745372931 0.076802494998418736 0 0.38843240112554972 0.091878539565725698 0 0.40219144592640821 0.090345716272695373 0 0.40072044745372931 0.076802494998418736 0 0.38843240112554972 0.091878539565725698 0 0.40957146437727282 0.07090441204062492 0 0.40260858374900688 0.065037193561942985 0 0.40072044745372931 0.076802494998418736 0 0.40072044745372931 0.076802494998418736 0 0.39171945007091208 0.067980217530684769 0 0.38557474467503239 0.075316157177642729 0 0.40260858374900688 0.065037193561942985 0 0.40072044745372931 0.076802494998418736 0 0.39171945007091208 0.067980217530684769 0 0.40260858374900688 0.065037193561942985 0 0.39171945007091208 0.067980217530684769 0 0.39050071257606578 0.059203939519756117 0 0.3718500718099455 0.083569899554369831 0 0.38557474467503239 0.075316157177642729 0 0.38029075433068271 0.064925872639936613 0 0.39171945007091208 0.067980217530684769 0 0.38029075433068271 0.064925872639936613 0 0.39050071257606578 0.059203939519756117 0 0.39171945007091208 0.067980217530684769 0 0.38557474467503239 0.075316157177642729 0 0.38029075433068271 0.064925872639936613 0 0.3718500718099455 0.083569899554369831 0 0.38557474467503239 0.075316157177642729 0 0.38843240112554972 0.091878539565725698 0 0.38843240112554972 0.091878539565725698 0 0.37614435479736957 0.1069545841330323 0 0.39683131069100819 0.1054185583381443 0 0.38843240112554972 0.091878539565725698 0 0.37614435479736957 0.1069545841330323 0 0.3718500718099455 0.083569899554369831 0 0.38843240112554972 0.091878539565725698 0 0.37614435479736957 0.1069545841330323 0 0.38061762841208691 0.13131396911547899 0 0.37614435479736957 0.1069545841330323 0 0.38061762841208691 0.13131396911547899 0 0.39008739082820543 0.12942046678098409 0 0.37614435479736957 0.1069545841330323 0 0.39008739082820543 0.12942046678098409 0 0.37614435479736957 0.1069545841330323 0 0.39683131069100819 0.1054185583381443 0 0.39008739082820543 0.12942046678098409 0 0.41495494574704972 0.11312707537124379 0 0.39683131069100819 0.1054185583381443 0 0.39008739082820543 0.12942046678098409 0 0.41495494574704972 0.11312707537124379 0 0.39008739082820543 0.12942046678098409 0 0.41495494574704972 0.11312707537124379 0 0.41268694011442708 0.1249730644070905 0 0.41446214858850378 0.098626580389546886 0 0.40219144592640821 0.090345716272695373 0 0.39683131069100819 0.1054185583381443 0 0.40219144592640821 0.090345716272695373 0 0.38843240112554972 0.091878539565725698 0 0.39683131069100819 0.1054185583381443 0 0.39738024081517059 0.027124817638595519 0 0.40009304455852102 0.01303864361100044 0 0.38878706597869839 0.018820078121378508 0 0.39738024081517059 0.027124817638595519 0 0.4092741216168892 0.034194243094224808 0 0.41006252491247308 0.02044923755511947 0 0.39738024081517059 0.027124817638595519 0 0.40009304455852102 0.01303864361100044 0 0.41006252491247308 0.02044923755511947 0 0.40009304455852102 0.01303864361100044 0 0.40098280180780022 0.00038686880303394241 0 0.40981488909933989 0.01101742529942807 0 0.40009304455852102 0.01303864361100044 0 0.40098280180780022 0.00038686880303394241 0 0.38802553366166959 0.0073243690446029089 0 0.40098280180780022 0.00038686880303394241 0 0.38802553366166959 0.0073243690446029089 0 0.38867548818917508 -0.0070555593225876088 0 0.40009304455852102 0.01303864361100044 0 0.38802553366166959 0.0073243690446029089 0 0.38878706597869839 0.018820078121378508 0 0.37454864260371062 0.01887543306276827 0 0.38802553366166959 0.0073243690446029089 0 0.38878706597869839 0.018820078121378508 0 0.37194384359057009 5.2896986445487987e-05 0 0.37454864260371062 0.01887543306276827 0 0.38802553366166959 0.0073243690446029089 0 0.37194384359057009 5.2896986445487987e-05 0 0.38802553366166959 0.0073243690446029089 0 0.38867548818917508 -0.0070555593225876088 0 0.37077682834232761 0.039021008922369503 0 0.37454864260371062 0.01887543306276827 0 0.38392734681780533 0.028036592741606151 0 0.37454864260371062 0.01887543306276827 0 0.38878706597869839 0.018820078121378508 0 0.38392734681780533 0.028036592741606151 0 0.39738024081517059 0.027124817638595519 0 0.38878706597869839 0.018820078121378508 0 0.38392734681780533 0.028036592741606151 0 0.37077682834232761 0.039021008922369503 0 0.38848820942183809 0.038952965050375057 0 0.3808681944261707 0.051274931688473309 0 0.37077682834232761 0.039021008922369503 0 0.38392734681780533 0.028036592741606151 0 0.38848820942183809 0.038952965050375057 0 0.38848820942183809 0.038952965050375057 0 0.3808681944261707 0.051274931688473309 0 0.39369760848941993 0.048836606839789617 0 0.39738024081517059 0.027124817638595519 0 0.38392734681780533 0.028036592741606151 0 0.38848820942183809 0.038952965050375057 0 0.36755578882252182 0.060185214975707363 0 0.38029075433068271 0.064925872639936613 0 0.3808681944261707 0.051274931688473309 0 0.3808681944261707 0.051274931688473309 0 0.39050071257606578 0.059203939519756117 0 0.39369760848941993 0.048836606839789617 0 0.38029075433068271 0.064925872639936613 0 0.3808681944261707 0.051274931688473309 0 0.39050071257606578 0.059203939519756117 0 0.40260858374900688 0.065037193561942985 0 0.39050071257606578 0.059203939519756117 0 0.40180311413149622 0.054756924952893478 0 0.39050071257606578 0.059203939519756117 0 0.39369760848941993 0.048836606839789617 0 0.40180311413149622 0.054756924952893478 0 0.39369760848941993 0.048836606839789617 0 0.40180311413149622 0.054756924952893478 0 0.4038402606515693 0.045306599479421478 0 0.40180311413149622 0.054756924952893478 0 0.4038402606515693 0.045306599479421478 0 0.4094473646030421 0.050839564013102592 0 0.40260858374900688 0.065037193561942985 0 0.40180311413149622 0.054756924952893478 0 0.41084469906165788 0.058680155423641377 0 0.39738024081517059 0.027124817638595519 0 0.38848820942183809 0.038952965050375057 0 0.39836764463407309 0.038303197666791369 0 0.38848820942183809 0.038952965050375057 0 0.39369760848941993 0.048836606839789617 0 0.39836764463407309 0.038303197666791369 0 0.39369760848941993 0.048836606839789617 0 0.39836764463407309 0.038303197666791369 0 0.4038402606515693 0.045306599479421478 0 0.39836764463407309 0.038303197666791369 0 0.4038402606515693 0.045306599479421478 0 0.4092741216168892 0.034194243094224808 0 0.39738024081517059 0.027124817638595519 0 0.39836764463407309 0.038303197666791369 0 0.4092741216168892 0.034194243094224808 0 0.4092741216168892 0.034194243094224808 0 0.41660686266238622 0.047074644578566367 0 0.42674836812724348 0.02933751913884337 0 0.4038402606515693 0.045306599479421478 0 0.4092741216168892 0.034194243094224808 0 0.41660686266238622 0.047074644578566367 0 0.41669769462668488 0.064527937399305985 0 0.41084469906165788 0.058680155423641377 0 0.41660686266238622 0.047074644578566367 0 0.40180311413149622 0.054756924952893478 0 0.41084469906165788 0.058680155423641377 0 0.4094473646030421 0.050839564013102592 0 0.41669769462668488 0.064527937399305985 0 0.41084469906165788 0.058680155423641377 0 0.4038402606515693 0.045306599479421478 0 0.4094473646030421 0.050839564013102592 0 0.41660686266238622 0.047074644578566367 0 0.41084469906165788 0.058680155423641377 0 0.4094473646030421 0.050839564013102592 0 0.41660686266238622 0.047074644578566367 0 0.43277734026870002 0.062770194969384796 0 0.41669769462668488 0.064527937399305985 0 0.43630447583167381 0.046983999191328223 0 0.41669769462668488 0.064527937399305985 0 0.43630447583167381 0.046983999191328223 0 0.41669769462668488 0.064527937399305985 0 0.41660686266238622 0.047074644578566367 0 0.43630447583167381 0.046983999191328223 0 0.41660686266238622 0.047074644578566367 0 0.43630447583167381 0.046983999191328223 0 0.42674836812724348 0.02933751913884337 0 0.42674836812724348 0.02933751913884337 0 0.42143239708190883 0.013963201177992031 0 0.43764693774871122 0.013257247391322139 0 0.42674836812724348 0.02933751913884337 0 0.41006252491247308 0.02044923755511947 0 0.42143239708190883 0.013963201177992031 0 0.4092741216168892 0.034194243094224808 0 0.42674836812724348 0.02933751913884337 0 0.41006252491247308 0.02044923755511947 0 0.40098280180780022 0.00038686880303394241 0 0.41356261962683438 0.001542681643661086 0 0.40981488909933989 0.01101742529942807 0 0.41006252491247308 0.02044923755511947 0 0.40981488909933989 0.01101742529942807 0 0.42143239708190883 0.013963201177992031 0 0.40009304455852102 0.01303864361100044 0 0.41006252491247308 0.02044923755511947 0 0.40981488909933989 0.01101742529942807 0 0.41356261962683438 0.001542681643661086 0 0.40981488909933989 0.01101742529942807 0 0.42143239708190883 0.013963201177992031 0 0.41356261962683438 0.001542681643661086 0 0.42143239708190883 0.013963201177992031 0 0.42611408248641952 0.0037284257675162941 0 0.42143239708190883 0.013963201177992031 0 0.42611408248641952 0.0037284257675162941 0 0.43764693774871122 0.013257247391322139 0 0.42611408248641952 0.0037284257675162941 0 0.43764693774871122 0.013257247391322139 0 0.4373460866551811 -0.0017888244212357031 0 0.43764693774871122 0.013257247391322139 0 0.45513474110023239 0.0050379888500904912 0 0.4373460866551811 -0.0017888244212357031 0 0.43764693774871122 0.013257247391322139 0 0.4559112570366628 0.029440060983350589 0 0.45513474110023239 0.0050379888500904912 0 0.42674836812724348 0.02933751913884337 0 0.43764693774871122 0.013257247391322139 0 0.4559112570366628 0.029440060983350589 0 0.4559112570366628 0.029440060983350589 0 0.47332813657041012 0.034373622792053943 0 0.47551803824165201 0.01189612277537285 0 0.4559112570366628 0.029440060983350589 0 0.47551803824165201 0.01189612277537285 0 0.4559112570366628 0.029440060983350589 0 0.45513474110023239 0.0050379888500904912 0 0.47551803824165201 0.01189612277537285 0 0.45513474110023239 0.0050379888500904912 0 0.47551803824165201 0.01189612277537285 0 0.47015772734411071 -0.01272860484371466 0 0.44909424428436889 0.070776179220002594 0 0.43277734026870002 0.062770194969384796 0 0.45432191070970801 0.050486866541127627 0 0.43277734026870002 0.062770194969384796 0 0.43630447583167381 0.046983999191328223 0 0.45432191070970801 0.050486866541127627 0 0.43630447583167381 0.046983999191328223 0 0.4559112570366628 0.029440060983350589 0 0.43630447583167381 0.046983999191328223 0 0.42674836812724348 0.02933751913884337 0 0.4559112570366628 0.029440060983350589 0 0.43630447583167381 0.046983999191328223 0 0.4559112570366628 0.029440060983350589 0 0.45432191070970801 0.050486866541127627 0 0.45432191070970801 0.050486866541127627 0 0.47213611879175321 0.051294396722318843 0 0.47332813657041012 0.034373622792053943 0 0.4559112570366628 0.029440060983350589 0 0.45432191070970801 0.050486866541127627 0 0.47332813657041012 0.034373622792053943 0 0.46357679969211352 0.062849403317552191 0 0.44909424428436889 0.070776179220002594 0 0.45432191070970801 0.050486866541127627 0 0.46357679969211352 0.062849403317552191 0 0.45432191070970801 0.050486866541127627 0 0.47213611879175321 0.051294396722318843 0 0.48360207447031139 0.054970585386308349 0 0.47687359947815011 0.061367455412039501 0 0.47213611879175321 0.051294396722318843 0 0.46357679969211352 0.062849403317552191 0 0.47687359947815011 0.061367455412039501 0 0.47213611879175321 0.051294396722318843 0 0.48360207447031139 0.054970585386308349 0 0.47213611879175321 0.051294396722318843 0 0.48730663611682379 0.047945651998195712 0 0.47213611879175321 0.051294396722318843 0 0.47332813657041012 0.034373622792053943 0 0.48730663611682379 0.047945651998195712 0 0.47332813657041012 0.034373622792053943 0 0.48730663611682379 0.047945651998195712 0 0.5 0.02857761168557571 0 0.48730663611682379 0.047945651998195712 0 0.49999999999999473 0.058564908161266797 0 0.5 0.02857761168557571 0 0.48360207447031139 0.054970585386308349 0 0.47687359947815011 0.061367455412039501 0 0.49457593965729879 0.060913580873753578 0 0.48360207447031139 0.054970585386308349 0 0.48730663611682379 0.047945651998195712 0 0.49457593965729879 0.060913580873753578 0 0.48730663611682379 0.047945651998195712 0 0.49457593965729879 0.060913580873753578 0 0.49999999999999473 0.058564908161266797 0 0.47332813657041012 0.034373622792053943 0 0.47551803824165201 0.01189612277537285 0 0.5 0.02857761168557571 0 0.47551803824165201 0.01189612277537285 0 0.49512481944664111 -0.0056478154326048483 0 0.47551803824165201 0.01189612277537285 0 0.49512481944664111 -0.0056478154326048483 0 0.5 -0.001409684790115495 0 0.47551803824165201 0.01189612277537285 0 0.5 0.02857761168557571 0 0.5 -0.001409684790115495 0 0.49512481944664111 -0.0056478154326048483 0 0.5 -0.001409684790115495 0 0.5 -0.031396981265806811 0 0.49512481944664111 -0.0056478154326048483 0 0.48189153099520893 -0.0067617263863316039 0 0.48676553894843189 -0.02056660804437976 0 0.47551803824165201 0.01189612277537285 0 0.47015772734411071 -0.01272860484371466 0 0.48189153099520893 -0.0067617263863316039 0 0.47551803824165201 0.01189612277537285 0 0.49512481944664111 -0.0056478154326048483 0 0.48189153099520893 -0.0067617263863316039 0 0.47015772734411071 -0.01272860484371466 0 0.48189153099520893 -0.0067617263863316039 0 0.48676553894843189 -0.02056660804437976 0 0.47015772734411071 -0.01272860484371466 0 0.47747883380445227 -0.03203739839364908 0 0.45900505201414732 -0.031229106484138059 0 0.47015772734411071 -0.01272860484371466 0 0.48676553894843189 -0.02056660804437976 0 0.47747883380445227 -0.03203739839364908 0 0.48676553894843189 -0.02056660804437976 0 0.5 -0.031396981265806811 0 0.47747883380445227 -0.03203739839364908 0 0.49512481944664111 -0.0056478154326048483 0 0.48676553894843189 -0.02056660804437976 0 0.5 -0.031396981265806811 0 0.5 -0.031396981265806811 0 0.47804273358786159 -0.050613081568822681 0 0.47747883380445227 -0.03203739839364908 0 0.5 -0.031396981265806811 0 0.5 -0.061384277741498183 0 0.47804273358786159 -0.050613081568822681 0 0.5 -0.061384277741498183 0 0.47804273358786159 -0.050613081568822681 0 0.48264340653765031 -0.068854418585297283 0 0.47804273358786159 -0.050613081568822681 0 0.47747883380445227 -0.03203739839364908 0 0.45900505201414732 -0.031229106484138059 0 0.47804273358786159 -0.050613081568822681 0 0.45536732161460808 -0.053898995634840893 0 0.45900505201414732 -0.031229106484138059 0 0.47804273358786159 -0.050613081568822681 0 0.45536732161460808 -0.053898995634840893 0 0.46907662151694762 -0.068656634631070523 0 0.45536732161460808 -0.053898995634840893 0 0.43825728228719429 -0.051342266974974057 0 0.44194208144232999 -0.067080918030965275 0 0.45536732161460808 -0.053898995634840893 0 0.43825728228719429 -0.051342266974974057 0 0.44480941738583613 -0.038895932174427009 0 0.45536732161460808 -0.053898995634840893 0 0.44480941738583613 -0.038895932174427009 0 0.45900505201414732 -0.031229106484138059 0 0.44480941738583613 -0.038895932174427009 0 0.43848991431886331 -0.025276403518542771 0 0.45900505201414732 -0.031229106484138059 0 0.43825728228719429 -0.051342266974974057 0 0.44480941738583613 -0.038895932174427009 0 0.43041911923231191 -0.037082323536509323 0 0.44480941738583613 -0.038895932174427009 0 0.43848991431886331 -0.025276403518542771 0 0.43041911923231191 -0.037082323536509323 0 0.43848991431886331 -0.025276403518542771 0 0.44866007482767201 -0.01334278610958878 0 0.45900505201414732 -0.031229106484138059 0 0.43848991431886331 -0.025276403518542771 0 0.44866007482767201 -0.01334278610958878 0 0.43077820240684628 -0.015146368834675459 0 0.44866007482767201 -0.01334278610958878 0 0.4373460866551811 -0.0017888244212357031 0 0.43077820240684628 -0.015146368834675459 0 0.45513474110023239 0.0050379888500904912 0 0.44866007482767201 -0.01334278610958878 0 0.4373460866551811 -0.0017888244212357031 0 0.45513474110023239 0.0050379888500904912 0 0.47015772734411071 -0.01272860484371466 0 0.44866007482767201 -0.01334278610958878 0 0.47015772734411071 -0.01272860484371466 0 0.44866007482767201 -0.01334278610958878 0 0.45900505201414732 -0.031229106484138059 0 0.47010271720424512 -0.1171333114937244 0 0.48100451572853908 -0.1076410799749397 0 0.4751489153602223 -0.13191230484234981 0 0.46694262696062189 -0.11668713561765059 0 0.4751489153602223 -0.13191230484234981 0 0.47010271720424512 -0.1171333114937244 0 0.46694262696062189 -0.11668713561765059 0 0.4751489153602223 -0.13191230484234981 0 0.48100451572853908 -0.1076410799749397 0 0.46596642395285848 -0.1148759811386544 0 0.47010271720424512 -0.1171333114937244 0 0.48100451572853908 -0.1076410799749397 0 0.46596642395285848 -0.1148759811386544 0 0.50000000000001454 -0.1213588706928808 0 0.48100451572853908 -0.1076410799749397 0 0.4751489153602223 -0.13191230484234981 0 0.50000000000001454 -0.1213588706928808 0 0.49604260750422102 -0.10040617881122781 0 0.48100451572853908 -0.1076410799749397 0 0.49604260750422102 -0.10040617881122781 0 0.48100451572853908 -0.1076410799749397 0 0.50000000000001454 -0.1213588706928808 0 0.49604260750422102 -0.10040617881122781 0 0.5 -0.0913715742171895 0 0.49604260750422102 -0.10040617881122781 0 0.4840075395410135 -0.094636859222539518 0 0.5 -0.0913715742171895 0 0.49604260750422102 -0.10040617881122781 0 0.4840075395410135 -0.094636859222539518 0 0.48100451572853908 -0.1076410799749397 0 0.4840075395410135 -0.094636859222539518 0 0.48100451572853908 -0.1076410799749397 0 0.46974527066391081 -0.10348434578120549 0 0.48100451572853908 -0.1076410799749397 0 0.46974527066391081 -0.10348434578120549 0 0.46596642395285848 -0.1148759811386544 0 0.4840075395410135 -0.094636859222539518 0 0.46974527066391081 -0.10348434578120549 0 0.46936451334166679 -0.091251452936834371 0 0.46936451334166679 -0.091251452936834371 0 0.47678118709922102 -0.082017908002199075 0 0.46446867274319842 -0.080634597338661879 0 0.4840075395410135 -0.094636859222539518 0 0.47678118709922102 -0.082017908002199075 0 0.48931649048422099 -0.081600190982895976 0 0.4840075395410135 -0.094636859222539518 0 0.46936451334166679 -0.091251452936834371 0 0.47678118709922102 -0.082017908002199075 0 0.4840075395410135 -0.094636859222539518 0 0.5 -0.0913715742171895 0 0.48931649048422099 -0.081600190982895976 0 0.5 -0.061384277741498183 0 0.48931649048422099 -0.081600190982895976 0 0.48264340653765031 -0.068854418585297283 0 0.5 -0.061384277741498183 0 0.5 -0.0913715742171895 0 0.48931649048422099 -0.081600190982895976 0 0.47804273358786159 -0.050613081568822681 0 0.48264340653765031 -0.068854418585297283 0 0.46907662151694762 -0.068656634631070523 0 0.47678118709922102 -0.082017908002199075 0 0.48931649048422099 -0.081600190982895976 0 0.48264340653765031 -0.068854418585297283 0 0.47678118709922102 -0.082017908002199075 0 0.48264340653765031 -0.068854418585297283 0 0.46907662151694762 -0.068656634631070523 0 0.47678118709922102 -0.082017908002199075 0 0.46907662151694762 -0.068656634631070523 0 0.46446867274319842 -0.080634597338661879 0 0.45536732161460808 -0.053898995634840893 0 0.46907662151694762 -0.068656634631070523 0 0.45518386433691221 -0.071649747217923665 0 0.46907662151694762 -0.068656634631070523 0 0.45518386433691221 -0.071649747217923665 0 0.46446867274319842 -0.080634597338661879 0 0.45518386433691221 -0.071649747217923665 0 0.45521470670277592 -0.081922860594812158 0 0.46446867274319842 -0.080634597338661879 0 0.45536732161460808 -0.053898995634840893 0 0.45518386433691221 -0.071649747217923665 0 0.44194208144232999 -0.067080918030965275 0 0.45518386433691221 -0.071649747217923665 0 0.44194208144232999 -0.067080918030965275 0 0.44175299525488593 -0.08340185062861713 0 0.44194208144232999 -0.067080918030965275 0 0.44175299525488593 -0.08340185062861713 0 0.43330307822065101 -0.074388661489166369 0 0.45518386433691221 -0.071649747217923665 0 0.44175299525488593 -0.08340185062861713 0 0.45518386433691221 -0.071649747217923665 0 0.44648869134766528 -0.083871113628926464 0 0.45521470670277592 -0.081922860594812158 0 0.45033787933470848 -0.085880261641557251 0 0.44648869134766528 -0.083871113628926464 0 0.45521470670277592 -0.081922860594812158 0 0.45518386433691221 -0.071649747217923665 0 0.44648869134766528 -0.083871113628926464 0 0.44175299525488593 -0.08340185062861713 0 0.44648869134766528 -0.083871113628926464 0 0.44175299525488593 -0.08340185062861713 0 0.44175299525488593 -0.08340185062861713 0 0.4465104341692292 -0.091116370940837382 0 0.43972562537829241 -0.094684899687803831 0 0.44648869134766528 -0.083871113628926464 0 0.44175299525488593 -0.08340185062861713 0 0.4465104341692292 -0.091116370940837382 0 0.45033787933470848 -0.085880261641557251 0 0.4465104341692292 -0.091116370940837382 0 0.45815215164378342 -0.1003781213901058 0 0.45033787933470848 -0.085880261641557251 0 0.44648869134766528 -0.083871113628926464 0 0.4465104341692292 -0.091116370940837382 0 0.45033787933470848 -0.085880261641557251 0 0.45815215164378342 -0.1003781213901058 0 0.45033787933470848 -0.085880261641557251 0 0.45959442575139459 -0.08757858314699149 0 0.45815215164378342 -0.1003781213901058 0 0.45033787933470848 -0.085880261641557251 0 0.45959442575139459 -0.08757858314699149 0 0.45521470670277592 -0.081922860594812158 0 0.45959442575139459 -0.08757858314699149 0 0.45521470670277592 -0.081922860594812158 0 0.46446867274319842 -0.080634597338661879 0 0.46936451334166679 -0.091251452936834371 0 0.45959442575139459 -0.08757858314699149 0 0.45815215164378342 -0.1003781213901058 0 0.46936451334166679 -0.091251452936834371 0 0.45959442575139459 -0.08757858314699149 0 0.46446867274319842 -0.080634597338661879 0 0.46974527066391081 -0.10348434578120549 0 0.46936451334166679 -0.091251452936834371 0 0.45815215164378342 -0.1003781213901058 0 0.45815215164378342 -0.1003781213901058 0 0.46596642395285848 -0.1148759811386544 0 0.46974527066391081 -0.10348434578120549 0 0.45815215164378342 -0.1003781213901058 0 0.46596642395285848 -0.1148759811386544 0 0.45815215164378342 -0.1003781213901058 0 0.45641186395941469 -0.10989980735498441 0 0.46596642395285848 -0.1148759811386544 0 0.45815215164378342 -0.1003781213901058 0 0.44914193023709997 -0.10441263917700699 0 0.45641186395941469 -0.10989980735498441 0 0.4465104341692292 -0.091116370940837382 0 0.45815215164378342 -0.1003781213901058 0 0.4458406350034736 -0.097876937499814756 0 0.45815215164378342 -0.1003781213901058 0 0.4458406350034736 -0.097876937499814756 0 0.44914193023709997 -0.10441263917700699 0 0.4465104341692292 -0.091116370940837382 0 0.4458406350034736 -0.097876937499814756 0 0.43972562537829241 -0.094684899687803831 0 0.43972562537829241 -0.094684899687803831 0 0.4428661011898678 -0.10245075028163531 0 0.43410097361520678 -0.1016166292265487 0 0.4458406350034736 -0.097876937499814756 0 0.43972562537829241 -0.094684899687803831 0 0.4428661011898678 -0.10245075028163531 0 0.44552134171526558 -0.1136626458170029 0 0.43410097361520678 -0.1016166292265487 0 0.4428661011898678 -0.10245075028163531 0 0.44552134171526558 -0.1136626458170029 0 0.43410097361520678 -0.1016166292265487 0 0.44914193023709997 -0.10441263917700699 0 0.44552134171526558 -0.1136626458170029 0 0.45641186395941469 -0.10989980735498441 0 0.4428661011898678 -0.10245075028163531 0 0.44914193023709997 -0.10441263917700699 0 0.44552134171526558 -0.1136626458170029 0 0.4458406350034736 -0.097876937499814756 0 0.4428661011898678 -0.10245075028163531 0 0.44914193023709997 -0.10441263917700699 0 0.4462779008257588 -0.12434822808386339 0 0.44927561270296579 -0.1176225891574174 0 0.46327747224806548 -0.11616964925215439 0 0.44552134171526558 -0.1136626458170029 0 0.44927561270296579 -0.1176225891574174 0 0.46327747224806548 -0.11616964925215439 0 0.44552134171526558 -0.1136626458170029 0 0.44927561270296579 -0.1176225891574174 0 0.44552134171526558 -0.1136626458170029 0 0.44014736509398777 -0.11290388940748849 0 0.4462779008257588 -0.12434822808386339 0 0.44552134171526558 -0.1136626458170029 0 0.44014736509398777 -0.11290388940748849 0 0.43410097361520678 -0.1016166292265487 0 0.44552134171526558 -0.1136626458170029 0 0.44014736509398777 -0.11290388940748849 0 0.44014736509398777 -0.11290388940748849 0 0.4462779008257588 -0.12434822808386339 0 0.44014736509398777 -0.11290388940748849 0 0.4462779008257588 -0.12434822808386339 0 0.43446529261901312 -0.1227567697685831 0 0.44552134171526558 -0.1136626458170029 0 0.4462779008257588 -0.12434822808386339 0 0.44927561270296579 -0.1176225891574174 0 0.44552134171526558 -0.1136626458170029 0 0.45641186395941469 -0.10989980735498441 0 0.46327747224806548 -0.11616964925215439 0 0.44552134171526558 -0.1136626458170029 0 0.46327747224806548 -0.11616964925215439 0 0.4462779008257588 -0.12434822808386339 0 0.46327747224806548 -0.11616964925215439 0 0.4462779008257588 -0.12434822808386339 0 0.46327747224806548 -0.11616964925215439 0 0.46131528255232651 -0.12592322821421659 0 0.45641186395941469 -0.10989980735498441 0 0.46327747224806548 -0.11616964925215439 0 0.46596642395285848 -0.1148759811386544 0 0.46327747224806548 -0.11616964925215439 0 0.46596642395285848 -0.1148759811386544 0 0.47010271720424512 -0.1171333114937244 0 0.46596642395285848 -0.1148759811386544 0 0.46694262696062189 -0.11668713561765059 0 0.46327747224806548 -0.11616964925215439 0 0.46694262696062189 -0.11668713561765059 0 0.46327747224806548 -0.11616964925215439 0 0.46596642395285848 -0.1148759811386544 0 0.46694262696062189 -0.11668713561765059 0 0.46596642395285848 -0.1148759811386544 0 0.46694262696062189 -0.11668713561765059 0 0.47010271720424512 -0.1171333114937244 0 0.46694262696062189 -0.11668713561765059 0 0.46327747224806548 -0.11616964925215439 0 0.46694262696062189 -0.11668713561765059 0 0.46131528255232651 -0.12592322821421659 0 0.46694262696062189 -0.11668713561765059 0 0.46131528255232651 -0.12592322821421659 0 0.4751489153602223 -0.13191230484234981 0 0.41252858618920729 -0.11689268901783061 0 0.41653615251652421 -0.12671802851918071 0 0.40673205896942438 -0.12593210900504589 0 0.41252858618920729 -0.11689268901783061 0 0.40419048013085002 -0.11626931135712559 0 0.40673205896942438 -0.12593210900504589 0 0.41252858618920729 -0.11689268901783061 0 0.40419048013085002 -0.11626931135712559 0 0.41252858618920729 -0.11689268901783061 0 0.41249812039608691 -0.10900006862238459 0 0.40419048013085002 -0.11626931135712559 0 0.41249812039608691 -0.10900006862238459 0 0.40419048013085002 -0.11626931135712559 0 0.41252858618920729 -0.11689268901783061 0 0.42451386117456219 -0.1201145336778088 0 0.41249812039608691 -0.10900006862238459 0 0.41252858618920729 -0.11689268901783061 0 0.42451386117456219 -0.1201145336778088 0 0.41653615251652421 -0.12671802851918071 0 0.44014736509398777 -0.11290388940748849 0 0.42451386117456219 -0.1201145336778088 0 0.43446529261901312 -0.1227567697685831 0 0.44014736509398777 -0.11290388940748849 0 0.42451386117456219 -0.1201145336778088 0 0.41249812039608691 -0.10900006862238459 0 0.44014736509398777 -0.11290388940748849 0 0.41249812039608691 -0.10900006862238459 0 0.44014736509398777 -0.11290388940748849 0 0.42846663136057772 -0.1012731042009925 0 0.41249812039608691 -0.10900006862238459 0 0.42846663136057772 -0.1012731042009925 0 0.42488681696769848 -0.098159873371871417 0 0.41249812039608691 -0.10900006862238459 0 0.44014736509398777 -0.11290388940748849 0 0.43410097361520678 -0.1016166292265487 0 0.44014736509398777 -0.11290388940748849 0 0.43410097361520678 -0.1016166292265487 0 0.42846663136057772 -0.1012731042009925 0 0.43410097361520678 -0.1016166292265487 0 0.42989961783356012 -0.093773637917336186 0 0.43972562537829241 -0.094684899687803831 0 0.43410097361520678 -0.1016166292265487 0 0.42989961783356012 -0.093773637917336186 0 0.43410097361520678 -0.1016166292265487 0 0.42989961783356012 -0.093773637917336186 0 0.42813182475074169 -0.095320469100864461 0 0.43410097361520678 -0.1016166292265487 0 0.42813182475074169 -0.095320469100864461 0 0.42846663136057772 -0.1012731042009925 0 0.43410097361520678 -0.1016166292265487 0 0.42813182475074169 -0.095320469100864461 0 0.42989961783356012 -0.093773637917336186 0 0.42813182475074169 -0.095320469100864461 0 0.42813182475074169 -0.095320469100864461 0 0.42488681696769848 -0.098159873371871417 0 0.42813182475074169 -0.095320469100864461 0 0.42846663136057772 -0.1012731042009925 0 0.42488681696769848 -0.098159873371871417 0 0.42846663136057772 -0.1012731042009925 0 0.42488681696769848 -0.098159873371871417 0 0.42488681696769848 -0.098159873371871417 0 0.41249812039608691 -0.10900006862238459 0 0.40551575104399828 -0.097011703174781472 0 0.42488681696769848 -0.098159873371871417 0 0.41249812039608691 -0.10900006862238459 0 0.42488681696769848 -0.098159873371871417 0 0.40356589962074157 -0.079617868143409432 0 0.40551575104399828 -0.097011703174781472 0 0.42488681696769848 -0.098159873371871417 0 0.40356589962074157 -0.079617868143409432 0 0.42488681696769848 -0.098159873371871417 0 0.41424834010324763 -0.080676397654852017 0 0.40356589962074157 -0.079617868143409432 0 0.41424834010324763 -0.080676397654852017 0 0.40356589962074157 -0.079617868143409432 0 0.41424834010324763 -0.080676397654852017 0 0.4233677180503973 -0.081580042350923504 0 0.41424834010324763 -0.080676397654852017 0 0.4233677180503973 -0.081580042350923504 0 0.41371611207815723 -0.073760088148922126 0 0.42813182475074169 -0.095320469100864461 0 0.41424834010324763 -0.080676397654852017 0 0.42989961783356012 -0.093773637917336186 0 0.4233677180503973 -0.081580042350923504 0 0.44175299525488593 -0.08340185062861713 0 0.42989961783356012 -0.093773637917336186 0 0.4233677180503973 -0.081580042350923504 0 0.42989961783356012 -0.093773637917336186 0 0.42813182475074169 -0.095320469100864461 0 0.4233677180503973 -0.081580042350923504 0 0.42813182475074169 -0.095320469100864461 0 0.42488681696769848 -0.098159873371871417 0 0.41424834010324763 -0.080676397654852017 0 0.44175299525488593 -0.08340185062861713 0 0.4233677180503973 -0.081580042350923504 0 0.44175299525488593 -0.08340185062861713 0 0.4233677180503973 -0.081580042350923504 0 0.43330307822065101 -0.074388661489166369 0 0.44175299525488593 -0.08340185062861713 0 0.42989961783356012 -0.093773637917336186 0 0.44175299525488593 -0.08340185062861713 0 0.43972562537829241 -0.094684899687803831 0 0.42989961783356012 -0.093773637917336186 0 0.42813182475074169 -0.095320469100864461 0 0.41424834010324763 -0.080676397654852017 0 0.4233677180503973 -0.081580042350923504 0 0.4233677180503973 -0.081580042350923504 0 0.43330307822065101 -0.074388661489166369 0 0.42708617261150927 -0.065153737915346899 0 0.44194208144232999 -0.067080918030965275 0 0.43330307822065101 -0.074388661489166369 0 0.42708617261150927 -0.065153737915346899 0 0.4233677180503973 -0.081580042350923504 0 0.42708617261150927 -0.065153737915346899 0 0.41352890322223618 -0.063213176224686002 0 0.4233677180503973 -0.081580042350923504 0 0.41352890322223618 -0.063213176224686002 0 0.4233677180503973 -0.081580042350923504 0 0.41371611207815723 -0.073760088148922126 0 0.41352890322223618 -0.063213176224686002 0 0.41424834010324763 -0.080676397654852017 0 0.40371948693674942 -0.069570736365225677 0 0.41424834010324763 -0.080676397654852017 0 0.41371611207815723 -0.073760088148922126 0 0.40371948693674942 -0.069570736365225677 0 0.41424834010324763 -0.080676397654852017 0 0.40371948693674942 -0.069570736365225677 0 0.40356589962074157 -0.079617868143409432 0 0.41371611207815723 -0.073760088148922126 0 0.41352890322223618 -0.063213176224686002 0 0.40371948693674942 -0.069570736365225677 0 0.41352890322223618 -0.063213176224686002 0 0.40371948693674942 -0.069570736365225677 0 0.4035322780808282 -0.059023824440989768 0 0.3921035362979437 -0.069649479016281435 0 0.38021120906777162 -0.077303637680672249 0 0.40356589962074157 -0.079617868143409432 0 0.40371948693674942 -0.069570736365225677 0 0.3931906337702506 -0.058465075075599747 0 0.40371948693674942 -0.069570736365225677 0 0.3921035362979437 -0.069649479016281435 0 0.40356589962074157 -0.079617868143409432 0 0.3921035362979437 -0.069649479016281435 0 0.40356589962074157 -0.079617868143409432 0 0.40371948693674942 -0.069570736365225677 0 0.3921035362979437 -0.069649479016281435 0 0.3931906337702506 -0.058465075075599747 0 0.3921035362979437 -0.069649479016281435 0 0.38064117297514682 -0.059681089889152293 0 0.3921035362979437 -0.069649479016281435 0 0.38021120906777162 -0.077303637680672249 0 0.38064117297514682 -0.059681089889152293 0 0.3921035362979437 -0.069649479016281435 0 0.3931906337702506 -0.058465075075599747 0 0.38064117297514682 -0.059681089889152293 0 0.38021120906777162 -0.077303637680672249 0 0.38025050422239293 -0.092304808113782971 0 0.36899480441760618 -0.091795679767456964 0 0.38021120906777162 -0.077303637680672249 0 0.38025050422239293 -0.092304808113782971 0 0.3918300511757587 -0.09177975119929202 0 0.3918300511757587 -0.09177975119929202 0 0.40356589962074157 -0.079617868143409432 0 0.40551575104399828 -0.097011703174781472 0 0.38021120906777162 -0.077303637680672249 0 0.40356589962074157 -0.079617868143409432 0 0.38021120906777162 -0.077303637680672249 0 0.3918300511757587 -0.09177975119929202 0 0.40356589962074157 -0.079617868143409432 0 0.41249812039608691 -0.10900006862238459 0 0.40551575104399828 -0.097011703174781472 0 0.39479786705970638 -0.1065009545369496 0 0.41249812039608691 -0.10900006862238459 0 0.39479786705970638 -0.1065009545369496 0 0.3918300511757587 -0.09177975119929202 0 0.40551575104399828 -0.097011703174781472 0 0.39479786705970638 -0.1065009545369496 0 0.3918300511757587 -0.09177975119929202 0 0.39479786705970638 -0.1065009545369496 0 0.38583373110680891 -0.099726387077228112 0 0.39479786705970638 -0.1065009545369496 0 0.38583373110680891 -0.099726387077228112 0 0.37709761372332568 -0.104001840451515 0 0.38025050422239293 -0.092304808113782971 0 0.3918300511757587 -0.09177975119929202 0 0.38583373110680891 -0.099726387077228112 0 0.39479786705970638 -0.1065009545369496 0 0.37709761372332568 -0.104001840451515 0 0.39479786705970638 -0.1065009545369496 0 0.37709761372332568 -0.104001840451515 0 0.3878804987637578 -0.1150499363624042 0 0.38025050422239293 -0.092304808113782971 0 0.37804041518861708 -0.1023252761338256 0 0.36899480441760618 -0.091795679767456964 0 0.38025050422239293 -0.092304808113782971 0 0.38583373110680891 -0.099726387077228112 0 0.37804041518861708 -0.1023252761338256 0 0.38583373110680891 -0.099726387077228112 0 0.37804041518861708 -0.1023252761338256 0 0.37709761372332568 -0.104001840451515 0 0.37804041518861708 -0.1023252761338256 0 0.37709761372332568 -0.104001840451515 0 0.37709761372332568 -0.104001840451515 0 0.3878804987637578 -0.1150499363624042 0 0.37157051739666508 -0.11383056136768779 0 0.3878804987637578 -0.1150499363624042 0 0.37157051739666508 -0.11383056136768779 0 0.3878804987637578 -0.1150499363624042 0 0.39486538839856561 -0.12442883116800681 0 0.37861921626728889 -0.1292376646998222 0 0.3878804987637578 -0.1150499363624042 0 0.37157051739666508 -0.11383056136768779 0 0.37861921626728889 -0.1292376646998222 0 0.3878804987637578 -0.1150499363624042 0 0.40419048013085002 -0.11626931135712559 0 0.41249812039608691 -0.10900006862238459 0 0.39479786705970638 -0.1065009545369496 0 0.40419048013085002 -0.11626931135712559 0 0.39479786705970638 -0.1065009545369496 0 0.3878804987637578 -0.1150499363624042 0 0.40419048013085002 -0.11626931135712559 0 0.3878804987637578 -0.1150499363624042 0 0.39486538839856561 -0.12442883116800681 0 0.40419048013085002 -0.11626931135712559 0 0.39486538839856561 -0.12442883116800681 0 0.40419048013085002 -0.11626931135712559 0 0.39486538839856561 -0.12442883116800681 0 0.40419048013085002 -0.11626931135712559 0 0.40673205896942438 -0.12593210900504589 0 0.41989926172422809 -0.023664714847859199 0 0.407137385972346 -0.031799202741483512 0 0.40415014985531389 -0.0212729398019623 0 0.41989926172422809 -0.023664714847859199 0 0.40902971940734428 -0.01080324471337514 0 0.40415014985531389 -0.0212729398019623 0 0.41989926172422809 -0.023664714847859199 0 0.41788551605819813 -0.035709826250740408 0 0.407137385972346 -0.031799202741483512 0 0.40098280180780022 0.00038686880303394241 0 0.41356261962683438 0.001542681643661086 0 0.40902971940734428 -0.01080324471337514 0 0.41356261962683438 0.001542681643661086 0 0.42611408248641952 0.0037284257675162941 0 0.42058237131946252 -0.008332176954158086 0 0.41356261962683438 0.001542681643661086 0 0.40902971940734428 -0.01080324471337514 0 0.42058237131946252 -0.008332176954158086 0 0.41989926172422809 -0.023664714847859199 0 0.40902971940734428 -0.01080324471337514 0 0.42058237131946252 -0.008332176954158086 0 0.42611408248641952 0.0037284257675162941 0 0.42058237131946252 -0.008332176954158086 0 0.4373460866551811 -0.0017888244212357031 0 0.42058237131946252 -0.008332176954158086 0 0.4373460866551811 -0.0017888244212357031 0 0.43077820240684628 -0.015146368834675459 0 0.43848991431886331 -0.025276403518542771 0 0.41989926172422809 -0.023664714847859199 0 0.43077820240684628 -0.015146368834675459 0 0.43848991431886331 -0.025276403518542771 0 0.41989926172422809 -0.023664714847859199 0 0.43041911923231191 -0.037082323536509323 0 0.41989926172422809 -0.023664714847859199 0 0.42058237131946252 -0.008332176954158086 0 0.43077820240684628 -0.015146368834675459 0 0.43825728228719429 -0.051342266974974057 0 0.43041911923231191 -0.037082323536509323 0 0.42191912488852401 -0.049779515090947503 0 0.43041911923231191 -0.037082323536509323 0 0.42191912488852401 -0.049779515090947503 0 0.41788551605819813 -0.035709826250740408 0 0.41989926172422809 -0.023664714847859199 0 0.43041911923231191 -0.037082323536509323 0 0.41788551605819813 -0.035709826250740408 0 0.43825728228719429 -0.051342266974974057 0 0.44194208144232999 -0.067080918030965275 0 0.42708617261150927 -0.065153737915346899 0 0.43825728228719429 -0.051342266974974057 0 0.42708617261150927 -0.065153737915346899 0 0.42191912488852401 -0.049779515090947503 0 0.41352890322223618 -0.063213176224686002 0 0.42191912488852401 -0.049779515090947503 0 0.4036900883940765 -0.04484631009844782 0 0.41352890322223618 -0.063213176224686002 0 0.4036900883940765 -0.04484631009844782 0 0.41352890322223618 -0.063213176224686002 0 0.4036900883940765 -0.04484631009844782 0 0.4035322780808282 -0.059023824440989768 0 0.42708617261150927 -0.065153737915346899 0 0.41352890322223618 -0.063213176224686002 0 0.42191912488852401 -0.049779515090947503 0 0.42191912488852401 -0.049779515090947503 0 0.41788551605819813 -0.035709826250740408 0 0.4036900883940765 -0.04484631009844782 0 0.41788551605819813 -0.035709826250740408 0 0.4036900883940765 -0.04484631009844782 0 0.41788551605819813 -0.035709826250740408 0 0.407137385972346 -0.031799202741483512 0 0.4036900883940765 -0.04484631009844782 0 0.407137385972346 -0.031799202741483512 0 0.39925796577333289 -0.036572528728227187 0 0.39879354991000571 -0.02821320434619801 0 0.407137385972346 -0.031799202741483512 0 0.39925796577333289 -0.036572528728227187 0 0.4036900883940765 -0.04484631009844782 0 0.39925796577333289 -0.036572528728227187 0 0.4036900883940765 -0.04484631009844782 0 0.39925796577333289 -0.036572528728227187 0 0.4036900883940765 -0.04484631009844782 0 0.39141981350216892 -0.039399658741712661 0 0.4036900883940765 -0.04484631009844782 0 0.39141981350216892 -0.039399658741712661 0 0.38854660958546872 -0.047354969893144479 0 0.39925796577333289 -0.036572528728227187 0 0.39141981350216892 -0.039399658741712661 0 0.3903139964510941 -0.03076429884644458 0 0.39925796577333289 -0.036572528728227187 0 0.3903139964510941 -0.03076429884644458 0 0.39879354991000571 -0.02821320434619801 0 0.4036900883940765 -0.04484631009844782 0 0.38064117297514682 -0.059681089889152293 0 0.4036900883940765 -0.04484631009844782 0 0.38854660958546872 -0.047354969893144479 0 0.38064117297514682 -0.059681089889152293 0 0.4036900883940765 -0.04484631009844782 0 0.3931906337702506 -0.058465075075599747 0 0.38064117297514682 -0.059681089889152293 0 0.40371948693674942 -0.069570736365225677 0 0.4035322780808282 -0.059023824440989768 0 0.3931906337702506 -0.058465075075599747 0 0.4036900883940765 -0.04484631009844782 0 0.4035322780808282 -0.059023824440989768 0 0.3931906337702506 -0.058465075075599747 0 0.38854660958546872 -0.047354969893144479 0 0.38064117297514682 -0.059681089889152293 0 0.37917633464966838 -0.045041328738165957 0 0.38064117297514682 -0.059681089889152293 0 0.37917633464966838 -0.045041328738165957 0 0.36823228605153779 -0.048889544550238237 0 0.39141981350216892 -0.039399658741712661 0 0.37989091210332582 -0.033987392855839363 0 0.3903139964510941 -0.03076429884644458 0 0.39141981350216892 -0.039399658741712661 0 0.37917633464966838 -0.045041328738165957 0 0.37989091210332582 -0.033987392855839363 0 0.39141981350216892 -0.039399658741712661 0 0.38854660958546872 -0.047354969893144479 0 0.37917633464966838 -0.045041328738165957 0 0.37917633464966838 -0.045041328738165957 0 0.37989091210332582 -0.033987392855839363 0 0.37059520767247078 -0.038334721973531952 0 0.37989091210332582 -0.033987392855839363 0 0.37947116177194778 -0.018922819134477079 0 0.3664058115903292 -0.028020672367795391 0 0.37989091210332582 -0.033987392855839363 0 0.37947116177194778 -0.018922819134477079 0 0.3903139964510941 -0.03076429884644458 0 0.37947116177194778 -0.018922819134477079 0 0.3903139964510941 -0.03076429884644458 0 0.39310825149794182 -0.020657051612872498 0 0.3903139964510941 -0.03076429884644458 0 0.39310825149794182 -0.020657051612872498 0 0.39879354991000571 -0.02821320434619801 0 0.39310825149794182 -0.020657051612872498 0 0.40415014985531389 -0.0212729398019623 0 0.39879354991000571 -0.02821320434619801 0 0.39310825149794182 -0.020657051612872498 0 0.40415014985531389 -0.0212729398019623 0 0.39868193058654039 -0.01190628132943942 0 0.407137385972346 -0.031799202741483512 0 0.40415014985531389 -0.0212729398019623 0 0.39879354991000571 -0.02821320434619801 0 0.40098280180780022 0.00038686880303394241 0 0.40902971940734428 -0.01080324471337514 0 0.39868193058654039 -0.01190628132943942 0 0.40902971940734428 -0.01080324471337514 0 0.40415014985531389 -0.0212729398019623 0 0.39868193058654039 -0.01190628132943942 0 0.39310825149794182 -0.020657051612872498 0 0.39868193058654039 -0.01190628132943942 0 0.38867548818917508 -0.0070555593225876088 0 0.40098280180780022 0.00038686880303394241 0 0.39868193058654039 -0.01190628132943942 0 0.38867548818917508 -0.0070555593225876088 0 0.37194384359057009 5.2896986445487987e-05 0 0.37947116177194778 -0.018922819134477079 0 0.38867548818917508 -0.0070555593225876088 0 0.37947116177194778 -0.018922819134477079 0 0.39310825149794182 -0.020657051612872498 0 0.38867548818917508 -0.0070555593225876088 0 0.37194384359057009 5.2896986445487987e-05 0 0.37947116177194778 -0.018922819134477079 0 0.36244380452277608 -0.01383772020197052 0 0.37194384359057009 5.2896986445487987e-05 0 0.35096453461711818 0.00054393289997440794 0 0.36244380452277608 -0.01383772020197052 0 0.37947116177194778 -0.018922819134477079 0 0.36244380452277608 -0.01383772020197052 0 0.3664058115903292 -0.028020672367795391 0 0.3664058115903292 -0.028020672367795391 0 0.34777994991590883 -0.02412367128805868 0 0.35582339912792899 -0.038097999211323917 0 0.36244380452277608 -0.01383772020197052 0 0.3664058115903292 -0.028020672367795391 0 0.34777994991590883 -0.02412367128805868 0 0.35096453461711818 0.00054393289997440794 0 0.34777994991590883 -0.02412367128805868 0 0.35096453461711818 0.00054393289997440794 0 0.36244380452277608 -0.01383772020197052 0 0.34777994991590883 -0.02412367128805868 0 0.35096453461711818 0.00054393289997440794 0 0.34777994991590883 -0.02412367128805868 0 0.33680323436175491 -0.018522799483293169 0 0.35096453461711818 0.00054393289997440794 0 0.33311282974394713 0.009365580851112049 0 0.32672122099330081 -0.01035154374193327 0 0.35096453461711818 0.00054393289997440794 0 0.33680323436175491 -0.018522799483293169 0 0.32672122099330081 -0.01035154374193327 0 0.33680323436175491 -0.018522799483293169 0 0.32506415431111801 -0.02613682293518442 0 0.32672122099330081 -0.01035154374193327 0 0.34777994991590883 -0.02412367128805868 0 0.33680323436175491 -0.018522799483293169 0 0.33412432631481198 -0.031795454891294109 0 0.33680323436175491 -0.018522799483293169 0 0.32506415431111801 -0.02613682293518442 0 0.33412432631481198 -0.031795454891294109 0 0.32506415431111801 -0.02613682293518442 0 0.31538659411855369 -0.019685896482243202 0 0.32672122099330081 -0.01035154374193327 0 0.32506415431111801 -0.02613682293518442 0 0.31538659411855369 -0.019685896482243202 0 0.31133669078501691 -0.033799797093317582 0 0.33311282974394713 0.009365580851112049 0 0.31204676142463961 0.00073078847262742224 0 0.32672122099330081 -0.01035154374193327 0 0.31204676142463961 0.00073078847262742224 0 0.31538659411855369 -0.019685896482243202 0 0.32672122099330081 -0.01035154374193327 0 0.32084232991582068 -0.053557382313559658 0 0.31133669078501691 -0.033799797093317582 0 0.3069969538888121 -0.045608511430141718 0 0.32084232991582068 -0.053557382313559658 0 0.32754409371762983 -0.040864396015097802 0 0.31133669078501691 -0.033799797093317582 0 0.32084232991582068 -0.053557382313559658 0 0.31133669078501691 -0.033799797093317582 0 0.32506415431111801 -0.02613682293518442 0 0.32754409371762983 -0.040864396015097802 0 0.31133669078501691 -0.033799797093317582 0 0.34777994991590883 -0.02412367128805868 0 0.33837474325646683 -0.040098257025234667 0 0.34459536521469919 -0.048791275476091883 0 0.32754409371762983 -0.040864396015097802 0 0.33837474325646683 -0.040098257025234667 0 0.33902258758589598 -0.051965246801062903 0 0.34777994991590883 -0.02412367128805868 0 0.33412432631481198 -0.031795454891294109 0 0.33837474325646683 -0.040098257025234667 0 0.32506415431111801 -0.02613682293518442 0 0.32754409371762983 -0.040864396015097802 0 0.33412432631481198 -0.031795454891294109 0 0.32754409371762983 -0.040864396015097802 0 0.33412432631481198 -0.031795454891294109 0 0.33837474325646683 -0.040098257025234667 0 0.34459536521469919 -0.048791275476091883 0 0.33660731696377671 -0.063113105950805784 0 0.34141078051348622 -0.073458879664124566 0 0.33902258758589598 -0.051965246801062903 0 0.34459536521469919 -0.048791275476091883 0 0.33660731696377671 -0.063113105950805784 0 0.33837474325646683 -0.040098257025234667 0 0.33902258758589598 -0.051965246801062903 0 0.34459536521469919 -0.048791275476091883 0 0.32084232991582068 -0.053557382313559658 0 0.33902258758589598 -0.051965246801062903 0 0.32084232991582068 -0.053557382313559658 0 0.33902258758589598 -0.051965246801062903 0 0.33660731696377671 -0.063113105950805784 0 0.34459536521469919 -0.048791275476091883 0 0.34141078051348622 -0.073458879664124566 0 0.32084232991582068 -0.053557382313559658 0 0.32754409371762983 -0.040864396015097802 0 0.33902258758589598 -0.051965246801062903 0 0.34981628768612871 -0.062201850935926693 0 0.34459536521469919 -0.048791275476091883 0 0.34141078051348622 -0.073458879664124566 0 0.34981628768612871 -0.062201850935926693 0 0.34459536521469919 -0.048791275476091883 0 0.35571132304392161 -0.052089292001197947 0 0.34459536521469919 -0.048791275476091883 0 0.35571132304392161 -0.052089292001197947 0 0.35097750932561472 -0.040775559494168112 0 0.34777994991590883 -0.02412367128805868 0 0.34459536521469919 -0.048791275476091883 0 0.34777994991590883 -0.02412367128805868 0 0.34459536521469919 -0.048791275476091883 0 0.35097750932561472 -0.040775559494168112 0 0.34777994991590883 -0.02412367128805868 0 0.35097750932561472 -0.040775559494168112 0 0.35582339912792899 -0.038097999211323917 0 0.35571132304392161 -0.052089292001197947 0 0.35097750932561472 -0.040775559494168112 0 0.35582339912792899 -0.038097999211323917 0 0.3664058115903292 -0.028020672367795391 0 0.35582339912792899 -0.038097999211323917 0 0.37059520767247078 -0.038334721973531952 0 0.35571132304392161 -0.052089292001197947 0 0.35582339912792899 -0.038097999211323917 0 0.36823228605153779 -0.048889544550238237 0 0.35582339912792899 -0.038097999211323917 0 0.37059520767247078 -0.038334721973531952 0 0.36823228605153779 -0.048889544550238237 0 0.35582339912792899 -0.038097999211323917 0 0.36823228605153779 -0.048889544550238237 0 0.37917633464966838 -0.045041328738165957 0 0.37059520767247078 -0.038334721973531952 0 0.36823228605153779 -0.048889544550238237 0 0.37989091210332582 -0.033987392855839363 0 0.3664058115903292 -0.028020672367795391 0 0.37059520767247078 -0.038334721973531952 0 0.38064117297514682 -0.059681089889152293 0 0.36823228605153779 -0.048889544550238237 0 0.35685651851480149 -0.074989407217935733 0 0.35571132304392161 -0.052089292001197947 0 0.36823228605153779 -0.048889544550238237 0 0.35685651851480149 -0.074989407217935733 0 0.38064117297514682 -0.059681089889152293 0 0.36823228605153779 -0.048889544550238237 0 0.38021120906777162 -0.077303637680672249 0 0.35685651851480149 -0.074989407217935733 0 0.38021120906777162 -0.077303637680672249 0 0.38064117297514682 -0.059681089889152293 0 0.35685651851480149 -0.074989407217935733 0 0.38064117297514682 -0.059681089889152293 0 0.35685651851480149 -0.074989407217935733 0 0.38021120906777162 -0.077303637680672249 0 0.36899480441760618 -0.091795679767456964 0 0.35685651851480149 -0.074989407217935733 0 0.35685651851480149 -0.074989407217935733 0 0.33979557032547592 -0.085970201967237619 0 0.35685651851480149 -0.074989407217935733 0 0.34141078051348622 -0.073458879664124566 0 0.33979557032547592 -0.085970201967237619 0 0.36899480441760618 -0.091795679767456964 0 0.35133021724621732 -0.090358624288707848 0 0.35685651851480149 -0.074989407217935733 0 0.35133021724621732 -0.090358624288707848 0 0.35685651851480149 -0.074989407217935733 0 0.33979557032547592 -0.085970201967237619 0 0.35133021724621732 -0.090358624288707848 0 0.34278072963215761 -0.099156609890653571 0 0.33908492326713102 -0.091474831926053518 0 0.35685651851480149 -0.074989407217935733 0 0.34141078051348622 -0.073458879664124566 0 0.34981628768612871 -0.062201850935926693 0 0.35571132304392161 -0.052089292001197947 0 0.35685651851480149 -0.074989407217935733 0 0.34981628768612871 -0.062201850935926693 0 0.35685651851480149 -0.074989407217935733 0 0.34141078051348622 -0.073458879664124566 0 0.37157051739666508 -0.11383056136768779 0 0.34902979160698289 -0.11214536033820049 0 0.37157051739666508 -0.11383056136768779 0 0.35985975451134489 -0.13465556844418089 0 0.37157051739666508 -0.11383056136768779 0 0.34902979160698289 -0.11214536033820049 0 0.35985975451134489 -0.13465556844418089 0 0.36899480441760618 -0.091795679767456964 0 0.35133021724621732 -0.090358624288707848 0 0.35993917167774181 -0.10157922517108341 0 0.37709761372332568 -0.104001840451515 0 0.37157051739666508 -0.11383056136768779 0 0.35993917167774181 -0.10157922517108341 0 0.37157051739666508 -0.11383056136768779 0 0.35993917167774181 -0.10157922517108341 0 0.34902979160698289 -0.11214536033820049 0 0.37709761372332568 -0.104001840451515 0 0.36899480441760618 -0.091795679767456964 0 0.35993917167774181 -0.10157922517108341 0 0.37709761372332568 -0.104001840451515 0 0.35993917167774181 -0.10157922517108341 0 0.37709761372332568 -0.104001840451515 0 0.37157051739666508 -0.11383056136768779 0 0.37804041518861708 -0.1023252761338256 0 0.37709761372332568 -0.104001840451515 0 0.36899480441760618 -0.091795679767456964 0 0.35133021724621732 -0.090358624288707848 0 0.35993917167774181 -0.10157922517108341 0 0.34278072963215761 -0.099156609890653571 0 0.35993917167774181 -0.10157922517108341 0 0.34278072963215761 -0.099156609890653571 0 0.35993917167774181 -0.10157922517108341 0 0.34902979160698289 -0.11214536033820049 0 0.34278072963215761 -0.099156609890653571 0 0.34902979160698289 -0.11214536033820049 0 0.34278072963215761 -0.099156609890653571 0 0.34902979160698289 -0.11214536033820049 0 0.33768404495202858 -0.12802866298445509 0 0.35985975451134489 -0.13465556844418089 0 0.34902979160698289 -0.11214536033820049 0 0.35985975451134489 -0.13465556844418089 0 0.34902979160698289 -0.11214536033820049 0 0.32882617587675039 -0.1106348875013685 0 0.32882617587675039 -0.1106348875013685 0 0.32234267619794671 -0.1209311329733736 0 0.33768404495202858 -0.12802866298445509 0 0.34902979160698289 -0.11214536033820049 0 0.32882617587675039 -0.1106348875013685 0 0.33768404495202858 -0.12802866298445509 0 0.34902979160698289 -0.11214536033820049 0 0.32882617587675039 -0.1106348875013685 0 0.33762028453198378 -0.10281983668706331 0 0.32882617587675039 -0.1106348875013685 0 0.33762028453198378 -0.10281983668706331 0 0.32353062642851288 -0.096438671161299783 0 0.34902979160698289 -0.11214536033820049 0 0.33762028453198378 -0.10281983668706331 0 0.34278072963215761 -0.099156609890653571 0 0.33762028453198378 -0.10281983668706331 0 0.33817711998985522 -0.0985066222615327 0 0.33762028453198378 -0.10281983668706331 0 0.33817711998985522 -0.0985066222615327 0 0.34278072963215761 -0.099156609890653571 0 0.33817711998985522 -0.0985066222615327 0 0.34278072963215761 -0.099156609890653571 0 0.33817711998985522 -0.0985066222615327 0 0.34278072963215761 -0.099156609890653571 0 0.33908492326713102 -0.091474831926053518 0 0.34278072963215761 -0.099156609890653571 0 0.33908492326713102 -0.091474831926053518 0 0.33817711998985522 -0.0985066222615327 0 0.33908492326713102 -0.091474831926053518 0 0.33817711998985522 -0.0985066222615327 0 0.32353062642851288 -0.096438671161299783 0 0.33908492326713102 -0.091474831926053518 0 0.33762028453198378 -0.10281983668706331 0 0.33817711998985522 -0.0985066222615327 0 0.32353062642851288 -0.096438671161299783 0 0.33817711998985522 -0.0985066222615327 0 0.32353062642851288 -0.096438671161299783 0 0.32353062642851288 -0.096438671161299783 0 0.30543051805773053 -0.093883101197545032 0 0.32882617587675039 -0.1106348875013685 0 0.32353062642851288 -0.096438671161299783 0 0.30862256014651779 -0.10912441466453721 0 0.32353062642851288 -0.096438671161299783 0 0.30805217285453879 -0.1064009381963008 0 0.32353062642851288 -0.096438671161299783 0 0.30805217285453879 -0.1064009381963008 0 0.30862256014651779 -0.10912441466453721 0 0.32882617587675039 -0.1106348875013685 0 0.30862256014651779 -0.10912441466453721 0 0.32882617587675039 -0.1106348875013685 0 0.32234267619794671 -0.1209311329733736 0 0.30862256014651779 -0.10912441466453721 0 0.32234267619794671 -0.1209311329733736 0 0.30862256014651779 -0.10912441466453721 0 0.31423792381648968 -0.13593656674313839 0 0.32084232991582068 -0.053557382313559658 0 0.32986686453542391 -0.072314986022926742 0 0.33660731696377671 -0.063113105950805784 0 0.32986686453542391 -0.072314986022926742 0 0.34141078051348622 -0.073458879664124566 0 0.32986686453542391 -0.072314986022926742 0 0.33660731696377671 -0.063113105950805784 0 0.34141078051348622 -0.073458879664124566 0 0.32986686453542391 -0.072314986022926742 0 0.34141078051348622 -0.073458879664124566 0 0.33979557032547592 -0.085970201967237619 0 0.32986686453542391 -0.072314986022926742 0 0.33723077396210871 -0.087620960303014098 0 0.32004442123786758 -0.083632571487218088 0 0.34141078051348622 -0.073458879664124566 0 0.33979557032547592 -0.085970201967237619 0 0.35133021724621732 -0.090358624288707848 0 0.33979557032547592 -0.085970201967237619 0 0.33908492326713102 -0.091474831926053518 0 0.33979557032547592 -0.085970201967237619 0 0.33723077396210871 -0.087620960303014098 0 0.33908492326713102 -0.091474831926053518 0 0.33979557032547592 -0.085970201967237619 0 0.33908492326713102 -0.091474831926053518 0 0.33979557032547592 -0.085970201967237619 0 0.33723077396210871 -0.087620960303014098 0 0.33723077396210871 -0.087620960303014098 0 0.33908492326713102 -0.091474831926053518 0 0.32353062642851288 -0.096438671161299783 0 0.33723077396210871 -0.087620960303014098 0 0.32353062642851288 -0.096438671161299783 0 0.33723077396210871 -0.087620960303014098 0 0.33908492326713102 -0.091474831926053518 0 0.32986686453542391 -0.072314986022926742 0 0.33723077396210871 -0.087620960303014098 0 0.32986686453542391 -0.072314986022926742 0 0.33979557032547592 -0.085970201967237619 0 0.33723077396210871 -0.087620960303014098 0 0.32353062642851288 -0.096438671161299783 0 0.33723077396210871 -0.087620960303014098 0 0.32004442123786758 -0.083632571487218088 0 0.32353062642851288 -0.096438671161299783 0 0.32004442123786758 -0.083632571487218088 0 0.30543051805773053 -0.093883101197545032 0 0.32004442123786758 -0.083632571487218088 0 0.31394424182365688 -0.070737203673695792 0 0.31026350261977348 -0.080800506564827818 0 0.32084232991582068 -0.053557382313559658 0 0.32986686453542391 -0.072314986022926742 0 0.32986686453542391 -0.072314986022926742 0 0.31394424182365688 -0.070737203673695792 0 0.32986686453542391 -0.072314986022926742 0 0.32004442123786758 -0.083632571487218088 0 0.31394424182365688 -0.070737203673695792 0 0.32084232991582068 -0.053557382313559658 0 0.32986686453542391 -0.072314986022926742 0 0.31394424182365688 -0.070737203673695792 0 0.30142258433507679 -0.074746080906766502 0 0.29741465061242572 -0.05560906061598743 0 0.31394424182365688 -0.070737203673695792 0 0.30142258433507679 -0.074746080906766502 0 0.29741465061242572 -0.05560906061598743 0 0.31394424182365688 -0.070737203673695792 0 0.30142258433507679 -0.074746080906766502 0 0.31026350261977348 -0.080800506564827818 0 0.30142258433507679 -0.074746080906766502 0 0.30543051805773053 -0.093883101197545032 0 0.30142258433507679 -0.074746080906766502 0 0.31026350261977348 -0.080800506564827818 0 0.30543051805773053 -0.093883101197545032 0 0.32004442123786758 -0.083632571487218088 0 0.31026350261977348 -0.080800506564827818 0 0.30543051805773053 -0.093883101197545032 0 0.28345985036459298 -0.090781043613686788 0 0.30543051805773053 -0.093883101197545032 0 0.28345985036459298 -0.090781043613686788 0 0.28803309209182409 -0.070449480019151703 0 0.27581712213493131 -0.07415670526576916 0 0.30142258433507679 -0.074746080906766502 0 0.28345985036459298 -0.090781043613686788 0 0.30543051805773053 -0.093883101197545032 0 0.30142258433507679 -0.074746080906766502 0 0.28345985036459298 -0.090781043613686788 0 0.28803309209182409 -0.070449480019151703 0 0.28803309209182409 -0.070449480019151703 0 0.27581712213493131 -0.07415670526576916 0 0.28205125301209422 -0.056954509693548573 0 0.30142258433507679 -0.074746080906766502 0 0.28803309209182409 -0.070449480019151703 0 0.29741465061242572 -0.05560906061598743 0 0.30536218204837401 -0.1238013459188816 0 0.30862256014651779 -0.10912441466453721 0 0.31423792381648968 -0.13593656674313839 0 0.30536218204837401 -0.1238013459188816 0 0.30432041864432702 -0.1088027758071106 0 0.28363845923331232 -0.1221141315879057 0 0.30862256014651779 -0.10912441466453721 0 0.31423792381648968 -0.13593656674313839 0 0.30536218204837401 -0.1238013459188816 0 0.30432041864432702 -0.1088027758071106 0 0.30862256014651779 -0.10912441466453721 0 0.32353062642851288 -0.096438671161299783 0 0.30805217285453879 -0.1064009381963008 0 0.30543051805773053 -0.093883101197545032 0 0.30432041864432702 -0.1088027758071106 0 0.29799983668222252 -0.10150110424386589 0 0.28873622348992362 -0.1076376624046876 0 0.30432041864432702 -0.1088027758071106 0 0.30805217285453879 -0.1064009381963008 0 0.29799983668222252 -0.10150110424386589 0 0.30432041864432702 -0.1088027758071106 0 0.30862256014651779 -0.10912441466453721 0 0.30432041864432702 -0.1088027758071106 0 0.30805217285453879 -0.1064009381963008 0 0.30432041864432702 -0.1088027758071106 0 0.30805217285453879 -0.1064009381963008 0 0.30862256014651779 -0.10912441466453721 0 0.30805217285453879 -0.1064009381963008 0 0.30862256014651779 -0.10912441466453721 0 0.30805217285453879 -0.1064009381963008 0 0.30543051805773053 -0.093883101197545032 0 0.30805217285453879 -0.1064009381963008 0 0.30543051805773053 -0.093883101197545032 0 0.29799983668222252 -0.10150110424386589 0 0.28345985036459298 -0.090781043613686788 0 0.28873622348992362 -0.1076376624046876 0 0.27315202833552032 -0.1064725490022623 0 0.28345985036459298 -0.090781043613686788 0 0.30543051805773053 -0.093883101197545032 0 0.29799983668222252 -0.10150110424386589 0 0.28345985036459298 -0.090781043613686788 0 0.29799983668222252 -0.10150110424386589 0 0.28873622348992362 -0.1076376624046876 0 0.30432041864432702 -0.1088027758071106 0 0.28873622348992362 -0.1076376624046876 0 0.30432041864432702 -0.1088027758071106 0 0.28873622348992362 -0.1076376624046876 0 0.28363845923331232 -0.1221141315879057 0 0.28873622348992362 -0.1076376624046876 0 0.28363845923331232 -0.1221141315879057 0 0.27315202833552032 -0.1064725490022623 0 0.30432041864432702 -0.1088027758071106 0 0.28363845923331232 -0.1221141315879057 0 0.28363845923331232 -0.1221141315879057 0 0.26758386373240017 -0.1188235101163498 0 0.26770215369203071 -0.13237108203808209 0 0.28363845923331232 -0.1221141315879057 0 0.27315202833552032 -0.1064725490022623 0 0.28363845923331232 -0.1221141315879057 0 0.26758386373240017 -0.1188235101163498 0 0.27315202833552032 -0.1064725490022623 0 0.26758386373240017 -0.1188235101163498 0 0.27315202833552032 -0.1064725490022623 0 0.25835932526306737 -0.1053666095272399 0 0.28345985036459298 -0.090781043613686788 0 0.27315202833552032 -0.1064725490022623 0 0.26148918267145549 -0.087678986029829237 0 0.27315202833552032 -0.1064725490022623 0 0.26148918267145549 -0.087678986029829237 0 0.27315202833552032 -0.1064725490022623 0 0.25835932526306737 -0.1053666095272399 0 0.28873622348992362 -0.1076376624046876 0 0.27315202833552032 -0.1064725490022623 0 0.25835932526306737 -0.1053666095272399 0 0.26148918267145549 -0.087678986029829237 0 0.27315202833552032 -0.1064725490022623 0 0.25835932526306737 -0.1053666095272399 0 0.26148918267145549 -0.087678986029829237 0 0.25190825320178373 -0.094092801933563605 0 0.25835932526306737 -0.1053666095272399 0 0.26148918267145549 -0.087678986029829237 0 0.25835932526306737 -0.1053666095272399 0 0.25506258670690901 -0.12399732100774979 0 0.26758386373240017 -0.1188235101163498 0 0.25835932526306737 -0.1053666095272399 0 0.25506258670690901 -0.12399732100774979 0 0.25835932526306737 -0.1053666095272399 0 0.25506258670690901 -0.12399732100774979 0 0.24288030337081251 -0.1174706778130729 0 0.27581712213493131 -0.07415670526576916 0 0.26148918267145549 -0.087678986029829237 0 0.2666878554117631 -0.058299958771113318 0 0.27581712213493131 -0.07415670526576916 0 0.2666878554117631 -0.058299958771113318 0 0.28205125301209422 -0.056954509693548573 0 0.28345985036459298 -0.090781043613686788 0 0.26148918267145549 -0.087678986029829237 0 0.28345985036459298 -0.090781043613686788 0 0.27581712213493131 -0.07415670526576916 0 0.26148918267145549 -0.087678986029829237 0 0.25190825320178373 -0.094092801933563605 0 0.26148918267145549 -0.087678986029829237 0 0.24276161978024891 -0.085034825219369198 0 0.25948947644266368 -0.086528332817218612 0 0.25147290036700071 -0.081915505751528714 0 0.24276161978024891 -0.085034825219369198 0 0.26148918267145549 -0.087678986029829237 0 0.25948947644266368 -0.086528332817218612 0 0.24276161978024891 -0.085034825219369198 0 0.26148918267145549 -0.087678986029829237 0 0.24276161978024891 -0.085034825219369198 0 0.26148918267145549 -0.087678986029829237 0 0.25948947644266368 -0.086528332817218612 0 0.25948947644266368 -0.086528332817218612 0 0.25147290036700071 -0.081915505751528714 0 0.25065970406686261 -0.073467612945337865 0 0.25948947644266368 -0.086528332817218612 0 0.25065970406686261 -0.073467612945337865 0 0.25597708818948028 -0.066422215774475754 0 0.26148918267145549 -0.087678986029829237 0 0.2666878554117631 -0.058299958771113318 0 0.26148918267145549 -0.087678986029829237 0 0.25948947644266368 -0.086528332817218612 0 0.2666878554117631 -0.058299958771113318 0 0.25948947644266368 -0.086528332817218612 0 0.25597708818948028 -0.066422215774475754 0 0.2666878554117631 -0.058299958771113318 0 0.25065970406686261 -0.073467612945337865 0 0.25597708818948028 -0.066422215774475754 0 0.2485243504590314 -0.062024440556852127 0 0.25176466448051432 -0.052825527365289733 0 0.25936162910718807 -0.058941552816903109 0 0.2485243504590314 -0.062024440556852127 0 0.25597708818948028 -0.066422215774475754 0 0.25936162910718807 -0.058941552816903109 0 0.2485243504590314 -0.062024440556852127 0 0.25176466448051432 -0.052825527365289733 0 0.2666878554117631 -0.058299958771113318 0 0.25247179156595462 -0.04401350787044235 0 0.25176466448051432 -0.052825527365289733 0 0.25936162910718807 -0.058941552816903109 0 0.2666878554117631 -0.058299958771113318 0 0.25597708818948028 -0.066422215774475754 0 0.25936162910718807 -0.058941552816903109 0 0.2666878554117631 -0.058299958771113318 0 0.25936162910718807 -0.058941552816903109 0 0.2666878554117631 -0.058299958771113318 0 0.2666878554117631 -0.058299958771113318 0 0.28205125301209422 -0.056954509693548573 0 0.28223273125458398 -0.043959146735371872 0 0.2666878554117631 -0.058299958771113318 0 0.28205125301209422 -0.056954509693548573 0 0.2666878554117631 -0.058299958771113318 0 0.27097710371201289 -0.034060321266074063 0 0.28223273125458398 -0.043959146735371872 0 0.2666878554117631 -0.058299958771113318 0 0.27097710371201289 -0.034060321266074063 0 0.2666878554117631 -0.058299958771113318 0 0.27097710371201289 -0.034060321266074063 0 0.25887357373799319 -0.033530490055644513 0 0.2666878554117631 -0.058299958771113318 0 0.25887357373799319 -0.033530490055644513 0 0.25247179156595462 -0.04401350787044235 0 0.25887357373799319 -0.033530490055644513 0 0.25247179156595462 -0.04401350787044235 0 0.24520535596676671 -0.032188486861168993 0 0.25887357373799319 -0.033530490055644513 0 0.25099995325346047 -0.01825638509775002 0 0.27027222851675531 -0.016714099098370461 0 0.25887357373799319 -0.033530490055644513 0 0.25099995325346047 -0.01825638509775002 0 0.24520535596676671 -0.032188486861168993 0 0.25099995325346047 -0.01825638509775002 0 0.2540330741481821 -0.0041517063591771696 0 0.27027222851675531 -0.016714099098370461 0 0.2540330741481821 -0.0041517063591771696 0 0.26719303569965269 -0.001809782501044328 0 0.27027222851675531 -0.016714099098370461 0 0.27916872667575549 0.00020771242004494539 0 0.27027222851675531 -0.016714099098370461 0 0.28787969275142122 -0.010081690483467021 0 0.27916872667575549 0.00020771242004494539 0 0.26719303569965269 -0.001809782501044328 0 0.27027222851675531 -0.016714099098370461 0 0.27097710371201289 -0.034060321266074063 0 0.27027222851675531 -0.016714099098370461 0 0.29264717168192328 -0.032845375549727232 0 0.27097710371201289 -0.034060321266074063 0 0.25887357373799319 -0.033530490055644513 0 0.27027222851675531 -0.016714099098370461 0 0.28787969275142122 -0.010081690483467021 0 0.29264717168192328 -0.032845375549727232 0 0.27027222851675531 -0.016714099098370461 0 0.28787969275142122 -0.010081690483467021 0 0.29264717168192328 -0.032845375549727232 0 0.28787969275142122 -0.010081690483467021 0 0.30183105165421398 -0.01404221187307512 0 0.29264717168192328 -0.032845375549727232 0 0.29232541252341099 0.0057153733471674018 0 0.28787969275142122 -0.010081690483467021 0 0.30183105165421398 -0.01404221187307512 0 0.29232541252341099 0.0057153733471674018 0 0.27916872667575549 0.00020771242004494539 0 0.28787969275142122 -0.010081690483467021 0 0.29232541252341099 0.0057153733471674018 0 0.30183105165421398 -0.01404221187307512 0 0.31204676142463961 0.00073078847262742224 0 0.29232541252341099 0.0057153733471674018 0 0.30183105165421398 -0.01404221187307512 0 0.31204676142463961 0.00073078847262742224 0 0.31538659411855369 -0.019685896482243202 0 0.30183105165421398 -0.01404221187307512 0 0.30183105165421398 -0.01404221187307512 0 0.31133669078501691 -0.033799797093317582 0 0.31538659411855369 -0.019685896482243202 0 0.30183105165421398 -0.01404221187307512 0 0.31133669078501691 -0.033799797093317582 0 0.30183105165421398 -0.01404221187307512 0 0.31133669078501691 -0.033799797093317582 0 0.29264717168192328 -0.032845375549727232 0 0.3069969538888121 -0.045608511430141718 0 0.29741465061242572 -0.05560906061598743 0 0.29264717168192328 -0.032845375549727232 0 0.31133669078501691 -0.033799797093317582 0 0.3069969538888121 -0.045608511430141718 0 0.29264717168192328 -0.032845375549727232 0 0.32084232991582068 -0.053557382313559658 0 0.29741465061242572 -0.05560906061598743 0 0.32084232991582068 -0.053557382313559658 0 0.31394424182365688 -0.070737203673695792 0 0.29741465061242572 -0.05560906061598743 0 0.32084232991582068 -0.053557382313559658 0 0.3069969538888121 -0.045608511430141718 0 0.29741465061242572 -0.05560906061598743 0 0.28803309209182409 -0.070449480019151703 0 0.29741465061242572 -0.05560906061598743 0 0.28205125301209422 -0.056954509693548573 0 0.29741465061242572 -0.05560906061598743 0 0.28205125301209422 -0.056954509693548573 0 0.29741465061242572 -0.05560906061598743 0 0.28205125301209422 -0.056954509693548573 0 0.28223273125458398 -0.043959146735371872 0 0.29741465061242572 -0.05560906061598743 0 0.29264717168192328 -0.032845375549727232 0 0.27097710371201289 -0.034060321266074063 0 0.29264717168192328 -0.032845375549727232 0 0.28223273125458398 -0.043959146735371872 0 0.29741465061242572 -0.05560906061598743 0 0.29264717168192328 -0.032845375549727232 0 0.28223273125458398 -0.043959146735371872 0 0.30264469691374413 -0.20516914398109479 0 0.27741867256549568 -0.2158818026304421 0 0.28376517631092962 -0.19341864280931129 0 0.30264469691374413 -0.20516914398109479 0 0.27741867256549568 -0.2158818026304421 0 0.30264469691374413 -0.20516914398109479 0 0.30371652514202918 -0.2236972479087278 0 0.27741867256549568 -0.2158818026304421 0 0.28376517631092962 -0.19341864280931129 0 0.30264469691374413 -0.20516914398109479 0 0.30012330169263468 -0.18494912760054949 0 0.30264469691374413 -0.20516914398109479 0 0.30012330169263468 -0.18494912760054949 0 0.31370514809449479 -0.18700856853637371 0 0.30264469691374413 -0.20516914398109479 0 0.30371652514202918 -0.2236972479087278 0 0.3230470462356273 -0.21374598862295929 0 0.30371652514202918 -0.2236972479087278 0 0.30810940478727539 -0.24903311324244709 0 0.32166963204975052 -0.23107998909141961 0 0.30371652514202918 -0.2236972479087278 0 0.30810940478727539 -0.24903311324244709 0 0.29260129125555778 -0.23817732966625749 0 0.30371652514202918 -0.2236972479087278 0 0.29260129125555778 -0.23817732966625749 0 0.27741867256549568 -0.2158818026304421 0 0.29260129125555778 -0.23817732966625749 0 0.27256432356151272 -0.2355997262784349 0 0.27741867256549568 -0.2158818026304421 0 0.27256432356151272 -0.2355997262784349 0 0.25219264821724702 -0.22659446127978849 0 0.27741867256549568 -0.2158818026304421 0 0.27256432356151272 -0.2355997262784349 0 0.256245679646319 -0.24611908193733029 0 0.27357446709181082 -0.25407131709457892 0 0.29260129125555778 -0.23817732966625749 0 0.27256432356151272 -0.2355997262784349 0 0.27357446709181082 -0.25407131709457892 0 0.27256432356151272 -0.2355997262784349 0 0.256245679646319 -0.24611908193733029 0 0.25219264821724702 -0.22659446127978849 0 0.25219264821724702 -0.22659446127978849 0 0.27741867256549568 -0.2158818026304421 0 0.25219264821724702 -0.22659446127978849 0 0.25511191075464718 -0.22189969397475109 0 0.27741867256549568 -0.2158818026304421 0 0.25219264821724702 -0.22659446127978849 0 0.25511191075464718 -0.22189969397475109 0 0.25219264821724702 -0.22659446127978849 0 0.25511191075464718 -0.22189969397475109 0 0.2450380159957985 -0.21752151142907489 0 0.25251779905789978 -0.2079424461389496 0 0.27741867256549568 -0.2158818026304421 0 0.25910563198202208 -0.1916843197808239 0 0.25511191075464718 -0.22189969397475109 0 0.25251779905789978 -0.2079424461389496 0 0.27741867256549568 -0.2158818026304421 0 0.25511191075464718 -0.22189969397475109 0 0.25251779905789978 -0.2079424461389496 0 0.2450380159957985 -0.21752151142907489 0 0.28376517631092962 -0.19341864280931129 0 0.27741867256549568 -0.2158818026304421 0 0.25910563198202208 -0.1916843197808239 0 0.28376517631092962 -0.19341864280931129 0 0.25910563198202208 -0.1916843197808239 0 0.2747524536029215 -0.18191482849548299 0 0.25910563198202208 -0.1916843197808239 0 0.26446818679923739 -0.17555199170699279 0 0.25227843415052947 -0.17040338943778449 0 0.25227843415052947 -0.17040338943778449 0 0.25953764221489528 -0.16309025082606429 0 0.2536205121116894 -0.15529966459265671 0 0.25953764221489528 -0.16309025082606429 0 0.27020145188101541 -0.16271914743514229 0 0.26282900273906629 -0.15172473663815811 0 0.25953764221489528 -0.16309025082606429 0 0.2536205121116894 -0.15529966459265671 0 0.26282900273906629 -0.15172473663815811 0 0.26446818679923739 -0.17555199170699279 0 0.25953764221489528 -0.16309025082606429 0 0.27020145188101541 -0.16271914743514229 0 0.26446818679923739 -0.17555199170699279 0 0.25227843415052947 -0.17040338943778449 0 0.25953764221489528 -0.16309025082606429 0 0.26446818679923739 -0.17555199170699279 0 0.27020145188101541 -0.16271914743514229 0 0.27814831123761963 -0.17080806609602481 0 0.27020145188101541 -0.16271914743514229 0 0.28017111215021279 -0.15908181104886471 0 0.27414818343191377 -0.15020974719233629 0 0.27020145188101541 -0.16271914743514229 0 0.28017111215021279 -0.15908181104886471 0 0.27814831123761963 -0.17080806609602481 0 0.25910563198202208 -0.1916843197808239 0 0.26446818679923739 -0.17555199170699279 0 0.2747524536029215 -0.18191482849548299 0 0.27814831123761963 -0.17080806609602481 0 0.2747524536029215 -0.18191482849548299 0 0.28827496168479882 -0.17811112208426219 0 0.26446818679923739 -0.17555199170699279 0 0.27814831123761963 -0.17080806609602481 0 0.2747524536029215 -0.18191482849548299 0 0.25506258670690901 -0.12399732100774979 0 0.25176584815074948 -0.14262803248825939 0 0.26770215369203071 -0.13237108203808209 0 0.25506258670690901 -0.12399732100774979 0 0.25176584815074948 -0.14262803248825939 0 0.2453101778497572 -0.1297840502599068 0 0.25559655317644719 -0.14345312535800109 0 0.25176584815074948 -0.14262803248825939 0 0.26770215369203071 -0.13237108203808209 0 0.25506258670690901 -0.12399732100774979 0 0.25176584815074948 -0.14262803248825939 0 0.25176584815074948 -0.14262803248825939 0 0.26770215369203071 -0.13237108203808209 0 0.26758386373240017 -0.1188235101163498 0 0.25506258670690901 -0.12399732100774979 0 0.26770215369203071 -0.13237108203808209 0 0.25559655317644719 -0.14345312535800109 0 0.2679008589821848 -0.14349956620253601 0 0.26770215369203071 -0.13237108203808209 0 0.25559655317644719 -0.14345312535800109 0 0.26282900273906629 -0.15172473663815811 0 0.2679008589821848 -0.14349956620253601 0 0.25559655317644719 -0.14345312535800109 0 0.25176584815074948 -0.14262803248825939 0 0.25141789005461213 -0.1445944325488028 0 0.25176584815074948 -0.14262803248825939 0 0.25141789005461213 -0.1445944325488028 0 0.25559655317644719 -0.14345312535800109 0 0.2536205121116894 -0.15529966459265671 0 0.26282900273906629 -0.15172473663815811 0 0.25559655317644719 -0.14345312535800109 0 0.2536205121116894 -0.15529966459265671 0 0.24231788049098391 -0.1530996084253301 0 0.26282900273906629 -0.15172473663815811 0 0.27414818343191377 -0.15020974719233629 0 0.2679008589821848 -0.14349956620253601 0 0.27020145188101541 -0.16271914743514229 0 0.26282900273906629 -0.15172473663815811 0 0.27414818343191377 -0.15020974719233629 0 0.28017111215021279 -0.15908181104886471 0 0.27414818343191377 -0.15020974719233629 0 0.2843337814866051 -0.15072537874417519 0 0.27414818343191377 -0.15020974719233629 0 0.27922840187146603 -0.13973913978610239 0 0.2843337814866051 -0.15072537874417519 0 0.27414818343191377 -0.15020974719233629 0 0.2679008589821848 -0.14349956620253601 0 0.27922840187146603 -0.13973913978610239 0 0.28363845923331232 -0.1221141315879057 0 0.26770215369203071 -0.13237108203808209 0 0.28363845923331232 -0.1221141315879057 0 0.27922840187146603 -0.13973913978610239 0 0.26770215369203071 -0.13237108203808209 0 0.2679008589821848 -0.14349956620253601 0 0.27922840187146603 -0.13973913978610239 0 0.26770215369203071 -0.13237108203808209 0 0.30536218204837401 -0.1238013459188816 0 0.28363845923331232 -0.1221141315879057 0 0.29737381664808832 -0.1426018198624662 0 0.28363845923331232 -0.1221141315879057 0 0.27922840187146603 -0.13973913978610239 0 0.29737381664808832 -0.1426018198624662 0 0.28363845923331232 -0.1221141315879057 0 0.29737381664808832 -0.1426018198624662 0 0.29737381664808832 -0.1426018198624662 0 0.29074739333134447 -0.1619943758311064 0 0.30000895086526758 -0.15967065879449441 0 0.2843337814866051 -0.15072537874417519 0 0.29737381664808832 -0.1426018198624662 0 0.29074739333134447 -0.1619943758311064 0 0.27922840187146603 -0.13973913978610239 0 0.2843337814866051 -0.15072537874417519 0 0.29737381664808832 -0.1426018198624662 0 0.29737381664808832 -0.1426018198624662 0 0.31019123379448621 -0.15015304180115779 0 0.31110917406286442 -0.16308950813702669 0 0.29737381664808832 -0.1426018198624662 0 0.30000895086526758 -0.15967065879449441 0 0.31110917406286442 -0.16308950813702669 0 0.29737381664808832 -0.1426018198624662 0 0.31110917406286442 -0.16308950813702669 0 0.29737381664808832 -0.1426018198624662 0 0.31019123379448621 -0.15015304180115779 0 0.31423792381648968 -0.13593656674313839 0 0.30536218204837401 -0.1238013459188816 0 0.29737381664808832 -0.1426018198624662 0 0.31423792381648968 -0.13593656674313839 0 0.28376517631092962 -0.19341864280931129 0 0.28827496168479882 -0.17811112208426219 0 0.30012330169263468 -0.18494912760054949 0 0.28827496168479882 -0.17811112208426219 0 0.30080541941877298 -0.1709969313473779 0 0.30012330169263468 -0.18494912760054949 0 0.28376517631092962 -0.19341864280931129 0 0.2747524536029215 -0.18191482849548299 0 0.28827496168479882 -0.17811112208426219 0 0.28827496168479882 -0.17811112208426219 0 0.29074739333134447 -0.1619943758311064 0 0.30080541941877298 -0.1709969313473779 0 0.27814831123761963 -0.17080806609602481 0 0.28827496168479882 -0.17811112208426219 0 0.29074739333134447 -0.1619943758311064 0 0.28017111215021279 -0.15908181104886471 0 0.27814831123761963 -0.17080806609602481 0 0.29074739333134447 -0.1619943758311064 0 0.28017111215021279 -0.15908181104886471 0 0.2843337814866051 -0.15072537874417519 0 0.29074739333134447 -0.1619943758311064 0 0.30080541941877298 -0.1709969313473779 0 0.30000895086526758 -0.15967065879449441 0 0.31110917406286442 -0.16308950813702669 0 0.29074739333134447 -0.1619943758311064 0 0.30080541941877298 -0.1709969313473779 0 0.30000895086526758 -0.15967065879449441 0 0.30080541941877298 -0.1709969313473779 0 0.31110917406286442 -0.16308950813702669 0 0.31015811703391749 -0.1777711101454823 0 0.30080541941877298 -0.1709969313473779 0 0.31015811703391749 -0.1777711101454823 0 0.30012330169263468 -0.18494912760054949 0 0.31015811703391749 -0.1777711101454823 0 0.30012330169263468 -0.18494912760054949 0 0.31370514809449479 -0.18700856853637371 0 0.32484453147764042 -0.18357719641158729 0 0.31985328748647812 -0.16274871882173611 0 0.33070105671280919 -0.17079274692950919 0 0.31110917406286442 -0.16308950813702669 0 0.31015811703391749 -0.1777711101454823 0 0.32484453147764042 -0.18357719641158729 0 0.31015811703391749 -0.1777711101454823 0 0.31370514809449479 -0.18700856853637371 0 0.32484453147764042 -0.18357719641158729 0 0.31110917406286442 -0.16308950813702669 0 0.32484453147764042 -0.18357719641158729 0 0.31110917406286442 -0.16308950813702669 0 0.32484453147764042 -0.18357719641158729 0 0.31985328748647812 -0.16274871882173611 0 0.31019123379448621 -0.15015304180115779 0 0.31110917406286442 -0.16308950813702669 0 0.31985328748647812 -0.16274871882173611 0 0.31985328748647812 -0.16274871882173611 0 0.33277750783514581 -0.15878795521691849 0 0.32511060224050692 -0.15057820738693919 0 0.31985328748647812 -0.16274871882173611 0 0.33070105671280919 -0.17079274692950919 0 0.33277750783514581 -0.15878795521691849 0 0.33070105671280919 -0.17079274692950919 0 0.33277750783514581 -0.15878795521691849 0 0.34042167467936452 -0.1692219031927398 0 0.33277750783514581 -0.15878795521691849 0 0.34042167467936452 -0.1692219031927398 0 0.35014071459535812 -0.15193873581846229 0 0.33560828208541749 -0.17962796100456441 0 0.35309674561024113 -0.1837438266824003 0 0.32787072126199263 -0.19445648533174761 0 0.34042167467936452 -0.1692219031927398 0 0.33560828208541749 -0.17962796100456441 0 0.35309674561024113 -0.1837438266824003 0 0.32484453147764042 -0.18357719641158729 0 0.33560828208541749 -0.17962796100456441 0 0.32787072126199263 -0.19445648533174761 0 0.32484453147764042 -0.18357719641158729 0 0.33070105671280919 -0.17079274692950919 0 0.33560828208541749 -0.17962796100456441 0 0.33070105671280919 -0.17079274692950919 0 0.34042167467936452 -0.1692219031927398 0 0.33560828208541749 -0.17962796100456441 0 0.32234267619794671 -0.1209311329733736 0 0.31423792381648968 -0.13593656674313839 0 0.33768404495202858 -0.12802866298445509 0 0.31423792381648968 -0.13593656674313839 0 0.32511060224050692 -0.15057820738693919 0 0.33357368982391411 -0.14483958876596401 0 0.31985328748647812 -0.16274871882173611 0 0.31423792381648968 -0.13593656674313839 0 0.32511060224050692 -0.15057820738693919 0 0.31019123379448621 -0.15015304180115779 0 0.31985328748647812 -0.16274871882173611 0 0.31423792381648968 -0.13593656674313839 0 0.31985328748647812 -0.16274871882173611 0 0.31423792381648968 -0.13593656674313839 0 0.33357368982391411 -0.14483958876596401 0 0.34531455097066038 -0.1398656390032661 0 0.35014071459535812 -0.15193873581846229 0 0.33277750783514581 -0.15878795521691849 0 0.33357368982391411 -0.14483958876596401 0 0.35014071459535812 -0.15193873581846229 0 0.33277750783514581 -0.15878795521691849 0 0.32511060224050692 -0.15057820738693919 0 0.33357368982391411 -0.14483958876596401 0 0.31423792381648968 -0.13593656674313839 0 0.33357368982391411 -0.14483958876596401 0 0.33768404495202858 -0.12802866298445509 0 0.33357368982391411 -0.14483958876596401 0 0.33768404495202858 -0.12802866298445509 0 0.34531455097066038 -0.1398656390032661 0 0.33768404495202858 -0.12802866298445509 0 0.34531455097066038 -0.1398656390032661 0 0.35985975451134489 -0.13465556844418089 0 0.35014071459535812 -0.15193873581846229 0 0.35985975451134489 -0.13465556844418089 0 0.36586625159449387 -0.1607178951995159 0 0.35014071459535812 -0.15193873581846229 0 0.35985975451134489 -0.13465556844418089 0 0.34531455097066038 -0.1398656390032661 0 0.35014071459535812 -0.15193873581846229 0 0.35985975451134489 -0.13465556844418089 0 0.35985975451134489 -0.13465556844418089 0 0.37292778743867933 -0.16181763200139621 0 0.35985975451134489 -0.13465556844418089 0 0.36586625159449387 -0.1607178951995159 0 0.37292778743867933 -0.16181763200139621 0 0.35985975451134489 -0.13465556844418089 0 0.37292778743867933 -0.16181763200139621 0 0.38010300670973779 -0.1438345891798338 0 0.37157051739666508 -0.11383056136768779 0 0.35985975451134489 -0.13465556844418089 0 0.37861921626728889 -0.1292376646998222 0 0.35985975451134489 -0.13465556844418089 0 0.37861921626728889 -0.1292376646998222 0 0.38010300670973779 -0.1438345891798338 0 0.34042167467936452 -0.1692219031927398 0 0.35309674561024113 -0.1837438266824003 0 0.35615475651844358 -0.1686309016582018 0 0.34042167467936452 -0.1692219031927398 0 0.35014071459535812 -0.15193873581846229 0 0.35615475651844358 -0.1686309016582018 0 0.34042167467936452 -0.1692219031927398 0 0.35014071459535812 -0.15193873581846229 0 0.35014071459535812 -0.15193873581846229 0 0.35615475651844358 -0.1686309016582018 0 0.36586625159449387 -0.1607178951995159 0 0.35615475651844358 -0.1686309016582018 0 0.36586625159449387 -0.1607178951995159 0 0.37832276995848901 -0.17303116803305249 0 0.36586625159449387 -0.1607178951995159 0 0.37292778743867933 -0.16181763200139621 0 0.36586625159449387 -0.1607178951995159 0 0.37292778743867933 -0.16181763200139621 0 0.37832276995848901 -0.17303116803305249 0 0.35309674561024113 -0.1837438266824003 0 0.37832276995848901 -0.17303116803305249 0 0.35309674561024113 -0.1837438266824003 0 0.35615475651844358 -0.1686309016582018 0 0.37832276995848901 -0.17303116803305249 0 0.35309674561024113 -0.1837438266824003 0 0.37246794302624248 -0.19049012032763671 0 0.37832276995848901 -0.17303116803305249 0 0.35309674561024113 -0.1837438266824003 0 0.37246794302624248 -0.19049012032763671 0 0.36334854304723541 -0.20343860916222459 0 0.37246794302624248 -0.19049012032763671 0 0.36334854304723541 -0.20343860916222459 0 0.37760902177244088 -0.202089045121564 0 0.36334854304723541 -0.20343860916222459 0 0.35321002797077272 -0.2174245096129773 0 0.37147110354400148 -0.2203371211194238 0 0.36334854304723541 -0.20343860916222459 0 0.37147110354400148 -0.2203371211194238 0 0.37760902177244088 -0.202089045121564 0 0.35321002797077272 -0.2174245096129773 0 0.34522349020742238 -0.20632395760301689 0 0.33746221881085042 -0.22279114526271371 0 0.36334854304723541 -0.20343860916222459 0 0.35321002797077272 -0.2174245096129773 0 0.34522349020742238 -0.20632395760301689 0 0.35309674561024113 -0.1837438266824003 0 0.36334854304723541 -0.20343860916222459 0 0.34522349020742238 -0.20632395760301689 0 0.35309674561024113 -0.1837438266824003 0 0.32787072126199263 -0.19445648533174761 0 0.35309674561024113 -0.1837438266824003 0 0.34522349020742238 -0.20632395760301689 0 0.32787072126199263 -0.19445648533174761 0 0.34522349020742238 -0.20632395760301689 0 0.3230470462356273 -0.21374598862295929 0 0.33746221881085042 -0.22279114526271371 0 0.34522349020742238 -0.20632395760301689 0 0.3230470462356273 -0.21374598862295929 0 0.32787072126199263 -0.19445648533174761 0 0.30264469691374413 -0.20516914398109479 0 0.3230470462356273 -0.21374598862295929 0 0.32787072126199263 -0.19445648533174761 0 0.30264469691374413 -0.20516914398109479 0 0.31370514809449479 -0.18700856853637371 0 0.32787072126199263 -0.19445648533174761 0 0.30264469691374413 -0.20516914398109479 0 0.32787072126199263 -0.19445648533174761 0 0.31370514809449479 -0.18700856853637371 0 0.32484453147764042 -0.18357719641158729 0 0.32787072126199263 -0.19445648533174761 0 0.30810940478727539 -0.24903311324244709 0 0.32755136014713548 -0.24757691142008681 0 0.32166963204975052 -0.23107998909141961 0 0.3230470462356273 -0.21374598862295929 0 0.32166963204975052 -0.23107998909141961 0 0.33746221881085042 -0.22279114526271371 0 0.30371652514202918 -0.2236972479087278 0 0.3230470462356273 -0.21374598862295929 0 0.32166963204975052 -0.23107998909141961 0 0.32166963204975052 -0.23107998909141961 0 0.33746221881085042 -0.22279114526271371 0 0.33560124491731258 -0.23653815703934161 0 0.33746221881085042 -0.22279114526271371 0 0.33560124491731258 -0.23653815703934161 0 0.34854478424435409 -0.23423171491750769 0 0.32755136014713548 -0.24757691142008681 0 0.32166963204975052 -0.23107998909141961 0 0.33560124491731258 -0.23653815703934161 0 0.33560124491731258 -0.23653815703934161 0 0.3427782293344725 -0.24701102450498019 0 0.34854478424435409 -0.23423171491750769 0 0.32755136014713548 -0.24757691142008681 0 0.33560124491731258 -0.23653815703934161 0 0.3427782293344725 -0.24701102450498019 0 0.3427782293344725 -0.24701102450498019 0 0.34854478424435409 -0.23423171491750769 0 0.3626403313970481 -0.2448092221169777 0 0.3427782293344725 -0.24701102450498019 0 0.3626403313970481 -0.2448092221169777 0 0.35406298462651259 -0.25814883022067281 0 0.3427782293344725 -0.24701102450498019 0 0.3626403313970481 -0.2448092221169777 0 0.35321002797077272 -0.2174245096129773 0 0.34854478424435409 -0.23423171491750769 0 0.37147110354400148 -0.2203371211194238 0 0.35321002797077272 -0.2174245096129773 0 0.33746221881085042 -0.22279114526271371 0 0.34854478424435409 -0.23423171491750769 0 0.34854478424435409 -0.23423171491750769 0 0.3715153972186831 -0.23418244969809701 0 0.37147110354400148 -0.2203371211194238 0 0.34854478424435409 -0.23423171491750769 0 0.37147110354400148 -0.2203371211194238 0 0.3715153972186831 -0.23418244969809701 0 0.3626403313970481 -0.2448092221169777 0 0.38250243345962381 -0.24260741972897651 0 0.34854478424435409 -0.23423171491750769 0 0.3715153972186831 -0.23418244969809701 0 0.3626403313970481 -0.2448092221169777 0 0.3626403313970481 -0.2448092221169777 0 0.38250243345962381 -0.24260741972897651 0 0.3626403313970481 -0.2448092221169777 0 0.38250243345962381 -0.24260741972897651 0 0.36653462542462728 -0.25755987578933093 0 0.38250243345962381 -0.24260741972897651 0 0.3881870461995256 -0.24197725511366139 0 0.38847339792168017 -0.22457375572436991 0 0.3881870461995256 -0.24197725511366139 0 0.38073576329286218 -0.25621248965073501 0 0.39187191238393959 -0.25068644052127081 0 0.3881870461995256 -0.24197725511366139 0 0.38073576329286218 -0.25621248965073501 0 0.38250243345962381 -0.24260741972897651 0 0.3881870461995256 -0.24197725511366139 0 0.38073576329286218 -0.25621248965073501 0 0.38250243345962381 -0.24260741972897651 0 0.3881870461995256 -0.24197725511366139 0 0.3881870461995256 -0.24197725511366139 0 0.40102270897705361 -0.23388660232249031 0 0.41183746198109927 -0.23935550129419861 0 0.3881870461995256 -0.24197725511366139 0 0.40047080705360688 -0.24874975479372691 0 0.39187191238393959 -0.25068644052127081 0 0.3881870461995256 -0.24197725511366139 0 0.41183746198109927 -0.23935550129419861 0 0.3881870461995256 -0.24197725511366139 0 0.40047080705360688 -0.24874975479372691 0 0.41183746198109927 -0.23935550129419861 0 0.3881870461995256 -0.24197725511366139 0 0.39566696186846689 -0.2276873193806217 0 0.3881870461995256 -0.24197725511366139 0 0.40102270897705361 -0.23388660232249031 0 0.39566696186846689 -0.2276873193806217 0 0.3881870461995256 -0.24197725511366139 0 0.39566696186846689 -0.2276873193806217 0 0.38847339792168017 -0.22457375572436991 0 0.39566696186846689 -0.2276873193806217 0 0.40314687753740852 -0.21339738364758201 0 0.39899379308110272 -0.21599613812232199 0 0.39566696186846689 -0.2276873193806217 0 0.40314687753740852 -0.21339738364758201 0 0.40839936585912262 -0.2265263335014793 0 0.39566696186846689 -0.2276873193806217 0 0.40314687753740852 -0.21339738364758201 0 0.40102270897705361 -0.23388660232249031 0 0.39566696186846689 -0.2276873193806217 0 0.40839936585912262 -0.2265263335014793 0 0.39566696186846689 -0.2276873193806217 0 0.38847339792168017 -0.22457375572436991 0 0.39439462881374587 -0.21869932623676891 0 0.39566696186846689 -0.2276873193806217 0 0.39439462881374587 -0.21869932623676891 0 0.39899379308110272 -0.21599613812232199 0 0.3715153972186831 -0.23418244969809701 0 0.38250243345962381 -0.24260741972897651 0 0.38847339792168017 -0.22457375572436991 0 0.3715153972186831 -0.23418244969809701 0 0.37147110354400148 -0.2203371211194238 0 0.38847339792168017 -0.22457375572436991 0 0.38250243345962381 -0.24260741972897651 0 0.38847339792168017 -0.22457375572436991 0 0.37147110354400148 -0.2203371211194238 0 0.37760902177244088 -0.202089045121564 0 0.39444611483850389 -0.20645502143218639 0 0.37147110354400148 -0.2203371211194238 0 0.38847339792168017 -0.22457375572436991 0 0.39444611483850389 -0.20645502143218639 0 0.37147110354400148 -0.2203371211194238 0 0.39444611483850389 -0.20645502143218639 0 0.38636009640107549 -0.18973684767719379 0 0.39444611483850389 -0.20645502143218639 0 0.37760902177244088 -0.202089045121564 0 0.38636009640107549 -0.18973684767719379 0 0.39444611483850389 -0.20645502143218639 0 0.37246794302624248 -0.19049012032763671 0 0.37760902177244088 -0.202089045121564 0 0.38636009640107549 -0.18973684767719379 0 0.39444611483850389 -0.20645502143218639 0 0.41669889785200448 -0.19292662307656289 0 0.40098369102510062 -0.18678983926330159 0 0.39444611483850389 -0.20645502143218639 0 0.40098369102510062 -0.18678983926330159 0 0.38636009640107549 -0.18973684767719379 0 0.39444611483850389 -0.20645502143218639 0 0.40098369102510062 -0.18678983926330159 0 0.39444611483850389 -0.20645502143218639 0 0.41669889785200448 -0.19292662307656289 0 0.38847339792168017 -0.22457375572436991 0 0.39444611483850389 -0.20645502143218639 0 0.39444611483850389 -0.20645502143218639 0 0.40314687753740852 -0.21339738364758201 0 0.41480362238472729 -0.207116720939125 0 0.38847339792168017 -0.22457375572436991 0 0.39439462881374587 -0.21869932623676891 0 0.39444611483850389 -0.20645502143218639 0 0.39439462881374587 -0.21869932623676891 0 0.39444611483850389 -0.20645502143218639 0 0.39899379308110272 -0.21599613812232199 0 0.39444611483850389 -0.20645502143218639 0 0.39899379308110272 -0.21599613812232199 0 0.39444611483850389 -0.20645502143218639 0 0.40314687753740852 -0.21339738364758201 0 0.39899379308110272 -0.21599613812232199 0 0.40314687753740852 -0.21339738364758201 0 0.41480362238472729 -0.207116720939125 0 0.41531521936351012 -0.21794319792942571 0 0.41480362238472729 -0.207116720939125 0 0.41531521936351012 -0.21794319792942571 0 0.42665879443346882 -0.2141550444974499 0 0.39444611483850389 -0.20645502143218639 0 0.41480362238472729 -0.207116720939125 0 0.41669889785200448 -0.19292662307656289 0 0.41669889785200448 -0.19292662307656289 0 0.43521537826424922 -0.19932707110385089 0 0.43890123641588019 -0.17947080089766959 0 0.41480362238472729 -0.207116720939125 0 0.41669889785200448 -0.19292662307656289 0 0.43521537826424922 -0.19932707110385089 0 0.43521537826424922 -0.19932707110385089 0 0.42665879443346882 -0.2141550444974499 0 0.44320551358065552 -0.21911461713200561 0 0.41480362238472729 -0.207116720939125 0 0.43521537826424922 -0.19932707110385089 0 0.42665879443346882 -0.2141550444974499 0 0.42665879443346882 -0.2141550444974499 0 0.42353704382850299 -0.2274700575632137 0 0.44320551358065552 -0.21911461713200561 0 0.42353704382850299 -0.2274700575632137 0 0.43548787776267289 -0.23673374747473561 0 0.44320551358065552 -0.21911461713200561 0 0.42353704382850299 -0.2274700575632137 0 0.43548787776267289 -0.23673374747473561 0 0.41183746198109927 -0.23935550129419861 0 0.43548787776267289 -0.23673374747473561 0 0.41183746198109927 -0.23935550129419861 0 0.43548787776267289 -0.23673374747473561 0 0.44401305150407272 -0.24794507087017659 0 0.41754834808226132 -0.25350833136302892 0 0.43548787776267289 -0.23673374747473561 0 0.41183746198109927 -0.23935550129419861 0 0.41754834808226132 -0.25350833136302892 0 0.40047080705360688 -0.24874975479372691 0 0.41183746198109927 -0.23935550129419861 0 0.41754834808226132 -0.25350833136302892 0 0.40102270897705361 -0.23388660232249031 0 0.41183746198109927 -0.23935550129419861 0 0.40839936585912262 -0.2265263335014793 0 0.40314687753740852 -0.21339738364758201 0 0.41531521936351012 -0.21794319792942571 0 0.40839936585912262 -0.2265263335014793 0 0.41531521936351012 -0.21794319792942571 0 0.42353704382850299 -0.2274700575632137 0 0.40839936585912262 -0.2265263335014793 0 0.41531521936351012 -0.21794319792942571 0 0.42665879443346882 -0.2141550444974499 0 0.42353704382850299 -0.2274700575632137 0 0.42353704382850299 -0.2274700575632137 0 0.41183746198109927 -0.23935550129419861 0 0.40839936585912262 -0.2265263335014793 0 0.39486538839856561 -0.12442883116800681 0 0.39997418032044713 -0.13575691169619411 0 0.40673205896942438 -0.12593210900504589 0 0.39997418032044713 -0.13575691169619411 0 0.41198421286768239 -0.13699038299004529 0 0.40673205896942438 -0.12593210900504589 0 0.39997418032044713 -0.13575691169619411 0 0.40581244265960259 -0.14594892657702091 0 0.41198421286768239 -0.13699038299004529 0 0.39997418032044713 -0.13575691169619411 0 0.38932780510319581 -0.13573350364626099 0 0.39307723381993959 -0.1454095214874481 0 0.39486538839856561 -0.12442883116800681 0 0.39997418032044713 -0.13575691169619411 0 0.38932780510319581 -0.13573350364626099 0 0.39486538839856561 -0.12442883116800681 0 0.37861921626728889 -0.1292376646998222 0 0.38932780510319581 -0.13573350364626099 0 0.37861921626728889 -0.1292376646998222 0 0.38932780510319581 -0.13573350364626099 0 0.38010300670973779 -0.1438345891798338 0 0.38932780510319581 -0.13573350364626099 0 0.38010300670973779 -0.1438345891798338 0 0.39307723381993959 -0.1454095214874481 0 0.38010300670973779 -0.1438345891798338 0 0.38867395566344137 -0.15420858956983571 0 0.39307723381993959 -0.1454095214874481 0 0.37292778743867933 -0.16181763200139621 0 0.38010300670973779 -0.1438345891798338 0 0.38867395566344137 -0.15420858956983571 0 0.38867395566344137 -0.15420858956983571 0 0.39307723381993959 -0.1454095214874481 0 0.40106633112328499 -0.15453996047878649 0 0.39997418032044713 -0.13575691169619411 0 0.39307723381993959 -0.1454095214874481 0 0.40581244265960259 -0.14594892657702091 0 0.40581244265960259 -0.14594892657702091 0 0.40106633112328499 -0.15453996047878649 0 0.41165373949139189 -0.15456387808452801 0 0.39307723381993959 -0.1454095214874481 0 0.40581244265960259 -0.14594892657702091 0 0.40106633112328499 -0.15453996047878649 0 0.40106633112328499 -0.15453996047878649 0 0.39619541922556212 -0.16544124470170679 0 0.40999215969987968 -0.1595822250982076 0 0.39619541922556212 -0.16544124470170679 0 0.40999215969987968 -0.1595822250982076 0 0.39619541922556212 -0.16544124470170679 0 0.39238936525719881 -0.1772381072859231 0 0.40747082276207092 -0.16719723327114661 0 0.39619541922556212 -0.16544124470170679 0 0.40747082276207092 -0.16719723327114661 0 0.40999215969987968 -0.1595822250982076 0 0.39619541922556212 -0.16544124470170679 0 0.40747082276207092 -0.16719723327114661 0 0.38867395566344137 -0.15420858956983571 0 0.40106633112328499 -0.15453996047878649 0 0.39619541922556212 -0.16544124470170679 0 0.39619541922556212 -0.16544124470170679 0 0.37832276995848901 -0.17303116803305249 0 0.37292778743867933 -0.16181763200139621 0 0.38867395566344137 -0.15420858956983571 0 0.39619541922556212 -0.16544124470170679 0 0.37292778743867933 -0.16181763200139621 0 0.39619541922556212 -0.16544124470170679 0 0.37832276995848901 -0.17303116803305249 0 0.37292778743867933 -0.16181763200139621 0 0.39619541922556212 -0.16544124470170679 0 0.37292778743867933 -0.16181763200139621 0 0.37832276995848901 -0.17303116803305249 0 0.37246794302624248 -0.19049012032763671 0 0.38636009640107549 -0.18973684767719379 0 0.37832276995848901 -0.17303116803305249 0 0.38636009640107549 -0.18973684767719379 0 0.37832276995848901 -0.17303116803305249 0 0.38636009640107549 -0.18973684767719379 0 0.37832276995848901 -0.17303116803305249 0 0.39238936525719881 -0.1772381072859231 0 0.39619541922556212 -0.16544124470170679 0 0.37832276995848901 -0.17303116803305249 0 0.39238936525719881 -0.1772381072859231 0 0.39238936525719881 -0.1772381072859231 0 0.40098369102510062 -0.18678983926330159 0 0.40747082276207092 -0.16719723327114661 0 0.40098369102510062 -0.18678983926330159 0 0.40747082276207092 -0.16719723327114661 0 0.38636009640107549 -0.18973684767719379 0 0.39238936525719881 -0.1772381072859231 0 0.40098369102510062 -0.18678983926330159 0 0.40098369102510062 -0.18678983926330159 0 0.41725902805276383 -0.1782061667723378 0 0.40747082276207092 -0.16719723327114661 0 0.41669889785200448 -0.19292662307656289 0 0.40098369102510062 -0.18678983926330159 0 0.41725902805276383 -0.1782061667723378 0 0.41725902805276383 -0.1782061667723378 0 0.42993145744211148 -0.17069516730366399 0 0.40747082276207092 -0.16719723327114661 0 0.41669889785200448 -0.19292662307656289 0 0.43890123641588019 -0.17947080089766959 0 0.41725902805276383 -0.1782061667723378 0 0.42993145744211148 -0.17069516730366399 0 0.43890123641588019 -0.17947080089766959 0 0.41669889785200448 -0.19292662307656289 0 0.41725902805276383 -0.1782061667723378 0 0.43890123641588019 -0.17947080089766959 0 0.42993145744211148 -0.17069516730366399 0 0.40999215969987968 -0.1595822250982076 0 0.4324608285334211 -0.15004052418663649 0 0.42993145744211148 -0.17069516730366399 0 0.4324608285334211 -0.15004052418663649 0 0.44780825592158902 -0.15767563094066231 0 0.42993145744211148 -0.17069516730366399 0 0.40747082276207092 -0.16719723327114661 0 0.40999215969987968 -0.1595822250982076 0 0.42993145744211148 -0.17069516730366399 0 0.40747082276207092 -0.16719723327114661 0 0.40747082276207092 -0.16719723327114661 0 0.40999215969987968 -0.1595822250982076 0 0.40999215969987968 -0.1595822250982076 0 0.41165373949139189 -0.15456387808452801 0 0.40999215969987968 -0.1595822250982076 0 0.41165373949139189 -0.15456387808452801 0 0.4324608285334211 -0.15004052418663649 0 0.41165373949139189 -0.15456387808452801 0 0.41975696782634481 -0.14445477590185599 0 0.4324608285334211 -0.15004052418663649 0 0.40999215969987968 -0.1595822250982076 0 0.4324608285334211 -0.15004052418663649 0 0.40106633112328499 -0.15453996047878649 0 0.40999215969987968 -0.1595822250982076 0 0.41165373949139189 -0.15456387808452801 0 0.40581244265960259 -0.14594892657702091 0 0.41165373949139189 -0.15456387808452801 0 0.41230184071125542 -0.14548949088836249 0 0.40581244265960259 -0.14594892657702091 0 0.41230184071125542 -0.14548949088836249 0 0.41198421286768239 -0.13699038299004529 0 0.41165373949139189 -0.15456387808452801 0 0.41230184071125542 -0.14548949088836249 0 0.41975696782634481 -0.14445477590185599 0 0.41230184071125542 -0.14548949088836249 0 0.41975696782634481 -0.14445477590185599 0 0.41198421286768239 -0.13699038299004529 0 0.41975696782634481 -0.14445477590185599 0 0.4324608285334211 -0.15004052418663649 0 0.42692204338174439 -0.13366042790517299 0 0.4324608285334211 -0.15004052418663649 0 0.42692204338174439 -0.13366042790517299 0 0.44014756752697159 -0.1371370008626851 0 0.4462779008257588 -0.12434822808386339 0 0.43446529261901312 -0.1227567697685831 0 0.42692204338174439 -0.13366042790517299 0 0.4462779008257588 -0.12434822808386339 0 0.42692204338174439 -0.13366042790517299 0 0.42451386117456219 -0.1201145336778088 0 0.42692204338174439 -0.13366042790517299 0 0.41653615251652421 -0.12671802851918071 0 0.42451386117456219 -0.1201145336778088 0 0.43446529261901312 -0.1227567697685831 0 0.42692204338174439 -0.13366042790517299 0 0.42692204338174439 -0.13366042790517299 0 0.41653615251652421 -0.12671802851918071 0 0.41198421286768239 -0.13699038299004529 0 0.41975696782634481 -0.14445477590185599 0 0.42692204338174439 -0.13366042790517299 0 0.41198421286768239 -0.13699038299004529 0 0.41653615251652421 -0.12671802851918071 0 0.41198421286768239 -0.13699038299004529 0 0.40673205896942438 -0.12593210900504589 0 0.4462779008257588 -0.12434822808386339 0 0.45492949736696281 -0.14049882327506569 0 0.46131528255232651 -0.12592322821421659 0 0.45492949736696281 -0.14049882327506569 0 0.4751489153602223 -0.13191230484234981 0 0.45492949736696281 -0.14049882327506569 0 0.46131528255232651 -0.12592322821421659 0 0.4751489153602223 -0.13191230484234981 0 0.4462779008257588 -0.12434822808386339 0 0.45492949736696281 -0.14049882327506569 0 0.4462779008257588 -0.12434822808386339 0 0.45492949736696281 -0.14049882327506569 0 0.44014756752697159 -0.1371370008626851 0 0.4462779008257588 -0.12434822808386339 0 0.42692204338174439 -0.13366042790517299 0 0.44014756752697159 -0.1371370008626851 0 0.4324608285334211 -0.15004052418663649 0 0.45492949736696281 -0.14049882327506569 0 0.44780825592158902 -0.15767563094066231 0 0.4324608285334211 -0.15004052418663649 0 0.45492949736696281 -0.14049882327506569 0 0.44014756752697159 -0.1371370008626851 0 0.4324608285334211 -0.15004052418663649 0 0.45492949736696281 -0.14049882327506569 0 0.45492949736696281 -0.14049882327506569 0 0.46489111208458228 -0.1590949293218806 0 0.45492949736696281 -0.14049882327506569 0 0.46489111208458228 -0.1590949293218806 0 0.4751489153602223 -0.13191230484234981 0 0.45492949736696281 -0.14049882327506569 0 0.46489111208458228 -0.1590949293218806 0 0.44780825592158902 -0.15767563094066231 0 0.46489111208458228 -0.1590949293218806 0 0.45239209212215209 -0.17419310133618179 0 0.4748527268021927 -0.17769103536870051 0 0.46489111208458228 -0.1590949293218806 0 0.44780825592158902 -0.15767563094066231 0 0.45239209212215209 -0.17419310133618179 0 0.42993145744211148 -0.17069516730366399 0 0.44780825592158902 -0.15767563094066231 0 0.45239209212215209 -0.17419310133618179 0 0.42993145744211148 -0.17069516730366399 0 0.45239209212215209 -0.17419310133618179 0 0.43890123641588019 -0.17947080089766959 0 0.42993145744211148 -0.17069516730366399 0 0.45239209212215209 -0.17419310133618179 0 0.45239209212215209 -0.17419310133618179 0 0.43890123641588019 -0.17947080089766959 0 0.45015824044066072 -0.1894618757356096 0 0.45239209212215209 -0.17419310133618179 0 0.4748527268021927 -0.17769103536870051 0 0.45239209212215209 -0.17419310133618179 0 0.4748527268021927 -0.17769103536870051 0 0.4654513195201947 -0.19124635534344631 0 0.45239209212215209 -0.17419310133618179 0 0.45015824044066072 -0.1894618757356096 0 0.4654513195201947 -0.19124635534344631 0 0.4748527268021927 -0.17769103536870051 0 0.48611407880833513 -0.1794448356061189 0 0.48742636340109269 -0.20116320190150699 0 0.4748527268021927 -0.17769103536870051 0 0.48611407880833513 -0.1794448356061189 0 0.4748527268021927 -0.17769103536870051 0 0.48611407880833513 -0.1794448356061189 0 0.48249486098235339 -0.1684180656962535 0 0.50000000000000178 -0.17801865044390211 0 0.48611407880833513 -0.1794448356061189 0 0.48249486098235339 -0.1684180656962535 0 0.50000000000000178 -0.17801865044390211 0 0.48611407880833513 -0.1794448356061189 0 0.49338511055235768 -0.1899884243476585 0 0.50000000000000178 -0.17801865044390211 0 0.48757445768011293 -0.15496547764312549 0 0.50000000000000178 -0.17801865044390211 0 0.48249486098235339 -0.1684180656962535 0 0.48757445768011293 -0.15496547764312549 0 0.50000000000000178 -0.17801865044390211 0 0.48757445768011293 -0.15496547764312549 0 0.5 -0.14968876056839139 0 0.46489111208458228 -0.1590949293218806 0 0.4748527268021927 -0.17769103536870051 0 0.46489111208458228 -0.1590949293218806 0 0.48249486098235339 -0.1684180656962535 0 0.48757445768011293 -0.15496547764312549 0 0.46489111208458228 -0.1590949293218806 0 0.4748527268021927 -0.17769103536870051 0 0.48249486098235339 -0.1684180656962535 0 0.48757445768011293 -0.15496547764312549 0 0.4751489153602223 -0.13191230484234981 0 0.46489111208458228 -0.1590949293218806 0 0.48757445768011293 -0.15496547764312549 0 0.4751489153602223 -0.13191230484234981 0 0.48757445768011293 -0.15496547764312549 0 0.5 -0.14968876056839139 0 0.4751489153602223 -0.13191230484234981 0 0.50000000000001454 -0.1213588706928808 0 0.5 -0.14968876056839139 0 0.4751489153602223 -0.13191230484234981 0 0.50000000000001454 -0.1213588706928808 0 0.4751489153602223 -0.13191230484234981 0 0.45913829354424662 -0.23411199365527269 0 0.44320551358065552 -0.21911461713200561 0 0.46606020063026821 -0.21686281697836621 0 0.45913829354424662 -0.23411199365527269 0 0.46606020063026821 -0.21686281697836621 0 0.47578805318178591 -0.22474859970640601 0 0.44401305150407272 -0.24794507087017659 0 0.47047775492588401 -0.2423818103773242 0 0.45913829354424662 -0.23411199365527269 0 0.44401305150407272 -0.24794507087017659 0 0.47047775492588401 -0.2423818103773242 0 0.44401305150407272 -0.24794507087017659 0 0.47047775492588401 -0.2423818103773242 0 0.45736184061689439 -0.25548329675840448 0 0.43548787776267289 -0.23673374747473561 0 0.45913829354424662 -0.23411199365527269 0 0.44401305150407272 -0.24794507087017659 0 0.43548787776267289 -0.23673374747473561 0 0.45913829354424662 -0.23411199365527269 0 0.43548787776267289 -0.23673374747473561 0 0.45913829354424662 -0.23411199365527269 0 0.44320551358065552 -0.21911461713200561 0 0.43521537826424922 -0.19932707110385089 0 0.44320551358065552 -0.21911461713200561 0 0.45631061382685978 -0.20409113915287139 0 0.43521537826424922 -0.19932707110385089 0 0.43890123641588019 -0.17947080089766959 0 0.45015824044066072 -0.1894618757356096 0 0.43521537826424922 -0.19932707110385089 0 0.45015824044066072 -0.1894618757356096 0 0.45631061382685978 -0.20409113915287139 0 0.45015824044066072 -0.1894618757356096 0 0.4654513195201947 -0.19124635534344631 0 0.45631061382685978 -0.20409113915287139 0 0.4654513195201947 -0.19124635534344631 0 0.45631061382685978 -0.20409113915287139 0 0.47120826024258511 -0.20522524267982331 0 0.44320551358065552 -0.21911461713200561 0 0.45631061382685978 -0.20409113915287139 0 0.46606020063026821 -0.21686281697836621 0 0.45631061382685978 -0.20409113915287139 0 0.46606020063026821 -0.21686281697836621 0 0.47120826024258511 -0.20522524267982331 0 0.46606020063026821 -0.21686281697836621 0 0.48064296204883278 -0.21457414340376479 0 0.47578805318178591 -0.22474859970640601 0 0.46606020063026821 -0.21686281697836621 0 0.47120826024258511 -0.20522524267982331 0 0.48064296204883278 -0.21457414340376479 0 0.47120826024258511 -0.20522524267982331 0 0.48064296204883278 -0.21457414340376479 0 0.48742636340109269 -0.20116320190150699 0 0.4748527268021927 -0.17769103536870051 0 0.4654513195201947 -0.19124635534344631 0 0.48742636340109269 -0.20116320190150699 0 0.4748527268021927 -0.17769103536870051 0 0.48742636340109269 -0.20116320190150699 0 0.4654513195201947 -0.19124635534344631 0 0.47120826024258511 -0.20522524267982331 0 0.48742636340109269 -0.20116320190150699 0 0.50000000000000178 -0.17801865044390211 0 0.5 -0.20132700943910661 0 0.49338511055235768 -0.1899884243476585 0 0.48611407880833513 -0.1794448356061189 0 0.48742636340109269 -0.20116320190150699 0 0.49338511055235768 -0.1899884243476585 0 0.48742636340109269 -0.20116320190150699 0 0.5 -0.20132700943910661 0 0.49338511055235768 -0.1899884243476585 0 0.48742636340109269 -0.20116320190150699 0 0.5 -0.20132700943910661 0 0.49999999999999678 -0.22463536843431131 0 0.48742636340109269 -0.20116320190150699 0 0.49999999999999678 -0.22463536843431131 0 0.49001350887147199 -0.22153205923891259 0 0.48742636340109269 -0.20116320190150699 0 0.49999999999999678 -0.22463536843431131 0 0.48064296204883278 -0.21457414340376479 0 0.48742636340109269 -0.20116320190150699 0 0.49001350887147199 -0.22153205923891259 0 0.50000000000000422 -0.22958229168472069 0 0.49001350887147199 -0.22153205923891259 0 0.48279090692053922 -0.22909476735708639 0 0.49999999999999678 -0.22463536843431131 0 0.50000000000000422 -0.22958229168472069 0 0.49001350887147199 -0.22153205923891259 0 0.50000000000000422 -0.22958229168472069 0 0.48279090692053922 -0.22909476735708639 0 0.48278870932582008 -0.23149023983580841 0 0.50000000000000422 -0.22958229168472069 0 0.48278870932582008 -0.23149023983580841 0 0.48064296204883278 -0.21457414340376479 0 0.49001350887147199 -0.22153205923891259 0 0.48259411171718652 -0.22245031944985499 0 0.49001350887147199 -0.22153205923891259 0 0.48259411171718652 -0.22245031944985499 0 0.48279090692053922 -0.22909476735708639 0 0.45913829354424662 -0.23411199365527269 0 0.48278870932582008 -0.23149023983580841 0 0.47578805318178591 -0.22474859970640601 0 0.48064296204883278 -0.21457414340376479 0 0.48259411171718652 -0.22245031944985499 0 0.47578805318178591 -0.22474859970640601 0 0.45913829354424662 -0.23411199365527269 0 0.48278870932582008 -0.23149023983580841 0 0.48259411171718652 -0.22245031944985499 0 0.48279090692053922 -0.22909476735708639 0 0.47578805318178591 -0.22474859970640601 0 0.48279090692053922 -0.22909476735708639 0 0.48278870932582008 -0.23149023983580841 0 0.48279090692053922 -0.22909476735708639 0 0.48278870932582008 -0.23149023983580841 0 0.47578805318178591 -0.22474859970640601 0 0.48278870932582008 -0.23149023983580841 0 0.47047775492588401 -0.2423818103773242 0 0.48276473495922412 -0.25762332746698419 0 0.48278870932582008 -0.23149023983580841 0 0.48276473495922412 -0.25762332746698419 0 0.45913829354424662 -0.23411199365527269 0 0.48278870932582008 -0.23149023983580841 0 0.47047775492588401 -0.2423818103773242 0 0.50000000000000422 -0.22958229168472069 0 0.4913883610712621 -0.24359759223211491 0 0.5 -0.25569450994094428 0 0.50000000000000422 -0.22958229168472069 0 0.48278870932582008 -0.23149023983580841 0 0.4913883610712621 -0.24359759223211491 0 0.48278870932582008 -0.23149023983580841 0 0.4913883610712621 -0.24359759223211491 0 0.48276473495922412 -0.25762332746698419 0 0.4913883610712621 -0.24359759223211491 0 0.5 -0.25569450994094428 0 0.48276473495922412 -0.25762332746698419 0 0.5 -0.25569450994094428 0 0.49137637388796312 -0.26972024517581411 0 0.48276473495922412 -0.25762332746698419 0 0.49137637388796312 -0.26972024517581411 0 0.48274076059262822 -0.28375641509816008 0 0.5 -0.28180672819716779 0 0.49137637388796312 -0.26972024517581411 0 0.48276473495922412 -0.25762332746698419 0 0.48274076059262822 -0.28375641509816008 0 0.5 -0.25569450994094428 0 0.49137637388796312 -0.26972024517581411 0 0.5 -0.28180672819716779 0 0.46954242057377171 -0.27152477525682089 0 0.48276473495922412 -0.25762332746698419 0 0.48274076059262822 -0.28375641509816008 0 0.46954242057377171 -0.27152477525682089 0 0.46205245189388161 -0.28803593671117073 0 0.48274076059262822 -0.28375641509816008 0 0.48276473495922412 -0.25762332746698419 0 0.48274076059262822 -0.28375641509816008 0 0.46954242057377171 -0.27152477525682089 0 0.48276473495922412 -0.25762332746698419 0 0.46787891525744352 -0.2573104501722796 0 0.47047775492588401 -0.2423818103773242 0 0.48276473495922412 -0.25762332746698419 0 0.46787891525744352 -0.2573104501722796 0 0.47047775492588401 -0.2423818103773242 0 0.46787891525744352 -0.2573104501722796 0 0.45736184061689439 -0.25548329675840448 0 0.45736184061689439 -0.25548329675840448 0 0.45948204567119139 -0.26396961557896648 0 0.44495743572588048 -0.26580953679327579 0 0.46954242057377171 -0.27152477525682089 0 0.46787891525744352 -0.2573104501722796 0 0.45948204567119139 -0.26396961557896648 0 0.46787891525744352 -0.2573104501722796 0 0.45736184061689439 -0.25548329675840448 0 0.45948204567119139 -0.26396961557896648 0 0.46954242057377171 -0.27152477525682089 0 0.45749325129120938 -0.27384784515812471 0 0.46205245189388161 -0.28803593671117073 0 0.46954242057377171 -0.27152477525682089 0 0.45948204567119139 -0.26396961557896648 0 0.45749325129120938 -0.27384784515812471 0 0.45749325129120938 -0.27384784515812471 0 0.44953516552136069 -0.28081971195098121 0 0.46205245189388161 -0.28803593671117073 0 0.45948204567119139 -0.26396961557896648 0 0.45749325129120938 -0.27384784515812471 0 0.44495743572588048 -0.26580953679327579 0 0.45749325129120938 -0.27384784515812471 0 0.44953516552136069 -0.28081971195098121 0 0.44495743572588048 -0.26580953679327579 0 0.44953516552136069 -0.28081971195098121 0 0.4378097606404579 -0.28054398878617148 0 0.44495743572588048 -0.26580953679327579 0 0.44401305150407272 -0.24794507087017659 0 0.44495743572588048 -0.26580953679327579 0 0.43135824380852328 -0.26055192968469981 0 0.44401305150407272 -0.24794507087017659 0 0.45736184061689439 -0.25548329675840448 0 0.44495743572588048 -0.26580953679327579 0 0.44613773989927102 -0.29516380895268413 0 0.45713933468075368 -0.3054616434722443 0 0.44629586795297388 -0.31596060758427502 0 0.44613773989927102 -0.29516380895268413 0 0.44629586795297388 -0.31596060758427502 0 0.43239746491407322 -0.30986668592993749 0 0.44953516552136069 -0.28081971195098121 0 0.44613773989927102 -0.29516380895268413 0 0.46205245189388161 -0.28803593671117073 0 0.4378097606404579 -0.28054398878617148 0 0.44613773989927102 -0.29516380895268413 0 0.43218340902029939 -0.29345784577371647 0 0.44953516552136069 -0.28081971195098121 0 0.4378097606404579 -0.28054398878617148 0 0.44613773989927102 -0.29516380895268413 0 0.44613773989927102 -0.29516380895268413 0 0.46205245189388161 -0.28803593671117073 0 0.45713933468075368 -0.3054616434722443 0 0.46205245189388161 -0.28803593671117073 0 0.45713933468075368 -0.3054616434722443 0 0.47043578101764177 -0.30154694463200399 0 0.45713933468075368 -0.3054616434722443 0 0.47043578101764177 -0.30154694463200399 0 0.46752957169491322 -0.32059122514910859 0 0.47043578101764177 -0.30154694463200399 0 0.48271678622603231 -0.30988950272933619 0 0.46752957169491322 -0.32059122514910859 0 0.47043578101764177 -0.30154694463200399 0 0.48271678622603231 -0.30988950272933619 0 0.48274076059262822 -0.28375641509816008 0 0.48271678622603231 -0.30988950272933619 0 0.48274076059262822 -0.28375641509816008 0 0.46205245189388161 -0.28803593671117073 0 0.47043578101764177 -0.30154694463200399 0 0.48274076059262822 -0.28375641509816008 0 0.48271678622603231 -0.30988950272933619 0 0.48274076059262822 -0.28375641509816008 0 0.49136438670466509 -0.29584289811951392 0 0.48274076059262822 -0.28375641509816008 0 0.49136438670466509 -0.29584289811951392 0 0.5 -0.28180672819716779 0 0.49136438670466509 -0.29584289811951392 0 0.5 -0.28180672819716779 0 0.5 -0.30791894645339141 0 0.48271678622603231 -0.30988950272933619 0 0.49136438670466509 -0.29584289811951392 0 0.5 -0.30791894645339141 0 0.5 -0.30791894645339141 0 0.49135239952136722 -0.32196555106321367 0 0.5 -0.33403116470961491 0 0.48271678622603231 -0.30988950272933619 0 0.49135239952136722 -0.32196555106321367 0 0.48269281185943652 -0.3360225903605123 0 0.48271678622603231 -0.30988950272933619 0 0.5 -0.30791894645339141 0 0.49135239952136722 -0.32196555106321367 0 0.5 -0.33403116470961491 0 0.48269281185943652 -0.3360225903605123 0 0.48043310290668723 -0.35167249345008372 0 0.49135239952136722 -0.32196555106321367 0 0.5 -0.33403116470961491 0 0.48269281185943652 -0.3360225903605123 0 0.48269281185943652 -0.3360225903605123 0 0.46752957169491322 -0.32059122514910859 0 0.4663766610750647 -0.33686936013775559 0 0.48269281185943652 -0.3360225903605123 0 0.48043310290668723 -0.35167249345008372 0 0.4663766610750647 -0.33686936013775559 0 0.48271678622603231 -0.30988950272933619 0 0.48269281185943652 -0.3360225903605123 0 0.48271678622603231 -0.30988950272933619 0 0.48269281185943652 -0.3360225903605123 0 0.46752957169491322 -0.32059122514910859 0 0.5 -0.36014338296583848 0 0.48043310290668723 -0.35167249345008372 0 0.47787296913244848 -0.36833575078243541 0 0.5 -0.36014338296583848 0 0.47787296913244848 -0.36833575078243541 0 0.5 -0.38625560122206221 0 0.5 -0.33403116470961491 0 0.5 -0.36014338296583848 0 0.48043310290668723 -0.35167249345008372 0 0.48043310290668723 -0.35167249345008372 0 0.47787296913244848 -0.36833575078243541 0 0.46332705425638038 -0.35362868027347971 0 0.48043310290668723 -0.35167249345008372 0 0.46332705425638038 -0.35362868027347971 0 0.4663766610750647 -0.33686936013775559 0 0.47787296913244848 -0.36833575078243541 0 0.45746568047711089 -0.36847429474054771 0 0.46332705425638038 -0.35362868027347971 0 0.47787296913244848 -0.36833575078243541 0 0.45746568047711089 -0.36847429474054771 0 0.46454220975096722 -0.38321266287268613 0 0.46332705425638038 -0.35362868027347971 0 0.44490861196366799 -0.3548212895369014 0 0.45294207481177251 -0.3435161117556933 0 0.45746568047711089 -0.36847429474054771 0 0.46332705425638038 -0.35362868027347971 0 0.44490861196366799 -0.3548212895369014 0 0.46332705425638038 -0.35362868027347971 0 0.4663766610750647 -0.33686936013775559 0 0.45294207481177251 -0.3435161117556933 0 0.44490861196366799 -0.3548212895369014 0 0.45294207481177251 -0.3435161117556933 0 0.43824770794760631 -0.33800832600492059 0 0.44490861196366799 -0.3548212895369014 0 0.44223049685139859 -0.37305048370126942 0 0.43139321521326868 -0.36280711196215282 0 0.45746568047711089 -0.36847429474054771 0 0.44490861196366799 -0.3548212895369014 0 0.44223049685139859 -0.37305048370126942 0 0.45746568047711089 -0.36847429474054771 0 0.44223049685139859 -0.37305048370126942 0 0.45161329649306331 -0.38284012380922972 0 0.45713933468075368 -0.3054616434722443 0 0.46752957169491322 -0.32059122514910859 0 0.44629586795297388 -0.31596060758427502 0 0.46752957169491322 -0.32059122514910859 0 0.45214617718404682 -0.33100897544786001 0 0.44629586795297388 -0.31596060758427502 0 0.46752957169491322 -0.32059122514910859 0 0.4663766610750647 -0.33686936013775559 0 0.45214617718404682 -0.33100897544786001 0 0.4663766610750647 -0.33686936013775559 0 0.45214617718404682 -0.33100897544786001 0 0.45294207481177251 -0.3435161117556933 0 0.45214617718404682 -0.33100897544786001 0 0.45294207481177251 -0.3435161117556933 0 0.43824770794760631 -0.33800832600492059 0 0.45214617718404682 -0.33100897544786001 0 0.43824770794760631 -0.33800832600492059 0 0.43865831952170142 -0.32495482752539029 0 0.45214617718404682 -0.33100897544786001 0 0.43865831952170142 -0.32495482752539029 0 0.44629586795297388 -0.31596060758427502 0 0.43865831952170142 -0.32495482752539029 0 0.44629586795297388 -0.31596060758427502 0 0.43239746491407322 -0.30986668592993749 0 0.43865831952170142 -0.32495482752539029 0 0.42535151594346371 -0.32727541423950729 0 0.43239746491407322 -0.30986668592993749 0 0.42535151594346371 -0.32727541423950729 0 0.43239746491407322 -0.30986668592993749 0 0.41879507974885583 -0.31225338432178268 0 0.43824770794760631 -0.33800832600492059 0 0.42535151594346371 -0.32727541423950729 0 0.42579324069230329 -0.34729329685086913 0 0.43824770794760631 -0.33800832600492059 0 0.43865831952170142 -0.32495482752539029 0 0.42535151594346371 -0.32727541423950729 0 0.41299281698659879 -0.33437178054299271 0 0.42579324069230329 -0.34729329685086913 0 0.40451203736579622 -0.34680412819119039 0 0.42535151594346371 -0.32727541423950729 0 0.41299281698659879 -0.33437178054299271 0 0.42579324069230329 -0.34729329685086913 0 0.41299281698659879 -0.33437178054299271 0 0.40788639062985299 -0.32076770020844048 0 0.39935443608465149 -0.33078448185105119 0 0.42535151594346371 -0.32727541423950729 0 0.40788639062985299 -0.32076770020844048 0 0.41879507974885583 -0.31225338432178268 0 0.42535151594346371 -0.32727541423950729 0 0.41299281698659879 -0.33437178054299271 0 0.40788639062985299 -0.32076770020844048 0 0.43139321521326868 -0.36280711196215282 0 0.41549990745366272 -0.36381032428207932 0 0.42846357650974559 -0.37708822182410551 0 0.44223049685139859 -0.37305048370126942 0 0.43139321521326868 -0.36280711196215282 0 0.42846357650974559 -0.37708822182410551 0 0.44490861196366799 -0.3548212895369014 0 0.43824770794760631 -0.33800832600492059 0 0.42579324069230329 -0.34729329685086913 0 0.44490861196366799 -0.3548212895369014 0 0.43139321521326868 -0.36280711196215282 0 0.42579324069230329 -0.34729329685086913 0 0.43139321521326868 -0.36280711196215282 0 0.42579324069230329 -0.34729329685086913 0 0.41549990745366272 -0.36381032428207932 0 0.41549990745366272 -0.36381032428207932 0 0.40218037920214422 -0.36067843916195691 0 0.40451203736579622 -0.34680412819119039 0 0.42579324069230329 -0.34729329685086913 0 0.41549990745366272 -0.36381032428207932 0 0.40451203736579622 -0.34680412819119039 0 0.41549990745366272 -0.36381032428207932 0 0.42846357650974559 -0.37708822182410551 0 0.41673539260748882 -0.3838128686918183 0 0.38791474938904252 -0.35359919093076259 0 0.40079482260007537 -0.37850011324379529 0 0.41549990745366272 -0.36381032428207932 0 0.40218037920214422 -0.36067843916195691 0 0.40079482260007537 -0.37850011324379529 0 0.40218037920214422 -0.36067843916195691 0 0.38791474938904252 -0.35359919093076259 0 0.40079482260007537 -0.37850011324379529 0 0.40218037920214422 -0.36067843916195691 0 0.40451203736579622 -0.34680412819119039 0 0.38791474938904252 -0.35359919093076259 0 0.40451203736579622 -0.34680412819119039 0 0.38791474938904252 -0.35359919093076259 0 0.38861140585163201 -0.33838168293102572 0 0.38791474938904252 -0.35359919093076259 0 0.38861140585163201 -0.33838168293102572 0 0.36782299191996798 -0.3553788282075922 0 0.38861140585163201 -0.33838168293102572 0 0.36782299191996798 -0.3553788282075922 0 0.38791474938904252 -0.35359919093076259 0 0.38206362569321761 -0.37240728987031618 0 0.36782299191996798 -0.3553788282075922 0 0.38791474938904252 -0.35359919093076259 0 0.38206362569321761 -0.37240728987031618 0 0.40079482260007537 -0.37850011324379529 0 0.40788639062985299 -0.32076770020844048 0 0.39294651166966199 -0.31635128792804867 0 0.40764703668308327 -0.30381232453189722 0 0.39294651166966199 -0.31635128792804867 0 0.39935443608465149 -0.33078448185105119 0 0.38757347594899832 -0.32704018161300402 0 0.40788639062985299 -0.32076770020844048 0 0.39294651166966199 -0.31635128792804867 0 0.39935443608465149 -0.33078448185105119 0 0.41299281698659879 -0.33437178054299271 0 0.40451203736579622 -0.34680412819119039 0 0.39935443608465149 -0.33078448185105119 0 0.40451203736579622 -0.34680412819119039 0 0.39935443608465149 -0.33078448185105119 0 0.38861140585163201 -0.33838168293102572 0 0.39935443608465149 -0.33078448185105119 0 0.38861140585163201 -0.33838168293102572 0 0.38757347594899832 -0.32704018161300402 0 0.38861140585163201 -0.33838168293102572 0 0.37166975028776988 -0.33664462777591869 0 0.36782299191996798 -0.3553788282075922 0 0.38861140585163201 -0.33838168293102572 0 0.37928653318676298 -0.32940867301597648 0 0.37166975028776988 -0.33664462777591869 0 0.38861140585163201 -0.33838168293102572 0 0.37928653318676298 -0.32940867301597648 0 0.38757347594899832 -0.32704018161300402 0 0.37928653318676298 -0.32940867301597648 0 0.37994671867561691 -0.32033806446789542 0 0.38757347594899832 -0.32704018161300402 0 0.37928653318676298 -0.32940867301597648 0 0.37994671867561691 -0.32033806446789542 0 0.36863131516979752 -0.32463880829203873 0 0.39294651166966199 -0.31635128792804867 0 0.37994671867561691 -0.32033806446789542 0 0.38757347594899832 -0.32704018161300402 0 0.39294651166966199 -0.31635128792804867 0 0.37994671867561691 -0.32033806446789542 0 0.38314168426366901 -0.31008477914065391 0 0.37994671867561691 -0.32033806446789542 0 0.38314168426366901 -0.31008477914065391 0 0.37336379812188009 -0.31415628034038462 0 0.38314168426366901 -0.31008477914065391 0 0.37450707626122243 -0.30700713456631101 0 0.37336379812188009 -0.31415628034038462 0 0.38023146663690488 -0.30208471378605012 0 0.38314168426366901 -0.31008477914065391 0 0.37450707626122243 -0.30700713456631101 0 0.38023146663690488 -0.30208471378605012 0 0.37618272607635911 -0.2956291221182839 0 0.37146225775913599 -0.30134086049025122 0 0.38023146663690488 -0.30208471378605012 0 0.38537171812300219 -0.29329452202387202 0 0.37618272607635911 -0.2956291221182839 0 0.38023146663690488 -0.30208471378605012 0 0.37146225775913599 -0.30134086049025122 0 0.37450707626122243 -0.30700713456631101 0 0.38023146663690488 -0.30208471378605012 0 0.39148389104891829 -0.3028607694578046 0 0.38537171812300219 -0.29329452202387202 0 0.38023146663690488 -0.30208471378605012 0 0.38314168426366901 -0.31008477914065391 0 0.39148389104891829 -0.3028607694578046 0 0.39294651166966199 -0.31635128792804867 0 0.38314168426366901 -0.31008477914065391 0 0.39148389104891829 -0.3028607694578046 0 0.39294651166966199 -0.31635128792804867 0 0.39148389104891829 -0.3028607694578046 0 0.40764703668308327 -0.30381232453189722 0 0.39148389104891829 -0.3028607694578046 0 0.3998444166847962 -0.29518298193122711 0 0.40764703668308327 -0.30381232453189722 0 0.39148389104891829 -0.3028607694578046 0 0.3998444166847962 -0.29518298193122711 0 0.38537171812300219 -0.29329452202387202 0 0.39698175170414768 -0.28416488314340083 0 0.40710272512090212 -0.27996268507747257 0 0.41222798919276721 -0.28838108874109541 0 0.3998444166847962 -0.29518298193122711 0 0.39698175170414768 -0.28416488314340083 0 0.41222798919276721 -0.28838108874109541 0 0.3998444166847962 -0.29518298193122711 0 0.39698175170414768 -0.28416488314340083 0 0.38537171812300219 -0.29329452202387202 0 0.39698175170414768 -0.28416488314340083 0 0.38537171812300219 -0.29329452202387202 0 0.38222456059613541 -0.28440685670601512 0 0.38537171812300219 -0.29329452202387202 0 0.37680994162527082 -0.28991670159948929 0 0.38222456059613541 -0.28440685670601512 0 0.38537171812300219 -0.29329452202387202 0 0.37680994162527082 -0.28991670159948929 0 0.37618272607635911 -0.2956291221182839 0 0.37680994162527082 -0.28991670159948929 0 0.38222456059613541 -0.28440685670601512 0 0.36931767214637001 -0.28242838282719818 0 0.38786148004417281 -0.27262860269787809 0 0.36931767214637001 -0.28242838282719818 0 0.38786148004417281 -0.27262860269787809 0 0.37328448038619899 -0.2704477241878086 0 0.36931767214637001 -0.28242838282719818 0 0.38222456059613541 -0.28440685670601512 0 0.38786148004417281 -0.27262860269787809 0 0.36931767214637001 -0.28242838282719818 0 0.38786148004417281 -0.27262860269787809 0 0.38400113619652698 -0.26454967523213752 0 0.37328448038619899 -0.2704477241878086 0 0.39698175170414768 -0.28416488314340083 0 0.38222456059613541 -0.28440685670601512 0 0.38786148004417281 -0.27262860269787809 0 0.38250243345962381 -0.24260741972897651 0 0.38073576329286218 -0.25621248965073501 0 0.37328448038619899 -0.2704477241878086 0 0.38250243345962381 -0.24260741972897651 0 0.37328448038619899 -0.2704477241878086 0 0.38073576329286218 -0.25621248965073501 0 0.37328448038619899 -0.2704477241878086 0 0.38073576329286218 -0.25621248965073501 0 0.38400113619652698 -0.26454967523213752 0 0.37328448038619899 -0.2704477241878086 0 0.38786148004417281 -0.27262860269787809 0 0.38400113619652698 -0.26454967523213752 0 0.39108364466044993 -0.2590715918558813 0 0.38073576329286218 -0.25621248965073501 0 0.38400113619652698 -0.26454967523213752 0 0.39108364466044993 -0.2590715918558813 0 0.38073576329286218 -0.25621248965073501 0 0.39187191238393959 -0.25068644052127081 0 0.39108364466044993 -0.2590715918558813 0 0.40047080705360688 -0.24874975479372691 0 0.39108364466044993 -0.2590715918558813 0 0.41754834808226132 -0.25350833136302892 0 0.39108364466044993 -0.2590715918558813 0 0.41754834808226132 -0.25350833136302892 0 0.39108364466044993 -0.2590715918558813 0 0.40640528794197528 -0.26282882256855777 0 0.41754834808226132 -0.25350833136302892 0 0.38786148004417281 -0.27262860269787809 0 0.39108364466044993 -0.2590715918558813 0 0.40640528794197528 -0.26282882256855777 0 0.40047080705360688 -0.24874975479372691 0 0.39187191238393959 -0.25068644052127081 0 0.39108364466044993 -0.2590715918558813 0 0.38786148004417281 -0.27262860269787809 0 0.40190299216710551 -0.27420546462244982 0 0.40640528794197528 -0.26282882256855777 0 0.38786148004417281 -0.27262860269787809 0 0.40640528794197528 -0.26282882256855777 0 0.39698175170414768 -0.28416488314340083 0 0.38786148004417281 -0.27262860269787809 0 0.40190299216710551 -0.27420546462244982 0 0.39698175170414768 -0.28416488314340083 0 0.40190299216710551 -0.27420546462244982 0 0.40710272512090212 -0.27996268507747257 0 0.40710272512090212 -0.27996268507747257 0 0.41519413488203422 -0.27397171376999591 0 0.41222798919276721 -0.28838108874109541 0 0.40190299216710551 -0.27420546462244982 0 0.40710272512090212 -0.27996268507747257 0 0.41519413488203422 -0.27397171376999591 0 0.40190299216710551 -0.27420546462244982 0 0.41519413488203422 -0.27397171376999591 0 0.40640528794197528 -0.26282882256855777 0 0.41519413488203422 -0.27397171376999591 0 0.40640528794197528 -0.26282882256855777 0 0.4208008664694225 -0.26431850672480561 0 0.41519413488203422 -0.27397171376999591 0 0.4208008664694225 -0.26431850672480561 0 0.42916664140003591 -0.27121200540044282 0 0.40640528794197528 -0.26282882256855777 0 0.4208008664694225 -0.26431850672480561 0 0.41754834808226132 -0.25350833136302892 0 0.44401305150407272 -0.24794507087017659 0 0.41754834808226132 -0.25350833136302892 0 0.43135824380852328 -0.26055192968469981 0 0.44401305150407272 -0.24794507087017659 0 0.41754834808226132 -0.25350833136302892 0 0.4208008664694225 -0.26431850672480561 0 0.41754834808226132 -0.25350833136302892 0 0.43135824380852328 -0.26055192968469981 0 0.4208008664694225 -0.26431850672480561 0 0.43135824380852328 -0.26055192968469981 0 0.42916664140003591 -0.27121200540044282 0 0.44495743572588048 -0.26580953679327579 0 0.43135824380852328 -0.26055192968469981 0 0.42916664140003591 -0.27121200540044282 0 0.4378097606404579 -0.28054398878617148 0 0.44495743572588048 -0.26580953679327579 0 0.42916664140003591 -0.27121200540044282 0 0.41519413488203422 -0.27397171376999591 0 0.42916664140003591 -0.27121200540044282 0 0.42425551286975072 -0.28344048868896871 0 0.4378097606404579 -0.28054398878617148 0 0.42916664140003591 -0.27121200540044282 0 0.42425551286975072 -0.28344048868896871 0 0.4378097606404579 -0.28054398878617148 0 0.42425551286975072 -0.28344048868896871 0 0.43218340902029939 -0.29345784577371647 0 0.42425551286975072 -0.28344048868896871 0 0.43218340902029939 -0.29345784577371647 0 0.42069299057380583 -0.29954479669913142 0 0.43218340902029939 -0.29345784577371647 0 0.43239746491407322 -0.30986668592993749 0 0.42069299057380583 -0.29954479669913142 0 0.44613773989927102 -0.29516380895268413 0 0.43218340902029939 -0.29345784577371647 0 0.43239746491407322 -0.30986668592993749 0 0.43239746491407322 -0.30986668592993749 0 0.42069299057380583 -0.29954479669913142 0 0.41879507974885583 -0.31225338432178268 0 0.40788639062985299 -0.32076770020844048 0 0.41879507974885583 -0.31225338432178268 0 0.40764703668308327 -0.30381232453189722 0 0.42069299057380583 -0.29954479669913142 0 0.41879507974885583 -0.31225338432178268 0 0.40764703668308327 -0.30381232453189722 0 0.42069299057380583 -0.29954479669913142 0 0.40764703668308327 -0.30381232453189722 0 0.41222798919276721 -0.28838108874109541 0 0.3998444166847962 -0.29518298193122711 0 0.40764703668308327 -0.30381232453189722 0 0.41222798919276721 -0.28838108874109541 0 0.42425551286975072 -0.28344048868896871 0 0.42069299057380583 -0.29954479669913142 0 0.41222798919276721 -0.28838108874109541 0 0.41519413488203422 -0.27397171376999591 0 0.42425551286975072 -0.28344048868896871 0 0.41222798919276721 -0.28838108874109541 0 0.44845756455699548 -0.49999999999999489 0 0.4624409006857827 -0.47622560468084302 0 0.48310299509080512 -0.47646665625455642 0 0.45266149441555992 -0.4876327819851809 0 0.44304842384825172 -0.49884593719832621 0 0.44465536992462912 -0.47814317999533762 0 0.44304842384825172 -0.49884593719832621 0 0.44465536992462912 -0.47814317999533762 0 0.43580604127013278 -0.49762385487300831 0 0.44465536992462912 -0.47814317999533762 0 0.43580604127013278 -0.49762385487300831 0 0.44465536992462912 -0.47814317999533762 0 0.43322090971870059 -0.4846981733028643 0 0.43580604127013278 -0.49762385487300831 0 0.45266149441555992 -0.4876327819851809 0 0.44304842384825172 -0.49884593719832621 0 0.45266149441555992 -0.4876327819851809 0 0.44845756455699548 -0.49999999999999489 0 0.44304842384825172 -0.49884593719832621 0 0.44465536992462912 -0.47814317999533762 0 0.4624409006857827 -0.47622560468084302 0 0.45166438602519848 -0.4627137198409611 0 0.44465536992462912 -0.47814317999533762 0 0.45166438602519848 -0.4627137198409611 0 0.45266149441555992 -0.4876327819851809 0 0.44465536992462912 -0.47814317999533762 0 0.45266149441555992 -0.4876327819851809 0 0.44465536992462912 -0.47814317999533762 0 0.4624409006857827 -0.47622560468084302 0 0.45266149441555992 -0.4876327819851809 0 0.4624409006857827 -0.47622560468084302 0 0.44845756455699548 -0.49999999999999489 0 0.4624409006857827 -0.47622560468084302 0 0.45266149441555992 -0.4876327819851809 0 0.44845756455699548 -0.49999999999999489 0 0.4624409006857827 -0.47622560468084302 0 0.5 -0.5 0 0.48310299509080512 -0.47646665625455642 0 0.50000000000000422 -0.46457247800796558 0 0.44845756455699548 -0.49999999999999489 0 0.5 -0.5 0 0.48310299509080512 -0.47646665625455642 0 0.4624409006857827 -0.47622560468084302 0 0.48310299509080512 -0.47646665625455642 0 0.47970845524294148 -0.45608388533683181 0 0.4624409006857827 -0.47622560468084302 0 0.47970845524294148 -0.45608388533683181 0 0.4624409006857827 -0.47622560468084302 0 0.4753580315519304 -0.45426396600087282 0 0.4624409006857827 -0.47622560468084302 0 0.4753580315519304 -0.45426396600087282 0 0.47970845524294148 -0.45608388533683181 0 0.4753580315519304 -0.45426396600087282 0 0.47970845524294148 -0.45608388533683181 0 0.48310299509080512 -0.47646665625455642 0 0.47970845524294148 -0.45608388533683181 0 0.50000000000000422 -0.46457247800796558 0 0.47970845524294148 -0.45608388533683181 0 0.50000000000000422 -0.46457247800796558 0 0.47970845524294148 -0.45608388533683181 0 0.50000000000000422 -0.46457247800796558 0 0.5 -0.44849365703834998 0 0.5 -0.44849365703834998 0 0.48985422762147163 -0.44424936070278392 0 0.49999999999999972 -0.43241483606873438 0 0.47970845524294148 -0.45608388533683181 0 0.5 -0.44849365703834998 0 0.48985422762147163 -0.44424936070278392 0 0.48985422762147163 -0.44424936070278392 0 0.49999999999999972 -0.43241483606873438 0 0.47970845524294148 -0.45608388533683181 0 0.48985422762147163 -0.44424936070278392 0 0.4753580315519304 -0.45426396600087282 0 0.48985422762147163 -0.44424936070278392 0 0.48767901577596462 -0.43331589273957938 0 0.4753580315519304 -0.45426396600087282 0 0.48767901577596462 -0.43331589273957938 0 0.4753580315519304 -0.45426396600087282 0 0.47072036983299292 -0.441918330153662 0 0.48767901577596462 -0.43331589273957938 0 0.4753580315519304 -0.45426396600087282 0 0.47970845524294148 -0.45608388533683181 0 0.48985422762147163 -0.44424936070278392 0 0.47072036983299292 -0.441918330153662 0 0.4586734021257674 -0.44728425968658447 0 0.46683597544888511 -0.42931538958568688 0 0.4586734021257674 -0.44728425968658447 0 0.46683597544888511 -0.42931538958568688 0 0.45530676444132279 -0.43609177160672408 0 0.4586734021257674 -0.44728425968658447 0 0.46683597544888511 -0.42931538958568688 0 0.4753580315519304 -0.45426396600087282 0 0.47072036983299292 -0.441918330153662 0 0.4586734021257674 -0.44728425968658447 0 0.4753580315519304 -0.45426396600087282 0 0.4586734021257674 -0.44728425968658447 0 0.4624409006857827 -0.47622560468084302 0 0.46203418009716979 -0.46012188755231542 0 0.45166438602519848 -0.4627137198409611 0 0.4753580315519304 -0.45426396600087282 0 0.4586734021257674 -0.44728425968658447 0 0.46203418009716979 -0.46012188755231542 0 0.4624409006857827 -0.47622560468084302 0 0.4753580315519304 -0.45426396600087282 0 0.46203418009716979 -0.46012188755231542 0 0.4586734021257674 -0.44728425968658447 0 0.46203418009716979 -0.46012188755231542 0 0.45166438602519848 -0.4627137198409611 0 0.4586734021257674 -0.44728425968658447 0 0.45166438602519848 -0.4627137198409611 0 0.44465536992462912 -0.47814317999533762 0 0.44483229108141042 -0.46363732974478827 0 0.42952939274624219 -0.4602144676335812 0 0.4471947415724567 -0.45323370056126322 0 0.45166438602519848 -0.4627137198409611 0 0.44483229108141042 -0.46363732974478827 0 0.4586734021257674 -0.44728425968658447 0 0.4471947415724567 -0.45323370056126322 0 0.45166438602519848 -0.4627137198409611 0 0.44465536992462912 -0.47814317999533762 0 0.45166438602519848 -0.4627137198409611 0 0.44483229108141042 -0.46363732974478827 0 0.4471947415724567 -0.45323370056126322 0 0.44483229108141042 -0.46363732974478827 0 0.43752409190656533 -0.44950845819884833 0 0.44483229108141042 -0.46363732974478827 0 0.43752409190656533 -0.44950845819884833 0 0.4471947415724567 -0.45323370056126322 0 0.43752409190656533 -0.44950845819884833 0 0.44444464742874229 -0.44133192316974817 0 0.4586734021257674 -0.44728425968658447 0 0.44444464742874229 -0.44133192316974817 0 0.45530676444132279 -0.43609177160672408 0 0.4586734021257674 -0.44728425968658447 0 0.44444464742874229 -0.44133192316974817 0 0.4586734021257674 -0.44728425968658447 0 0.4471947415724567 -0.45323370056126322 0 0.44444464742874229 -0.44133192316974817 0 0.4476445852787006 -0.4236943689618683 0 0.44983324757757093 -0.43074406785716218 0 0.44056068596085279 -0.43033939631443241 0 0.4476445852787006 -0.4236943689618683 0 0.44983324757757093 -0.43074406785716218 0 0.45656268400271038 -0.42787074371625428 0 0.44444464742874229 -0.44133192316974817 0 0.44983324757757093 -0.43074406785716218 0 0.45530676444132279 -0.43609177160672408 0 0.44444464742874229 -0.44133192316974817 0 0.44983324757757093 -0.43074406785716218 0 0.44056068596085279 -0.43033939631443241 0 0.44444464742874229 -0.44133192316974817 0 0.44056068596085279 -0.43033939631443241 0 0.43021589273171851 -0.4353795866529091 0 0.4476445852787006 -0.4236943689618683 0 0.44056068596085279 -0.43033939631443241 0 0.43423494671919771 -0.42370141758089291 0 0.4476445852787006 -0.4236943689618683 0 0.43843387153909003 -0.41145457806332952 0 0.4631928472670731 -0.41950812056982972 0 0.43843387153909003 -0.41145457806332952 0 0.4631928472670731 -0.41950812056982972 0 0.45228497265491019 -0.40532761451264299 0 0.4476445852787006 -0.4236943689618683 0 0.43843387153909003 -0.41145457806332952 0 0.43423494671919771 -0.42370141758089291 0 0.43843387153909003 -0.41145457806332952 0 0.4631928472670731 -0.41950812056982972 0 0.4631928472670731 -0.41950812056982972 0 0.46683597544888511 -0.42931538958568688 0 0.47499854877200282 -0.4113465194847894 0 0.46355572738403522 -0.40741378947278473 0 0.4631928472670731 -0.41950812056982972 0 0.45228497265491019 -0.40532761451264299 0 0.46355572738403522 -0.40741378947278473 0 0.4631928472670731 -0.41950812056982972 0 0.47499854877200282 -0.4113465194847894 0 0.4631928472670731 -0.41950812056982972 0 0.46683597544888511 -0.42931538958568688 0 0.45656268400271038 -0.42787074371625428 0 0.4476445852787006 -0.4236943689618683 0 0.4631928472670731 -0.41950812056982972 0 0.45656268400271038 -0.42787074371625428 0 0.46683597544888511 -0.42931538958568688 0 0.45656268400271038 -0.42787074371625428 0 0.45530676444132279 -0.43609177160672408 0 0.44983324757757093 -0.43074406785716218 0 0.45656268400271038 -0.42787074371625428 0 0.45530676444132279 -0.43609177160672408 0 0.47072036983299292 -0.441918330153662 0 0.46683597544888511 -0.42931538958568688 0 0.47598091347267879 -0.43210266257582852 0 0.47072036983299292 -0.441918330153662 0 0.47598091347267879 -0.43210266257582852 0 0.48767901577596462 -0.43331589273957938 0 0.46683597544888511 -0.42931538958568688 0 0.47598091347267879 -0.43210266257582852 0 0.47868829283287229 -0.42386103782438539 0 0.47598091347267879 -0.43210266257582852 0 0.47868829283287229 -0.42386103782438539 0 0.48767901577596462 -0.43331589273957938 0 0.47868829283287229 -0.42386103782438539 0 0.48767901577596462 -0.43331589273957938 0 0.49999999999999861 -0.41236781947828588 0 0.48767901577596462 -0.43331589273957938 0 0.49999999999999861 -0.41236781947828588 0 0.48767901577596462 -0.43331589273957938 0 0.49999999999999972 -0.43241483606873438 0 0.49999999999999861 -0.41236781947828588 0 0.48985422762147163 -0.44424936070278392 0 0.48767901577596462 -0.43331589273957938 0 0.49999999999999972 -0.43241483606873438 0 0.47868829283287229 -0.42386103782438539 0 0.49999999999999861 -0.41236781947828588 0 0.47499854877200282 -0.4113465194847894 0 0.49999999999999861 -0.41236781947828588 0 0.47499854877200282 -0.4113465194847894 0 0.4872836199572762 -0.40096186515373372 0 0.46683597544888511 -0.42931538958568688 0 0.47868829283287229 -0.42386103782438539 0 0.47499854877200282 -0.4113465194847894 0 0.46683597544888511 -0.42931538958568688 0 0.47499854877200282 -0.4113465194847894 0 0.46355572738403522 -0.40741378947278473 0 0.47499854877200282 -0.4113465194847894 0 0.47113449031440829 -0.39781452018263558 0 0.47113449031440829 -0.39781452018263558 0 0.4872836199572762 -0.40096186515373372 0 0.47972301938935169 -0.38796255998922841 0 0.47499854877200282 -0.4113465194847894 0 0.47113449031440829 -0.39781452018263558 0 0.4872836199572762 -0.40096186515373372 0 0.49999999999999861 -0.41236781947828588 0 0.4872836199572762 -0.40096186515373372 0 0.5 -0.38625560122206221 0 0.4872836199572762 -0.40096186515373372 0 0.5 -0.38625560122206221 0 0.47972301938935169 -0.38796255998922841 0 0.47787296913244848 -0.36833575078243541 0 0.5 -0.38625560122206221 0 0.47972301938935169 -0.38796255998922841 0 0.47787296913244848 -0.36833575078243541 0 0.47972301938935169 -0.38796255998922841 0 0.46454220975096722 -0.38321266287268613 0 0.47113449031440829 -0.39781452018263558 0 0.47972301938935169 -0.38796255998922841 0 0.46454220975096722 -0.38321266287268613 0 0.45746568047711089 -0.36847429474054771 0 0.46454220975096722 -0.38321266287268613 0 0.45161329649306331 -0.38284012380922972 0 0.46454220975096722 -0.38321266287268613 0 0.45670381663281728 -0.39598972412259181 0 0.45161329649306331 -0.38284012380922972 0 0.47113449031440829 -0.39781452018263558 0 0.46454220975096722 -0.38321266287268613 0 0.45670381663281728 -0.39598972412259181 0 0.46355572738403522 -0.40741378947278473 0 0.47113449031440829 -0.39781452018263558 0 0.45670381663281728 -0.39598972412259181 0 0.46355572738403522 -0.40741378947278473 0 0.45670381663281728 -0.39598972412259181 0 0.45228497265491019 -0.40532761451264299 0 0.45670381663281728 -0.39598972412259181 0 0.43953860045153542 -0.39227186033467931 0 0.45228497265491019 -0.40532761451264299 0 0.43843387153909003 -0.41145457806332952 0 0.43953860045153542 -0.39227186033467931 0 0.45228497265491019 -0.40532761451264299 0 0.45670381663281728 -0.39598972412259181 0 0.43953860045153542 -0.39227186033467931 0 0.45161329649306331 -0.38284012380922972 0 0.44223049685139859 -0.37305048370126942 0 0.43953860045153542 -0.39227186033467931 0 0.45161329649306331 -0.38284012380922972 0 0.42846357650974559 -0.37708822182410551 0 0.42676197974923918 -0.39436540879647519 0 0.41673539260748882 -0.3838128686918183 0 0.43953860045153542 -0.39227186033467931 0 0.42846357650974559 -0.37708822182410551 0 0.42676197974923918 -0.39436540879647519 0 0.44223049685139859 -0.37305048370126942 0 0.43953860045153542 -0.39227186033467931 0 0.42846357650974559 -0.37708822182410551 0 0.43843387153909003 -0.41145457806332952 0 0.42676197974923918 -0.39436540879647519 0 0.41367489581110722 -0.40340103555682849 0 0.43843387153909003 -0.41145457806332952 0 0.43953860045153542 -0.39227186033467931 0 0.42676197974923918 -0.39436540879647519 0 0.42676197974923918 -0.39436540879647519 0 0.41367489581110722 -0.40340103555682849 0 0.41673539260748882 -0.3838128686918183 0 0.41367489581110722 -0.40340103555682849 0 0.40079482260007537 -0.37850011324379529 0 0.41367489581110722 -0.40340103555682849 0 0.41673539260748882 -0.3838128686918183 0 0.40079482260007537 -0.37850011324379529 0 0.41549990745366272 -0.36381032428207932 0 0.41673539260748882 -0.3838128686918183 0 0.40079482260007537 -0.37850011324379529 0 0.40079482260007537 -0.37850011324379529 0 0.38832186018305909 -0.38479860199605131 0 0.39470129608335008 -0.39722934680897432 0 0.38206362569321761 -0.37240728987031618 0 0.40079482260007537 -0.37850011324379529 0 0.38832186018305909 -0.38479860199605131 0 0.38206362569321761 -0.37240728987031618 0 0.38832186018305909 -0.38479860199605131 0 0.37572769635559339 -0.39105765806111931 0 0.37572769635559339 -0.39105765806111931 0 0.39470129608335008 -0.39722934680897432 0 0.38371251961521108 -0.41278509649458528 0 0.38832186018305909 -0.38479860199605131 0 0.37572769635559339 -0.39105765806111931 0 0.39470129608335008 -0.39722934680897432 0 0.37572769635559339 -0.39105765806111931 0 0.39470129608335008 -0.39722934680897432 0 0.37572769635559339 -0.39105765806111931 0 0.38371251961521108 -0.41278509649458528 0 0.36577029017610257 -0.40746317114727643 0 0.41367489581110722 -0.40340103555682849 0 0.40079482260007537 -0.37850011324379529 0 0.39470129608335008 -0.39722934680897432 0 0.41367489581110722 -0.40340103555682849 0 0.39470129608335008 -0.39722934680897432 0 0.41367489581110722 -0.40340103555682849 0 0.39470129608335008 -0.39722934680897432 0 0.39855804144292001 -0.41090975572942179 0 0.39855804144292001 -0.41090975572942179 0 0.39927743838946977 -0.42435704291006709 0 0.40915293172746109 -0.41730213976786729 0 0.39855804144292001 -0.41090975572942179 0 0.38371251961521108 -0.41278509649458528 0 0.39927743838946977 -0.42435704291006709 0 0.39470129608335008 -0.39722934680897432 0 0.39855804144292001 -0.41090975572942179 0 0.38371251961521108 -0.41278509649458528 0 0.38371251961521108 -0.41278509649458528 0 0.3865061637775975 -0.43292229522544179 0 0.39927743838946977 -0.42435704291006709 0 0.38371251961521108 -0.41278509649458528 0 0.3865061637775975 -0.43292229522544179 0 0.37441187472930959 -0.42473059936221258 0 0.3865061637775975 -0.43292229522544179 0 0.37441187472930959 -0.42473059936221258 0 0.37270565373674658 -0.43718361142086071 0 0.3865061637775975 -0.43292229522544179 0 0.39927743838946977 -0.42435704291006709 0 0.39916993373054421 -0.43932493378697451 0 0.39927743838946977 -0.42435704291006709 0 0.41440341556785598 -0.44228575527182412 0 0.39916993373054421 -0.43932493378697451 0 0.41391907089156083 -0.42856211247382092 0 0.43021589273171851 -0.4353795866529091 0 0.41440341556785598 -0.44228575527182412 0 0.39927743838946977 -0.42435704291006709 0 0.41391907089156083 -0.42856211247382092 0 0.41440341556785598 -0.44228575527182412 0 0.39927743838946977 -0.42435704291006709 0 0.41440341556785598 -0.44228575527182412 0 0.39927743838946977 -0.42435704291006709 0 0.41391907089156083 -0.42856211247382092 0 0.40915293172746109 -0.41730213976786729 0 0.41367489581110722 -0.40340103555682849 0 0.4219453942714142 -0.41939031110486807 0 0.41367489581110722 -0.40340103555682849 0 0.40915293172746109 -0.41730213976786729 0 0.4219453942714142 -0.41939031110486807 0 0.41367489581110722 -0.40340103555682849 0 0.39855804144292001 -0.41090975572942179 0 0.40915293172746109 -0.41730213976786729 0 0.41391907089156083 -0.42856211247382092 0 0.40915293172746109 -0.41730213976786729 0 0.4219453942714142 -0.41939031110486807 0 0.43843387153909003 -0.41145457806332952 0 0.4219453942714142 -0.41939031110486807 0 0.43423494671919771 -0.42370141758089291 0 0.43843387153909003 -0.41145457806332952 0 0.41367489581110722 -0.40340103555682849 0 0.4219453942714142 -0.41939031110486807 0 0.43843387153909003 -0.41145457806332952 0 0.41367489581110722 -0.40340103555682849 0 0.41391907089156083 -0.42856211247382092 0 0.4219453942714142 -0.41939031110486807 0 0.43021589273171851 -0.4353795866529091 0 0.4219453942714142 -0.41939031110486807 0 0.43021589273171851 -0.4353795866529091 0 0.41391907089156083 -0.42856211247382092 0 0.43021589273171851 -0.4353795866529091 0 0.4219453942714142 -0.41939031110486807 0 0.43423494671919771 -0.42370141758089291 0 0.43021589273171851 -0.4353795866529091 0 0.44056068596085279 -0.43033939631443241 0 0.43423494671919771 -0.42370141758089291 0 0.43021589273171851 -0.4353795866529091 0 0.42791819823809552 -0.44684706693929072 0 0.42952939274624219 -0.4602144676335812 0 0.41440341556785598 -0.44228575527182412 0 0.42952939274624219 -0.4602144676335812 0 0.41440341556785598 -0.44228575527182412 0 0.43021589273171851 -0.4353795866529091 0 0.42791819823809552 -0.44684706693929072 0 0.41440341556785598 -0.44228575527182412 0 0.43752409190656533 -0.44950845819884833 0 0.43021589273171851 -0.4353795866529091 0 0.42791819823809552 -0.44684706693929072 0 0.43752409190656533 -0.44950845819884833 0 0.44444464742874229 -0.44133192316974817 0 0.43021589273171851 -0.4353795866529091 0 0.43752409190656533 -0.44950845819884833 0 0.43021589273171851 -0.4353795866529091 0 0.44444464742874229 -0.44133192316974817 0 0.43021589273171851 -0.4353795866529091 0 0.43752409190656533 -0.44950845819884833 0 0.42791819823809552 -0.44684706693929072 0 0.42952939274624219 -0.4602144676335812 0 0.44483229108141042 -0.46363732974478827 0 0.43752409190656533 -0.44950845819884833 0 0.42952939274624219 -0.4602144676335812 0 0.42952939274624219 -0.4602144676335812 0 0.42047395238616181 -0.46909000847901738 0 0.43056865842902431 -0.47461882256790949 0 0.41102837568180922 -0.45817956635382429 0 0.39912307596846008 -0.4690185671930967 0 0.42047395238616181 -0.46909000847901738 0 0.42952939274624219 -0.4602144676335812 0 0.41102837568180922 -0.45817956635382429 0 0.42047395238616181 -0.46909000847901738 0 0.42952939274624219 -0.4602144676335812 0 0.41102837568180922 -0.45817956635382429 0 0.41440341556785598 -0.44228575527182412 0 0.41102837568180922 -0.45817956635382429 0 0.41440341556785598 -0.44228575527182412 0 0.40373610795844073 -0.45005904671061198 0 0.41440341556785598 -0.44228575527182412 0 0.39916993373054421 -0.43932493378697451 0 0.40373610795844073 -0.45005904671061198 0 0.40373610795844073 -0.45005904671061198 0 0.39192654295935708 -0.44700052881692748 0 0.3966223953693907 -0.45625674449811771 0 0.39916993373054421 -0.43932493378697451 0 0.40373610795844073 -0.45005904671061198 0 0.39192654295935708 -0.44700052881692748 0 0.3865061637775975 -0.43292229522544179 0 0.39916993373054421 -0.43932493378697451 0 0.39192654295935708 -0.44700052881692748 0 0.3865061637775975 -0.43292229522544179 0 0.39192654295935708 -0.44700052881692748 0 0.37859645983586321 -0.44813271668216231 0 0.39192654295935708 -0.44700052881692748 0 0.37859645983586321 -0.44813271668216231 0 0.38465791592938081 -0.45772280999240522 0 0.3865061637775975 -0.43292229522544179 0 0.37859645983586321 -0.44813271668216231 0 0.37270565373674658 -0.43718361142086071 0 0.38465791592938081 -0.45772280999240522 0 0.39912307596846008 -0.4690185671930967 0 0.37917146711693789 -0.47201570976042811 0 0.38465791592938081 -0.45772280999240522 0 0.37917146711693789 -0.47201570976042811 0 0.37171336415836659 -0.45707091889520163 0 0.37859645983586321 -0.44813271668216231 0 0.38465791592938081 -0.45772280999240522 0 0.37171336415836659 -0.45707091889520163 0 0.38465791592938081 -0.45772280999240522 0 0.3966223953693907 -0.45625674449811771 0 0.39912307596846008 -0.4690185671930967 0 0.39192654295935708 -0.44700052881692748 0 0.38465791592938081 -0.45772280999240522 0 0.3966223953693907 -0.45625674449811771 0 0.41102837568180922 -0.45817956635382429 0 0.40373610795844073 -0.45005904671061198 0 0.3966223953693907 -0.45625674449811771 0 0.41102837568180922 -0.45817956635382429 0 0.3966223953693907 -0.45625674449811771 0 0.39912307596846008 -0.4690185671930967 0 0.39912307596846008 -0.4690185671930967 0 0.3907626136597846 -0.48285097909950098 0 0.41025883625654241 -0.48497103303622452 0 0.3907626136597846 -0.48285097909950098 0 0.37917146711693789 -0.47201570976042811 0 0.37522037816839982 -0.48824958550775621 0 0.39912307596846008 -0.4690185671930967 0 0.3907626136597846 -0.48285097909950098 0 0.37917146711693789 -0.47201570976042811 0 0.3907626136597846 -0.48285097909950098 0 0.39003931078858273 -0.5 0 0.37522037816839982 -0.48824958550775621 0 0.39003931078858273 -0.5 0 0.37522037816839982 -0.48824958550775621 0 0.36083018390437621 -0.5 0 0.3907626136597846 -0.48285097909950098 0 0.39003931078858273 -0.5 0 0.41025883625654241 -0.48497103303622452 0 0.39003931078858273 -0.5 0 0.41025883625654241 -0.48497103303622452 0 0.41924843767278908 -0.5 0 0.41025883625654241 -0.48497103303622452 0 0.41924843767278908 -0.5 0 0.42604740240340028 -0.49124374132752902 0 0.41025883625654241 -0.48497103303622452 0 0.42496366736938762 -0.48094828342874668 0 0.42604740240340028 -0.49124374132752902 0 0.39912307596846008 -0.4690185671930967 0 0.41025883625654241 -0.48497103303622452 0 0.42047395238616181 -0.46909000847901738 0 0.41025883625654241 -0.48497103303622452 0 0.42047395238616181 -0.46909000847901738 0 0.42496366736938762 -0.48094828342874668 0 0.44465536992462912 -0.47814317999533762 0 0.42952939274624219 -0.4602144676335812 0 0.42496366736938762 -0.48094828342874668 0 0.43056865842902431 -0.47461882256790949 0 0.43322090971870059 -0.4846981733028643 0 0.44465536992462912 -0.47814317999533762 0 0.42952939274624219 -0.4602144676335812 0 0.43056865842902431 -0.47461882256790949 0 0.42047395238616181 -0.46909000847901738 0 0.42496366736938762 -0.48094828342874668 0 0.43056865842902431 -0.47461882256790949 0 0.44465536992462912 -0.47814317999533762 0 0.43056865842902431 -0.47461882256790949 0 0.43322090971870059 -0.4846981733028643 0 0.44304842384825172 -0.49884593719832621 0 0.41924843767278908 -0.5 0 0.43580604127013278 -0.49762385487300831 0 0.41924843767278908 -0.5 0 0.43580604127013278 -0.49762385487300831 0 0.42604740240340028 -0.49124374132752902 0 0.43322090971870059 -0.4846981733028643 0 0.43580604127013278 -0.49762385487300831 0 0.42604740240340028 -0.49124374132752902 0 0.44845756455699548 -0.49999999999999489 0 0.44304842384825172 -0.49884593719832621 0 0.41924843767278908 -0.5 0 0.42496366736938762 -0.48094828342874668 0 0.43322090971870059 -0.4846981733028643 0 0.42604740240340028 -0.49124374132752902 0 0.33162105702016959 -0.4999999999999965 0 0.3119851704874369 -0.47890521508752121 0 0.3075345477550937 -0.50000000000000178 0 0.32994116360329151 -0.47245372997615059 0 0.31643579321977539 -0.45781043017503947 0 0.3119851704874369 -0.47890521508752121 0 0.32994116360329151 -0.47245372997615059 0 0.33162105702016959 -0.4999999999999965 0 0.3119851704874369 -0.47890521508752121 0 0.32994116360329151 -0.47245372997615059 0 0.349537584166002 -0.49370129692023318 0 0.32994116360329151 -0.47245372997615059 0 0.349537584166002 -0.49370129692023318 0 0.35088786456792448 -0.47753266530870869 0 0.32994116360329151 -0.47245372997615059 0 0.35088786456792448 -0.47753266530870869 0 0.34095971726551488 -0.46599643560404919 0 0.32994116360329151 -0.47245372997615059 0 0.33162105702016959 -0.4999999999999965 0 0.349537584166002 -0.49370129692023318 0 0.32994116360329151 -0.47245372997615059 0 0.33162105702016959 -0.4999999999999965 0 0.33162105702016959 -0.4999999999999965 0 0.349537584166002 -0.49370129692023318 0 0.36083018390437621 -0.5 0 0.349537584166002 -0.49370129692023318 0 0.36081234576051763 -0.48822764530414992 0 0.35088786456792448 -0.47753266530870869 0 0.349537584166002 -0.49370129692023318 0 0.36083018390437621 -0.5 0 0.36081234576051763 -0.48822764530414992 0 0.37522037816839982 -0.48824958550775621 0 0.36083018390437621 -0.5 0 0.36081234576051763 -0.48822764530414992 0 0.37522037816839982 -0.48824958550775621 0 0.36081234576051763 -0.48822764530414992 0 0.366556035916075 -0.47903730870700728 0 0.36081234576051763 -0.48822764530414992 0 0.366556035916075 -0.47903730870700728 0 0.35088786456792448 -0.47753266530870869 0 0.366556035916075 -0.47903730870700728 0 0.35088786456792448 -0.47753266530870869 0 0.36323471281215008 -0.46695879882959512 0 0.37917146711693789 -0.47201570976042811 0 0.366556035916075 -0.47903730870700728 0 0.36323471281215008 -0.46695879882959512 0 0.37917146711693789 -0.47201570976042811 0 0.37522037816839982 -0.48824958550775621 0 0.366556035916075 -0.47903730870700728 0 0.35088786456792448 -0.47753266530870869 0 0.35152443043753367 -0.46389390753019277 0 0.36323471281215008 -0.46695879882959512 0 0.35088786456792448 -0.47753266530870869 0 0.35152443043753367 -0.46389390753019277 0 0.34095971726551488 -0.46599643560404919 0 0.35152443043753367 -0.46389390753019277 0 0.3421158938055413 -0.45478857262759081 0 0.34095971726551488 -0.46599643560404919 0 0.35152443043753367 -0.46389390753019277 0 0.35679264405969191 -0.45438962740572342 0 0.3421158938055413 -0.45478857262759081 0 0.35152443043753367 -0.46389390753019277 0 0.35679264405969191 -0.45438962740572342 0 0.36323471281215008 -0.46695879882959512 0 0.37917146711693789 -0.47201570976042811 0 0.36323471281215008 -0.46695879882959512 0 0.37171336415836659 -0.45707091889520163 0 0.35679264405969191 -0.45438962740572342 0 0.36323471281215008 -0.46695879882959512 0 0.37171336415836659 -0.45707091889520163 0 0.37859645983586321 -0.44813271668216231 0 0.36452008888894399 -0.44570425655054102 0 0.37270565373674658 -0.43718361142086071 0 0.37859645983586321 -0.44813271668216231 0 0.37171336415836659 -0.45707091889520163 0 0.36452008888894399 -0.44570425655054102 0 0.35679264405969191 -0.45438962740572342 0 0.37171336415836659 -0.45707091889520163 0 0.36452008888894399 -0.44570425655054102 0 0.36452008888894399 -0.44570425655054102 0 0.35940619367534649 -0.43451700542001948 0 0.37270565373674658 -0.43718361142086071 0 0.35679264405969191 -0.45438962740572342 0 0.36452008888894399 -0.44570425655054102 0 0.34864804979451502 -0.4436007846466255 0 0.36452008888894399 -0.44570425655054102 0 0.34864804979451502 -0.4436007846466255 0 0.35940619367534649 -0.43451700542001948 0 0.35679264405969191 -0.45438962740572342 0 0.34864804979451502 -0.4436007846466255 0 0.3421158938055413 -0.45478857262759081 0 0.33719733446072109 -0.44023359520588701 0 0.32864690703014782 -0.45123099007743211 0 0.32735265045700351 -0.43000825017871358 0 0.34864804979451502 -0.4436007846466255 0 0.33719733446072109 -0.44023359520588701 0 0.33658182449212909 -0.44846498281208769 0 0.33719733446072109 -0.44023359520588701 0 0.32864690703014782 -0.45123099007743211 0 0.33658182449212909 -0.44846498281208769 0 0.32864690703014782 -0.45123099007743211 0 0.33658182449212909 -0.44846498281208769 0 0.3421158938055413 -0.45478857262759081 0 0.34864804979451502 -0.4436007846466255 0 0.33658182449212909 -0.44846498281208769 0 0.3421158938055413 -0.45478857262759081 0 0.32994116360329151 -0.47245372997615059 0 0.32864690703014782 -0.45123099007743211 0 0.32864690703014782 -0.45123099007743211 0 0.3421158938055413 -0.45478857262759081 0 0.34095971726551488 -0.46599643560404919 0 0.32994116360329151 -0.47245372997615059 0 0.32864690703014782 -0.45123099007743211 0 0.34095971726551488 -0.46599643560404919 0 0.32864690703014782 -0.45123099007743211 0 0.31643579321977539 -0.45781043017503947 0 0.31746304111578438 -0.4529415444659593 0 0.32994116360329151 -0.47245372997615059 0 0.32864690703014782 -0.45123099007743211 0 0.31643579321977539 -0.45781043017503947 0 0.31643579321977539 -0.45781043017503947 0 0.3119851704874369 -0.47890521508752121 0 0.32994116360329151 -0.47245372997615059 0 0.31643579321977539 -0.45781043017503947 0 0.31643579321977539 -0.45781043017503947 0 0.31746304111578438 -0.4529415444659593 0 0.31643579321977539 -0.45781043017503947 0 0.31746304111578438 -0.4529415444659593 0 0.31085835201783069 -0.45176304744329432 0 0.31643579321977539 -0.45781043017503947 0 0.31085835201783069 -0.45176304744329432 0 0.32442285919735792 -0.44301971466116152 0 0.31085835201783069 -0.45176304744329432 0 0.31746304111578438 -0.4529415444659593 0 0.32099281626921261 -0.44956966521492259 0 0.31085835201783069 -0.45176304744329432 0 0.32864690703014782 -0.45123099007743211 0 0.32442285919735792 -0.44301971466116152 0 0.32735265045700351 -0.43000825017871358 0 0.32442285919735792 -0.44301971466116152 0 0.31171357279795259 -0.44123605987176828 0 0.31085835201783069 -0.45176304744329432 0 0.32864690703014782 -0.45123099007743211 0 0.32735265045700351 -0.43000825017871358 0 0.32442285919735792 -0.44301971466116152 0 0.32099281626921261 -0.44956966521492259 0 0.31085835201783069 -0.45176304744329432 0 0.32442285919735792 -0.44301971466116152 0 0.31380923587105047 -0.43259624900404098 0 0.31171357279795259 -0.44123605987176828 0 0.32864690703014782 -0.45123099007743211 0 0.32442285919735792 -0.44301971466116152 0 0.32099281626921261 -0.44956966521492259 0 0.32864690703014782 -0.45123099007743211 0 0.31746304111578438 -0.4529415444659593 0 0.32099281626921261 -0.44956966521492259 0 0.32442285919735792 -0.44301971466116152 0 0.32735265045700351 -0.43000825017871358 0 0.31380923587105047 -0.43259624900404098 0 0.32735265045700351 -0.43000825017871358 0 0.31380923587105047 -0.43259624900404098 0 0.31481791406057108 -0.41997242957656172 0 0.32735265045700351 -0.43000825017871358 0 0.32605839388385921 -0.40878551027999521 0 0.31481791406057108 -0.41997242957656172 0 0.32605839388385921 -0.40878551027999521 0 0.30545775012497611 -0.40637026403729182 0 0.32735265045700351 -0.43000825017871358 0 0.31481791406057108 -0.41997242957656172 0 0.32605839388385921 -0.40878551027999521 0 0.32735265045700351 -0.43000825017871358 0 0.32605839388385921 -0.40878551027999521 0 0.3348608635562062 -0.41961958958094903 0 0.3348608635562062 -0.41961958958094903 0 0.34127516935415192 -0.41182162955051088 0 0.34475724052981011 -0.42786296831457632 0 0.32605839388385921 -0.40878551027999521 0 0.3348608635562062 -0.41961958958094903 0 0.34127516935415192 -0.41182162955051088 0 0.32605839388385921 -0.40878551027999521 0 0.34127516935415192 -0.41182162955051088 0 0.33640457060503492 -0.39921042533973772 0 0.33719733446072109 -0.44023359520588701 0 0.32735265045700351 -0.43000825017871358 0 0.34475724052981011 -0.42786296831457632 0 0.34864804979451502 -0.4436007846466255 0 0.33719733446072109 -0.44023359520588701 0 0.34475724052981011 -0.42786296831457632 0 0.32735265045700351 -0.43000825017871358 0 0.3348608635562062 -0.41961958958094903 0 0.34475724052981011 -0.42786296831457632 0 0.34475724052981011 -0.42786296831457632 0 0.35940619367534649 -0.43451700542001948 0 0.36108019239789541 -0.42261688372808931 0 0.34864804979451502 -0.4436007846466255 0 0.34475724052981011 -0.42786296831457632 0 0.35940619367534649 -0.43451700542001948 0 0.35940619367534649 -0.43451700542001948 0 0.36108019239789541 -0.42261688372808931 0 0.37441187472930959 -0.42473059936221258 0 0.35940619367534649 -0.43451700542001948 0 0.37441187472930959 -0.42473059936221258 0 0.37270565373674658 -0.43718361142086071 0 0.36108019239789541 -0.42261688372808931 0 0.37441187472930959 -0.42473059936221258 0 0.36577029017610257 -0.40746317114727643 0 0.38371251961521108 -0.41278509649458528 0 0.37441187472930959 -0.42473059936221258 0 0.36577029017610257 -0.40746317114727643 0 0.36108019239789541 -0.42261688372808931 0 0.36577029017610257 -0.40746317114727643 0 0.35311843818036642 -0.41349546787216118 0 0.36577029017610257 -0.40746317114727643 0 0.35311843818036642 -0.41349546787216118 0 0.35050119158867432 -0.39931483416382341 0 0.34475724052981011 -0.42786296831457632 0 0.36108019239789541 -0.42261688372808931 0 0.35311843818036642 -0.41349546787216118 0 0.34127516935415192 -0.41182162955051088 0 0.34475724052981011 -0.42786296831457632 0 0.35311843818036642 -0.41349546787216118 0 0.34127516935415192 -0.41182162955051088 0 0.35311843818036642 -0.41349546787216118 0 0.35050119158867432 -0.39931483416382341 0 0.36577029017610257 -0.40746317114727643 0 0.35050119158867432 -0.39931483416382341 0 0.36121801915482182 -0.38943970914505271 0 0.37572769635559339 -0.39105765806111931 0 0.36577029017610257 -0.40746317114727643 0 0.36121801915482182 -0.38943970914505271 0 0.38206362569321761 -0.37240728987031618 0 0.37572769635559339 -0.39105765806111931 0 0.36705633966543411 -0.37698690886888581 0 0.37572769635559339 -0.39105765806111931 0 0.36121801915482182 -0.38943970914505271 0 0.36705633966543411 -0.37698690886888581 0 0.35050119158867432 -0.39931483416382341 0 0.36121801915482182 -0.38943970914505271 0 0.34703457798830412 -0.37237597348415868 0 0.36121801915482182 -0.38943970914505271 0 0.36705633966543411 -0.37698690886888581 0 0.34703457798830412 -0.37237597348415868 0 0.35050119158867432 -0.39931483416382341 0 0.33640457060503492 -0.39921042533973772 0 0.34703457798830412 -0.37237597348415868 0 0.32624616405664009 -0.38937311876072522 0 0.34703457798830412 -0.37237597348415868 0 0.32196601632466859 -0.36567223259080428 0 0.33640457060503492 -0.39921042533973772 0 0.32624616405664009 -0.38937311876072522 0 0.34703457798830412 -0.37237597348415868 0 0.32624616405664009 -0.38937311876072522 0 0.34703457798830412 -0.37237597348415868 0 0.32605839388385921 -0.40878551027999521 0 0.33640457060503492 -0.39921042533973772 0 0.32624616405664009 -0.38937311876072522 0 0.34127516935415192 -0.41182162955051088 0 0.35050119158867432 -0.39931483416382341 0 0.33640457060503492 -0.39921042533973772 0 0.32605839388385921 -0.40878551027999521 0 0.32624616405664009 -0.38937311876072522 0 0.30545775012497611 -0.40637026403729182 0 0.32624616405664009 -0.38937311876072522 0 0.30545775012497611 -0.40637026403729182 0 0.32624616405664009 -0.38937311876072522 0 0.30554447785528571 -0.38280138119441942 0 0.32196601632466859 -0.36567223259080428 0 0.32624616405664009 -0.38937311876072522 0 0.30554447785528571 -0.38280138119441942 0 0.30545775012497611 -0.40637026403729182 0 0.30554447785528571 -0.38280138119441942 0 0.28655597291391482 -0.39209121825807358 0 0.30545775012497611 -0.40637026403729182 0 0.28655597291391482 -0.39209121825807358 0 0.28677969795198388 -0.40744085218498122 0 0.30545775012497611 -0.40637026403729182 0 0.28655597291391482 -0.39209121825807358 0 0.27043573257573278 -0.40793451713070122 0 0.28677969795198388 -0.40744085218498122 0 0.28655597291391482 -0.39209121825807358 0 0.27432108574999597 -0.37571717524867382 0 0.29113915462604723 -0.37335122631889228 0 0.30554447785528571 -0.38280138119441942 0 0.28655597291391482 -0.39209121825807358 0 0.29113915462604723 -0.37335122631889228 0 0.28655597291391482 -0.39209121825807358 0 0.27432108574999597 -0.37571717524867382 0 0.27072284731306562 -0.38947089732293072 0 0.27432108574999597 -0.37571717524867382 0 0.27072284731306562 -0.38947089732293072 0 0.25962952209879769 -0.37802669142233292 0 0.25962952209879769 -0.37802669142233292 0 0.25620212895815159 -0.39250162494754598 0 0.24196852534057081 -0.37706873276439029 0 0.27072284731306562 -0.38947089732293072 0 0.25962952209879769 -0.37802669142233292 0 0.25620212895815159 -0.39250162494754598 0 0.25620212895815159 -0.39250162494754598 0 0.27043573257573278 -0.40793451713070122 0 0.25000496789787052 -0.40671545945853599 0 0.25620212895815159 -0.39250162494754598 0 0.27043573257573278 -0.40793451713070122 0 0.27072284731306562 -0.38947089732293072 0 0.25620212895815159 -0.39250162494754598 0 0.27043573257573278 -0.40793451713070122 0 0.28655597291391482 -0.39209121825807358 0 0.27072284731306562 -0.38947089732293072 0 0.27043573257573278 -0.40793451713070122 0 0.27043573257573278 -0.40793451713070122 0 0.25946564988289877 -0.42179907025938801 0 0.28466933619331197 -0.42336740931385819 0 0.27043573257573278 -0.40793451713070122 0 0.28466933619331197 -0.42336740931385819 0 0.28677969795198388 -0.40744085218498122 0 0.27043573257573278 -0.40793451713070122 0 0.28466933619331197 -0.42336740931385819 0 0.25946564988289877 -0.42179907025938801 0 0.25000496789787052 -0.40671545945853599 0 0.2417878809344047 -0.42154405506485948 0 0.27043573257573278 -0.40793451713070122 0 0.25946564988289877 -0.42179907025938801 0 0.25000496789787052 -0.40671545945853599 0 0.25946564988289877 -0.42179907025938801 0 0.26706226892172091 -0.43776340322148788 0 0.24016746684540019 -0.43755558954149459 0 0.28466933619331197 -0.42336740931385819 0 0.26706226892172091 -0.43776340322148788 0 0.25946564988289877 -0.42179907025938801 0 0.28466933619331197 -0.42336740931385819 0 0.26706226892172091 -0.43776340322148788 0 0.28466933619331197 -0.42336740931385819 0 0.28247042644397902 -0.44655216051086077 0 0.26706226892172091 -0.43776340322148788 0 0.28466933619331197 -0.42336740931385819 0 0.3033036160710964 -0.4239743160620657 0 0.297763844105572 -0.4375652283785757 0 0.28466933619331197 -0.42336740931385819 0 0.297763844105572 -0.4375652283785757 0 0.28247042644397902 -0.44655216051086077 0 0.28466933619331197 -0.42336740931385819 0 0.297763844105572 -0.4375652283785757 0 0.28466933619331197 -0.42336740931385819 0 0.28677969795198388 -0.40744085218498122 0 0.30545775012497611 -0.40637026403729182 0 0.28466933619331197 -0.42336740931385819 0 0.30545775012497611 -0.40637026403729182 0 0.28466933619331197 -0.42336740931385819 0 0.30545775012497611 -0.40637026403729182 0 0.3033036160710964 -0.4239743160620657 0 0.31481791406057108 -0.41997242957656172 0 0.30545775012497611 -0.40637026403729182 0 0.3033036160710964 -0.4239743160620657 0 0.31380923587105047 -0.43259624900404098 0 0.3033036160710964 -0.4239743160620657 0 0.297763844105572 -0.4375652283785757 0 0.31380923587105047 -0.43259624900404098 0 0.297763844105572 -0.4375652283785757 0 0.31171357279795259 -0.44123605987176828 0 0.31380923587105047 -0.43259624900404098 0 0.31481791406057108 -0.41997242957656172 0 0.3033036160710964 -0.4239743160620657 0 0.297763844105572 -0.4375652283785757 0 0.31085835201783069 -0.45176304744329432 0 0.28247042644397902 -0.44655216051086077 0 0.297763844105572 -0.4375652283785757 0 0.31085835201783069 -0.45176304744329432 0 0.297763844105572 -0.4375652283785757 0 0.31171357279795259 -0.44123605987176828 0 0.31085835201783069 -0.45176304744329432 0 0.31085835201783069 -0.45176304744329432 0 0.28693891838741309 -0.46718089974140642 0 0.31643579321977539 -0.45781043017503947 0 0.28693891838741309 -0.46718089974140642 0 0.3119851704874369 -0.47890521508752121 0 0.31643579321977539 -0.45781043017503947 0 0.31085835201783069 -0.45176304744329432 0 0.28693891838741309 -0.46718089974140642 0 0.31085835201783069 -0.45176304744329432 0 0.28693891838741309 -0.46718089974140642 0 0.28247042644397902 -0.44655216051086077 0 0.28247042644397902 -0.44655216051086077 0 0.26706226892172091 -0.43776340322148788 0 0.26800103590021668 -0.45842491983797001 0 0.26706226892172091 -0.43776340322148788 0 0.26800103590021668 -0.45842491983797001 0 0.2494552016501298 -0.4521593971291174 0 0.26706226892172091 -0.43776340322148788 0 0.2494552016501298 -0.4521593971291174 0 0.26706226892172091 -0.43776340322148788 0 0.24016746684540019 -0.43755558954149459 0 0.2494552016501298 -0.4521593971291174 0 0.26800103590021668 -0.45842491983797001 0 0.24400877227645179 -0.47228218742722128 0 0.2494552016501298 -0.4521593971291174 0 0.28693891838741309 -0.46718089974140642 0 0.28247042644397902 -0.44655216051086077 0 0.26800103590021668 -0.45842491983797001 0 0.28693891838741309 -0.46718089974140642 0 0.26800103590021668 -0.45842491983797001 0 0.26301948475699838 -0.48259875203952318 0 0.28693891838741309 -0.46718089974140642 0 0.26301948475699838 -0.48259875203952318 0 0.28693891838741309 -0.46718089974140642 0 0.26301948475699838 -0.48259875203952318 0 0.27866936513194762 -0.48716337077757438 0 0.26800103590021668 -0.45842491983797001 0 0.26301948475699838 -0.48259875203952318 0 0.24400877227645179 -0.47228218742722128 0 0.26301948475699838 -0.48259875203952318 0 0.26350528026175429 -0.5 0 0.24149064651508459 -0.49999999999999611 0 0.26301948475699838 -0.48259875203952318 0 0.23910005112658811 -0.49801660433764688 0 0.26350528026175429 -0.5 0 0.27866936513194762 -0.48716337077757438 0 0.28551991400842403 -0.5 0 0.26301948475699838 -0.48259875203952318 0 0.26350528026175429 -0.5 0 0.27866936513194762 -0.48716337077757438 0 0.29436322824514832 -0.48603720210694218 0 0.28551991400842403 -0.5 0 0.3075345477550937 -0.50000000000000178 0 0.27866936513194762 -0.48716337077757438 0 0.29436322824514832 -0.48603720210694218 0 0.28551991400842403 -0.5 0 0.28693891838741309 -0.46718089974140642 0 0.27866936513194762 -0.48716337077757438 0 0.29436322824514832 -0.48603720210694218 0 0.28693891838741309 -0.46718089974140642 0 0.29436322824514832 -0.48603720210694218 0 0.3119851704874369 -0.47890521508752121 0 0.29436322824514832 -0.48603720210694218 0 0.3119851704874369 -0.47890521508752121 0 0.3075345477550937 -0.50000000000000178 0 0.3119851704874369 -0.47890521508752121 0 0.3075345477550937 -0.50000000000000178 0 0.33381113220422592 -0.29133666001766922 0 0.3399537671449212 -0.28185056498982392 0 0.32428439865927511 -0.28289966250136178 0 0.33381113220422592 -0.29133666001766922 0 0.3399537671449212 -0.28185056498982392 0 0.34571283846040768 -0.29490274523358517 0 0.3252935245522996 -0.30569366734590619 0 0.34571283846040768 -0.29490274523358517 0 0.33381113220422592 -0.29133666001766922 0 0.3252935245522996 -0.30569366734590619 0 0.34571283846040768 -0.29490274523358517 0 0.33797464736695532 -0.30970509728391471 0 0.3252935245522996 -0.30569366734590619 0 0.34571283846040768 -0.29490274523358517 0 0.3252935245522996 -0.30569366734590619 0 0.30487421064419151 -0.31648458945822727 0 0.3252935245522996 -0.30569366734590619 0 0.32428439865927511 -0.28289966250136178 0 0.30358261992788899 -0.29217369110945879 0 0.32428439865927511 -0.28289966250136178 0 0.30358261992788899 -0.29217369110945879 0 0.31085622471197488 -0.27599066497129843 0 0.33381113220422592 -0.29133666001766922 0 0.3252935245522996 -0.30569366734590619 0 0.32428439865927511 -0.28289966250136178 0 0.32428439865927511 -0.28289966250136178 0 0.32054727682851908 -0.26306301855202258 0 0.31085622471197488 -0.27599066497129843 0 0.32428439865927511 -0.28289966250136178 0 0.32054727682851908 -0.26306301855202258 0 0.33364394376386741 -0.27163991754629219 0 0.30810940478727539 -0.24903311324244709 0 0.32755136014713548 -0.24757691142008681 0 0.32054727682851908 -0.26306301855202258 0 0.32054727682851908 -0.26306301855202258 0 0.33737381567679259 -0.25954066811224968 0 0.33364394376386741 -0.27163991754629219 0 0.32755136014713548 -0.24757691142008681 0 0.32054727682851908 -0.26306301855202258 0 0.33737381567679259 -0.25954066811224968 0 0.32755136014713548 -0.24757691142008681 0 0.3427782293344725 -0.24701102450498019 0 0.33737381567679259 -0.25954066811224968 0 0.3399537671449212 -0.28185056498982392 0 0.32428439865927511 -0.28289966250136178 0 0.33364394376386741 -0.27163991754629219 0 0.33737381567679259 -0.25954066811224968 0 0.33364394376386741 -0.27163991754629219 0 0.34606046050982903 -0.27084567357600309 0 0.3399537671449212 -0.28185056498982392 0 0.33364394376386741 -0.27163991754629219 0 0.34606046050982903 -0.27084567357600309 0 0.3399537671449212 -0.28185056498982392 0 0.34606046050982903 -0.27084567357600309 0 0.35167055773266248 -0.28077502425874201 0 0.34606046050982903 -0.27084567357600309 0 0.35406298462651259 -0.25814883022067281 0 0.36018289725374991 -0.27178618269221788 0 0.34606046050982903 -0.27084567357600309 0 0.35167055773266248 -0.28077502425874201 0 0.36018289725374991 -0.27178618269221788 0 0.35167055773266248 -0.28077502425874201 0 0.36018289725374991 -0.27178618269221788 0 0.36613215236851582 -0.28411182312126371 0 0.33737381567679259 -0.25954066811224968 0 0.34606046050982903 -0.27084567357600309 0 0.35406298462651259 -0.25814883022067281 0 0.3427782293344725 -0.24701102450498019 0 0.33737381567679259 -0.25954066811224968 0 0.35406298462651259 -0.25814883022067281 0 0.38250243345962381 -0.24260741972897651 0 0.36653462542462728 -0.25755987578933093 0 0.37328448038619899 -0.2704477241878086 0 0.3626403313970481 -0.2448092221169777 0 0.35406298462651259 -0.25814883022067281 0 0.36653462542462728 -0.25755987578933093 0 0.35406298462651259 -0.25814883022067281 0 0.36653462542462728 -0.25755987578933093 0 0.36018289725374991 -0.27178618269221788 0 0.36018289725374991 -0.27178618269221788 0 0.37328448038619899 -0.2704477241878086 0 0.36613215236851582 -0.28411182312126371 0 0.36653462542462728 -0.25755987578933093 0 0.36018289725374991 -0.27178618269221788 0 0.37328448038619899 -0.2704477241878086 0 0.37328448038619899 -0.2704477241878086 0 0.36931767214637001 -0.28242838282719818 0 0.37328448038619899 -0.2704477241878086 0 0.36931767214637001 -0.28242838282719818 0 0.36613215236851582 -0.28411182312126371 0 0.37328448038619899 -0.2704477241878086 0 0.36613215236851582 -0.28411182312126371 0 0.36931767214637001 -0.28242838282719818 0 0.37095303118448752 -0.29382462432207668 0 0.36256586314035189 -0.30282037407276841 0 0.37680994162527082 -0.28991670159948929 0 0.36931767214637001 -0.28242838282719818 0 0.37095303118448752 -0.29382462432207668 0 0.36613215236851582 -0.28411182312126371 0 0.35840866368689261 -0.29886709066438899 0 0.36256586314035189 -0.30282037407276841 0 0.36931767214637001 -0.28242838282719818 0 0.36256586314035189 -0.30282037407276841 0 0.36931767214637001 -0.28242838282719818 0 0.36613215236851582 -0.28411182312126371 0 0.36256586314035189 -0.30282037407276841 0 0.36931767214637001 -0.28242838282719818 0 0.36613215236851582 -0.28411182312126371 0 0.37680994162527082 -0.28991670159948929 0 0.37618272607635911 -0.2956291221182839 0 0.37095303118448752 -0.29382462432207668 0 0.36613215236851582 -0.28411182312126371 0 0.35840866368689261 -0.29886709066438899 0 0.36613215236851582 -0.28411182312126371 0 0.34571283846040768 -0.29490274523358517 0 0.35167055773266248 -0.28077502425874201 0 0.36613215236851582 -0.28411182312126371 0 0.34571283846040768 -0.29490274523358517 0 0.36613215236851582 -0.28411182312126371 0 0.34571283846040768 -0.29490274523358517 0 0.35840866368689261 -0.29886709066438899 0 0.3399537671449212 -0.28185056498982392 0 0.35167055773266248 -0.28077502425874201 0 0.34571283846040768 -0.29490274523358517 0 0.33797464736695532 -0.30970509728391471 0 0.34819533112988132 -0.3042743228473509 0 0.35068517500526969 -0.31362235820751461 0 0.33797464736695532 -0.30970509728391471 0 0.34571283846040768 -0.29490274523358517 0 0.34819533112988132 -0.3042743228473509 0 0.34571283846040768 -0.29490274523358517 0 0.34819533112988132 -0.3042743228473509 0 0.35840866368689261 -0.29886709066438899 0 0.34819533112988132 -0.3042743228473509 0 0.35840866368689261 -0.29886709066438899 0 0.35068517500526969 -0.31362235820751461 0 0.35840866368689261 -0.29886709066438899 0 0.36256586314035189 -0.30282037407276841 0 0.35068517500526969 -0.31362235820751461 0 0.35840866368689261 -0.29886709066438899 0 0.35068517500526969 -0.31362235820751461 0 0.36256586314035189 -0.30282037407276841 0 0.36919068974125813 -0.30799605213720149 0 0.36476530461971679 -0.31487284343820748 0 0.36256586314035189 -0.30282037407276841 0 0.37146225775913599 -0.30134086049025122 0 0.36919068974125813 -0.30799605213720149 0 0.37095303118448752 -0.29382462432207668 0 0.36256586314035189 -0.30282037407276841 0 0.37146225775913599 -0.30134086049025122 0 0.37618272607635911 -0.2956291221182839 0 0.37095303118448752 -0.29382462432207668 0 0.37146225775913599 -0.30134086049025122 0 0.36919068974125813 -0.30799605213720149 0 0.37336379812188009 -0.31415628034038462 0 0.36476530461971679 -0.31487284343820748 0 0.37146225775913599 -0.30134086049025122 0 0.36919068974125813 -0.30799605213720149 0 0.37450707626122243 -0.30700713456631101 0 0.36919068974125813 -0.30799605213720149 0 0.37450707626122243 -0.30700713456631101 0 0.37336379812188009 -0.31415628034038462 0 0.37336379812188009 -0.31415628034038462 0 0.36476530461971679 -0.31487284343820748 0 0.36863131516979752 -0.32463880829203873 0 0.36256586314035189 -0.30282037407276841 0 0.36476530461971679 -0.31487284343820748 0 0.35581405413433398 -0.32321236531833869 0 0.37994671867561691 -0.32033806446789542 0 0.37336379812188009 -0.31415628034038462 0 0.36863131516979752 -0.32463880829203873 0 0.36476530461971679 -0.31487284343820748 0 0.36863131516979752 -0.32463880829203873 0 0.35581405413433398 -0.32321236531833869 0 0.36863131516979752 -0.32463880829203873 0 0.35856212408185251 -0.33411931803844208 0 0.35581405413433398 -0.32321236531833869 0 0.37166975028776988 -0.33664462777591869 0 0.35856212408185251 -0.33411931803844208 0 0.36782299191996798 -0.3553788282075922 0 0.37928653318676298 -0.32940867301597648 0 0.36863131516979752 -0.32463880829203873 0 0.37166975028776988 -0.33664462777591869 0 0.36863131516979752 -0.32463880829203873 0 0.37166975028776988 -0.33664462777591869 0 0.35856212408185251 -0.33411931803844208 0 0.34878772416329062 -0.33018933347329699 0 0.34700209285303552 -0.34532405201718619 0 0.33585359197348319 -0.32637435262965347 0 0.35856212408185251 -0.33411931803844208 0 0.34878772416329062 -0.33018933347329699 0 0.35581405413433398 -0.32321236531833869 0 0.35856212408185251 -0.33411931803844208 0 0.34878772416329062 -0.33018933347329699 0 0.34700209285303552 -0.34532405201718619 0 0.36256586314035189 -0.30282037407276841 0 0.35068517500526969 -0.31362235820751461 0 0.35581405413433398 -0.32321236531833869 0 0.36256586314035189 -0.30282037407276841 0 0.35581405413433398 -0.32321236531833869 0 0.34878772416329062 -0.33018933347329699 0 0.34670675777374771 -0.32191657936286461 0 0.33585359197348319 -0.32637435262965347 0 0.34878772416329062 -0.33018933347329699 0 0.34670675777374771 -0.32191657936286461 0 0.35581405413433398 -0.32321236531833869 0 0.34670675777374771 -0.32191657936286461 0 0.35068517500526969 -0.31362235820751461 0 0.35581405413433398 -0.32321236531833869 0 0.33797464736695532 -0.30970509728391471 0 0.34670675777374771 -0.32191657936286461 0 0.35068517500526969 -0.31362235820751461 0 0.38206362569321761 -0.37240728987031618 0 0.36705633966543411 -0.37698690886888581 0 0.36782299191996798 -0.3553788282075922 0 0.36705633966543411 -0.37698690886888581 0 0.36782299191996798 -0.3553788282075922 0 0.34703457798830412 -0.37237597348415868 0 0.35856212408185251 -0.33411931803844208 0 0.36782299191996798 -0.3553788282075922 0 0.34700209285303552 -0.34532405201718619 0 0.36782299191996798 -0.3553788282075922 0 0.34700209285303552 -0.34532405201718619 0 0.34703457798830412 -0.37237597348415868 0 0.36782299191996798 -0.3553788282075922 0 0.34703457798830412 -0.37237597348415868 0 0.34703457798830412 -0.37237597348415868 0 0.33580667921539398 -0.35671120490123132 0 0.32196601632466859 -0.36567223259080428 0 0.34700209285303552 -0.34532405201718619 0 0.33580667921539398 -0.35671120490123132 0 0.32722402969556752 -0.34347256151277578 0 0.33580667921539398 -0.35671120490123132 0 0.32196601632466859 -0.36567223259080428 0 0.32722402969556752 -0.34347256151277578 0 0.34700209285303552 -0.34532405201718619 0 0.34703457798830412 -0.37237597348415868 0 0.33580667921539398 -0.35671120490123132 0 0.32196601632466859 -0.36567223259080428 0 0.32722402969556752 -0.34347256151277578 0 0.30696639525874803 -0.34484377480161149 0 0.33797464736695532 -0.30970509728391471 0 0.3252935245522996 -0.30569366734590619 0 0.33585359197348319 -0.32637435262965347 0 0.33797464736695532 -0.30970509728391471 0 0.34670675777374771 -0.32191657936286461 0 0.33585359197348319 -0.32637435262965347 0 0.34700209285303552 -0.34532405201718619 0 0.33585359197348319 -0.32637435262965347 0 0.32722402969556752 -0.34347256151277578 0 0.32722402969556752 -0.34347256151277578 0 0.32004235042485801 -0.32737378914963489 0 0.30696639525874803 -0.34484377480161149 0 0.33585359197348319 -0.32637435262965347 0 0.32722402969556752 -0.34347256151277578 0 0.32004235042485801 -0.32737378914963489 0 0.3252935245522996 -0.30569366734590619 0 0.32004235042485801 -0.32737378914963489 0 0.30487421064419151 -0.31648458945822727 0 0.3252935245522996 -0.30569366734590619 0 0.33585359197348319 -0.32637435262965347 0 0.32004235042485801 -0.32737378914963489 0 0.30487421064419151 -0.31648458945822727 0 0.28801891354579201 -0.33027688108161818 0 0.30696639525874803 -0.34484377480161149 0 0.32004235042485801 -0.32737378914963489 0 0.30487421064419151 -0.31648458945822727 0 0.30696639525874803 -0.34484377480161149 0 0.28801891354579201 -0.33027688108161818 0 0.30696639525874803 -0.34484377480161149 0 0.2838441666125201 -0.34721566226785872 0 0.30487421064419151 -0.31648458945822727 0 0.28801891354579201 -0.33027688108161818 0 0.28000276476017633 -0.30931671026250651 0 0.30554447785528571 -0.38280138119441942 0 0.30547827559977841 -0.36701656427882617 0 0.29113915462604723 -0.37335122631889228 0 0.30554447785528571 -0.38280138119441942 0 0.32196601632466859 -0.36567223259080428 0 0.30547827559977841 -0.36701656427882617 0 0.30547827559977841 -0.36701656427882617 0 0.30696639525874803 -0.34484377480161149 0 0.29394832566175499 -0.35926575932057531 0 0.32196601632466859 -0.36567223259080428 0 0.30547827559977841 -0.36701656427882617 0 0.30696639525874803 -0.34484377480161149 0 0.30696639525874803 -0.34484377480161149 0 0.2838441666125201 -0.34721566226785872 0 0.29394832566175499 -0.35926575932057531 0 0.2838441666125201 -0.34721566226785872 0 0.29394832566175499 -0.35926575932057531 0 0.2800284498290373 -0.36254698933190138 0 0.27432108574999597 -0.37571717524867382 0 0.29113915462604723 -0.37335122631889228 0 0.2800284498290373 -0.36254698933190138 0 0.30547827559977841 -0.36701656427882617 0 0.29394832566175499 -0.35926575932057531 0 0.29113915462604723 -0.37335122631889228 0 0.29394832566175499 -0.35926575932057531 0 0.29113915462604723 -0.37335122631889228 0 0.2800284498290373 -0.36254698933190138 0 0.27432108574999597 -0.37571717524867382 0 0.2800284498290373 -0.36254698933190138 0 0.26406028336562792 -0.3662592211507395 0 0.2800284498290373 -0.36254698933190138 0 0.26859409748736462 -0.35321781917693279 0 0.26406028336562792 -0.3662592211507395 0 0.27432108574999597 -0.37571717524867382 0 0.25962952209879769 -0.37802669142233292 0 0.26406028336562792 -0.3662592211507395 0 0.2838441666125201 -0.34721566226785872 0 0.26859409748736462 -0.35321781917693279 0 0.26510136515246691 -0.33311837369920227 0 0.2838441666125201 -0.34721566226785872 0 0.2800284498290373 -0.36254698933190138 0 0.26859409748736462 -0.35321781917693279 0 0.26859409748736462 -0.35321781917693279 0 0.25447182719916123 -0.35322659641414378 0 0.26510136515246691 -0.33311837369920227 0 0.26859409748736462 -0.35321781917693279 0 0.25447182719916123 -0.35322659641414378 0 0.26406028336562792 -0.3662592211507395 0 0.25962952209879769 -0.37802669142233292 0 0.25050226186537478 -0.3671424970997173 0 0.24196852534057081 -0.37706873276439029 0 0.25447182719916123 -0.35322659641414378 0 0.26406028336562792 -0.3662592211507395 0 0.25050226186537478 -0.3671424970997173 0 0.25962952209879769 -0.37802669142233292 0 0.26406028336562792 -0.3662592211507395 0 0.25050226186537478 -0.3671424970997173 0 0.28801891354579201 -0.33027688108161818 0 0.26510136515246691 -0.33311837369920227 0 0.28000276476017633 -0.30931671026250651 0 0.26510136515246691 -0.33311837369920227 0 0.25211550132978949 -0.31230508221712161 0 0.28000276476017633 -0.30931671026250651 0 0.28801891354579201 -0.33027688108161818 0 0.2838441666125201 -0.34721566226785872 0 0.26510136515246691 -0.33311837369920227 0 0.26510136515246691 -0.33311837369920227 0 0.24356683567866691 -0.32857967648828201 0 0.2430040836211563 -0.34323455692774107 0 0.25447182719916123 -0.35322659641414378 0 0.26510136515246691 -0.33311837369920227 0 0.2430040836211563 -0.34323455692774107 0 0.26510136515246691 -0.33311837369920227 0 0.25211550132978949 -0.31230508221712161 0 0.24356683567866691 -0.32857967648828201 0 0.25211550132978949 -0.31230508221712161 0 0.26280427424395653 -0.29118142160467803 0 0.28000276476017633 -0.30931671026250651 0 0.25211550132978949 -0.31230508221712161 0 0.26280427424395653 -0.29118142160467803 0 0.2367865219702798 -0.29427353671042011 0 0.26280427424395653 -0.29118142160467803 0 0.25117695740673363 -0.26898285771107461 0 0.2367865219702798 -0.29427353671042011 0 0.26280427424395653 -0.29118142160467803 0 0.28341808661712781 -0.28881693171155048 0 0.27420711325421898 -0.27336765428032972 0 0.26280427424395653 -0.29118142160467803 0 0.28000276476017633 -0.30931671026250651 0 0.28341808661712781 -0.28881693171155048 0 0.30487421064419151 -0.31648458945822727 0 0.28000276476017633 -0.30931671026250651 0 0.30358261992788899 -0.29217369110945879 0 0.28000276476017633 -0.30931671026250651 0 0.28341808661712781 -0.28881693171155048 0 0.30358261992788899 -0.29217369110945879 0 0.28341808661712781 -0.28881693171155048 0 0.30358261992788899 -0.29217369110945879 0 0.29501060343221619 -0.26582628772235029 0 0.3252935245522996 -0.30569366734590619 0 0.30487421064419151 -0.31648458945822727 0 0.30358261992788899 -0.29217369110945879 0 0.30810940478727539 -0.24903311324244709 0 0.32054727682851908 -0.26306301855202258 0 0.29501060343221619 -0.26582628772235029 0 0.30810940478727539 -0.24903311324244709 0 0.29260129125555778 -0.23817732966625749 0 0.29501060343221619 -0.26582628772235029 0 0.32054727682851908 -0.26306301855202258 0 0.31085622471197488 -0.27599066497129843 0 0.29501060343221619 -0.26582628772235029 0 0.30358261992788899 -0.29217369110945879 0 0.31085622471197488 -0.27599066497129843 0 0.29501060343221619 -0.26582628772235029 0 0.28341808661712781 -0.28881693171155048 0 0.29501060343221619 -0.26582628772235029 0 0.27420711325421898 -0.27336765428032972 0 0.29260129125555778 -0.23817732966625749 0 0.29501060343221619 -0.26582628772235029 0 0.27357446709181082 -0.25407131709457892 0 0.27357446709181082 -0.25407131709457892 0 0.27420711325421898 -0.27336765428032972 0 0.25117695740673363 -0.26898285771107461 0 0.29501060343221619 -0.26582628772235029 0 0.27357446709181082 -0.25407131709457892 0 0.27420711325421898 -0.27336765428032972 0 0.26280427424395653 -0.29118142160467803 0 0.27420711325421898 -0.27336765428032972 0 0.25117695740673363 -0.26898285771107461 0 0.256245679646319 -0.24611908193733029 0 0.27357446709181082 -0.25407131709457892 0 0.25117695740673363 -0.26898285771107461 0 0.25117695740673363 -0.26898285771107461 0 0.23706227252860421 -0.25092717962419769 0 0.22193189683996209 -0.2752598979686075 0 0.256245679646319 -0.24611908193733029 0 0.25117695740673363 -0.26898285771107461 0 0.23706227252860421 -0.25092717962419769 0 0.25117695740673363 -0.26898285771107461 0 0.22193189683996209 -0.2752598979686075 0 0.2367865219702798 -0.29427353671042011 0 0.23706227252860421 -0.25092717962419769 0 0.22193189683996209 -0.2752598979686075 0 0.23706227252860421 -0.25092717962419769 0 0.22193189683996209 -0.2752598979686075 0 0.2222054989257623 -0.25141229414652078 0 0.22193189683996209 -0.2752598979686075 0 0.2222054989257623 -0.25141229414652078 0 0.20551156573736071 -0.24641837388232249 0 0.22193189683996209 -0.2752598979686075 0 0.19726045400637399 -0.27585845025239419 0 0.20551156573736071 -0.24641837388232249 0 0.19726045400637399 -0.27585845025239419 0 0.18217102449741759 -0.25633033018358897 0 0.20551156573736071 -0.24641837388232249 0 0.18217102449741759 -0.25633033018358897 0 0.20551156573736071 -0.24641837388232249 0 0.20680152115132 -0.29959261631301731 0 0.20112566096510159 -0.31760135774177678 0 0.18251486040205819 -0.2956474832147144 0 0.20112566096510159 -0.31760135774177678 0 0.17988817940845839 -0.31995862265114161 0 0.18251486040205819 -0.2956474832147144 0 0.19726045400637399 -0.27585845025239419 0 0.20680152115132 -0.29959261631301731 0 0.18251486040205819 -0.2956474832147144 0 0.22193189683996209 -0.2752598979686075 0 0.19726045400637399 -0.27585845025239419 0 0.20680152115132 -0.29959261631301731 0 0.22193189683996209 -0.2752598979686075 0 0.20680152115132 -0.29959261631301731 0 0.20680152115132 -0.29959261631301731 0 0.21226398502161051 -0.31690398829889888 0 0.20112566096510159 -0.31760135774177678 0 0.20680152115132 -0.29959261631301731 0 0.22922142285058791 -0.31731947114714831 0 0.21226398502161051 -0.31690398829889888 0 0.20680152115132 -0.29959261631301731 0 0.2367865219702798 -0.29427353671042011 0 0.22922142285058791 -0.31731947114714831 0 0.22193189683996209 -0.2752598979686075 0 0.20680152115132 -0.29959261631301731 0 0.2367865219702798 -0.29427353671042011 0 0.25211550132978949 -0.31230508221712161 0 0.2367865219702798 -0.29427353671042011 0 0.22922142285058791 -0.31731947114714831 0 0.25211550132978949 -0.31230508221712161 0 0.24356683567866691 -0.32857967648828201 0 0.22922142285058791 -0.31731947114714831 0 0.2430040836211563 -0.34323455692774107 0 0.2283918054393341 -0.33692089845019679 0 0.23174884327683209 -0.35041566359629972 0 0.24356683567866691 -0.32857967648828201 0 0.2430040836211563 -0.34323455692774107 0 0.2283918054393341 -0.33692089845019679 0 0.2283918054393341 -0.33692089845019679 0 0.22922142285058791 -0.31731947114714831 0 0.21190733511943241 -0.33310250799365348 0 0.2283918054393341 -0.33692089845019679 0 0.21659692331614619 -0.34955938171900858 0 0.21190733511943241 -0.33310250799365348 0 0.24356683567866691 -0.32857967648828201 0 0.2283918054393341 -0.33692089845019679 0 0.22922142285058791 -0.31731947114714831 0 0.22922142285058791 -0.31731947114714831 0 0.21190733511943241 -0.33310250799365348 0 0.24146867967916591 -0.35904942364285208 0 0.22928272432835831 -0.36331405724169968 0 0.24196852534057081 -0.37706873276439029 0 0.25050226186537478 -0.3671424970997173 0 0.24146867967916591 -0.35904942364285208 0 0.24196852534057081 -0.37706873276439029 0 0.22928272432835831 -0.36331405724169968 0 0.24196852534057081 -0.37706873276439029 0 0.25050226186537478 -0.3671424970997173 0 0.24196852534057081 -0.37706873276439029 0 0.25447182719916123 -0.35322659641414378 0 0.25050226186537478 -0.3671424970997173 0 0.24146867967916591 -0.35904942364285208 0 0.2430040836211563 -0.34323455692774107 0 0.24146867967916591 -0.35904942364285208 0 0.23174884327683209 -0.35041566359629972 0 0.25447182719916123 -0.35322659641414378 0 0.2430040836211563 -0.34323455692774107 0 0.24146867967916591 -0.35904942364285208 0 0.2283918054393341 -0.33692089845019679 0 0.23174884327683209 -0.35041566359629972 0 0.21659692331614619 -0.34955938171900858 0 0.23174884327683209 -0.35041566359629972 0 0.22928272432835831 -0.36331405724169968 0 0.21659692331614619 -0.34955938171900858 0 0.22928272432835831 -0.36331405724169968 0 0.21659692331614619 -0.34955938171900858 0 0.24146867967916591 -0.35904942364285208 0 0.23174884327683209 -0.35041566359629972 0 0.22928272432835831 -0.36331405724169968 0 0.22928272432835831 -0.36331405724169968 0 0.20771389922926209 -0.37292152115529181 0 0.22538023029408269 -0.37964062092018769 0 0.22928272432835831 -0.36331405724169968 0 0.24196852534057081 -0.37706873276439029 0 0.22538023029408269 -0.37964062092018769 0 0.22928272432835831 -0.36331405724169968 0 0.20771389922926209 -0.37292152115529181 0 0.20530694117440981 -0.3586316115584241 0 0.20530694117440981 -0.3586316115584241 0 0.21659692331614619 -0.34955938171900858 0 0.1945932473882768 -0.34888554484015882 0 0.22928272432835831 -0.36331405724169968 0 0.20530694117440981 -0.3586316115584241 0 0.21659692331614619 -0.34955938171900858 0 0.21659692331614619 -0.34955938171900858 0 0.1945932473882768 -0.34888554484015882 0 0.21190733511943241 -0.33310250799365348 0 0.20530694117440981 -0.3586316115584241 0 0.1945932473882768 -0.34888554484015882 0 0.19483080500658981 -0.3649757090163796 0 0.20771389922926209 -0.37292152115529181 0 0.19483080500658981 -0.3649757090163796 0 0.1892607775838791 -0.37977128584135911 0 0.1945932473882768 -0.34888554484015882 0 0.19483080500658981 -0.3649757090163796 0 0.17727915965712121 -0.36466858168666422 0 0.20771389922926209 -0.37292152115529181 0 0.20530694117440981 -0.3586316115584241 0 0.19483080500658981 -0.3649757090163796 0 0.21226398502161051 -0.31690398829889888 0 0.21190733511943241 -0.33310250799365348 0 0.20112566096510159 -0.31760135774177678 0 0.22922142285058791 -0.31731947114714831 0 0.21226398502161051 -0.31690398829889888 0 0.21190733511943241 -0.33310250799365348 0 0.1945932473882768 -0.34888554484015882 0 0.21190733511943241 -0.33310250799365348 0 0.21190733511943241 -0.33310250799365348 0 0.20043707190005181 -0.33647080399228751 0 0.20112566096510159 -0.31760135774177678 0 0.20043707190005181 -0.33647080399228751 0 0.17988817940845839 -0.31995862265114161 0 0.186052817356469 -0.33728265970963339 0 0.20043707190005181 -0.33647080399228751 0 0.17988817940845839 -0.31995862265114161 0 0.1945932473882768 -0.34888554484015882 0 0.21190733511943241 -0.33310250799365348 0 0.20043707190005181 -0.33647080399228751 0 0.1945932473882768 -0.34888554484015882 0 0.20043707190005181 -0.33647080399228751 0 0.186052817356469 -0.33728265970963339 0 0.20043707190005181 -0.33647080399228751 0 0.20112566096510159 -0.31760135774177678 0 0.17988817940845839 -0.31995862265114161 0 0.1945932473882768 -0.34888554484015882 0 0.172618768503324 -0.34215987829289862 0 0.186052817356469 -0.33728265970963339 0 0.17988817940845839 -0.31995862265114161 0 0.172618768503324 -0.34215987829289862 0 0.186052817356469 -0.33728265970963339 0 0.172618768503324 -0.34215987829289862 0 0.1622193380081145 -0.32486175856108718 0 0.14938811683508921 -0.33889334135575971 0 0.17988817940845839 -0.31995862265114161 0 0.172618768503324 -0.34215987829289862 0 0.1622193380081145 -0.32486175856108718 0 0.17988817940845839 -0.31995862265114161 0 0.1622193380081145 -0.32486175856108718 0 0.15933928691686511 -0.30344644130999582 0 0.1622193380081145 -0.32486175856108718 0 0.14986233837683591 -0.31985050919564062 0 0.15933928691686511 -0.30344644130999582 0 0.19483080500658981 -0.3649757090163796 0 0.17727915965712121 -0.36466858168666422 0 0.1892607775838791 -0.37977128584135911 0 0.17727915965712121 -0.36466858168666422 0 0.1892607775838791 -0.37977128584135911 0 0.15996507192596571 -0.3804516185331695 0 0.1945932473882768 -0.34888554484015882 0 0.172618768503324 -0.34215987829289862 0 0.17727915965712121 -0.36466858168666422 0 0.1945932473882768 -0.34888554484015882 0 0.17727915965712121 -0.36466858168666422 0 0.172618768503324 -0.34215987829289862 0 0.15602519835391859 -0.35938502676453937 0 0.14938811683508921 -0.33889334135575971 0 0.172618768503324 -0.34215987829289862 0 0.17727915965712121 -0.36466858168666422 0 0.15602519835391859 -0.35938502676453937 0 0.17727915965712121 -0.36466858168666422 0 0.15996507192596571 -0.3804516185331695 0 0.17727915965712121 -0.36466858168666422 0 0.15602519835391859 -0.35938502676453937 0 0.15996507192596571 -0.3804516185331695 0 0.1441019828074532 -0.37332182027552241 0 0.15602519835391859 -0.35938502676453937 0 0.15996507192596571 -0.3804516185331695 0 0.1441019828074532 -0.37332182027552241 0 0.15602519835391859 -0.35938502676453937 0 0.13634587265708731 -0.35855661663982702 0 0.15602519835391859 -0.35938502676453937 0 0.13634587265708731 -0.35855661663982702 0 0.14938811683508921 -0.33889334135575971 0 0.13634587265708731 -0.35855661663982702 0 0.13046536660749419 -0.34167241986210062 0 0.1200564511942367 -0.35950438291440678 0 0.13634587265708731 -0.35855661663982702 0 0.14938811683508921 -0.33889334135575971 0 0.13046536660749419 -0.34167241986210062 0 0.13634587265708731 -0.35855661663982702 0 0.12655279757440099 -0.38274277953848551 0 0.1200564511942367 -0.35950438291440678 0 0.1441019828074532 -0.37332182027552241 0 0.13634587265708731 -0.35855661663982702 0 0.12655279757440099 -0.38274277953848551 0 0.1622193380081145 -0.32486175856108718 0 0.14986233837683591 -0.31985050919564062 0 0.14938811683508921 -0.33889334135575971 0 0.14986233837683591 -0.31985050919564062 0 0.14938811683508921 -0.33889334135575971 0 0.13796119854074879 -0.32742166836072789 0 0.14938811683508921 -0.33889334135575971 0 0.13046536660749419 -0.34167241986210062 0 0.13796119854074879 -0.32742166836072789 0 0.13046536660749419 -0.34167241986210062 0 0.12719797179517581 -0.32888293995090162 0 0.13796119854074879 -0.32742166836072789 0 0.14986233837683591 -0.31985050919564062 0 0.13796119854074879 -0.32742166836072789 0 0.13181805720030679 -0.31407903506422757 0 0.12719797179517581 -0.32888293995090162 0 0.13181805720030679 -0.31407903506422757 0 0.11924028588535671 -0.3182765773557118 0 0.12719797179517581 -0.32888293995090162 0 0.13796119854074879 -0.32742166836072789 0 0.13181805720030679 -0.31407903506422757 0 0.13181805720030679 -0.31407903506422757 0 0.1251151673466723 -0.30118436876075477 0 0.13872967355818211 -0.30209849750476758 0 0.14986233837683591 -0.31985050919564062 0 0.13181805720030679 -0.31407903506422757 0 0.13872967355818211 -0.30209849750476758 0 0.13181805720030679 -0.31407903506422757 0 0.1251151673466723 -0.30118436876075477 0 0.11924028588535671 -0.3182765773557118 0 0.1251151673466723 -0.30118436876075477 0 0.13872967355818211 -0.30209849750476758 0 0.12973139329597921 -0.28939044096510202 0 0.14986233837683591 -0.31985050919564062 0 0.13872967355818211 -0.30209849750476758 0 0.15933928691686511 -0.30344644130999582 0 0.13872967355818211 -0.30209849750476758 0 0.13879039442527161 -0.28693425996884969 0 0.15933928691686511 -0.30344644130999582 0 0.15166471087175479 -0.28366796994876692 0 0.13879039442527161 -0.28693425996884969 0 0.15933928691686511 -0.30344644130999582 0 0.13879039442527161 -0.28693425996884969 0 0.15933928691686511 -0.30344644130999582 0 0.13879039442527161 -0.28693425996884969 0 0.12973139329597921 -0.28939044096510202 0 0.14748257552252611 -0.27106136777450018 0 0.13872967355818211 -0.30209849750476758 0 0.13879039442527161 -0.28693425996884969 0 0.12973139329597921 -0.28939044096510202 0 0.12973139329597921 -0.28939044096510202 0 0.1330193197093949 -0.27720343440954831 0 0.11855606389626069 -0.28334550104458922 0 0.12973139329597921 -0.28939044096510202 0 0.14748257552252611 -0.27106136777450018 0 0.1330193197093949 -0.27720343440954831 0 0.11855606389626069 -0.28334550104458922 0 0.1330193197093949 -0.27720343440954831 0 0.12620251533772109 -0.26359640456691308 0 0.11855606389626069 -0.28334550104458922 0 0.12973139329597921 -0.28939044096510202 0 0.1330193197093949 -0.27720343440954831 0 0.14748257552252611 -0.27106136777450018 0 0.13724337169762299 -0.26712808156572282 0 0.1330193197093949 -0.27720343440954831 0 0.12620251533772109 -0.26359640456691308 0 0.13724337169762299 -0.26712808156572282 0 0.1330193197093949 -0.27720343440954831 0 0.14748257552252611 -0.27106136777450018 0 0.1330193197093949 -0.27720343440954831 0 0.14748257552252611 -0.27106136777450018 0 0.12620251533772109 -0.26359640456691308 0 0.11895464661316579 -0.25072187298028797 0 0.13384896677918601 -0.2438473080892388 0 0.13724337169762299 -0.26712808156572282 0 0.12620251533772109 -0.26359640456691308 0 0.14226907622085039 -0.25665111951193009 0 0.12620251533772109 -0.26359640456691308 0 0.13384896677918601 -0.2438473080892388 0 0.12620251533772109 -0.26359640456691308 0 0.14226907622085039 -0.25665111951193009 0 0.13384896677918601 -0.2438473080892388 0 0.1568388973409667 -0.2614004502527032 0 0.1491671577808075 -0.24274933093213399 0 0.14226907622085039 -0.25665111951193009 0 0.1568388973409667 -0.2614004502527032 0 0.1491671577808075 -0.24274933093213399 0 0.13724337169762299 -0.26712808156572282 0 0.14226907622085039 -0.25665111951193009 0 0.14748257552252611 -0.27106136777450018 0 0.14226907622085039 -0.25665111951193009 0 0.14748257552252611 -0.27106136777450018 0 0.1568388973409667 -0.2614004502527032 0 0.15166471087175479 -0.28366796994876692 0 0.13879039442527161 -0.28693425996884969 0 0.14748257552252611 -0.27106136777450018 0 0.14748257552252611 -0.27106136777450018 0 0.1588304832574744 -0.26624228648485559 0 0.14748257552252611 -0.27106136777450018 0 0.15569129221575501 -0.2751882931046154 0 0.1588304832574744 -0.26624228648485559 0 0.14748257552252611 -0.27106136777450018 0 0.1588304832574744 -0.26624228648485559 0 0.1568388973409667 -0.2614004502527032 0 0.14748257552252611 -0.27106136777450018 0 0.1568388973409667 -0.2614004502527032 0 0.15166471087175479 -0.28366796994876692 0 0.14748257552252611 -0.27106136777450018 0 0.15569129221575501 -0.2751882931046154 0 0.15569129221575501 -0.2751882931046154 0 0.1588304832574744 -0.26624228648485559 0 0.16424197207296359 -0.27939840613778533 0 0.15166471087175479 -0.28366796994876692 0 0.15569129221575501 -0.2751882931046154 0 0.16424197207296359 -0.27939840613778533 0 0.1588304832574744 -0.26624228648485559 0 0.16424197207296359 -0.27939840613778533 0 0.17624578529781751 -0.27792102905945348 0 0.1588304832574744 -0.26624228648485559 0 0.16424197207296359 -0.27939840613778533 0 0.1588304832574744 -0.26624228648485559 0 0.1568388973409667 -0.2614004502527032 0 0.18217102449741759 -0.25633033018358897 0 0.1634945539950747 -0.25208469443063591 0 0.1568388973409667 -0.2614004502527032 0 0.1491671577808075 -0.24274933093213399 0 0.1568388973409667 -0.2614004502527032 0 0.18217102449741759 -0.25633033018358897 0 0.17168713556925899 -0.24606882660282231 0 0.1588304832574744 -0.26624228648485559 0 0.18217102449741759 -0.25633033018358897 0 0.1634945539950747 -0.25208469443063591 0 0.1568388973409667 -0.2614004502527032 0 0.17168713556925899 -0.24606882660282231 0 0.1588304832574744 -0.26624228648485559 0 0.1568388973409667 -0.2614004502527032 0 0.1568388973409667 -0.2614004502527032 0 0.17168713556925899 -0.24606882660282231 0 0.1588304832574744 -0.26624228648485559 0 0.18217102449741759 -0.25633033018358897 0 0.17624578529781751 -0.27792102905945348 0 0.19726045400637399 -0.27585845025239419 0 0.18217102449741759 -0.25633033018358897 0 0.17624578529781751 -0.27792102905945348 0 0.19726045400637399 -0.27585845025239419 0 0.17624578529781751 -0.27792102905945348 0 0.18251486040205819 -0.2956474832147144 0 0.17624578529781751 -0.27792102905945348 0 0.18251486040205819 -0.2956474832147144 0 0.16522228901908609 -0.28895940186362867 0 0.17988817940845839 -0.31995862265114161 0 0.18251486040205819 -0.2956474832147144 0 0.15933928691686511 -0.30344644130999582 0 0.17988817940845839 -0.31995862265114161 0 0.15933928691686511 -0.30344644130999582 0 0.15166471087175479 -0.28366796994876692 0 0.15933928691686511 -0.30344644130999582 0 0.16522228901908609 -0.28895940186362867 0 0.18251486040205819 -0.2956474832147144 0 0.15933928691686511 -0.30344644130999582 0 0.16522228901908609 -0.28895940186362867 0 0.15166471087175479 -0.28366796994876692 0 0.16424197207296359 -0.27939840613778533 0 0.16522228901908609 -0.28895940186362867 0 0.16424197207296359 -0.27939840613778533 0 0.17624578529781751 -0.27792102905945348 0 0.16522228901908609 -0.28895940186362867 0 0.1976048685021872 -0.48297009663037899 0 0.20860487228547039 -0.5 0 0.18118675631870479 -0.5 0 0.1976048685021872 -0.48297009663037899 0 0.1972258127868618 -0.46327497340899498 0 0.17467967137221779 -0.47073165711161941 0 0.1976048685021872 -0.48297009663037899 0 0.21816293195672409 -0.48064578887332199 0 0.1972258127868618 -0.46327497340899498 0 0.21816293195672409 -0.48064578887332199 0 0.1972258127868618 -0.46327497340899498 0 0.1976048685021872 -0.48297009663037899 0 0.21816293195672409 -0.48064578887332199 0 0.20860487228547039 -0.5 0 0.21816293195672409 -0.48064578887332199 0 0.20860487228547039 -0.5 0 0.23602298825223619 -0.50000000000000078 0 0.21816293195672409 -0.48064578887332199 0 0.23910005112658811 -0.49801660433764688 0 0.21816293195672409 -0.48064578887332199 0 0.23602298825223619 -0.50000000000000078 0 0.23910005112658811 -0.49801660433764688 0 0.26301948475699838 -0.48259875203952318 0 0.23910005112658811 -0.49801660433764688 0 0.24149064651508459 -0.49999999999999611 0 0.23602298825223619 -0.50000000000000078 0 0.23910005112658811 -0.49801660433764688 0 0.23602298825223619 -0.50000000000000078 0 0.23910005112658811 -0.49801660433764688 0 0.24149064651508459 -0.49999999999999611 0 0.23910005112658811 -0.49801660433764688 0 0.24149064651508459 -0.49999999999999611 0 0.26301948475699838 -0.48259875203952318 0 0.23910005112658811 -0.49801660433764688 0 0.24400877227645179 -0.47228218742722128 0 0.21816293195672409 -0.48064578887332199 0 0.24400877227645179 -0.47228218742722128 0 0.22478161241444411 -0.45833332780062208 0 0.21816293195672409 -0.48064578887332199 0 0.23910005112658811 -0.49801660433764688 0 0.24400877227645179 -0.47228218742722128 0 0.24400877227645179 -0.47228218742722128 0 0.22478161241444411 -0.45833332780062208 0 0.2494552016501298 -0.4521593971291174 0 0.22478161241444411 -0.45833332780062208 0 0.24016746684540019 -0.43755558954149459 0 0.2494552016501298 -0.4521593971291174 0 0.22478161241444411 -0.45833332780062208 0 0.24016746684540019 -0.43755558954149459 0 0.22063801641470579 -0.44260492318451522 0 0.22478161241444411 -0.45833332780062208 0 0.22063801641470579 -0.44260492318451522 0 0.203898252532455 -0.44711952041871927 0 0.22063801641470579 -0.44260492318451522 0 0.203898252532455 -0.44711952041871927 0 0.20986335632702821 -0.43298805120130468 0 0.22478161241444411 -0.45833332780062208 0 0.203898252532455 -0.44711952041871927 0 0.1972258127868618 -0.46327497340899498 0 0.21816293195672409 -0.48064578887332199 0 0.22478161241444411 -0.45833332780062208 0 0.1972258127868618 -0.46327497340899498 0 0.203898252532455 -0.44711952041871927 0 0.1972258127868618 -0.46327497340899498 0 0.17628869361699939 -0.44590415794466809 0 0.203898252532455 -0.44711952041871927 0 0.19204067931982899 -0.43514359415615689 0 0.17628869361699939 -0.44590415794466809 0 0.203898252532455 -0.44711952041871927 0 0.19204067931982899 -0.43514359415615689 0 0.20986335632702821 -0.43298805120130468 0 0.19204067931982899 -0.43514359415615689 0 0.20868329466007751 -0.41578530702556921 0 0.19204067931982899 -0.43514359415615689 0 0.1923775291530212 -0.41265342552181078 0 0.20868329466007751 -0.41578530702556921 0 0.1923775291530212 -0.41265342552181078 0 0.20868329466007751 -0.41578530702556921 0 0.2042336815338559 -0.3946002980773653 0 0.19204067931982899 -0.43514359415615689 0 0.20868329466007751 -0.41578530702556921 0 0.20986335632702821 -0.43298805120130468 0 0.22063801641470579 -0.44260492318451522 0 0.20986335632702821 -0.43298805120130468 0 0.22405653870807379 -0.42428691122156331 0 0.20868329466007751 -0.41578530702556921 0 0.20986335632702821 -0.43298805120130468 0 0.22405653870807379 -0.42428691122156331 0 0.24016746684540019 -0.43755558954149459 0 0.22063801641470579 -0.44260492318451522 0 0.22405653870807379 -0.42428691122156331 0 0.24016746684540019 -0.43755558954149459 0 0.22405653870807379 -0.42428691122156331 0 0.2417878809344047 -0.42154405506485948 0 0.25946564988289877 -0.42179907025938801 0 0.24016746684540019 -0.43755558954149459 0 0.2417878809344047 -0.42154405506485948 0 0.25000496789787052 -0.40671545945853599 0 0.2417878809344047 -0.42154405506485948 0 0.22532591000032609 -0.39642701989498141 0 0.20868329466007751 -0.41578530702556921 0 0.22405653870807379 -0.42428691122156331 0 0.22532591000032609 -0.39642701989498141 0 0.22405653870807379 -0.42428691122156331 0 0.2417878809344047 -0.42154405506485948 0 0.22532591000032609 -0.39642701989498141 0 0.25000496789787052 -0.40671545945853599 0 0.22532591000032609 -0.39642701989498141 0 0.24208922296946531 -0.39308444581456581 0 0.25620212895815159 -0.39250162494754598 0 0.25000496789787052 -0.40671545945853599 0 0.24208922296946531 -0.39308444581456581 0 0.25620212895815159 -0.39250162494754598 0 0.24208922296946531 -0.39308444581456581 0 0.24196852534057081 -0.37706873276439029 0 0.22532591000032609 -0.39642701989498141 0 0.24208922296946531 -0.39308444581456581 0 0.24196852534057081 -0.37706873276439029 0 0.25620212895815159 -0.39250162494754598 0 0.24196852534057081 -0.37706873276439029 0 0.22532591000032609 -0.39642701989498141 0 0.24196852534057081 -0.37706873276439029 0 0.22532591000032609 -0.39642701989498141 0 0.24196852534057081 -0.37706873276439029 0 0.22538023029408269 -0.37964062092018769 0 0.20771389922926209 -0.37292152115529181 0 0.22538023029408269 -0.37964062092018769 0 0.2042336815338559 -0.3946002980773653 0 0.22532591000032609 -0.39642701989498141 0 0.22538023029408269 -0.37964062092018769 0 0.2042336815338559 -0.3946002980773653 0 0.20868329466007751 -0.41578530702556921 0 0.22532591000032609 -0.39642701989498141 0 0.2042336815338559 -0.3946002980773653 0 0.20868329466007751 -0.41578530702556921 0 0.22532591000032609 -0.39642701989498141 0 0.2042336815338559 -0.3946002980773653 0 0.1892607775838791 -0.37977128584135911 0 0.18069641487808169 -0.39888626300472912 0 0.1923775291530212 -0.41265342552181078 0 0.2042336815338559 -0.3946002980773653 0 0.18069641487808169 -0.39888626300472912 0 0.20771389922926209 -0.37292152115529181 0 0.2042336815338559 -0.3946002980773653 0 0.1892607775838791 -0.37977128584135911 0 0.1892607775838791 -0.37977128584135911 0 0.18069641487808169 -0.39888626300472912 0 0.15996507192596571 -0.3804516185331695 0 0.18069641487808169 -0.39888626300472912 0 0.1606807600026979 -0.40328679412498392 0 0.15996507192596571 -0.3804516185331695 0 0.1441019828074532 -0.37332182027552241 0 0.15996507192596571 -0.3804516185331695 0 0.14241944041749441 -0.39083445609506029 0 0.1441019828074532 -0.37332182027552241 0 0.12655279757440099 -0.38274277953848551 0 0.14241944041749441 -0.39083445609506029 0 0.12655279757440099 -0.38274277953848551 0 0.13304914395456521 -0.40598117616256407 0 0.14241944041749441 -0.39083445609506029 0 0.13304914395456521 -0.40598117616256407 0 0.13441445527727491 -0.41116252701601441 0 0.1134773361074127 -0.39379171155168757 0 0.12655279757440099 -0.38274277953848551 0 0.13304914395456521 -0.40598117616256407 0 0.13304914395456521 -0.40598117616256407 0 0.14451490615021759 -0.40573045021314669 0 0.14241944041749441 -0.39083445609506029 0 0.1606807600026979 -0.40328679412498392 0 0.15996507192596571 -0.3804516185331695 0 0.14241944041749441 -0.39083445609506029 0 0.1606807600026979 -0.40328679412498392 0 0.14451490615021759 -0.40573045021314669 0 0.14241944041749441 -0.39083445609506029 0 0.1606807600026979 -0.40328679412498392 0 0.14451490615021759 -0.40573045021314669 0 0.1553515744471371 -0.4285333424803412 0 0.13441445527727491 -0.41116252701601441 0 0.1553515744471371 -0.4285333424803412 0 0.14451490615021759 -0.40573045021314669 0 0.13441445527727491 -0.41116252701601441 0 0.1553515744471371 -0.4285333424803412 0 0.13304914395456521 -0.40598117616256407 0 0.14451490615021759 -0.40573045021314669 0 0.13441445527727491 -0.41116252701601441 0 0.13441445527727491 -0.41116252701601441 0 0.12582182905955031 -0.42380000499859949 0 0.13761670616035529 -0.42971339522259971 0 0.13441445527727491 -0.41116252701601441 0 0.12582182905955031 -0.42380000499859949 0 0.1221777985862009 -0.41427603169008981 0 0.12582182905955031 -0.42380000499859949 0 0.13761670616035529 -0.42971339522259971 0 0.12832906338193359 -0.4392464010565687 0 0.13441445527727491 -0.41116252701601441 0 0.13761670616035529 -0.42971339522259971 0 0.1553515744471371 -0.4285333424803412 0 0.13761670616035529 -0.42971339522259971 0 0.1553515744471371 -0.4285333424803412 0 0.14416660863588041 -0.44582470056147461 0 0.1553515744471371 -0.4285333424803412 0 0.17628869361699939 -0.44590415794466809 0 0.1553515744471371 -0.4285333424803412 0 0.17623357537326201 -0.41885166534523388 0 0.17628869361699939 -0.44590415794466809 0 0.1606807600026979 -0.40328679412498392 0 0.1553515744471371 -0.4285333424803412 0 0.17623357537326201 -0.41885166534523388 0 0.1923775291530212 -0.41265342552181078 0 0.18069641487808169 -0.39888626300472912 0 0.17623357537326201 -0.41885166534523388 0 0.18069641487808169 -0.39888626300472912 0 0.1606807600026979 -0.40328679412498392 0 0.17623357537326201 -0.41885166534523388 0 0.19204067931982899 -0.43514359415615689 0 0.1923775291530212 -0.41265342552181078 0 0.17623357537326201 -0.41885166534523388 0 0.19204067931982899 -0.43514359415615689 0 0.17623357537326201 -0.41885166534523388 0 0.17628869361699939 -0.44590415794466809 0 0.1972258127868618 -0.46327497340899498 0 0.17628869361699939 -0.44590415794466809 0 0.17467967137221779 -0.47073165711161941 0 0.1972258127868618 -0.46327497340899498 0 0.17628869361699939 -0.44590415794466809 0 0.15991463273436859 -0.45146185491420998 0 0.14908661559960801 -0.46631541647294672 0 0.17467967137221779 -0.47073165711161941 0 0.17628869361699939 -0.44590415794466809 0 0.15991463273436859 -0.45146185491420998 0 0.17467967137221779 -0.47073165711161941 0 0.1553515744471371 -0.4285333424803412 0 0.17628869361699939 -0.44590415794466809 0 0.15991463273436859 -0.45146185491420998 0 0.1553515744471371 -0.4285333424803412 0 0.15991463273436859 -0.45146185491420998 0 0.14416660863588041 -0.44582470056147461 0 0.14416660863588041 -0.44582470056147461 0 0.12832906338193359 -0.4392464010565687 0 0.13049674899993541 -0.4580096547171133 0 0.13761670616035529 -0.42971339522259971 0 0.14416660863588041 -0.44582470056147461 0 0.12832906338193359 -0.4392464010565687 0 0.13049674899993541 -0.4580096547171133 0 0.1348885740036522 -0.48010387881001187 0 0.1129420081040855 -0.46726069199786091 0 0.13049674899993541 -0.4580096547171133 0 0.14908661559960801 -0.46631541647294672 0 0.1348885740036522 -0.48010387881001187 0 0.15991463273436859 -0.45146185491420998 0 0.14416660863588041 -0.44582470056147461 0 0.14908661559960801 -0.46631541647294672 0 0.14416660863588041 -0.44582470056147461 0 0.13049674899993541 -0.4580096547171133 0 0.14908661559960801 -0.46631541647294672 0 0.14908661559960801 -0.46631541647294672 0 0.1348885740036522 -0.48010387881001187 0 0.15893401418303199 -0.48211435004875169 0 0.1348885740036522 -0.48010387881001187 0 0.12635052438517391 -0.5 0 0.15376864035193941 -0.5 0 0.1348885740036522 -0.48010387881001187 0 0.15376864035193941 -0.5 0 0.15893401418303199 -0.48211435004875169 0 0.15376864035193941 -0.5 0 0.15893401418303199 -0.48211435004875169 0 0.18118675631870479 -0.5 0 0.15893401418303199 -0.48211435004875169 0 0.17467967137221779 -0.47073165711161941 0 0.18118675631870479 -0.5 0 0.14908661559960801 -0.46631541647294672 0 0.15893401418303199 -0.48211435004875169 0 0.17467967137221779 -0.47073165711161941 0 0.1976048685021872 -0.48297009663037899 0 0.17467967137221779 -0.47073165711161941 0 0.18118675631870479 -0.5 0 0.07151429245164298 -0.5 0 0.090319257464045843 -0.47807022902008139 0 0.061934407888797192 -0.47944707207450271 0 0.090319257464045843 -0.47807022902008139 0 0.07680273117162599 -0.45922261646987628 0 0.061934407888797192 -0.47944707207450271 0 0.07151429245164298 -0.5 0 0.090319257464045843 -0.47807022902008139 0 0.098932408418408446 -0.5 0 0.090319257464045843 -0.47807022902008139 0 0.098932408418408446 -0.5 0 0.1126644705208126 -0.48603720248044141 0 0.1348885740036522 -0.48010387881001187 0 0.12635052438517391 -0.5 0 0.1126644705208126 -0.48603720248044141 0 0.12635052438517391 -0.5 0 0.098932408418408446 -0.5 0 0.1126644705208126 -0.48603720248044141 0 0.1348885740036522 -0.48010387881001187 0 0.1126644705208126 -0.48603720248044141 0 0.1129420081040855 -0.46726069199786091 0 0.090319257464045843 -0.47807022902008139 0 0.1126644705208126 -0.48603720248044141 0 0.1129420081040855 -0.46726069199786091 0 0.097467487811969733 -0.45353418416491997 0 0.1129420081040855 -0.46726069199786091 0 0.1140952989008612 -0.4476539402707741 0 0.090319257464045843 -0.47807022902008139 0 0.097467487811969733 -0.45353418416491997 0 0.1129420081040855 -0.46726069199786091 0 0.13049674899993541 -0.4580096547171133 0 0.1129420081040855 -0.46726069199786091 0 0.1140952989008612 -0.4476539402707741 0 0.12832906338193359 -0.4392464010565687 0 0.13049674899993541 -0.4580096547171133 0 0.1140952989008612 -0.4476539402707741 0 0.12832906338193359 -0.4392464010565687 0 0.1140952989008612 -0.4476539402707741 0 0.1141265847936488 -0.43110762647798351 0 0.1140952989008612 -0.4476539402707741 0 0.1013881701163236 -0.43670962535967678 0 0.1141265847936488 -0.43110762647798351 0 0.097467487811969733 -0.45353418416491997 0 0.1140952989008612 -0.4476539402707741 0 0.1013881701163236 -0.43670962535967678 0 0.097467487811969733 -0.45353418416491997 0 0.086146225442143259 -0.44258981798948699 0 0.1013881701163236 -0.43670962535967678 0 0.097467487811969733 -0.45353418416491997 0 0.086146225442143259 -0.44258981798948699 0 0.07680273117162599 -0.45922261646987628 0 0.086146225442143259 -0.44258981798948699 0 0.070398190252241269 -0.44533343665651959 0 0.079944080200991155 -0.43270522331485961 0 0.090319257464045843 -0.47807022902008139 0 0.097467487811969733 -0.45353418416491997 0 0.07680273117162599 -0.45922261646987628 0 0.07680273117162599 -0.45922261646987628 0 0.050124409566172819 -0.46008936110011972 0 0.061934407888797192 -0.47944707207450271 0 0.07680273117162599 -0.45922261646987628 0 0.070398190252241269 -0.44533343665651959 0 0.050124409566172819 -0.46008936110011972 0 0.086146225442143259 -0.44258981798948699 0 0.07680273117162599 -0.45922261646987628 0 0.070398190252241269 -0.44533343665651959 0 0.072261187276979055 -0.42823393143949312 0 0.070037300645118622 -0.40865875828023368 0 0.060080855105645717 -0.43437405969017667 0 0.070398190252241269 -0.44533343665651959 0 0.072261187276979055 -0.42823393143949312 0 0.060080855105645717 -0.43437405969017667 0 0.070398190252241269 -0.44533343665651959 0 0.072261187276979055 -0.42823393143949312 0 0.079944080200991155 -0.43270522331485961 0 0.072261187276979055 -0.42823393143949312 0 0.0808455101808985 -0.420098179255676 0 0.079944080200991155 -0.43270522331485961 0 0.070037300645118622 -0.40865875828023368 0 0.060080855105645717 -0.43437405969017667 0 0.072261187276979055 -0.42823393143949312 0 0.070037300645118622 -0.40865875828023368 0 0.0808455101808985 -0.420098179255676 0 0.070037300645118622 -0.40865875828023368 0 0.060380596565863573 -0.4179033690301428 0 0.060080855105645717 -0.43437405969017667 0 0.070037300645118622 -0.40865875828023368 0 0.059908671592143747 -0.40293636420507078 0 0.060380596565863573 -0.4179033690301428 0 0.085748713315111774 -0.40672421816413479 0 0.090617323857935125 -0.41630272037786198 0 0.1016824206040861 -0.40821240454675739 0 0.070037300645118622 -0.40865875828023368 0 0.0808455101808985 -0.420098179255676 0 0.085748713315111774 -0.40672421816413479 0 0.0808455101808985 -0.420098179255676 0 0.085748713315111774 -0.40672421816413479 0 0.090617323857935125 -0.41630272037786198 0 0.0808455101808985 -0.420098179255676 0 0.090617323857935125 -0.41630272037786198 0 0.090876693099707917 -0.42803382197106998 0 0.0808455101808985 -0.420098179255676 0 0.090876693099707917 -0.42803382197106998 0 0.079944080200991155 -0.43270522331485961 0 0.086146225442143259 -0.44258981798948699 0 0.090876693099707917 -0.42803382197106998 0 0.079944080200991155 -0.43270522331485961 0 0.086146225442143259 -0.44258981798948699 0 0.090876693099707917 -0.42803382197106998 0 0.1013881701163236 -0.43670962535967678 0 0.090617323857935125 -0.41630272037786198 0 0.090876693099707917 -0.42803382197106998 0 0.10178140368009821 -0.42282878561111248 0 0.090876693099707917 -0.42803382197106998 0 0.1013881701163236 -0.43670962535967678 0 0.10178140368009821 -0.42282878561111248 0 0.1013881701163236 -0.43670962535967678 0 0.10178140368009821 -0.42282878561111248 0 0.1141265847936488 -0.43110762647798351 0 0.10178140368009821 -0.42282878561111248 0 0.1141265847936488 -0.43110762647798351 0 0.11347968402486799 -0.41707215124990538 0 0.12582182905955031 -0.42380000499859949 0 0.1141265847936488 -0.43110762647798351 0 0.11347968402486799 -0.41707215124990538 0 0.12582182905955031 -0.42380000499859949 0 0.12832906338193359 -0.4392464010565687 0 0.1141265847936488 -0.43110762647798351 0 0.13441445527727491 -0.41116252701601441 0 0.1221777985862009 -0.41427603169008981 0 0.11604171217538491 -0.40702532192188617 0 0.1221777985862009 -0.41427603169008981 0 0.11347968402486799 -0.41707215124990538 0 0.11604171217538491 -0.40702532192188617 0 0.12582182905955031 -0.42380000499859949 0 0.1221777985862009 -0.41427603169008981 0 0.11347968402486799 -0.41707215124990538 0 0.11347968402486799 -0.41707215124990538 0 0.11604171217538491 -0.40702532192188617 0 0.1016824206040861 -0.40821240454675739 0 0.10178140368009821 -0.42282878561111248 0 0.11347968402486799 -0.41707215124990538 0 0.1016824206040861 -0.40821240454675739 0 0.090617323857935125 -0.41630272037786198 0 0.10178140368009821 -0.42282878561111248 0 0.1016824206040861 -0.40821240454675739 0 0.085748713315111774 -0.40672421816413479 0 0.1016824206040861 -0.40821240454675739 0 0.094469343169498926 -0.39749974055081633 0 0.094469343169498926 -0.39749974055081633 0 0.1134773361074127 -0.39379171155168757 0 0.092010272191835996 -0.38814373344091302 0 0.1016824206040861 -0.40821240454675739 0 0.094469343169498926 -0.39749974055081633 0 0.1134773361074127 -0.39379171155168757 0 0.12655279757440099 -0.38274277953848551 0 0.13304914395456521 -0.40598117616256407 0 0.1134773361074127 -0.39379171155168757 0 0.13441445527727491 -0.41116252701601441 0 0.11604171217538491 -0.40702532192188617 0 0.1134773361074127 -0.39379171155168757 0 0.11604171217538491 -0.40702532192188617 0 0.1016824206040861 -0.40821240454675739 0 0.1134773361074127 -0.39379171155168757 0 0.13441445527727491 -0.41116252701601441 0 0.1134773361074127 -0.39379171155168757 0 0.12655279757440099 -0.38274277953848551 0 0.1134773361074127 -0.39379171155168757 0 0.108256453999795 -0.3772843548431184 0 0.12655279757440099 -0.38274277953848551 0 0.108256453999795 -0.3772843548431184 0 0.1153530592497078 -0.37076033112409151 0 0.1134773361074127 -0.39379171155168757 0 0.092540216937550573 -0.37642089608736079 0 0.1134773361074127 -0.39379171155168757 0 0.108256453999795 -0.3772843548431184 0 0.092540216937550573 -0.37642089608736079 0 0.1134773361074127 -0.39379171155168757 0 0.092540216937550573 -0.37642089608736079 0 0.092010272191835996 -0.38814373344091302 0 0.092540216937550573 -0.37642089608736079 0 0.079993746184591527 -0.38294345687029069 0 0.092010272191835996 -0.38814373344091302 0 0.079993746184591527 -0.38294345687029069 0 0.092010272191835996 -0.38814373344091302 0 0.084256628839587164 -0.396524736688603 0 0.070037300645118622 -0.40865875828023368 0 0.085748713315111774 -0.40672421816413479 0 0.084256628839587164 -0.396524736688603 0 0.094469343169498926 -0.39749974055081633 0 0.092010272191835996 -0.38814373344091302 0 0.084256628839587164 -0.396524736688603 0 0.085748713315111774 -0.40672421816413479 0 0.094469343169498926 -0.39749974055081633 0 0.084256628839587164 -0.396524736688603 0 0.070037300645118622 -0.40865875828023368 0 0.079993746184591527 -0.38294345687029069 0 0.084256628839587164 -0.396524736688603 0 0.070037300645118622 -0.40865875828023368 0 0.079993746184591527 -0.38294345687029069 0 0.070037300645118622 -0.40865875828023368 0 0.079993746184591527 -0.38294345687029069 0 0.065519024092007355 -0.39259606270605563 0 0.070037300645118622 -0.40865875828023368 0 0.065519024092007355 -0.39259606270605563 0 0.059908671592143747 -0.40293636420507078 0 0.079993746184591527 -0.38294345687029069 0 0.062434002711576349 -0.38014586640644232 0 0.069715089943093764 -0.37182189594123838 0 0.079993746184591527 -0.38294345687029069 0 0.065519024092007355 -0.39259606270605563 0 0.062434002711576349 -0.38014586640644232 0 0.052678973488588132 -0.38199781846896552 0 0.044891726425512257 -0.38882037816110993 0 0.044956523250164651 -0.37815846292154948 0 0.052678973488588132 -0.38199781846896552 0 0.05567106163330466 -0.39103871151026492 0 0.044891726425512257 -0.38882037816110993 0 0.052678973488588132 -0.38199781846896552 0 0.044956523250164651 -0.37815846292154948 0 0.052949778305331971 -0.37296294300991928 0 0.052678973488588132 -0.38199781846896552 0 0.062434002711576349 -0.38014586640644232 0 0.052949778305331971 -0.37296294300991928 0 0.052678973488588132 -0.38199781846896552 0 0.062434002711576349 -0.38014586640644232 0 0.05567106163330466 -0.39103871151026492 0 0.065519024092007355 -0.39259606270605563 0 0.062434002711576349 -0.38014586640644232 0 0.05567106163330466 -0.39103871151026492 0 0.065519024092007355 -0.39259606270605563 0 0.05567106163330466 -0.39103871151026492 0 0.059908671592143747 -0.40293636420507078 0 0.05567106163330466 -0.39103871151026492 0 0.059908671592143747 -0.40293636420507078 0 0.050984392333055302 -0.40079176229491148 0 0.059908671592143747 -0.40293636420507078 0 0.050984392333055302 -0.40079176229491148 0 0.047865129367979042 -0.40970877444468629 0 0.05567106163330466 -0.39103871151026492 0 0.050984392333055302 -0.40079176229491148 0 0.044891726425512257 -0.38882037816110993 0 0.050984392333055302 -0.40079176229491148 0 0.040189692026126989 -0.40047835958632821 0 0.044891726425512257 -0.38882037816110993 0 0.050984392333055302 -0.40079176229491148 0 0.040189692026126989 -0.40047835958632821 0 0.047865129367979042 -0.40970877444468629 0 0.040189692026126989 -0.40047835958632821 0 0.027349383229546099 -0.40357456246621848 0 0.035550724457074939 -0.41176820675836873 0 0.040189692026126989 -0.40047835958632821 0 0.031743248061102472 -0.39080119150007581 0 0.044891726425512257 -0.38882037816110993 0 0.040189692026126989 -0.40047835958632821 0 0.031743248061102472 -0.39080119150007581 0 0.027349383229546099 -0.40357456246621848 0 0.031743248061102472 -0.39080119150007581 0 0.037554337852528603 -0.38196104410623521 0 0.031036825250665249 -0.37998929638777718 0 0.031743248061102472 -0.39080119150007581 0 0.044891726425512257 -0.38882037816110993 0 0.037554337852528603 -0.38196104410623521 0 0.044891726425512257 -0.38882037816110993 0 0.044956523250164651 -0.37815846292154948 0 0.037554337852528603 -0.38196104410623521 0 0.044956523250164651 -0.37815846292154948 0 0.037209988177515939 -0.37524999236774259 0 0.037554337852528603 -0.38196104410623521 0 0.037209988177515939 -0.37524999236774259 0 0.031036825250665249 -0.37998929638777718 0 0.028633206762856481 -0.37037155026774993 0 0.037209988177515939 -0.37524999236774259 0 0.037554337852528603 -0.38196104410623521 0 0.031036825250665249 -0.37998929638777718 0 0.031036825250665249 -0.37998929638777718 0 0.02017687255832426 -0.38415489922946983 0 0.028633206762856481 -0.37037155026774993 0 0.02017687255832426 -0.38415489922946983 0 0.004140655835305887 -0.38623577644633023 0 0.028633206762856481 -0.37037155026774993 0 0.004140655835305887 -0.38623577644633023 0 0.028633206762856481 -0.37037155026774993 0 0.031743248061102472 -0.39080119150007581 0 0.02017687255832426 -0.38415489922946983 0 0.01935904959257731 -0.39537382521732473 0 0.031743248061102472 -0.39080119150007581 0 0.031036825250665249 -0.37998929638777718 0 0.02017687255832426 -0.38415489922946983 0 0.02017687255832426 -0.38415489922946983 0 0.0128895052486829 -0.3905619822293866 0 0.01935904959257731 -0.39537382521732473 0 -0.0082329305185383367 -0.39318065125541718 0 0.004140655835305887 -0.38623577644633023 0 0.004491385456308495 -0.3701968475242281 0 0.02017687255832426 -0.38415489922946983 0 0.0128895052486829 -0.3905619822293866 0 0.004140655835305887 -0.38623577644633023 0 -0.0082329305185383367 -0.39318065125541718 0 0.004140655835305887 -0.38623577644633023 0 0.0078814430085241416 -0.39648342802442182 0 0.0128895052486829 -0.3905619822293866 0 0.004140655835305887 -0.38623577644633023 0 0.0078814430085241416 -0.39648342802442182 0 0.0128895052486829 -0.3905619822293866 0 0.0078814430085241416 -0.39648342802442182 0 0.01935904959257731 -0.39537382521732473 0 0.0078814430085241416 -0.39648342802442182 0 0.01935904959257731 -0.39537382521732473 0 0.01533136634525582 -0.40643637822028328 0 0.01935904959257731 -0.39537382521732473 0 0.027349383229546099 -0.40357456246621848 0 0.01533136634525582 -0.40643637822028328 0 0.031743248061102472 -0.39080119150007581 0 0.01935904959257731 -0.39537382521732473 0 0.027349383229546099 -0.40357456246621848 0 0.027349383229546099 -0.40357456246621848 0 0.021922218895139109 -0.41658941351493051 0 0.035550724457074939 -0.41176820675836873 0 0.027349383229546099 -0.40357456246621848 0 0.021922218895139109 -0.41658941351493051 0 0.01533136634525582 -0.40643637822028328 0 -0.003501012975338088 -0.40606038485500778 0 -9.0866128732218672e-05 -0.41964567598439279 0 0.0078814430085241416 -0.39648342802442182 0 -9.0866128732218672e-05 -0.41964567598439279 0 0.021922218895139109 -0.41658941351493051 0 0.01533136634525582 -0.40643637822028328 0 -9.0866128732218672e-05 -0.41964567598439279 0 0.0078814430085241416 -0.39648342802442182 0 -9.0866128732218672e-05 -0.41964567598439279 0 0.0078814430085241416 -0.39648342802442182 0 0.01533136634525582 -0.40643637822028328 0 -9.0866128732218672e-05 -0.41964567598439279 0 0.021922218895139109 -0.41658941351493051 0 0.01475141534462834 -0.43450640563962301 0 -9.0866128732218672e-05 -0.41964567598439279 0 -0.0080631752659889987 -0.44280792394436369 0 0.01475141534462834 -0.43450640563962301 0 0.01475141534462834 -0.43450640563962301 0 0.037566005955245931 -0.42620488733488288 0 0.029493618260312781 -0.44971442356173041 0 0.01475141534462834 -0.43450640563962301 0 0.037566005955245931 -0.42620488733488288 0 0.021922218895139109 -0.41658941351493051 0 0.01475141534462834 -0.43450640563962301 0 0.037566005955245931 -0.42620488733488288 0 0.037566005955245931 -0.42620488733488288 0 0.035550724457074939 -0.41176820675836873 0 0.047865129367979042 -0.40970877444468629 0 0.021922218895139109 -0.41658941351493051 0 0.037566005955245931 -0.42620488733488288 0 0.035550724457074939 -0.41176820675836873 0 0.040189692026126989 -0.40047835958632821 0 0.035550724457074939 -0.41176820675836873 0 0.047865129367979042 -0.40970877444468629 0 0.037566005955245931 -0.42620488733488288 0 0.047865129367979042 -0.40970877444468629 0 0.060380596565863573 -0.4179033690301428 0 0.059908671592143747 -0.40293636420507078 0 0.047865129367979042 -0.40970877444468629 0 0.060380596565863573 -0.4179033690301428 0 0.037566005955245931 -0.42620488733488288 0 0.060380596565863573 -0.4179033690301428 0 0.037566005955245931 -0.42620488733488288 0 0.060380596565863573 -0.4179033690301428 0 0.060080855105645717 -0.43437405969017667 0 0.037566005955245931 -0.42620488733488288 0 0.060080855105645717 -0.43437405969017667 0 0.044316222221844309 -0.44259568292172741 0 0.070398190252241269 -0.44533343665651959 0 0.060080855105645717 -0.43437405969017667 0 0.050124409566172819 -0.46008936110011972 0 0.060080855105645717 -0.43437405969017667 0 0.050124409566172819 -0.46008936110011972 0 0.044316222221844309 -0.44259568292172741 0 0.060080855105645717 -0.43437405969017667 0 0.050124409566172819 -0.46008936110011972 0 0.050124409566172819 -0.46008936110011972 0 0.029493618260312781 -0.44971442356173041 0 0.031628537833949193 -0.4689921925986042 0 0.050124409566172819 -0.46008936110011972 0 0.044316222221844309 -0.44259568292172741 0 0.029493618260312781 -0.44971442356173041 0 0.037566005955245931 -0.42620488733488288 0 0.044316222221844309 -0.44259568292172741 0 0.029493618260312781 -0.44971442356173041 0 0.01475141534462834 -0.43450640563962301 0 0.029493618260312781 -0.44971442356173041 0 0.01059683796866037 -0.45087464289258777 0 -0.0080631752659889987 -0.44280792394436369 0 0.01475141534462834 -0.43450640563962301 0 0.01059683796866037 -0.45087464289258777 0 -0.0080631752659889987 -0.44280792394436369 0 0.01059683796866037 -0.45087464289258777 0 0.00035831223976342429 -0.46213143315566829 0 -0.0080631752659889987 -0.44280792394436369 0 0.01475141534462834 -0.43450640563962301 0 0.01059683796866037 -0.45087464289258777 0 0.00035831223976342429 -0.46213143315566829 0 0.015656029534706611 -0.46591930215635952 0 0.029493618260312781 -0.44971442356173041 0 0.01059683796866037 -0.45087464289258777 0 0.015656029534706611 -0.46591930215635952 0 0.029493618260312781 -0.44971442356173041 0 0.015656029534706611 -0.46591930215635952 0 0.031628537833949193 -0.4689921925986042 0 0.015656029534706611 -0.46591930215635952 0 0.021458296887695669 -0.4812654430842217 0 0.031628537833949193 -0.4689921925986042 0 0.021458296887695669 -0.4812654430842217 0 0.04016796402669992 -0.4858046625100626 0 0.031628537833949193 -0.4689921925986042 0 0.00035831223976342429 -0.46213143315566829 0 0.015656029534706611 -0.46591930215635952 0 0.00067615073669454514 -0.48127551699502819 0 0.015656029534706611 -0.46591930215635952 0 0.021458296887695669 -0.4812654430842217 0 0.00067615073669454514 -0.48127551699502819 0 0.021458296887695669 -0.4812654430842217 0 0.00067615073669454514 -0.48127551699502819 0 0.016678060518111829 -0.5 0 -0.010740055448653699 -0.5 0 0.00067615073669454514 -0.48127551699502819 0 0.016678060518111829 -0.5 0 0.021458296887695669 -0.4812654430842217 0 0.016678060518111829 -0.5 0 0.04016796402669992 -0.4858046625100626 0 0.016678060518111829 -0.5 0 0.044096176484877403 -0.5 0 0.04016796402669992 -0.4858046625100626 0 0.044096176484877403 -0.5 0 0.04016796402669992 -0.4858046625100626 0 0.053161302627231788 -0.48985026095121897 0 0.050124409566172819 -0.46008936110011972 0 0.04016796402669992 -0.4858046625100626 0 0.050124409566172819 -0.46008936110011972 0 0.04016796402669992 -0.4858046625100626 0 0.031628537833949193 -0.4689921925986042 0 0.050124409566172819 -0.46008936110011972 0 0.04016796402669992 -0.4858046625100626 0 0.061934407888797192 -0.47944707207450271 0 0.04016796402669992 -0.4858046625100626 0 0.061934407888797192 -0.47944707207450271 0 0.053161302627231788 -0.48985026095121897 0 0.07151429245164298 -0.5 0 0.044096176484877403 -0.5 0 0.053161302627231788 -0.48985026095121897 0 0.07151429245164298 -0.5 0 0.061934407888797192 -0.47944707207450271 0 0.053161302627231788 -0.48985026095121897 0 0.089817385419012033 -0.29554986778546682 0 0.075628890294986442 -0.30157525263855528 0 0.073349467672947255 -0.28426293935955799 0 0.090376479684066341 -0.28558804420707801 0 0.089817385419012033 -0.29554986778546682 0 0.073349467672947255 -0.28426293935955799 0 0.090376479684066341 -0.28558804420707801 0 0.089817385419012033 -0.29554986778546682 0 0.090376479684066341 -0.28558804420707801 0 0.092231020262095467 -0.2945248768546237 0 0.090376479684066341 -0.28558804420707801 0 0.089817385419012033 -0.29554986778546682 0 0.092231020262095467 -0.2945248768546237 0 0.089817385419012033 -0.29554986778546682 0 0.092231020262095467 -0.2945248768546237 0 0.089817385419012033 -0.29554986778546682 0 0.088486940195069017 -0.31925545990124532 0 0.089817385419012033 -0.29554986778546682 0 0.092231020262095467 -0.2945248768546237 0 0.094538330248116142 -0.30564355684224942 0 0.089817385419012033 -0.29554986778546682 0 0.094538330248116142 -0.30564355684224942 0 0.088486940195069017 -0.31925545990124532 0 0.092231020262095467 -0.2945248768546237 0 0.094538330248116142 -0.30564355684224942 0 0.075628890294986442 -0.30157525263855528 0 0.088486940195069017 -0.31925545990124532 0 0.074259500140015824 -0.31599005950662112 0 0.089817385419012033 -0.29554986778546682 0 0.075628890294986442 -0.30157525263855528 0 0.088486940195069017 -0.31925545990124532 0 0.094538330248116142 -0.30564355684224942 0 0.088486940195069017 -0.31925545990124532 0 0.089817385419012033 -0.29554986778546682 0 0.075628890294986442 -0.30157525263855528 0 0.075628890294986442 -0.30157525263855528 0 0.073349467672947255 -0.28426293935955799 0 0.061440395170966111 -0.30760063749165589 0 0.075628890294986442 -0.30157525263855528 0 0.074259500140015824 -0.31599005950662112 0 0.061440395170966111 -0.30760063749165589 0 0.075628890294986442 -0.30157525263855528 0 0.061440395170966111 -0.30760063749165589 0 0.073349467672947255 -0.28426293935955799 0 0.054413464963880082 -0.28136390881681578 0 0.061440395170966111 -0.30760063749165589 0 0.073349467672947255 -0.28426293935955799 0 0.061440395170966111 -0.30760063749165589 0 0.073349467672947255 -0.28426293935955799 0 0.070807635688589929 -0.26797872466658063 0 0.054413464963880082 -0.28136390881681578 0 0.073349467672947255 -0.28426293935955799 0 0.070807635688589929 -0.26797872466658063 0 0.085258540174915035 -0.26092524122745331 0 0.05731577029569726 -0.26134764366520169 0 0.058330191768976081 -0.24860232186296641 0 0.078540914703067094 -0.24692156141729901 0 0.070807635688589929 -0.26797872466658063 0 0.05731577029569726 -0.26134764366520169 0 0.078540914703067094 -0.24692156141729901 0 0.05731577029569726 -0.26134764366520169 0 0.078540914703067094 -0.24692156141729901 0 0.070807635688589929 -0.26797872466658063 0 0.085258540174915035 -0.26092524122745331 0 0.078540914703067094 -0.24692156141729901 0 0.085258540174915035 -0.26092524122745331 0 0.082715310234125872 -0.2486696882164342 0 0.085258540174915035 -0.26092524122745331 0 0.082715310234125872 -0.2486696882164342 0 0.078540914703067094 -0.24692156141729901 0 0.085258540174915035 -0.26092524122745331 0 0.092512299642676557 -0.2467103601984254 0 0.085258540174915035 -0.26092524122745331 0 0.082715310234125872 -0.2486696882164342 0 0.092512299642676557 -0.2467103601984254 0 0.085258540174915035 -0.26092524122745331 0 0.091988891077532914 -0.25685843841160888 0 0.092512299642676557 -0.2467103601984254 0 0.073349467672947255 -0.28426293935955799 0 0.085258540174915035 -0.26092524122745331 0 0.090376479684066341 -0.28558804420707801 0 0.073349467672947255 -0.28426293935955799 0 0.085258540174915035 -0.26092524122745331 0 0.090376479684066341 -0.28558804420707801 0 0.085258540174915035 -0.26092524122745331 0 0.090376479684066341 -0.28558804420707801 0 0.091988891077532914 -0.25685843841160888 0 0.090376479684066341 -0.28558804420707801 0 0.091988891077532914 -0.25685843841160888 0 0.097040177279546072 -0.27717174996380789 0 0.090376479684066341 -0.28558804420707801 0 0.085258540174915035 -0.26092524122745331 0 0.091988891077532914 -0.25685843841160888 0 0.097040177279546072 -0.27717174996380789 0 0.1100616640161677 -0.27072561029593689 0 0.1008661499060414 -0.29085782274449662 0 0.1100616640161677 -0.27072561029593689 0 0.1008661499060414 -0.29085782274449662 0 0.091988891077532914 -0.25685843841160888 0 0.097040177279546072 -0.27717174996380789 0 0.1012923260813369 -0.26496469133742978 0 0.097040177279546072 -0.27717174996380789 0 0.1012923260813369 -0.26496469133742978 0 0.1100616640161677 -0.27072561029593689 0 0.091988891077532914 -0.25685843841160888 0 0.098619260441350165 -0.25137374290502063 0 0.092512299642676557 -0.2467103601984254 0 0.091988891077532914 -0.25685843841160888 0 0.098619260441350165 -0.25137374290502063 0 0.1006059268970087 -0.25762411715389821 0 0.098619260441350165 -0.25137374290502063 0 0.1006059268970087 -0.25762411715389821 0 0.1054350680331206 -0.25220871673219458 0 0.091988891077532914 -0.25685843841160888 0 0.1006059268970087 -0.25762411715389821 0 0.1012923260813369 -0.26496469133742978 0 0.1012923260813369 -0.26496469133742978 0 0.1072699263281599 -0.25924900169994952 0 0.1100616640161677 -0.27072561029593689 0 0.1006059268970087 -0.25762411715389821 0 0.1012923260813369 -0.26496469133742978 0 0.1072699263281599 -0.25924900169994952 0 0.1006059268970087 -0.25762411715389821 0 0.1072699263281599 -0.25924900169994952 0 0.1054350680331206 -0.25220871673219458 0 0.12620251533772109 -0.26359640456691308 0 0.11895464661316579 -0.25072187298028797 0 0.1100616640161677 -0.27072561029593689 0 0.1072699263281599 -0.25924900169994952 0 0.11895464661316579 -0.25072187298028797 0 0.1100616640161677 -0.27072561029593689 0 0.11895464661316579 -0.25072187298028797 0 0.1100616640161677 -0.27072561029593689 0 0.1072699263281599 -0.25924900169994952 0 0.1054350680331206 -0.25220871673219458 0 0.11895464661316579 -0.25072187298028797 0 0.12620251533772109 -0.26359640456691308 0 0.1100616640161677 -0.27072561029593689 0 0.11855606389626069 -0.28334550104458922 0 0.12620251533772109 -0.26359640456691308 0 0.11855606389626069 -0.28334550104458922 0 0.1251151673466723 -0.30118436876075477 0 0.12973139329597921 -0.28939044096510202 0 0.11855606389626069 -0.28334550104458922 0 0.1100616640161677 -0.27072561029593689 0 0.11855606389626069 -0.28334550104458922 0 0.1008661499060414 -0.29085782274449662 0 0.11855606389626069 -0.28334550104458922 0 0.1008661499060414 -0.29085782274449662 0 0.11280991116508279 -0.29818654535541861 0 0.11855606389626069 -0.28334550104458922 0 0.1008661499060414 -0.29085782274449662 0 0.1251151673466723 -0.30118436876075477 0 0.11855606389626069 -0.28334550104458922 0 0.11280991116508279 -0.29818654535541861 0 0.11855606389626069 -0.28334550104458922 0 0.11280991116508279 -0.29818654535541861 0 0.092231020262095467 -0.2945248768546237 0 0.1008661499060414 -0.29085782274449662 0 0.090376479684066341 -0.28558804420707801 0 0.092231020262095467 -0.2945248768546237 0 0.1008661499060414 -0.29085782274449662 0 0.090376479684066341 -0.28558804420707801 0 0.097040177279546072 -0.27717174996380789 0 0.1008661499060414 -0.29085782274449662 0 0.097040177279546072 -0.27717174996380789 0 0.1008661499060414 -0.29085782274449662 0 0.1008661499060414 -0.29085782274449662 0 0.11280991116508279 -0.29818654535541861 0 0.10706375843390881 -0.31302758966624927 0 0.1008661499060414 -0.29085782274449662 0 0.10706375843390881 -0.31302758966624927 0 0.1008661499060414 -0.29085782274449662 0 0.094538330248116142 -0.30564355684224942 0 0.10706375843390881 -0.31302758966624927 0 0.1008661499060414 -0.29085782274449662 0 0.094538330248116142 -0.30564355684224942 0 0.092231020262095467 -0.2945248768546237 0 0.1008661499060414 -0.29085782274449662 0 0.094538330248116142 -0.30564355684224942 0 0.11280991116508279 -0.29818654535541861 0 0.10706375843390881 -0.31302758966624927 0 0.1251151673466723 -0.30118436876075477 0 0.11280991116508279 -0.29818654535541861 0 0.11924028588535671 -0.3182765773557118 0 0.11280991116508279 -0.29818654535541861 0 0.11924028588535671 -0.3182765773557118 0 0.10706375843390881 -0.31302758966624927 0 0.11924028588535671 -0.3182765773557118 0 0.1135601048140724 -0.33626598629032822 0 0.10706375843390881 -0.31302758966624927 0 0.1135601048140724 -0.33626598629032822 0 0.10706375843390881 -0.31302758966624927 0 0.12719797179517581 -0.32888293995090162 0 0.11924028588535671 -0.3182765773557118 0 0.1135601048140724 -0.33626598629032822 0 0.13046536660749419 -0.34167241986210062 0 0.12719797179517581 -0.32888293995090162 0 0.1135601048140724 -0.33626598629032822 0 0.1135601048140724 -0.33626598629032822 0 0.099906637263539627 -0.33151285405040581 0 0.1032265857469704 -0.34751133062538031 0 0.099906637263539627 -0.33151285405040581 0 0.1032265857469704 -0.34751133062538031 0 0.1135601048140724 -0.33626598629032822 0 0.099906637263539627 -0.33151285405040581 0 0.10706375843390881 -0.31302758966624927 0 0.094538330248116142 -0.30564355684224942 0 0.099906637263539627 -0.33151285405040581 0 0.099906637263539627 -0.33151285405040581 0 0.10706375843390881 -0.31302758966624927 0 0.094538330248116142 -0.30564355684224942 0 0.099906637263539627 -0.33151285405040581 0 0.10706375843390881 -0.31302758966624927 0 0.094538330248116142 -0.30564355684224942 0 0.099906637263539627 -0.33151285405040581 0 0.088486940195069017 -0.31925545990124532 0 0.12655279757440099 -0.38274277953848551 0 0.1200564511942367 -0.35950438291440678 0 0.12655279757440099 -0.38274277953848551 0 0.1153530592497078 -0.37076033112409151 0 0.1200564511942367 -0.35950438291440678 0 0.108256453999795 -0.3772843548431184 0 0.1153530592497078 -0.37076033112409151 0 0.1065465342303983 -0.36350980720035542 0 0.1153530592497078 -0.37076033112409151 0 0.1200564511942367 -0.35950438291440678 0 0.1065465342303983 -0.36350980720035542 0 0.1135601048140724 -0.33626598629032822 0 0.1200564511942367 -0.35950438291440678 0 0.1135601048140724 -0.33626598629032822 0 0.1200564511942367 -0.35950438291440678 0 0.11084741899641951 -0.35169787675761771 0 0.13046536660749419 -0.34167241986210062 0 0.1135601048140724 -0.33626598629032822 0 0.1200564511942367 -0.35950438291440678 0 0.1200564511942367 -0.35950438291440678 0 0.11084741899641951 -0.35169787675761771 0 0.1065465342303983 -0.36350980720035542 0 0.099906637263539627 -0.33151285405040581 0 0.1032265857469704 -0.34751133062538031 0 0.089950191724064404 -0.35722815546034781 0 0.099906637263539627 -0.33151285405040581 0 0.089950191724064404 -0.35722815546034781 0 0.1032265857469704 -0.34751133062538031 0 0.099393457973085353 -0.35734360050058611 0 0.1065465342303983 -0.36350980720035542 0 0.1032265857469704 -0.34751133062538031 0 0.1065465342303983 -0.36350980720035542 0 0.11084741899641951 -0.35169787675761771 0 0.1032265857469704 -0.34751133062538031 0 0.1065465342303983 -0.36350980720035542 0 0.1135601048140724 -0.33626598629032822 0 0.11084741899641951 -0.35169787675761771 0 0.1032265857469704 -0.34751133062538031 0 0.1032265857469704 -0.34751133062538031 0 0.099393457973085353 -0.35734360050058611 0 0.089950191724064404 -0.35722815546034781 0 0.108256453999795 -0.3772843548431184 0 0.092540216937550573 -0.37642089608736079 0 0.098398236704816663 -0.366305565805987 0 0.099393457973085353 -0.35734360050058611 0 0.1065465342303983 -0.36350980720035542 0 0.098398236704816663 -0.366305565805987 0 0.099393457973085353 -0.35734360050058611 0 0.098398236704816663 -0.366305565805987 0 0.089950191724064404 -0.35722815546034781 0 0.108256453999795 -0.3772843548431184 0 0.1065465342303983 -0.36350980720035542 0 0.098398236704816663 -0.366305565805987 0 0.092540216937550573 -0.37642089608736079 0 0.079993746184591527 -0.38294345687029069 0 0.089950191724064404 -0.35722815546034781 0 0.092540216937550573 -0.37642089608736079 0 0.098398236704816663 -0.366305565805987 0 0.089950191724064404 -0.35722815546034781 0 0.079993746184591527 -0.38294345687029069 0 0.082195305262604573 -0.36250733033393351 0 0.089950191724064404 -0.35722815546034781 0 0.079993746184591527 -0.38294345687029069 0 0.089950191724064404 -0.35722815546034781 0 0.079993746184591527 -0.38294345687029069 0 0.082195305262604573 -0.36250733033393351 0 0.076806702024829282 -0.3687446695939301 0 0.082195305262604573 -0.36250733033393351 0 0.081633646537654037 -0.35611239827770452 0 0.073738674937817009 -0.36002416744766691 0 0.089950191724064404 -0.35722815546034781 0 0.086535315241223515 -0.35402910130056631 0 0.087511127718146411 -0.33664228060090567 0 0.086535315241223515 -0.35402910130056631 0 0.087511127718146411 -0.33664228060090567 0 0.086535315241223515 -0.35402910130056631 0 0.083836701332126562 -0.34515685169244598 0 0.087511127718146411 -0.33664228060090567 0 0.081633646537654037 -0.35611239827770452 0 0.081773416293022747 -0.35073364784569622 0 0.07774629175562503 -0.35212960647422031 0 0.081633646537654037 -0.35611239827770452 0 0.086535315241223515 -0.35402910130056631 0 0.081773416293022747 -0.35073364784569622 0 0.082195305262604573 -0.36250733033393351 0 0.085078614691386639 -0.35746924634313798 0 0.089950191724064404 -0.35722815546034781 0 0.082195305262604573 -0.36250733033393351 0 0.081633646537654037 -0.35611239827770452 0 0.085078614691386639 -0.35746924634313798 0 0.081633646537654037 -0.35611239827770452 0 0.085078614691386639 -0.35746924634313798 0 0.086535315241223515 -0.35402910130056631 0 0.085078614691386639 -0.35746924634313798 0 0.089950191724064404 -0.35722815546034781 0 0.086535315241223515 -0.35402910130056631 0 0.086535315241223515 -0.35402910130056631 0 0.083836701332126562 -0.34515685169244598 0 0.081773416293022747 -0.35073364784569622 0 0.081773416293022747 -0.35073364784569622 0 0.079115126598484575 -0.34624028148354402 0 0.07774629175562503 -0.35212960647422031 0 0.083836701332126562 -0.34515685169244598 0 0.079115126598484575 -0.34624028148354402 0 0.081665706955832362 -0.3405986748691614 0 0.083836701332126562 -0.34515685169244598 0 0.081773416293022747 -0.35073364784569622 0 0.079115126598484575 -0.34624028148354402 0 0.076695032085620549 -0.3392411192346112 0 0.053125757690406568 -0.35450732408916868 0 0.058012248125078561 -0.34606135572271413 0 0.071213938899831936 -0.35015081251460223 0 0.076695032085620549 -0.3392411192346112 0 0.053125757690406568 -0.35450732408916868 0 0.076695032085620549 -0.3392411192346112 0 0.053125757690406568 -0.35450732408916868 0 0.079115126598484575 -0.34624028148354402 0 0.071213938899831936 -0.35015081251460223 0 0.076695032085620549 -0.3392411192346112 0 0.079115126598484575 -0.34624028148354402 0 0.071213938899831936 -0.35015081251460223 0 0.07774629175562503 -0.35212960647422031 0 0.071213938899831936 -0.35015081251460223 0 0.062698919895186431 -0.35909907602553498 0 0.073738674937817009 -0.36002416744766691 0 0.081633646537654037 -0.35611239827770452 0 0.07774629175562503 -0.35212960647422031 0 0.073738674937817009 -0.36002416744766691 0 0.071213938899831936 -0.35015081251460223 0 0.07774629175562503 -0.35212960647422031 0 0.073738674937817009 -0.36002416744766691 0 0.082195305262604573 -0.36250733033393351 0 0.073738674937817009 -0.36002416744766691 0 0.076806702024829282 -0.3687446695939301 0 0.073738674937817009 -0.36002416744766691 0 0.069715089943093764 -0.37182189594123838 0 0.076806702024829282 -0.3687446695939301 0 0.062698919895186431 -0.35909907602553498 0 0.073738674937817009 -0.36002416744766691 0 0.061580381062066827 -0.36794010377183772 0 0.073738674937817009 -0.36002416744766691 0 0.069715089943093764 -0.37182189594123838 0 0.061580381062066827 -0.36794010377183772 0 0.062434002711576349 -0.38014586640644232 0 0.069715089943093764 -0.37182189594123838 0 0.061580381062066827 -0.36794010377183772 0 0.079993746184591527 -0.38294345687029069 0 0.069715089943093764 -0.37182189594123838 0 0.076806702024829282 -0.3687446695939301 0 0.088486940195069017 -0.31925545990124532 0 0.0811705470447837 -0.33571284133430002 0 0.078117128722877016 -0.32607591777069023 0 0.088486940195069017 -0.31925545990124532 0 0.0811705470447837 -0.33571284133430002 0 0.088486940195069017 -0.31925545990124532 0 0.087511127718146411 -0.33664228060090567 0 0.088486940195069017 -0.31925545990124532 0 0.078117128722877016 -0.32607591777069023 0 0.074259500140015824 -0.31599005950662112 0 0.088486940195069017 -0.31925545990124532 0 0.087511127718146411 -0.33664228060090567 0 0.0811705470447837 -0.33571284133430002 0 0.099906637263539627 -0.33151285405040581 0 0.088486940195069017 -0.31925545990124532 0 0.087511127718146411 -0.33664228060090567 0 0.099906637263539627 -0.33151285405040581 0 0.089950191724064404 -0.35722815546034781 0 0.087511127718146411 -0.33664228060090567 0 0.083836701332126562 -0.34515685169244598 0 0.087511127718146411 -0.33664228060090567 0 0.081665706955832362 -0.3405986748691614 0 0.087511127718146411 -0.33664228060090567 0 0.081665706955832362 -0.3405986748691614 0 0.0811705470447837 -0.33571284133430002 0 0.081665706955832362 -0.3405986748691614 0 0.0811705470447837 -0.33571284133430002 0 0.076695032085620549 -0.3392411192346112 0 0.079115126598484575 -0.34624028148354402 0 0.081665706955832362 -0.3405986748691614 0 0.076695032085620549 -0.3392411192346112 0 0.0811705470447837 -0.33571284133430002 0 0.075338301650444778 -0.33291747990280779 0 0.078117128722877016 -0.32607591777069023 0 0.075338301650444778 -0.33291747990280779 0 0.068360792600833428 -0.336049886115035 0 0.071330354584071498 -0.32650374820847711 0 0.076695032085620549 -0.3392411192346112 0 0.068360792600833428 -0.336049886115035 0 0.058012248125078561 -0.34606135572271413 0 0.075338301650444778 -0.33291747990280779 0 0.071330354584071498 -0.32650374820847711 0 0.078117128722877016 -0.32607591777069023 0 0.075338301650444778 -0.33291747990280779 0 0.076695032085620549 -0.3392411192346112 0 0.068360792600833428 -0.336049886115035 0 0.0811705470447837 -0.33571284133430002 0 0.075338301650444778 -0.33291747990280779 0 0.076695032085620549 -0.3392411192346112 0 0.068360792600833428 -0.336049886115035 0 0.061634974387052253 -0.33588104391870782 0 0.058012248125078561 -0.34606135572271413 0 0.068360792600833428 -0.336049886115035 0 0.062846290169987065 -0.32906295445309569 0 0.071330354584071498 -0.32650374820847711 0 0.068360792600833428 -0.336049886115035 0 0.062846290169987065 -0.32906295445309569 0 0.061634974387052253 -0.33588104391870782 0 0.062846290169987065 -0.32906295445309569 0 0.071330354584071498 -0.32650374820847711 0 0.064793190496030315 -0.31849887584590358 0 0.071330354584071498 -0.32650374820847711 0 0.074259500140015824 -0.31599005950662112 0 0.064793190496030315 -0.31849887584590358 0 0.071330354584071498 -0.32650374820847711 0 0.078117128722877016 -0.32607591777069023 0 0.074259500140015824 -0.31599005950662112 0 0.074259500140015824 -0.31599005950662112 0 0.064793190496030315 -0.31849887584590358 0 0.061440395170966111 -0.30760063749165589 0 0.062846290169987065 -0.32906295445309569 0 0.064793190496030315 -0.31849887584590358 0 0.048793293945138143 -0.3323846188307743 0 0.064793190496030315 -0.31849887584590358 0 0.048793293945138143 -0.3323846188307743 0 0.061440395170966111 -0.30760063749165589 0 0.048793293945138143 -0.3323846188307743 0 0.061440395170966111 -0.30760063749165589 0 0.048793293945138143 -0.3323846188307743 0 0.042361070047925643 -0.31570299617018133 0 0.061440395170966111 -0.30760063749165589 0 0.061634974387052253 -0.33588104391870782 0 0.053923864203400583 -0.33887173872382398 0 0.048793293945138143 -0.3323846188307743 0 0.062846290169987065 -0.32906295445309569 0 0.061634974387052253 -0.33588104391870782 0 0.048793293945138143 -0.3323846188307743 0 0.061634974387052253 -0.33588104391870782 0 0.048793293945138143 -0.3323846188307743 0 0.061634974387052253 -0.33588104391870782 0 0.053923864203400583 -0.33887173872382398 0 0.058012248125078561 -0.34606135572271413 0 0.053923864203400583 -0.33887173872382398 0 0.048793293945138143 -0.3323846188307743 0 0.041577449700426899 -0.34652519902485951 0 0.048793293945138143 -0.3323846188307743 0 0.026402605230432311 -0.3262882698278331 0 0.048793293945138143 -0.3323846188307743 0 0.034537757043934858 -0.33610732197446103 0 0.026402605230432311 -0.3262882698278331 0 0.048793293945138143 -0.3323846188307743 0 0.041577449700426899 -0.34652519902485951 0 0.048793293945138143 -0.3323846188307743 0 0.034537757043934858 -0.33610732197446103 0 0.041577449700426899 -0.34652519902485951 0 0.042361070047925643 -0.31570299617018133 0 0.023281744924889939 -0.32380535484871747 0 0.048793293945138143 -0.3323846188307743 0 0.042361070047925643 -0.31570299617018133 0 0.026402605230432311 -0.3262882698278331 0 0.052949778305331971 -0.37296294300991928 0 0.054747827295310622 -0.36443762417566189 0 0.044454335251511039 -0.36795860141532449 0 0.044956523250164651 -0.37815846292154948 0 0.052949778305331971 -0.37296294300991928 0 0.044454335251511039 -0.36795860141532449 0 0.062434002711576349 -0.38014586640644232 0 0.052949778305331971 -0.37296294300991928 0 0.061580381062066827 -0.36794010377183772 0 0.052949778305331971 -0.37296294300991928 0 0.061580381062066827 -0.36794010377183772 0 0.054747827295310622 -0.36443762417566189 0 0.062698919895186431 -0.35909907602553498 0 0.061580381062066827 -0.36794010377183772 0 0.054747827295310622 -0.36443762417566189 0 0.054747827295310622 -0.36443762417566189 0 0.053125757690406568 -0.35450732408916868 0 0.044454335251511039 -0.36795860141532449 0 0.058012248125078561 -0.34606135572271413 0 0.041577449700426899 -0.34652519902485951 0 0.071213938899831936 -0.35015081251460223 0 0.053125757690406568 -0.35450732408916868 0 0.053125757690406568 -0.35450732408916868 0 0.058012248125078561 -0.34606135572271413 0 0.041577449700426899 -0.34652519902485951 0 0.071213938899831936 -0.35015081251460223 0 0.062698919895186431 -0.35909907602553498 0 0.053125757690406568 -0.35450732408916868 0 0.053923864203400583 -0.33887173872382398 0 0.058012248125078561 -0.34606135572271413 0 0.041577449700426899 -0.34652519902485951 0 0.062698919895186431 -0.35909907602553498 0 0.054747827295310622 -0.36443762417566189 0 0.053125757690406568 -0.35450732408916868 0 0.053125757690406568 -0.35450732408916868 0 0.037760734050118289 -0.3540046528352529 0 0.0300785032056755 -0.36005822109546098 0 0.053125757690406568 -0.35450732408916868 0 0.0300785032056755 -0.36005822109546098 0 0.041577449700426899 -0.34652519902485951 0 0.037760734050118289 -0.3540046528352529 0 0.041577449700426899 -0.34652519902485951 0 0.037760734050118289 -0.3540046528352529 0 0.03013709728852098 -0.353024992375917 0 0.037760734050118289 -0.3540046528352529 0 0.0300785032056755 -0.36005822109546098 0 0.03013709728852098 -0.353024992375917 0 0.053125757690406568 -0.35450732408916868 0 0.041577449700426899 -0.34652519902485951 0 0.037760734050118289 -0.3540046528352529 0 0.053125757690406568 -0.35450732408916868 0 0.044454335251511039 -0.36795860141532449 0 0.028633206762856481 -0.37037155026774993 0 0.037209988177515939 -0.37524999236774259 0 0.044454335251511039 -0.36795860141532449 0 0.028633206762856481 -0.37037155026774993 0 0.053125757690406568 -0.35450732408916868 0 0.028633206762856481 -0.37037155026774993 0 0.053125757690406568 -0.35450732408916868 0 0.028633206762856481 -0.37037155026774993 0 0.0300785032056755 -0.36005822109546098 0 0.044956523250164651 -0.37815846292154948 0 0.037209988177515939 -0.37524999236774259 0 0.044454335251511039 -0.36795860141532449 0 0.0300785032056755 -0.36005822109546098 0 0.024052942134232449 -0.35732412676949538 0 0.0070312487209461139 -0.36560911810176072 0 0.0300785032056755 -0.36005822109546098 0 0.0070312487209461139 -0.36560911810176072 0 0.028633206762856481 -0.37037155026774993 0 0.0300785032056755 -0.36005822109546098 0 0.0085125744170690618 -0.36812678487812772 0 0.041577449700426899 -0.34652519902485951 0 0.03013709728852098 -0.353024992375917 0 0.01721585735215397 -0.34721276215451918 0 0.041577449700426899 -0.34652519902485951 0 0.01721585735215397 -0.34721276215451918 0 0.024052942134232449 -0.35732412676949538 0 0.01040599386537659 -0.3595133499523766 0 0.024052942134232449 -0.35732412676949538 0 0.01721585735215397 -0.34721276215451918 0 0.01040599386537659 -0.3595133499523766 0 0.024052942134232449 -0.35732412676949538 0 0.03013709728852098 -0.353024992375917 0 0.01721585735215397 -0.34721276215451918 0 0.0300785032056755 -0.36005822109546098 0 0.024052942134232449 -0.35732412676949538 0 0.03013709728852098 -0.353024992375917 0 -0.0040619637084774382 -0.34781329125918142 0 0.01721585735215397 -0.34721276215451918 0 0.01040599386537659 -0.3595133499523766 0 -0.0040619637084774382 -0.34781329125918142 0 0.01721585735215397 -0.34721276215451918 0 0.01721585735215397 -0.34721276215451918 0 0.01040599386537659 -0.3595133499523766 0 0.0300785032056755 -0.36005822109546098 0 0.0070312487209461139 -0.36560911810176072 0 0.0085125744170690618 -0.36812678487812772 0 0.024052942134232449 -0.35732412676949538 0 0.01040599386537659 -0.3595133499523766 0 0.0070312487209461139 -0.36560911810176072 0 -0.0092315767869633469 -0.36266357988516268 0 0.01040599386537659 -0.3595133499523766 0 0.004140655835305887 -0.38623577644633023 0 0.028633206762856481 -0.37037155026774993 0 0.0085125744170690618 -0.36812678487812772 0 0.004140655835305887 -0.38623577644633023 0 0.004491385456308495 -0.3701968475242281 0 0.0085125744170690618 -0.36812678487812772 0 -0.0092315767869633469 -0.36266357988516268 0 0.01040599386537659 -0.3595133499523766 0 0.0070312487209461139 -0.36560911810176072 0 0.01040599386537659 -0.3595133499523766 0 0.0070312487209461139 -0.36560911810176072 0 -0.005499767600076394 -0.36862719476803352 0 0.0070312487209461139 -0.36560911810176072 0 0.004491385456308495 -0.3701968475242281 0 0.0085125744170690618 -0.36812678487812772 0 0.0070312487209461139 -0.36560911810176072 0 0.004491385456308495 -0.3701968475242281 0 0.0085125744170690618 -0.36812678487812772 0 -0.005499767600076394 -0.36862719476803352 0 0.0070312487209461139 -0.36560911810176072 0 0.004491385456308495 -0.3701968475242281 0 0.0070312487209461139 -0.36560911810176072 0 0.004491385456308495 -0.3701968475242281 0 0.023281744924889939 -0.32380535484871747 0 0.026402605230432311 -0.3262882698278331 0 0.0040119165157269498 -0.32019192082489051 0 0.042361070047925643 -0.31570299617018133 0 0.023281744924889939 -0.32380535484871747 0 0.027487029514234079 -0.31401286545298618 0 0.042361070047925643 -0.31570299617018133 0 0.023281744924889939 -0.32380535484871747 0 0.026402605230432311 -0.3262882698278331 0 0.023281744924889939 -0.32380535484871747 0 0.021488966451138351 -0.31751140086506968 0 0.01481532855087715 -0.31733892995868168 0 0.01766801459935146 -0.31282753850777278 0 0.021488966451138351 -0.31751140086506968 0 0.027487029514234079 -0.31401286545298618 0 0.01766801459935146 -0.31282753850777278 0 0.021488966451138351 -0.31751140086506968 0 0.01481532855087715 -0.31733892995868168 0 0.023281744924889939 -0.32380535484871747 0 0.021488966451138351 -0.31751140086506968 0 0.027487029514234079 -0.31401286545298618 0 0.034537757043934858 -0.33610732197446103 0 0.041577449700426899 -0.34652519902485951 0 0.01721585735215397 -0.34721276215451918 0 0.034537757043934858 -0.33610732197446103 0 0.01721585735215397 -0.34721276215451918 0 0.025865693418340292 -0.33158865042660918 0 0.034537757043934858 -0.33610732197446103 0 0.026402605230432311 -0.3262882698278331 0 0.025865693418340292 -0.33158865042660918 0 0.01721585735215397 -0.34721276215451918 0 0.025865693418340292 -0.33158865042660918 0 0.01095063940592505 -0.33353778481797508 0 0.01721585735215397 -0.34721276215451918 0 0.025865693418340292 -0.33158865042660918 0 0.026402605230432311 -0.3262882698278331 0 0.025865693418340292 -0.33158865042660918 0 0.01095063940592505 -0.33353778481797508 0 -0.0040619637084774382 -0.34781329125918142 0 0.01721585735215397 -0.34721276215451918 0 0.01095063940592505 -0.33353778481797508 0 -0.0060755731424686037 -0.33147489451578949 0 -0.0040619637084774382 -0.34781329125918142 0 0.01095063940592505 -0.33353778481797508 0 -0.0060755731424686037 -0.33147489451578949 0 0.01095063940592505 -0.33353778481797508 0 0.0040119165157269498 -0.32019192082489051 0 0.026402605230432311 -0.3262882698278331 0 0.01095063940592505 -0.33353778481797508 0 0.0040119165157269498 -0.32019192082489051 0 0.023281744924889939 -0.32380535484871747 0 0.01481532855087715 -0.31733892995868168 0 0.0040119165157269498 -0.32019192082489051 0 0.026402605230432311 -0.3262882698278331 0 0.0040119165157269498 -0.32019192082489051 0 0.01766801459935146 -0.31282753850777278 0 0.01481532855087715 -0.31733892995868168 0 0.0069218991655704901 -0.31182173821255171 0 0.01481532855087715 -0.31733892995868168 0 0.0040119165157269498 -0.32019192082489051 0 0.0069218991655704901 -0.31182173821255171 0 -0.0063767584182884453 -0.31267072953001079 0 0.0040119165157269498 -0.32019192082489051 0 0.0069218991655704901 -0.31182173821255171 0 -0.0063596629264112857 -0.30462589040891103 0 0.0069218991655704901 -0.31182173821255171 0 -0.0063596629264112857 -0.30462589040891103 0 0.011628077543268049 -0.30481141212414281 0 0.01486548148095768 -0.2901998081610071 0 -0.0063596629264112857 -0.30462589040891103 0 0.01486548148095768 -0.2901998081610071 0 -0.0063596629264112857 -0.30462589040891103 0 0.0069218991655704901 -0.31182173821255171 0 0.011628077543268049 -0.30481141212414281 0 0.01766801459935146 -0.31282753850777278 0 0.0069218991655704901 -0.31182173821255171 0 0.011628077543268049 -0.30481141212414281 0 -0.0063596629264112857 -0.30462589040891103 0 -0.0017353971264607181 -0.28860223348569658 0 0.01486548148095768 -0.2901998081610071 0 -0.0017353971264607181 -0.28860223348569658 0 0.01486548148095768 -0.2901998081610071 0 0.01217519740530776 -0.2668565954612736 0 0.01486548148095768 -0.2901998081610071 0 0.039901926935972581 -0.29644633362160078 0 0.036090625888327448 -0.27577372591310451 0 0.01486548148095768 -0.2901998081610071 0 0.036090625888327448 -0.27577372591310451 0 0.01486548148095768 -0.2901998081610071 0 0.0250446553968727 -0.30458208533047271 0 0.039901926935972581 -0.29644633362160078 0 0.01766801459935146 -0.31282753850777278 0 0.011628077543268049 -0.30481141212414281 0 0.0250446553968727 -0.30458208533047271 0 0.01766801459935146 -0.31282753850777278 0 0.027487029514234079 -0.31401286545298618 0 0.0250446553968727 -0.30458208533047271 0 0.011628077543268049 -0.30481141212414281 0 0.01486548148095768 -0.2901998081610071 0 0.0250446553968727 -0.30458208533047271 0 0.027487029514234079 -0.31401286545298618 0 0.0250446553968727 -0.30458208533047271 0 0.03442681282355553 -0.3073151931435707 0 0.042361070047925643 -0.31570299617018133 0 0.03442681282355553 -0.3073151931435707 0 0.039901926935972581 -0.29644633362160078 0 0.042361070047925643 -0.31570299617018133 0 0.027487029514234079 -0.31401286545298618 0 0.03442681282355553 -0.3073151931435707 0 0.0250446553968727 -0.30458208533047271 0 0.03442681282355553 -0.3073151931435707 0 0.039901926935972581 -0.29644633362160078 0 0.039901926935972581 -0.29644633362160078 0 0.054413464963880082 -0.28136390881681578 0 0.036090625888327448 -0.27577372591310451 0 0.039901926935972581 -0.29644633362160078 0 0.054413464963880082 -0.28136390881681578 0 0.061440395170966111 -0.30760063749165589 0 0.042361070047925643 -0.31570299617018133 0 0.039901926935972581 -0.29644633362160078 0 0.061440395170966111 -0.30760063749165589 0 0.042361070047925643 -0.31570299617018133 0 0.061440395170966111 -0.30760063749165589 0 0.050331898211866621 -0.26215167502837872 0 0.045546368613526338 -0.2431557691174063 0 0.050331898211866621 -0.26215167502837872 0 0.045546368613526338 -0.2431557691174063 0 0.058330191768976081 -0.24860232186296641 0 0.050331898211866621 -0.26215167502837872 0 0.05731577029569726 -0.26134764366520169 0 0.058330191768976081 -0.24860232186296641 0 0.054413464963880082 -0.28136390881681578 0 0.05731577029569726 -0.26134764366520169 0 0.036090625888327448 -0.27577372591310451 0 0.070807635688589929 -0.26797872466658063 0 0.054413464963880082 -0.28136390881681578 0 0.05731577029569726 -0.26134764366520169 0 0.050331898211866621 -0.26215167502837872 0 0.05731577029569726 -0.26134764366520169 0 0.036090625888327448 -0.27577372591310451 0 0.05731577029569726 -0.26134764366520169 0 0.036090625888327448 -0.27577372591310451 0 0.050331898211866621 -0.26215167502837872 0 0.036090625888327448 -0.27577372591310451 0 0.031558627618753249 -0.25678036892406592 0 0.050331898211866621 -0.26215167502837872 0 0.031558627618753249 -0.25678036892406592 0 0.045546368613526338 -0.2431557691174063 0 0.031558627618753249 -0.25678036892406592 0 0.01217519740530776 -0.2668565954612736 0 0.018504558414158101 -0.23550154792479211 0 0.036090625888327448 -0.27577372591310451 0 0.031558627618753249 -0.25678036892406592 0 0.01217519740530776 -0.2668565954612736 0 0.01486548148095768 -0.2901998081610071 0 0.036090625888327448 -0.27577372591310451 0 0.01217519740530776 -0.2668565954612736 0 -0.0017353971264607181 -0.28860223348569658 0 -0.010305792251711691 -0.27429525117709919 0 0.01217519740530776 -0.2668565954612736 0 -0.0037517221868697478 -0.24684323264315031 0 0.01217519740530776 -0.2668565954612736 0 0.018504558414158101 -0.23550154792479211 0 -0.0037517221868697478 -0.24684323264315031 0 0.018504558414158101 -0.23550154792479211 0 -0.0037517221868697478 -0.24684323264315031 0 0.0082068293806228168 -0.22365460084151381 0 0.018504558414158101 -0.23550154792479211 0 0.018504558414158101 -0.23550154792479211 0 0.02335716778713114 -0.2179729299096462 0 0.040760839015186061 -0.22415986320643391 0 0.018504558414158101 -0.23550154792479211 0 0.040760839015186061 -0.22415986320643391 0 0.0082068293806228168 -0.22365460084151381 0 0.018504558414158101 -0.23550154792479211 0 0.02335716778713114 -0.2179729299096462 0 0.01265572841376569 -0.1885619907641998 0 0.0118853391263529 -0.1976199973689739 0 0.0016220851498990111 -0.18706253986558219 0 -0.00087008517443049169 -0.20676331926816319 0 0.0118853391263529 -0.1976199973689739 0 0.01165971287265314 -0.20404562522527461 0 -0.0076778747790505319 -0.2226872354148747 0 0.01165971287265314 -0.20404562522527461 0 -0.0076778747790505319 -0.2226872354148747 0 -0.00087008517443049169 -0.20676331926816319 0 0.01165971287265314 -0.20404562522527461 0 -0.0076778747790505319 -0.2226872354148747 0 0.0082068293806228168 -0.22365460084151381 0 0.01165971287265314 -0.20404562522527461 0 0.0082068293806228168 -0.22365460084151381 0 0.01165971287265314 -0.20404562522527461 0 0.02335716778713114 -0.2179729299096462 0 0.02335716778713114 -0.2179729299096462 0 0.025473312738478131 -0.20305112732291239 0 0.035879069769771448 -0.20478193912105441 0 0.01165971287265314 -0.20404562522527461 0 0.02335716778713114 -0.2179729299096462 0 0.025473312738478131 -0.20305112732291239 0 0.025473312738478131 -0.20305112732291239 0 0.035879069769771448 -0.20478193912105441 0 0.03099730052435681 -0.18540401503567469 0 0.01265572841376569 -0.1885619907641998 0 0.0118853391263529 -0.1976199973689739 0 0.03099730052435681 -0.18540401503567469 0 0.01165971287265314 -0.20404562522527461 0 0.025473312738478131 -0.20305112732291239 0 0.03099730052435681 -0.18540401503567469 0 0.01165971287265314 -0.20404562522527461 0 0.03099730052435681 -0.18540401503567469 0 0.0118853391263529 -0.1976199973689739 0 0.01165971287265314 -0.20404562522527461 0 0.03099730052435681 -0.18540401503567469 0 0.035879069769771448 -0.20478193912105441 0 0.050592033623411782 -0.18848331420610551 0 0.03099730052435681 -0.18540401503567469 0 0.035879069769771448 -0.20478193912105441 0 0.03099730052435681 -0.18540401503567469 0 0.02335716778713114 -0.2179729299096462 0 0.035879069769771448 -0.20478193912105441 0 0.040760839015186061 -0.22415986320643391 0 0.035879069769771448 -0.20478193912105441 0 0.040760839015186061 -0.22415986320643391 0 0.040760839015186061 -0.22415986320643391 0 0.066905441624138751 -0.21083670983714109 0 0.035879069769771448 -0.20478193912105441 0 0.040760839015186061 -0.22415986320643391 0 0.066905441624138751 -0.21083670983714109 0 0.035879069769771448 -0.20478193912105441 0 0.050592033623411782 -0.18848331420610551 0 0.066905441624138751 -0.21083670983714109 0 0.031558627618753249 -0.25678036892406592 0 0.018504558414158101 -0.23550154792479211 0 0.045546368613526338 -0.2431557691174063 0 0.045546368613526338 -0.2431557691174063 0 0.040760839015186061 -0.22415986320643391 0 0.018504558414158101 -0.23550154792479211 0 0.045546368613526338 -0.2431557691174063 0 0.040760839015186061 -0.22415986320643391 0 0.040760839015186061 -0.22415986320643391 0 0.059916007020723069 -0.22943496008654621 0 0.066905441624138751 -0.21083670983714109 0 0.045546368613526338 -0.2431557691174063 0 0.040760839015186061 -0.22415986320643391 0 0.059916007020723069 -0.22943496008654621 0 0.045546368613526338 -0.2431557691174063 0 0.059916007020723069 -0.22943496008654621 0 0.058330191768976081 -0.24860232186296641 0 0.059916007020723069 -0.22943496008654621 0 0.058330191768976081 -0.24860232186296641 0 0.078540914703067094 -0.24692156141729901 0 0.078540914703067094 -0.24692156141729901 0 0.092512299642676557 -0.2467103601984254 0 0.099766059110437649 -0.23249547916939731 0 0.078540914703067094 -0.24692156141729901 0 0.099766059110437649 -0.23249547916939731 0 0.082715310234125872 -0.2486696882164342 0 0.078540914703067094 -0.24692156141729901 0 0.092512299642676557 -0.2467103601984254 0 0.082099871799725416 -0.22288982406646271 0 0.099766059110437649 -0.23249547916939731 0 0.094420764106893554 -0.2201366774205441 0 0.078540914703067094 -0.24692156141729901 0 0.082099871799725416 -0.22288982406646271 0 0.099766059110437649 -0.23249547916939731 0 0.059916007020723069 -0.22943496008654621 0 0.082099871799725416 -0.22288982406646271 0 0.066905441624138751 -0.21083670983714109 0 0.059916007020723069 -0.22943496008654621 0 0.078540914703067094 -0.24692156141729901 0 0.082099871799725416 -0.22288982406646271 0 0.050592033623411782 -0.18848331420610551 0 0.066905441624138751 -0.21083670983714109 0 0.070906054221506171 -0.18431817258865421 0 0.066905441624138751 -0.21083670983714109 0 0.093050044233091489 -0.19751355646784849 0 0.070906054221506171 -0.18431817258865421 0 0.082099871799725416 -0.22288982406646271 0 0.093050044233091489 -0.19751355646784849 0 0.094420764106893554 -0.2201366774205441 0 0.066905441624138751 -0.21083670983714109 0 0.093050044233091489 -0.19751355646784849 0 0.082099871799725416 -0.22288982406646271 0 0.066905441624138751 -0.21083670983714109 0 0.093050044233091489 -0.19751355646784849 0 0.093050044233091489 -0.19751355646784849 0 0.1041879525049535 -0.21257632881812211 0 0.11161371319825911 -0.2043684308632564 0 0.093050044233091489 -0.19751355646784849 0 0.1041879525049535 -0.21257632881812211 0 0.094420764106893554 -0.2201366774205441 0 0.1041879525049535 -0.21257632881812211 0 0.094420764106893554 -0.2201366774205441 0 0.1066400148805068 -0.2205306154332303 0 0.093050044233091489 -0.19751355646784849 0 0.11609861071926381 -0.196147549167728 0 0.11161371319825911 -0.2043684308632564 0 0.093050044233091489 -0.19751355646784849 0 0.11919464684204401 -0.18419040309855589 0 0.093050044233091489 -0.19751355646784849 0 0.11609861071926381 -0.196147549167728 0 0.11919464684204401 -0.18419040309855589 0 0.11609861071926381 -0.196147549167728 0 0.11161371319825911 -0.2043684308632564 0 0.12138945923594451 -0.203631558129896 0 0.11609861071926381 -0.196147549167728 0 0.12138945923594451 -0.203631558129896 0 0.12930783881334909 -0.19446842608874171 0 0.11609861071926381 -0.196147549167728 0 0.11919464684204401 -0.18419040309855589 0 0.12930783881334909 -0.19446842608874171 0 0.1176226638148295 -0.21249286524349459 0 0.1145509265538211 -0.22244665643024261 0 0.1066400148805068 -0.2205306154332303 0 0.1041879525049535 -0.21257632881812211 0 0.1176226638148295 -0.21249286524349459 0 0.1066400148805068 -0.2205306154332303 0 0.11161371319825911 -0.2043684308632564 0 0.12138945923594451 -0.203631558129896 0 0.1176226638148295 -0.21249286524349459 0 0.1041879525049535 -0.21257632881812211 0 0.11161371319825911 -0.2043684308632564 0 0.1176226638148295 -0.21249286524349459 0 0.12138945923594451 -0.203631558129896 0 0.1176226638148295 -0.21249286524349459 0 0.1293357939972053 -0.21239783369108881 0 0.1145509265538211 -0.22244665643024261 0 0.1263330395909652 -0.22137451192945309 0 0.1293357939972053 -0.21239783369108881 0 0.1176226638148295 -0.21249286524349459 0 0.1145509265538211 -0.22244665643024261 0 0.1293357939972053 -0.21239783369108881 0 0.1145509265538211 -0.22244665643024261 0 0.1293357939972053 -0.21239783369108881 0 0.1145509265538211 -0.22244665643024261 0 0.1263330395909652 -0.22137451192945309 0 0.12784762921016379 -0.23071813566463911 0 0.1145509265538211 -0.22244665643024261 0 0.1136779421325847 -0.23706315596906399 0 0.12784762921016379 -0.23071813566463911 0 0.11895464661316579 -0.25072187298028797 0 0.1136779421325847 -0.23706315596906399 0 0.12784762921016379 -0.23071813566463911 0 0.11895464661316579 -0.25072187298028797 0 0.12784762921016379 -0.23071813566463911 0 0.11895464661316579 -0.25072187298028797 0 0.1103411570718805 -0.24552118873786299 0 0.1136779421325847 -0.23706315596906399 0 0.1054350680331206 -0.25220871673219458 0 0.11895464661316579 -0.25072187298028797 0 0.1103411570718805 -0.24552118873786299 0 0.1136779421325847 -0.23706315596906399 0 0.1025541165564121 -0.2434670820289758 0 0.099766059110437649 -0.23249547916939731 0 0.1103411570718805 -0.24552118873786299 0 0.1136779421325847 -0.23706315596906399 0 0.1025541165564121 -0.2434670820289758 0 0.1054350680331206 -0.25220871673219458 0 0.1103411570718805 -0.24552118873786299 0 0.1025541165564121 -0.2434670820289758 0 0.098619260441350165 -0.25137374290502063 0 0.1054350680331206 -0.25220871673219458 0 0.1025541165564121 -0.2434670820289758 0 0.098619260441350165 -0.25137374290502063 0 0.092512299642676557 -0.2467103601984254 0 0.1025541165564121 -0.2434670820289758 0 0.092512299642676557 -0.2467103601984254 0 0.1025541165564121 -0.2434670820289758 0 0.099766059110437649 -0.23249547916939731 0 0.092512299642676557 -0.2467103601984254 0 0.099766059110437649 -0.23249547916939731 0 0.099766059110437649 -0.23249547916939731 0 0.094420764106893554 -0.2201366774205441 0 0.1021250620227702 -0.22787264243281241 0 0.099766059110437649 -0.23249547916939731 0 0.1021250620227702 -0.22787264243281241 0 0.094420764106893554 -0.2201366774205441 0 0.1066400148805068 -0.2205306154332303 0 0.1021250620227702 -0.22787264243281241 0 0.1145509265538211 -0.22244665643024261 0 0.1066400148805068 -0.2205306154332303 0 0.1021250620227702 -0.22787264243281241 0 0.1145509265538211 -0.22244665643024261 0 0.099766059110437649 -0.23249547916939731 0 0.1021250620227702 -0.22787264243281241 0 0.1145509265538211 -0.22244665643024261 0 0.099766059110437649 -0.23249547916939731 0 0.1145509265538211 -0.22244665643024261 0 0.1136779421325847 -0.23706315596906399 0 0.099766059110437649 -0.23249547916939731 0 0.097773225334095104 -0.1468663500798785 0 0.11044196912907719 -0.15176831564942381 0 0.10482113254626831 -0.1627465974250048 0 0.097773225334095104 -0.1468663500798785 0 0.10482113254626831 -0.1627465974250048 0 0.085245688019217142 -0.1561351554723113 0 0.097773225334095104 -0.1468663500798785 0 0.1078042025487442 -0.1364010611634203 0 0.11044196912907719 -0.15176831564942381 0 0.093752669917462741 -0.130352948663398 0 0.1078042025487442 -0.1364010611634203 0 0.10462632680470051 -0.111781823244128 0 0.097773225334095104 -0.1468663500798785 0 0.093752669917462741 -0.130352948663398 0 0.1078042025487442 -0.1364010611634203 0 0.1078042025487442 -0.1364010611634203 0 0.1206433177034321 -0.1276047896024104 0 0.10462632680470051 -0.111781823244128 0 0.1078042025487442 -0.1364010611634203 0 0.1206433177034321 -0.1276047896024104 0 0.1234005852276296 -0.14771089094059309 0 0.1078042025487442 -0.1364010611634203 0 0.1234005852276296 -0.14771089094059309 0 0.11044196912907719 -0.15176831564942381 0 0.1234005852276296 -0.14771089094059309 0 0.11044196912907719 -0.15176831564942381 0 0.11811695268855479 -0.16220582295012551 0 0.1234005852276296 -0.14771089094059309 0 0.11811695268855479 -0.16220582295012551 0 0.13042071468721811 -0.1594269608098392 0 0.11811695268855479 -0.16220582295012551 0 0.1145037114591019 -0.1699672136981866 0 0.1213462227088546 -0.17511257455271501 0 0.11811695268855479 -0.16220582295012551 0 0.1213462227088546 -0.17511257455271501 0 0.13157192721459271 -0.16987146461401559 0 0.1145037114591019 -0.1699672136981866 0 0.10889363323769739 -0.1776097317346261 0 0.10482113254626831 -0.1627465974250048 0 0.11811695268855479 -0.16220582295012551 0 0.1145037114591019 -0.1699672136981866 0 0.10482113254626831 -0.1627465974250048 0 0.11044196912907719 -0.15176831564942381 0 0.11811695268855479 -0.16220582295012551 0 0.10482113254626831 -0.1627465974250048 0 0.11919464684204401 -0.18419040309855589 0 0.1213462227088546 -0.17511257455271501 0 0.12930783881334909 -0.19446842608874171 0 0.11919464684204401 -0.18419040309855589 0 0.1213462227088546 -0.17511257455271501 0 0.10889363323769739 -0.1776097317346261 0 0.1145037114591019 -0.1699672136981866 0 0.1213462227088546 -0.17511257455271501 0 0.10889363323769739 -0.1776097317346261 0 0.093050044233091489 -0.19751355646784849 0 0.11919464684204401 -0.18419040309855589 0 0.10889363323769739 -0.1776097317346261 0 0.093050044233091489 -0.19751355646784849 0 0.10889363323769739 -0.1776097317346261 0 0.097981032945318819 -0.1771151028879252 0 0.10889363323769739 -0.1776097317346261 0 0.097981032945318819 -0.1771151028879252 0 0.10482113254626831 -0.1627465974250048 0 0.097981032945318819 -0.1771151028879252 0 0.10482113254626831 -0.1627465974250048 0 0.084132234809424167 -0.17100179997525461 0 0.10482113254626831 -0.1627465974250048 0 0.084132234809424167 -0.17100179997525461 0 0.085245688019217142 -0.1561351554723113 0 0.084132234809424167 -0.17100179997525461 0 0.071223255244498906 -0.16307768837732911 0 0.085245688019217142 -0.1561351554723113 0 0.093050044233091489 -0.19751355646784849 0 0.084132234809424167 -0.17100179997525461 0 0.070906054221506171 -0.18431817258865421 0 0.093050044233091489 -0.19751355646784849 0 0.097981032945318819 -0.1771151028879252 0 0.084132234809424167 -0.17100179997525461 0 0.084132234809424167 -0.17100179997525461 0 0.070906054221506171 -0.18431817258865421 0 0.071223255244498906 -0.16307768837732911 0 0.070906054221506171 -0.18431817258865421 0 0.071223255244498906 -0.16307768837732911 0 0.05587568622878062 -0.17049057328450229 0 0.071223255244498906 -0.16307768837732911 0 0.07227295990526085 -0.14027619095722349 0 0.058498771762240012 -0.1542557361587143 0 0.071223255244498906 -0.16307768837732911 0 0.085245688019217142 -0.1561351554723113 0 0.07227295990526085 -0.14027619095722349 0 0.07227295990526085 -0.14027619095722349 0 0.059716377908374987 -0.14149126709443799 0 0.058498771762240012 -0.1542557361587143 0 0.085245688019217142 -0.1561351554723113 0 0.086244224673888648 -0.14065616392242891 0 0.07227295990526085 -0.14027619095722349 0 0.097773225334095104 -0.1468663500798785 0 0.085245688019217142 -0.1561351554723113 0 0.086244224673888648 -0.14065616392242891 0 0.097773225334095104 -0.1468663500798785 0 0.093752669917462741 -0.130352948663398 0 0.086244224673888648 -0.14065616392242891 0 0.093752669917462741 -0.130352948663398 0 0.082176580193407456 -0.12965017443933319 0 0.088553992269041704 -0.1161724992285468 0 0.093752669917462741 -0.130352948663398 0 0.086244224673888648 -0.14065616392242891 0 0.082176580193407456 -0.12965017443933319 0 0.086244224673888648 -0.14065616392242891 0 0.082176580193407456 -0.12965017443933319 0 0.07227295990526085 -0.14027619095722349 0 0.07227295990526085 -0.14027619095722349 0 0.056159612821167611 -0.12754510004381669 0 0.071729589031470808 -0.1176552112417848 0 0.082176580193407456 -0.12965017443933319 0 0.07227295990526085 -0.14027619095722349 0 0.071729589031470808 -0.1176552112417848 0 0.07227295990526085 -0.14027619095722349 0 0.056159612821167611 -0.12754510004381669 0 0.059716377908374987 -0.14149126709443799 0 0.056159612821167611 -0.12754510004381669 0 0.059716377908374987 -0.14149126709443799 0 0.049200920593509737 -0.14317907763733581 0 0.059716377908374987 -0.14149126709443799 0 0.058498771762240012 -0.1542557361587143 0 0.049200920593509737 -0.14317907763733581 0 0.058498771762240012 -0.1542557361587143 0 0.049200920593509737 -0.14317907763733581 0 0.042301199504670338 -0.15734010244414781 0 0.049200920593509737 -0.14317907763733581 0 0.03161589717602975 -0.137949585977199 0 0.042301199504670338 -0.15734010244414781 0 0.03161589717602975 -0.137949585977199 0 0.042301199504670338 -0.15734010244414781 0 0.024387052596798131 -0.15916498650189351 0 0.056159612821167611 -0.12754510004381669 0 0.03161589717602975 -0.137949585977199 0 0.056159612821167611 -0.12754510004381669 0 0.03161589717602975 -0.137949585977199 0 0.035698066588540127 -0.1134282353827256 0 0.056159612821167611 -0.12754510004381669 0 0.049200920593509737 -0.14317907763733581 0 0.03161589717602975 -0.137949585977199 0 0.050592033623411782 -0.18848331420610551 0 0.05587568622878062 -0.17049057328450229 0 0.041661945981536358 -0.17512319992037689 0 0.050592033623411782 -0.18848331420610551 0 0.070906054221506171 -0.18431817258865421 0 0.05587568622878062 -0.17049057328450229 0 0.058498771762240012 -0.1542557361587143 0 0.05587568622878062 -0.17049057328450229 0 0.042301199504670338 -0.15734010244414781 0 0.071223255244498906 -0.16307768837732911 0 0.058498771762240012 -0.1542557361587143 0 0.05587568622878062 -0.17049057328450229 0 0.042301199504670338 -0.15734010244414781 0 0.041661945981536358 -0.17512319992037689 0 0.024387052596798131 -0.15916498650189351 0 0.05587568622878062 -0.17049057328450229 0 0.042301199504670338 -0.15734010244414781 0 0.041661945981536358 -0.17512319992037689 0 0.050592033623411782 -0.18848331420610551 0 0.041661945981536358 -0.17512319992037689 0 0.03099730052435681 -0.18540401503567469 0 0.041661945981536358 -0.17512319992037689 0 0.03099730052435681 -0.18540401503567469 0 0.024387052596798131 -0.15916498650189351 0 0.041661945981536358 -0.17512319992037689 0 0.03099730052435681 -0.18540401503567469 0 0.01265572841376569 -0.1885619907641998 0 0.03099730052435681 -0.18540401503567469 0 0.012799101834937191 -0.1810099659542358 0 0.03099730052435681 -0.18540401503567469 0 0.01331226853566402 -0.16798655940407081 0 0.012799101834937191 -0.1810099659542358 0 0.03099730052435681 -0.18540401503567469 0 0.024387052596798131 -0.15916498650189351 0 0.03099730052435681 -0.18540401503567469 0 0.024387052596798131 -0.15916498650189351 0 0.01331226853566402 -0.16798655940407081 0 0.024387052596798131 -0.15916498650189351 0 0.01331226853566402 -0.16798655940407081 0 0.0070721815308918828 -0.14835407191058131 0 4.3932368462001469e-05 -0.16259256566360691 0 0.01331226853566402 -0.16798655940407081 0 0.0070721815308918828 -0.14835407191058131 0 4.3932368462001469e-05 -0.16259256566360691 0 0.01331226853566402 -0.16798655940407081 0 0.0032934927891920562 -0.17359131979549861 0 0.01331226853566402 -0.16798655940407081 0 0.0032934927891920562 -0.17359131979549861 0 0.012799101834937191 -0.1810099659542358 0 0.0032934927891920562 -0.17359131979549861 0 0.0016220851498990111 -0.18706253986558219 0 0.012799101834937191 -0.1810099659542358 0 0.01265572841376569 -0.1885619907641998 0 0.0016220851498990111 -0.18706253986558219 0 0.012799101834937191 -0.1810099659542358 0 0.03161589717602975 -0.137949585977199 0 0.0070721815308918828 -0.14835407191058131 0 0.0088244082276408946 -0.12923406822939981 0 0.03161589717602975 -0.137949585977199 0 0.0088244082276408946 -0.12923406822939981 0 0.02173542032009711 -0.12165178638358889 0 0.03161589717602975 -0.137949585977199 0 0.024387052596798131 -0.15916498650189351 0 0.0070721815308918828 -0.14835407191058131 0 0.03161589717602975 -0.137949585977199 0 0.0070721815308918828 -0.14835407191058131 0 -0.0098486782387315671 -0.13968786278958389 0 0.0070721815308918828 -0.14835407191058131 0 0.0088244082276408946 -0.12923406822939981 0 -0.0049910715658874252 -0.12520864677907331 0 0.0088244082276408946 -0.12923406822939981 0 0.010803309288177651 -0.1059952559450313 0 0.0088244082276408946 -0.12923406822939981 0 0.02173542032009711 -0.12165178638358889 0 0.010803309288177651 -0.1059952559450313 0 0.03161589717602975 -0.137949585977199 0 0.02173542032009711 -0.12165178638358889 0 0.035698066588540127 -0.1134282353827256 0 0.02173542032009711 -0.12165178638358889 0 0.010803309288177651 -0.1059952559450313 0 0.035698066588540127 -0.1134282353827256 0 0.010803309288177651 -0.1059952559450313 0 0.03424996421180411 -0.088611633246332935 0 0.035698066588540127 -0.1134282353827256 0 -0.01065999807502682 -0.1086257214281092 0 0.010803309288177651 -0.1059952559450313 0 0.0063309719484169009 -0.086524339565403285 0 0.0063309719484169009 -0.086524339565403285 0 0.017084666996278239 -0.072536231743430948 0 -0.001417147873282963 -0.070227706175478771 0 0.0063309719484169009 -0.086524339565403285 0 0.017084666996278239 -0.072536231743430948 0 -0.001417147873282963 -0.070227706175478771 0 0.017084666996278239 -0.072536231743430948 0 0.0083234155274403004 -0.050446337071338332 0 0.017084666996278239 -0.072536231743430948 0 0.03424996421180411 -0.088611633246332935 0 0.037971435015886908 -0.072102509093441 0 0.017084666996278239 -0.072536231743430948 0 0.037971435015886908 -0.072102509093441 0 0.027838362044138799 -0.058548123921458153 0 0.017084666996278239 -0.072536231743430948 0 0.027838362044138799 -0.058548123921458153 0 0.0063309719484169009 -0.086524339565403285 0 0.03424996421180411 -0.088611633246332935 0 0.010803309288177651 -0.1059952559450313 0 0.0063309719484169009 -0.086524339565403285 0 0.03424996421180411 -0.088611633246332935 0 0.0063309719484169009 -0.086524339565403285 0 0.017084666996278239 -0.072536231743430948 0 0.03424996421180411 -0.088611633246332935 0 0.054724874805090147 -0.069710275728834425 0 0.027838362044138799 -0.058548123921458153 0 0.037971435015886908 -0.072102509093441 0 0.054724874805090147 -0.069710275728834425 0 0.027838362044138799 -0.058548123921458153 0 0.03424996421180411 -0.088611633246332935 0 0.037971435015886908 -0.072102509093441 0 0.054724874805090147 -0.069710275728834425 0 0.054724874805090147 -0.069710275728834425 0 0.066436392431400287 -0.074572406374113984 0 0.054724874805090147 -0.069710275728834425 0 0.062053439556375413 -0.059248039425774758 0 0.066436392431400287 -0.074572406374113984 0 0.03424996421180411 -0.088611633246332935 0 0.054724874805090147 -0.069710275728834425 0 0.062168956475191453 -0.090698926927261669 0 0.054724874805090147 -0.069710275728834425 0 0.062168956475191453 -0.090698926927261669 0 0.054724874805090147 -0.069710275728834425 0 0.062168956475191453 -0.090698926927261669 0 0.066436392431400287 -0.074572406374113984 0 0.03424996421180411 -0.088611633246332935 0 0.062168956475191453 -0.090698926927261669 0 0.062168956475191453 -0.090698926927261669 0 0.053443805870123109 -0.1080023351216501 0 0.071729589031470808 -0.1176552112417848 0 0.03424996421180411 -0.088611633246332935 0 0.062168956475191453 -0.090698926927261669 0 0.053443805870123109 -0.1080023351216501 0 0.056159612821167611 -0.12754510004381669 0 0.053443805870123109 -0.1080023351216501 0 0.071729589031470808 -0.1176552112417848 0 0.056159612821167611 -0.12754510004381669 0 0.053443805870123109 -0.1080023351216501 0 0.035698066588540127 -0.1134282353827256 0 0.03424996421180411 -0.088611633246332935 0 0.053443805870123109 -0.1080023351216501 0 0.035698066588540127 -0.1134282353827256 0 0.028349239989563391 0.0046560496035753726 0 0.034047580944343812 -0.01141047089012821 0 0.01651361521581661 -0.0058849639220075467 0 0.016323175706114499 -0.01758625992048149 0 0.034047580944343812 -0.01141047089012821 0 0.028349239989563391 0.0046560496035753726 0 0.01651361521581661 -0.0058849639220075467 0 0.034047580944343812 -0.01141047089012821 0 0.028349239989563391 0.0046560496035753726 0 0.01651361521581661 -0.0058849639220075467 0 0.014539710737812159 -0.00031952355959833159 0 0.028349239989563391 0.0046560496035753726 0 0.01651361521581661 -0.0058849639220075467 0 0.01651361521581661 -0.0058849639220075467 0 0.014539710737812159 -0.00031952355959833159 0 0.0046779904420720169 -0.016425977447592929 0 0.014539710737812159 -0.00031952355959833159 0 0.0046779904420720169 -0.016425977447592929 0 -0.0089631398119183643 -5.4210394797340562e-05 0 0.014539710737812159 -0.00031952355959833159 0 0.0046779904420720169 -0.016425977447592929 0 0.01651361521581661 -0.0058849639220075467 0 0.0046779904420720169 -0.016425977447592929 0 0.01651361521581661 -0.0058849639220075467 0 0.0046779904420720169 -0.016425977447592929 0 0.016323175706114499 -0.01758625992048149 0 0.0046779904420720169 -0.016425977447592929 0 0.0081436191453070055 -0.027385597780398611 0 0.016323175706114499 -0.01758625992048149 0 0.0081436191453070055 -0.027385597780398611 0 0.016323175706114499 -0.01758625992048149 0 0.018872425612890889 -0.034476807177149273 0 -0.0032567702735929551 -0.029385263834405598 0 0.0046779904420720169 -0.016425977447592929 0 -0.0032567702735929551 -0.029385263834405598 0 0.0046779904420720169 -0.016425977447592929 0 0.0081436191453070055 -0.027385597780398611 0 0.018872425612890889 -0.034476807177149273 0 0.039745921899126423 -0.027476991383830991 0 0.026659212330947181 -0.023074697051475659 0 0.016323175706114499 -0.01758625992048149 0 0.034047580944343812 -0.01141047089012821 0 0.026659212330947181 -0.023074697051475659 0 0.016323175706114499 -0.01758625992048149 0 0.018872425612890889 -0.034476807177149273 0 0.026659212330947181 -0.023074697051475659 0 0.018872425612890889 -0.034476807177149273 0 0.039745921899126423 -0.027476991383830991 0 0.02834534676157589 -0.042446046248233567 0 0.018872425612890889 -0.034476807177149273 0 0.039745921899126423 -0.027476991383830991 0 0.02834534676157589 -0.042446046248233567 0 0.018872425612890889 -0.034476807177149273 0 0.0083234155274403004 -0.050446337071338332 0 -0.01119153098925808 -0.042344550221218039 0 0.0041562439286982498 -0.037449416732748153 0 0.0083234155274403004 -0.050446337071338332 0 0.018872425612890889 -0.034476807177149273 0 0.0041562439286982498 -0.037449416732748153 0 0.0083234155274403004 -0.050446337071338332 0 0.0081436191453070055 -0.027385597780398611 0 0.018872425612890889 -0.034476807177149273 0 0.0041562439286982498 -0.037449416732748153 0 -0.0032567702735929551 -0.029385263834405598 0 0.0081436191453070055 -0.027385597780398611 0 0.0041562439286982498 -0.037449416732748153 0 0.017084666996278239 -0.072536231743430948 0 0.0083234155274403004 -0.050446337071338332 0 0.027838362044138799 -0.058548123921458153 0 0.02834534676157589 -0.042446046248233567 0 0.0083234155274403004 -0.050446337071338332 0 0.027838362044138799 -0.058548123921458153 0 0.0083234155274403004 -0.050446337071338332 0 0.027838362044138799 -0.058548123921458153 0 0.054724874805090147 -0.069710275728834425 0 0.027838362044138799 -0.058548123921458153 0 0.045669262250594173 -0.044177899578564397 0 0.027838362044138799 -0.058548123921458153 0 0.045669262250594173 -0.044177899578564397 0 0.040838339875845828 -0.043261999346758763 0 0.027838362044138799 -0.058548123921458153 0 0.043527729655482308 -0.038139830322901087 0 0.062053439556375413 -0.059248039425774758 0 0.062380577955919517 -0.047346217498179431 0 0.045669262250594173 -0.044177899578564397 0 0.054724874805090147 -0.069710275728834425 0 0.062053439556375413 -0.059248039425774758 0 0.045669262250594173 -0.044177899578564397 0 0.054724874805090147 -0.069710275728834425 0 0.045669262250594173 -0.044177899578564397 0 0.055640112321517401 -0.037242715540291668 0 0.043527729655482308 -0.038139830322901087 0 0.055886034552943033 -0.022064490578461771 0 0.055640112321517401 -0.037242715540291668 0 0.043527729655482308 -0.038139830322901087 0 0.045669262250594173 -0.044177899578564397 0 0.062380577955919517 -0.047346217498179431 0 0.055640112321517401 -0.037242715540291668 0 0.045669262250594173 -0.044177899578564397 0 0.062380577955919517 -0.047346217498179431 0 0.045669262250594173 -0.044177899578564397 0 0.062380577955919517 -0.047346217498179431 0 0.055640112321517401 -0.037242715540291668 0 0.069210527821497267 -0.033746759874229787 0 0.02834534676157589 -0.042446046248233567 0 0.027838362044138799 -0.058548123921458153 0 0.043527729655482308 -0.038139830322901087 0 0.043527729655482308 -0.038139830322901087 0 0.039745921899126423 -0.027476991383830991 0 0.027838362044138799 -0.058548123921458153 0 0.043527729655482308 -0.038139830322901087 0 0.040838339875845828 -0.043261999346758763 0 0.043527729655482308 -0.038139830322901087 0 0.045669262250594173 -0.044177899578564397 0 0.040838339875845828 -0.043261999346758763 0 0.043527729655482308 -0.038139830322901087 0 0.045669262250594173 -0.044177899578564397 0 0.045669262250594173 -0.044177899578564397 0 0.040838339875845828 -0.043261999346758763 0 0.02834534676157589 -0.042446046248233567 0 0.043527729655482308 -0.038139830322901087 0 0.039745921899126423 -0.027476991383830991 0 0.039745921899126423 -0.027476991383830991 0 0.047435595713041782 -0.011676995301832249 0 0.034047580944343812 -0.01141047089012821 0 0.043527729655482308 -0.038139830322901087 0 0.039745921899126423 -0.027476991383830991 0 0.055886034552943033 -0.022064490578461771 0 0.026659212330947181 -0.023074697051475659 0 0.039745921899126423 -0.027476991383830991 0 0.034047580944343812 -0.01141047089012821 0 0.039745921899126423 -0.027476991383830991 0 0.034047580944343812 -0.01141047089012821 0 0.043527729655482308 -0.038139830322901087 0 0.055886034552943033 -0.022064490578461771 0 0.039745921899126423 -0.027476991383830991 0 0.055886034552943033 -0.022064490578461771 0 0.039745921899126423 -0.027476991383830991 0 0.055886034552943033 -0.022064490578461771 0 0.047435595713041782 -0.011676995301832249 0 0.055640112321517401 -0.037242715540291668 0 0.055886034552943033 -0.022064490578461771 0 0.069210527821497267 -0.033746759874229787 0 0.047740627773719187 0.001996661195049852 0 0.047435595713041782 -0.011676995301832249 0 0.071777021100217678 -0.0013939366682484619 0 0.055886034552943033 -0.022064490578461771 0 0.047435595713041782 -0.011676995301832249 0 0.071777021100217678 -0.0013939366682484619 0 0.028349239989563391 0.0046560496035753726 0 0.047740627773719187 0.001996661195049852 0 0.034047580944343812 -0.01141047089012821 0 0.047740627773719187 0.001996661195049852 0 0.047435595713041782 -0.011676995301832249 0 0.034047580944343812 -0.01141047089012821 0 0.086294217375082277 0.0038891852048607129 0 0.075330809441605251 -0.015543788895489101 0 0.094775584330267032 -0.0090230872125153811 0 0.075330809441605251 -0.015543788895489101 0 0.094775584330267032 -0.0090230872125153811 0 0.086294217375082277 0.0038891852048607129 0 0.071777021100217678 -0.0013939366682484619 0 0.075330809441605251 -0.015543788895489101 0 0.055886034552943033 -0.022064490578461771 0 0.071777021100217678 -0.0013939366682484619 0 0.055886034552943033 -0.022064490578461771 0 0.071777021100217678 -0.0013939366682484619 0 0.075330809441605251 -0.015543788895489101 0 0.075330809441605251 -0.015543788895489101 0 0.086933738995754586 -0.029768811315157181 0 0.069210527821497267 -0.033746759874229787 0 0.055886034552943033 -0.022064490578461771 0 0.075330809441605251 -0.015543788895489101 0 0.069210527821497267 -0.033746759874229787 0 0.055886034552943033 -0.022064490578461771 0 0.075330809441605251 -0.015543788895489101 0 0.086933738995754586 -0.029768811315157181 0 0.094775584330267032 -0.0090230872125153811 0 0.086933738995754586 -0.029768811315157181 0 0.094022570512313289 -0.016448182874558941 0 0.094775584330267032 -0.0090230872125153811 0 0.086933738995754586 -0.029768811315157181 0 0.098633744816219657 -0.033146606035298128 0 0.094022570512313289 -0.016448182874558941 0 0.075330809441605251 -0.015543788895489101 0 0.086933738995754586 -0.029768811315157181 0 0.094775584330267032 -0.0090230872125153811 0 0.086933738995754586 -0.029768811315157181 0 0.079091893661243834 -0.050514535417799697 0 0.086933738995754586 -0.029768811315157181 0 0.069210527821497267 -0.033746759874229787 0 0.079091893661243834 -0.050514535417799697 0 0.086933738995754586 -0.029768811315157181 0 0.093469141862974142 -0.042544320646798847 0 0.079091893661243834 -0.050514535417799697 0 0.086933738995754586 -0.029768811315157181 0 0.093469141862974142 -0.042544320646798847 0 0.098633744816219657 -0.033146606035298128 0 0.062380577955919517 -0.047346217498179431 0 0.069210527821497267 -0.033746759874229787 0 0.079091893661243834 -0.050514535417799697 0 0.062380577955919517 -0.047346217498179431 0 0.079091893661243834 -0.050514535417799697 0 0.062380577955919517 -0.047346217498179431 0 0.070241703031573566 -0.055251009591041927 0 0.079091893661243834 -0.050514535417799697 0 0.070241703031573566 -0.055251009591041927 0 0.078265989834924374 -0.052699476867835632 0 0.079091893661243834 -0.050514535417799697 0 0.062053439556375413 -0.059248039425774758 0 0.062380577955919517 -0.047346217498179431 0 0.070241703031573566 -0.055251009591041927 0 0.062053439556375413 -0.059248039425774758 0 0.070241703031573566 -0.055251009591041927 0 0.072867826863675739 -0.064430427783914085 0 0.070241703031573566 -0.055251009591041927 0 0.075208008594622552 -0.058112710458750279 0 0.072867826863675739 -0.064430427783914085 0 0.070241703031573566 -0.055251009591041927 0 0.075208008594622552 -0.058112710458750279 0 0.078265989834924374 -0.052699476867835632 0 0.075208008594622552 -0.058112710458750279 0 0.080437928105396267 -0.059266071202089723 0 0.078265989834924374 -0.052699476867835632 0 0.075208008594622552 -0.058112710458750279 0 0.080437928105396267 -0.059266071202089723 0 0.072867826863675739 -0.064430427783914085 0 0.080437928105396267 -0.059266071202089723 0 0.079091893661243834 -0.050514535417799697 0 0.090987034011036805 -0.061673551258483998 0 0.079091893661243834 -0.050514535417799697 0 0.090987034011036805 -0.061673551258483998 0 0.102539593931098 -0.054960012377771428 0 0.079091893661243834 -0.050514535417799697 0 0.102539593931098 -0.054960012377771428 0 0.093469141862974142 -0.042544320646798847 0 0.079091893661243834 -0.050514535417799697 0 0.102539593931098 -0.054960012377771428 0 0.080437928105396267 -0.059266071202089723 0 0.078265989834924374 -0.052699476867835632 0 0.079091893661243834 -0.050514535417799697 0 0.078265989834924374 -0.052699476867835632 0 0.079091893661243834 -0.050514535417799697 0 0.102539593931098 -0.054960012377771428 0 0.1158000858203849 -0.049077722847754593 0 0.10480775022846479 -0.042993843263661187 0 0.102539593931098 -0.054960012377771428 0 0.12598729420095231 -0.059405489337742472 0 0.102539593931098 -0.054960012377771428 0 0.1158000858203849 -0.049077722847754593 0 0.12598729420095231 -0.059405489337742472 0 0.1159266908706026 -0.034571656998529682 0 0.12626478483700471 -0.033040688818699808 0 0.1316704637345292 -0.040384474484378818 0 0.1158000858203849 -0.049077722847754593 0 0.1159266908706026 -0.034571656998529682 0 0.10480775022846479 -0.042993843263661187 0 0.1158000858203849 -0.049077722847754593 0 0.1159266908706026 -0.034571656998529682 0 0.1378308112288906 -0.052695131122502077 0 0.1159266908706026 -0.034571656998529682 0 0.10480775022846479 -0.042993843263661187 0 0.098633744816219657 -0.033146606035298128 0 0.093469141862974142 -0.042544320646798847 0 0.10480775022846479 -0.042993843263661187 0 0.098633744816219657 -0.033146606035298128 0 0.093469141862974142 -0.042544320646798847 0 0.102539593931098 -0.054960012377771428 0 0.10480775022846479 -0.042993843263661187 0 0.1159266908706026 -0.034571656998529682 0 0.098633744816219657 -0.033146606035298128 0 0.094022570512313289 -0.016448182874558941 0 0.1159266908706026 -0.034571656998529682 0 0.094022570512313289 -0.016448182874558941 0 0.1159266908706026 -0.034571656998529682 0 0.094022570512313289 -0.016448182874558941 0 0.110860010373316 -0.02204685199991668 0 0.094022570512313289 -0.016448182874558941 0 0.110860010373316 -0.02204685199991668 0 0.1065611039806322 -0.01410922715592608 0 0.1159266908706026 -0.034571656998529682 0 0.1195575949053195 -0.02577547896755232 0 0.110860010373316 -0.02204685199991668 0 0.1159266908706026 -0.034571656998529682 0 0.1195575949053195 -0.02577547896755232 0 0.12626478483700471 -0.033040688818699808 0 0.1195575949053195 -0.02577547896755232 0 0.12593102595036551 -0.017710786191869211 0 0.12626478483700471 -0.033040688818699808 0 0.1195575949053195 -0.02577547896755232 0 0.1176586630558578 -0.017813399862838759 0 0.12593102595036551 -0.017710786191869211 0 0.1176586630558578 -0.017813399862838759 0 0.110860010373316 -0.02204685199991668 0 0.1065611039806322 -0.01410922715592608 0 0.1195575949053195 -0.02577547896755232 0 0.1176586630558578 -0.017813399862838759 0 0.110860010373316 -0.02204685199991668 0 0.1176586630558578 -0.017813399862838759 0 0.1131743541472939 -0.010783279770072131 0 0.12052097409862091 -0.0066076135460219889 0 0.1176586630558578 -0.017813399862838759 0 0.1131743541472939 -0.010783279770072131 0 0.1065611039806322 -0.01410922715592608 0 0.1176586630558578 -0.017813399862838759 0 0.12052097409862091 -0.0066076135460219889 0 0.12593102595036551 -0.017710786191869211 0 0.1131743541472939 -0.010783279770072131 0 0.12052097409862091 -0.0066076135460219889 0 0.1079566754540649 -0.0046028785155016946 0 0.1191620246975521 0.0084359164153180715 0 0.12052097409862091 -0.0066076135460219889 0 0.1079566754540649 -0.0046028785155016946 0 0.1079566754540649 -0.0046028785155016946 0 0.1065611039806322 -0.01410922715592608 0 0.094775584330267032 -0.0090230872125153811 0 0.1131743541472939 -0.010783279770072131 0 0.1079566754540649 -0.0046028785155016946 0 0.1065611039806322 -0.01410922715592608 0 0.094022570512313289 -0.016448182874558941 0 0.1065611039806322 -0.01410922715592608 0 0.094775584330267032 -0.0090230872125153811 0 0.1079566754540649 -0.0046028785155016946 0 0.094775584330267032 -0.0090230872125153811 0 0.088553992269041704 -0.1161724992285468 0 0.071729589031470808 -0.1176552112417848 0 0.092173721033759065 -0.092942158161045757 0 0.082176580193407456 -0.12965017443933319 0 0.088553992269041704 -0.1161724992285468 0 0.071729589031470808 -0.1176552112417848 0 0.062168956475191453 -0.090698926927261669 0 0.071729589031470808 -0.1176552112417848 0 0.092173721033759065 -0.092942158161045757 0 0.062168956475191453 -0.090698926927261669 0 0.071729589031470808 -0.1176552112417848 0 0.062168956475191453 -0.090698926927261669 0 0.07416898908179842 -0.088764959893301923 0 0.066436392431400287 -0.074572406374113984 0 0.062168956475191453 -0.090698926927261669 0 0.07416898908179842 -0.088764959893301923 0 0.092173721033759065 -0.092942158161045757 0 0.062168956475191453 -0.090698926927261669 0 0.092173721033759065 -0.092942158161045757 0 0.07416898908179842 -0.088764959893301923 0 0.066436392431400287 -0.074572406374113984 0 0.078769084541923037 -0.075149473377788711 0 0.062053439556375413 -0.059248039425774758 0 0.066436392431400287 -0.074572406374113984 0 0.072867826863675739 -0.064430427783914085 0 0.066436392431400287 -0.074572406374113984 0 0.072867826863675739 -0.064430427783914085 0 0.078769084541923037 -0.075149473377788711 0 0.084475026969717301 -0.067803570885365289 0 0.078769084541923037 -0.075149473377788711 0 0.1000781416413751 -0.074085224615521722 0 0.080437928105396267 -0.059266071202089723 0 0.090987034011036805 -0.061673551258483998 0 0.084475026969717301 -0.067803570885365289 0 0.080437928105396267 -0.059266071202089723 0 0.072867826863675739 -0.064430427783914085 0 0.084475026969717301 -0.067803570885365289 0 0.072867826863675739 -0.064430427783914085 0 0.084475026969717301 -0.067803570885365289 0 0.078769084541923037 -0.075149473377788711 0 0.090987034011036805 -0.061673551258483998 0 0.084475026969717301 -0.067803570885365289 0 0.1000781416413751 -0.074085224615521722 0 0.07416898908179842 -0.088764959893301923 0 0.092173721033759065 -0.092942158161045757 0 0.1000781416413751 -0.074085224615521722 0 0.07416898908179842 -0.088764959893301923 0 0.1000781416413751 -0.074085224615521722 0 0.07416898908179842 -0.088764959893301923 0 0.078769084541923037 -0.075149473377788711 0 0.1000781416413751 -0.074085224615521722 0 0.092173721033759065 -0.092942158161045757 0 0.1000781416413751 -0.074085224615521722 0 0.122178485592327 -0.095185389394827194 0 0.090987034011036805 -0.061673551258483998 0 0.102539593931098 -0.054960012377771428 0 0.1000781416413751 -0.074085224615521722 0 0.1000781416413751 -0.074085224615521722 0 0.12598729420095231 -0.059405489337742472 0 0.1000781416413751 -0.074085224615521722 0 0.1247346350803711 -0.074266459761600179 0 0.12598729420095231 -0.059405489337742472 0 0.102539593931098 -0.054960012377771428 0 0.1000781416413751 -0.074085224615521722 0 0.12598729420095231 -0.059405489337742472 0 0.1000781416413751 -0.074085224615521722 0 0.1247346350803711 -0.074266459761600179 0 0.122178485592327 -0.095185389394827194 0 0.122178485592327 -0.095185389394827194 0 0.1202178099745039 -0.1128753539085957 0 0.13038573360593561 -0.1074214559370776 0 0.122178485592327 -0.095185389394827194 0 0.10462632680470051 -0.111781823244128 0 0.1202178099745039 -0.1128753539085957 0 0.092173721033759065 -0.092942158161045757 0 0.122178485592327 -0.095185389394827194 0 0.10462632680470051 -0.111781823244128 0 0.092173721033759065 -0.092942158161045757 0 0.122178485592327 -0.095185389394827194 0 0.088553992269041704 -0.1161724992285468 0 0.092173721033759065 -0.092942158161045757 0 0.10462632680470051 -0.111781823244128 0 0.093752669917462741 -0.130352948663398 0 0.088553992269041704 -0.1161724992285468 0 0.10462632680470051 -0.111781823244128 0 0.1206433177034321 -0.1276047896024104 0 0.10462632680470051 -0.111781823244128 0 0.1202178099745039 -0.1128753539085957 0 0.1206433177034321 -0.1276047896024104 0 0.1202178099745039 -0.1128753539085957 0 0.13219614793526371 -0.1198706582489745 0 0.1202178099745039 -0.1128753539085957 0 0.13219614793526371 -0.1198706582489745 0 0.13038573360593561 -0.1074214559370776 0 0.13219614793526371 -0.1198706582489745 0 0.14258326476043851 -0.1105004934459923 0 0.13038573360593561 -0.1074214559370776 0 0.13219614793526371 -0.1198706582489745 0 0.14551430292066059 -0.12415072041672701 0 0.14258326476043851 -0.1105004934459923 0 0.14258326476043851 -0.1105004934459923 0 0.149825294421812 -0.1165422456238631 0 0.15124146381947859 -0.10960781319802709 0 0.14551430292066059 -0.12415072041672701 0 0.14258326476043851 -0.1105004934459923 0 0.149825294421812 -0.1165422456238631 0 0.15124146381947859 -0.10960781319802709 0 0.15550036702153769 -0.10724483285135369 0 0.156642860201301 -0.1138764643456612 0 0.149825294421812 -0.1165422456238631 0 0.15124146381947859 -0.10960781319802709 0 0.156642860201301 -0.1138764643456612 0 0.149825294421812 -0.1165422456238631 0 0.15671540388469579 -0.1248661284275529 0 0.156642860201301 -0.1138764643456612 0 0.14551430292066059 -0.12415072041672701 0 0.149825294421812 -0.1165422456238631 0 0.15671540388469579 -0.1248661284275529 0 0.14258326476043851 -0.1105004934459923 0 0.15218325015089471 -0.097428620628609491 0 0.13038573360593561 -0.1074214559370776 0 0.15218325015089471 -0.097428620628609491 0 0.15283029863170611 -0.1010179843956225 0 0.16030981215469681 -0.1060734835701594 0 0.15218325015089471 -0.097428620628609491 0 0.15283029863170611 -0.1010179843956225 0 0.14258326476043851 -0.1105004934459923 0 0.15124146381947859 -0.10960781319802709 0 0.15283029863170611 -0.1010179843956225 0 0.15283029863170611 -0.1010179843956225 0 0.15550036702153769 -0.10724483285135369 0 0.16030981215469681 -0.1060734835701594 0 0.15124146381947859 -0.10960781319802709 0 0.15283029863170611 -0.1010179843956225 0 0.15550036702153769 -0.10724483285135369 0 0.14258326476043851 -0.1105004934459923 0 0.15218325015089471 -0.097428620628609491 0 0.15283029863170611 -0.1010179843956225 0 0.122178485592327 -0.095185389394827194 0 0.15218325015089471 -0.097428620628609491 0 0.13038573360593561 -0.1074214559370776 0 0.122178485592327 -0.095185389394827194 0 0.15218325015089471 -0.097428620628609491 0 0.122178485592327 -0.095185389394827194 0 0.15218325015089471 -0.097428620628609491 0 0.1368561999439234 -0.083086785617502823 0 0.1247346350803711 -0.074266459761600179 0 0.122178485592327 -0.095185389394827194 0 0.1368561999439234 -0.083086785617502823 0 0.1247346350803711 -0.074266459761600179 0 0.13021460028234111 -0.064597361856088026 0 0.13648221190471271 -0.070434018967795164 0 0.1247346350803711 -0.074266459761600179 0 0.13021460028234111 -0.064597361856088026 0 0.12598729420095231 -0.059405489337742472 0 0.1247346350803711 -0.074266459761600179 0 0.1368561999439234 -0.083086785617502823 0 0.13648221190471271 -0.070434018967795164 0 0.13021460028234111 -0.064597361856088026 0 0.13648221190471271 -0.070434018967795164 0 0.1361286120960607 -0.062046457586577092 0 0.13648221190471271 -0.070434018967795164 0 0.1361286120960607 -0.062046457586577092 0 0.14522158383173059 -0.058810258040755993 0 0.1487024169913112 -0.078119439334682989 0 0.1591924596505592 -0.086196749820062327 0 0.15808015511883769 -0.069449442823400737 0 0.1487024169913112 -0.078119439334682989 0 0.15808015511883769 -0.069449442823400737 0 0.14522158383173059 -0.058810258040755993 0 0.1487024169913112 -0.078119439334682989 0 0.14522158383173059 -0.058810258040755993 0 0.13648221190471271 -0.070434018967795164 0 0.1487024169913112 -0.078119439334682989 0 0.14522158383173059 -0.058810258040755993 0 0.1368561999439234 -0.083086785617502823 0 0.13648221190471271 -0.070434018967795164 0 0.1487024169913112 -0.078119439334682989 0 0.15808015511883769 -0.069449442823400737 0 0.14522158383173059 -0.058810258040755993 0 0.15218325015089471 -0.097428620628609491 0 0.1487024169913112 -0.078119439334682989 0 0.1591924596505592 -0.086196749820062327 0 0.15218325015089471 -0.097428620628609491 0 0.1487024169913112 -0.078119439334682989 0 0.15218325015089471 -0.097428620628609491 0 0.1368561999439234 -0.083086785617502823 0 0.1487024169913112 -0.078119439334682989 0 0.1591924596505592 -0.086196749820062327 0 0.17093872640594529 -0.080088627606045043 0 0.1701222935274847 -0.098769788373083908 0 0.17093872640594529 -0.080088627606045043 0 0.1701222935274847 -0.098769788373083908 0 0.1591924596505592 -0.086196749820062327 0 0.17093872640594529 -0.080088627606045043 0 0.15808015511883769 -0.069449442823400737 0 0.15808015511883769 -0.069449442823400737 0 0.16735775273976239 -0.066553928382566588 0 0.16223596831391371 -0.061620046157060598 0 0.15808015511883769 -0.069449442823400737 0 0.1552783027132589 -0.056822037556565647 0 0.16223596831391371 -0.061620046157060598 0 0.17093872640594529 -0.080088627606045043 0 0.15808015511883769 -0.069449442823400737 0 0.17093872640594529 -0.080088627606045043 0 0.15808015511883769 -0.069449442823400737 0 0.17114167195762819 -0.075444940932018867 0 0.15808015511883769 -0.069449442823400737 0 0.17114167195762819 -0.075444940932018867 0 0.16735775273976239 -0.066553928382566588 0 0.17093872640594529 -0.080088627606045043 0 0.17114167195762819 -0.075444940932018867 0 0.16735775273976239 -0.066553928382566588 0 0.17551723640639719 -0.06781890374503366 0 0.16971027594543309 -0.060943634025892091 0 0.17114167195762819 -0.075444940932018867 0 0.16735775273976239 -0.066553928382566588 0 0.17551723640639719 -0.06781890374503366 0 0.16735775273976239 -0.066553928382566588 0 0.16223596831391371 -0.061620046157060598 0 0.16971027594543309 -0.060943634025892091 0 0.17093872640594529 -0.080088627606045043 0 0.17114167195762819 -0.075444940932018867 0 0.1793993549597086 -0.075941492738388114 0 0.17114167195762819 -0.075444940932018867 0 0.17551723640639719 -0.06781890374503366 0 0.1793993549597086 -0.075941492738388114 0 0.1793993549597086 -0.075941492738388114 0 0.18312440696711549 -0.080812636428453904 0 0.18907887126890999 -0.076437943698516336 0 0.1793993549597086 -0.075941492738388114 0 0.1849739824476726 -0.06830556229337878 0 0.18907887126890999 -0.076437943698516336 0 0.17551723640639719 -0.06781890374503366 0 0.1793993549597086 -0.075941492738388114 0 0.1849739824476726 -0.06830556229337878 0 0.17551723640639719 -0.06781890374503366 0 0.1849739824476726 -0.06830556229337878 0 0.18014674194670641 -0.058245326709067902 0 0.17093872640594529 -0.080088627606045043 0 0.18609537537780349 -0.086545920110805225 0 0.18862953803428989 -0.09472600913673114 0 0.17093872640594529 -0.080088627606045043 0 0.18862953803428989 -0.09472600913673114 0 0.17093872640594529 -0.080088627606045043 0 0.1701222935274847 -0.098769788373083908 0 0.18862953803428989 -0.09472600913673114 0 0.17093872640594529 -0.080088627606045043 0 0.1793993549597086 -0.075941492738388114 0 0.18312440696711549 -0.080812636428453904 0 0.17093872640594529 -0.080088627606045043 0 0.18312440696711549 -0.080812636428453904 0 0.18609537537780349 -0.086545920110805225 0 0.18312440696711549 -0.080812636428453904 0 0.18970772040866041 -0.083047553800424043 0 0.18907887126890999 -0.076437943698516336 0 0.18312440696711549 -0.080812636428453904 0 0.18609537537780349 -0.086545920110805225 0 0.18970772040866041 -0.083047553800424043 0 0.1701222935274847 -0.098769788373083908 0 0.19146776374546909 -0.1003656291069529 0 0.17947976175320851 -0.1105709914944366 0 0.1701222935274847 -0.098769788373083908 0 0.19146776374546909 -0.1003656291069529 0 0.1701222935274847 -0.098769788373083908 0 0.19146776374546909 -0.1003656291069529 0 0.18862953803428989 -0.09472600913673114 0 0.17947976175320851 -0.1105709914944366 0 0.18709332633086589 -0.1240913853495033 0 0.1692356634090143 -0.1190571631482054 0 0.17947976175320851 -0.1105709914944366 0 0.18709332633086589 -0.1240913853495033 0 0.19146776374546909 -0.1003656291069529 0 0.17947976175320851 -0.1105709914944366 0 0.1692356634090143 -0.1190571631482054 0 0.1701222935274847 -0.098769788373083908 0 0.1692356634090143 -0.1190571631482054 0 0.15671540388469579 -0.1248661284275529 0 0.156642860201301 -0.1138764643456612 0 0.1692356634090143 -0.1190571631482054 0 0.156642860201301 -0.1138764643456612 0 0.16030981215469681 -0.1060734835701594 0 0.15218325015089471 -0.097428620628609491 0 0.1701222935274847 -0.098769788373083908 0 0.16030981215469681 -0.1060734835701594 0 0.15550036702153769 -0.10724483285135369 0 0.156642860201301 -0.1138764643456612 0 0.16030981215469681 -0.1060734835701594 0 0.1692356634090143 -0.1190571631482054 0 0.1701222935274847 -0.098769788373083908 0 0.16030981215469681 -0.1060734835701594 0 0.1692356634090143 -0.1190571631482054 0 0.1701222935274847 -0.098769788373083908 0 0.15218325015089471 -0.097428620628609491 0 0.1701222935274847 -0.098769788373083908 0 0.15218325015089471 -0.097428620628609491 0 0.1591924596505592 -0.086196749820062327 0 0.1701222935274847 -0.098769788373083908 0 0.14361256430973879 0.002177230718157321 0 0.15002083829511301 -0.013322051407406979 0 0.16115574966396809 -0.0040795532678909443 0 0.15002083829511301 -0.013322051407406979 0 0.15608362904857209 -0.027985735352689181 0 0.16115574966396809 -0.0040795532678909443 0 0.13647851187805399 0.002674839708144514 0 0.14592854983424211 -0.016718842565716121 0 0.14361256430973879 0.002177230718157321 0 0.13647851187805399 0.002674839708144514 0 0.14592854983424211 -0.016718842565716121 0 0.14361256430973879 0.002177230718157321 0 0.15002083829511301 -0.013322051407406979 0 0.14592854983424211 -0.016718842565716121 0 0.15002083829511301 -0.013322051407406979 0 0.16115574966396809 -0.0040795532678909443 0 0.15002083829511301 -0.013322051407406979 0 0.14592854983424211 -0.016718842565716121 0 0.14361256430973879 0.002177230718157321 0 0.15002083829511301 -0.013322051407406979 0 0.13647851187805399 0.002674839708144514 0 0.1351056269273356 -0.025702375664247101 0 0.13647851187805399 0.002674839708144514 0 0.12593102595036551 -0.017710786191869211 0 0.1351056269273356 -0.025702375664247101 0 0.13647851187805399 0.002674839708144514 0 0.13697567281582709 -0.013067821261945729 0 0.14592854983424211 -0.016718842565716121 0 0.13647851187805399 0.002674839708144514 0 0.12052097409862091 -0.0066076135460219889 0 0.12593102595036551 -0.017710786191869211 0 0.13647851187805399 0.002674839708144514 0 0.13697567281582709 -0.013067821261945729 0 0.1351056269273356 -0.025702375664247101 0 0.13697567281582709 -0.013067821261945729 0 0.13871344107047931 -0.022707720888724751 0 0.1351056269273356 -0.025702375664247101 0 0.13697567281582709 -0.013067821261945729 0 0.13871344107047931 -0.022707720888724751 0 0.13697567281582709 -0.013067821261945729 0 0.13871344107047931 -0.022707720888724751 0 0.14592854983424211 -0.016718842565716121 0 0.1351056269273356 -0.025702375664247101 0 0.12626478483700471 -0.033040688818699808 0 0.12593102595036551 -0.017710786191869211 0 0.1351056269273356 -0.025702375664247101 0 0.12626478483700471 -0.033040688818699808 0 0.1351056269273356 -0.025702375664247101 0 0.13479357101824829 -0.0321524993514287 0 0.12626478483700471 -0.033040688818699808 0 0.1351056269273356 -0.025702375664247101 0 0.13479357101824829 -0.0321524993514287 0 0.13871344107047931 -0.022707720888724751 0 0.1351056269273356 -0.025702375664247101 0 0.13479357101824829 -0.0321524993514287 0 0.13871344107047931 -0.022707720888724751 0 0.1351056269273356 -0.025702375664247101 0 0.13871344107047931 -0.022707720888724751 0 0.14853982427284659 -0.02886330999559528 0 0.14784459848348061 -0.037546900887996858 0 0.13871344107047931 -0.022707720888724751 0 0.1476122507537197 -0.020174189605372119 0 0.14853982427284659 -0.02886330999559528 0 0.13871344107047931 -0.022707720888724751 0 0.14592854983424211 -0.016718842565716121 0 0.13871344107047931 -0.022707720888724751 0 0.14592854983424211 -0.016718842565716121 0 0.1476122507537197 -0.020174189605372119 0 0.15002083829511301 -0.013322051407406979 0 0.14592854983424211 -0.016718842565716121 0 0.1476122507537197 -0.020174189605372119 0 0.14592854983424211 -0.016718842565716121 0 0.1476122507537197 -0.020174189605372119 0 0.15002083829511301 -0.013322051407406979 0 0.1476122507537197 -0.020174189605372119 0 0.15608362904857209 -0.027985735352689181 0 0.15002083829511301 -0.013322051407406979 0 0.15608362904857209 -0.027985735352689181 0 0.1476122507537197 -0.020174189605372119 0 0.14853982427284659 -0.02886330999559528 0 0.15608362904857209 -0.027985735352689181 0 0.14853982427284659 -0.02886330999559528 0 0.15608362904857209 -0.027985735352689181 0 0.15385139277350571 -0.035964446059686572 0 0.13871344107047931 -0.022707720888724751 0 0.14353646071789899 -0.049462396130732923 0 0.13871344107047931 -0.022707720888724751 0 0.14784459848348061 -0.037546900887996858 0 0.14353646071789899 -0.049462396130732923 0 0.14853982427284659 -0.02886330999559528 0 0.15385139277350571 -0.035964446059686572 0 0.14784459848348061 -0.037546900887996858 0 0.15385139277350571 -0.035964446059686572 0 0.15464249226059251 -0.042776864764182201 0 0.14784459848348061 -0.037546900887996858 0 0.15464249226059251 -0.042776864764182201 0 0.14838959359806769 -0.046712684198436313 0 0.14784459848348061 -0.037546900887996858 0 0.15464249226059251 -0.042776864764182201 0 0.14838959359806769 -0.046712684198436313 0 0.15502343082784339 -0.049447038210165613 0 0.14838959359806769 -0.046712684198436313 0 0.14784459848348061 -0.037546900887996858 0 0.14353646071789899 -0.049462396130732923 0 0.1159266908706026 -0.034571656998529682 0 0.1316704637345292 -0.040384474484378818 0 0.1378308112288906 -0.052695131122502077 0 0.13479357101824829 -0.0321524993514287 0 0.1316704637345292 -0.040384474484378818 0 0.14353646071789899 -0.049462396130732923 0 0.13871344107047931 -0.022707720888724751 0 0.13479357101824829 -0.0321524993514287 0 0.14353646071789899 -0.049462396130732923 0 0.1159266908706026 -0.034571656998529682 0 0.1378308112288906 -0.052695131122502077 0 0.13479357101824829 -0.0321524993514287 0 0.12626478483700471 -0.033040688818699808 0 0.1316704637345292 -0.040384474484378818 0 0.1316704637345292 -0.040384474484378818 0 0.1378308112288906 -0.052695131122502077 0 0.14353646071789899 -0.049462396130732923 0 0.1158000858203849 -0.049077722847754593 0 0.1378308112288906 -0.052695131122502077 0 0.12598729420095231 -0.059405489337742472 0 0.1378308112288906 -0.052695131122502077 0 0.12598729420095231 -0.059405489337742472 0 0.13277410357870431 -0.059730431486232992 0 0.1378308112288906 -0.052695131122502077 0 0.12598729420095231 -0.059405489337742472 0 0.13021460028234111 -0.064597361856088026 0 0.12598729420095231 -0.059405489337742472 0 0.13277410357870431 -0.059730431486232992 0 0.1378308112288906 -0.052695131122502077 0 0.1361286120960607 -0.062046457586577092 0 0.14522158383173059 -0.058810258040755993 0 0.13021460028234111 -0.064597361856088026 0 0.13277410357870431 -0.059730431486232992 0 0.1361286120960607 -0.062046457586577092 0 0.1378308112288906 -0.052695131122502077 0 0.13277410357870431 -0.059730431486232992 0 0.1361286120960607 -0.062046457586577092 0 0.1378308112288906 -0.052695131122502077 0 0.14522158383173059 -0.058810258040755993 0 0.14522158383173059 -0.058810258040755993 0 0.14353646071789899 -0.049462396130732923 0 0.1378308112288906 -0.052695131122502077 0 0.14353646071789899 -0.049462396130732923 0 0.1378308112288906 -0.052695131122502077 0 0.14522158383173059 -0.058810258040755993 0 0.14353646071789899 -0.049462396130732923 0 0.14522158383173059 -0.058810258040755993 0 0.14353646071789899 -0.049462396130732923 0 0.14944111700838039 -0.052584836439779938 0 0.14838959359806769 -0.046712684198436313 0 0.14353646071789899 -0.049462396130732923 0 0.14944111700838039 -0.052584836439779938 0 0.14838959359806769 -0.046712684198436313 0 0.14353646071789899 -0.049462396130732923 0 0.14838959359806769 -0.046712684198436313 0 0.14944111700838039 -0.052584836439779938 0 0.15502343082784339 -0.049447038210165613 0 0.14944111700838039 -0.052584836439779938 0 0.15502343082784339 -0.049447038210165613 0 0.1552783027132589 -0.056822037556565647 0 0.15808015511883769 -0.069449442823400737 0 0.14522158383173059 -0.058810258040755993 0 0.1552783027132589 -0.056822037556565647 0 0.14522158383173059 -0.058810258040755993 0 0.14944111700838039 -0.052584836439779938 0 0.1552783027132589 -0.056822037556565647 0 0.16970876591240949 -0.050952888381073869 0 0.16971027594543309 -0.060943634025892091 0 0.16214641980203651 -0.042649419297969227 0 0.16971027594543309 -0.060943634025892091 0 0.16214641980203651 -0.042649419297969227 0 0.16141534150433051 -0.045330509805278738 0 0.16971027594543309 -0.060943634025892091 0 0.16214641980203651 -0.042649419297969227 0 0.1552783027132589 -0.056822037556565647 0 0.16223596831391371 -0.061620046157060598 0 0.16075335505227631 -0.05433118799687793 0 0.16075335505227631 -0.05433118799687793 0 0.16971027594543309 -0.060943634025892091 0 0.16141534150433051 -0.045330509805278738 0 0.15502343082784339 -0.049447038210165613 0 0.1552783027132589 -0.056822037556565647 0 0.16075335505227631 -0.05433118799687793 0 0.15502343082784339 -0.049447038210165613 0 0.16075335505227631 -0.05433118799687793 0 0.16141534150433051 -0.045330509805278738 0 0.16223596831391371 -0.061620046157060598 0 0.16075335505227631 -0.05433118799687793 0 0.16971027594543309 -0.060943634025892091 0 0.16970876591240949 -0.050952888381073869 0 0.16971027594543309 -0.060943634025892091 0 0.18014674194670641 -0.058245326709067902 0 0.17551723640639719 -0.06781890374503366 0 0.16971027594543309 -0.060943634025892091 0 0.18014674194670641 -0.058245326709067902 0 0.18014674194670641 -0.058245326709067902 0 0.19142612742655679 -0.050869046812617558 0 0.19081558797001669 -0.060801207563941868 0 0.1849739824476726 -0.06830556229337878 0 0.18014674194670641 -0.058245326709067902 0 0.19081558797001669 -0.060801207563941868 0 0.18014674194670641 -0.058245326709067902 0 0.18163747253771351 -0.047657717431241677 0 0.19142612742655679 -0.050869046812617558 0 0.16970876591240949 -0.050952888381073869 0 0.18014674194670641 -0.058245326709067902 0 0.18163747253771351 -0.047657717431241677 0 0.16970876591240949 -0.050952888381073869 0 0.18163747253771351 -0.047657717431241677 0 0.17704494742207341 -0.038712545491342357 0 0.18163747253771351 -0.047657717431241677 0 0.18835877923919739 -0.036929678022132699 0 0.19142612742655679 -0.050869046812617558 0 0.18163747253771351 -0.047657717431241677 0 0.17704494742207341 -0.038712545491342357 0 0.18835877923919739 -0.036929678022132699 0 0.17704494742207341 -0.038712545491342357 0 0.17766208083157559 -0.027107701490644419 0 0.18835877923919739 -0.036929678022132699 0 0.17704494742207341 -0.038712545491342357 0 0.16576928611768341 -0.029363246642308639 0 0.17766208083157559 -0.027107701490644419 0 0.16970876591240949 -0.050952888381073869 0 0.16576928611768341 -0.029363246642308639 0 0.16970876591240949 -0.050952888381073869 0 0.17704494742207341 -0.038712545491342357 0 0.16576928611768341 -0.029363246642308639 0 0.16970876591240949 -0.050952888381073869 0 0.16214641980203651 -0.042649419297969227 0 0.16576928611768341 -0.029363246642308639 0 0.15385139277350571 -0.035964446059686572 0 0.15464249226059251 -0.042776864764182201 0 0.16214641980203651 -0.042649419297969227 0 0.16214641980203651 -0.042649419297969227 0 0.16141534150433051 -0.045330509805278738 0 0.15464249226059251 -0.042776864764182201 0 0.15502343082784339 -0.049447038210165613 0 0.16141534150433051 -0.045330509805278738 0 0.15464249226059251 -0.042776864764182201 0 0.16214641980203651 -0.042649419297969227 0 0.16141534150433051 -0.045330509805278738 0 0.15608362904857209 -0.027985735352689181 0 0.16214641980203651 -0.042649419297969227 0 0.15608362904857209 -0.027985735352689181 0 0.15385139277350571 -0.035964446059686572 0 0.16214641980203651 -0.042649419297969227 0 0.16214641980203651 -0.042649419297969227 0 0.16576928611768341 -0.029363246642308639 0 0.15608362904857209 -0.027985735352689181 0 0.16214641980203651 -0.042649419297969227 0 0.16576928611768341 -0.029363246642308639 0 0.16576928611768341 -0.029363246642308639 0 0.17089978454408811 -0.01054812017506152 0 0.16576928611768341 -0.029363246642308639 0 0.16115574966396809 -0.0040795532678909443 0 0.15608362904857209 -0.027985735352689181 0 0.16576928611768341 -0.029363246642308639 0 0.16115574966396809 -0.0040795532678909443 0 0.16576928611768341 -0.029363246642308639 0 0.17766208083157559 -0.027107701490644419 0 0.17089978454408811 -0.01054812017506152 0 0.17766208083157559 -0.027107701490644419 0 0.17089978454408811 -0.01054812017506152 0 0.18784739638966519 -0.020275203722913068 0 0.17766208083157559 -0.027107701490644419 0 0.18784739638966519 -0.020275203722913068 0 0.18835877923919739 -0.036929678022132699 0 0.1760302829704927 0.0082670062921855296 0 0.17089978454408811 -0.01054812017506152 0 0.1760302829704927 0.0082670062921855296 0 0.185053587794585 -0.0054068720776893706 0 0.17089978454408811 -0.01054812017506152 0 0.185053587794585 -0.0054068720776893706 0 0.17089978454408811 -0.01054812017506152 0 0.18784739638966519 -0.020275203722913068 0 0.16576928611768341 -0.029363246642308639 0 0.17089978454408811 -0.01054812017506152 0 0.16115574966396809 -0.0040795532678909443 0 0.1760302829704927 0.0082670062921855296 0 0.17089978454408811 -0.01054812017506152 0 0.16115574966396809 -0.0040795532678909443 0 0.21232693700930111 -0.0090221140349585841 0 0.21819340512724769 -0.021783158466771039 0 0.22539929913979101 -0.003291469267495586 0 0.21232693700930111 -0.0090221140349585841 0 0.19968136566923081 -0.0029061045851367742 0 0.20359702001630581 -0.019461354832719279 0 0.21511281489557749 0.002430141183518409 0 0.21232693700930111 -0.0090221140349585841 0 0.22539929913979101 -0.003291469267495586 0 0.21511281489557749 0.002430141183518409 0 0.21232693700930111 -0.0090221140349585841 0 0.19968136566923081 -0.0029061045851367742 0 0.19968136566923081 -0.0029061045851367742 0 0.18784739638966519 -0.020275203722913068 0 0.20359702001630581 -0.019461354832719279 0 0.185053587794585 -0.0054068720776893706 0 0.19968136566923081 -0.0029061045851367742 0 0.18784739638966519 -0.020275203722913068 0 0.18999820081430099 0.0061335227682539793 0 0.185053587794585 -0.0054068720776893706 0 0.19968136566923081 -0.0029061045851367742 0 0.18784739638966519 -0.020275203722913068 0 0.1990756022369056 -0.031014239651202379 0 0.20359702001630581 -0.019461354832719279 0 0.18784739638966519 -0.020275203722913068 0 0.1990756022369056 -0.031014239651202379 0 0.18835877923919739 -0.036929678022132699 0 0.20946677574562289 -0.03081515261736276 0 0.20359702001630581 -0.019461354832719279 0 0.21819340512724769 -0.021783158466771039 0 0.1990756022369056 -0.031014239651202379 0 0.20946677574562289 -0.03081515261736276 0 0.20359702001630581 -0.019461354832719279 0 0.21232693700930111 -0.0090221140349585841 0 0.20359702001630581 -0.019461354832719279 0 0.21819340512724769 -0.021783158466771039 0 0.20946677574562289 -0.03081515261736276 0 0.21819340512724769 -0.021783158466771039 0 0.21907390207896771 -0.037388305381253012 0 0.20946677574562289 -0.03081515261736276 0 0.20462272260730649 -0.043016434855235437 0 0.21907390207896771 -0.037388305381253012 0 0.20462272260730649 -0.043016434855235437 0 0.21559517653524299 -0.051563585440778333 0 0.21907390207896771 -0.037388305381253012 0 0.1990756022369056 -0.031014239651202379 0 0.20946677574562289 -0.03081515261736276 0 0.20462272260730649 -0.043016434855235437 0 0.20462272260730649 -0.043016434855235437 0 0.18835877923919739 -0.036929678022132699 0 0.19142612742655679 -0.050869046812617558 0 0.1990756022369056 -0.031014239651202379 0 0.20462272260730649 -0.043016434855235437 0 0.18835877923919739 -0.036929678022132699 0 0.20462272260730649 -0.043016434855235437 0 0.19142612742655679 -0.050869046812617558 0 0.20222447825315451 -0.056851418448328243 0 0.19142612742655679 -0.050869046812617558 0 0.19081558797001669 -0.060801207563941868 0 0.20222447825315451 -0.056851418448328243 0 0.19081558797001669 -0.060801207563941868 0 0.20222447825315451 -0.056851418448328243 0 0.19761632216105751 -0.069419416401335435 0 0.20222447825315451 -0.056851418448328243 0 0.21559517653524299 -0.051563585440778333 0 0.2123151622649119 -0.066132098783109883 0 0.20462272260730649 -0.043016434855235437 0 0.20222447825315451 -0.056851418448328243 0 0.21559517653524299 -0.051563585440778333 0 0.21559517653524299 -0.051563585440778333 0 0.22522399793514741 -0.06139418143638118 0 0.2123151622649119 -0.066132098783109883 0 0.21559517653524299 -0.051563585440778333 0 0.22522399793514741 -0.06139418143638118 0 0.2284550820951865 -0.04834526931520295 0 0.22522399793514741 -0.06139418143638118 0 0.2284550820951865 -0.04834526931520295 0 0.23854313041020189 -0.056797007950708467 0 0.25176466448051432 -0.052825527365289733 0 0.23854313041020189 -0.056797007950708467 0 0.2485243504590314 -0.062024440556852127 0 0.25176466448051432 -0.052825527365289733 0 0.23854313041020189 -0.056797007950708467 0 0.2416799475621732 -0.045103446460497139 0 0.25176466448051432 -0.052825527365289733 0 0.25247179156595462 -0.04401350787044235 0 0.2416799475621732 -0.045103446460497139 0 0.2284550820951865 -0.04834526931520295 0 0.23854313041020189 -0.056797007950708467 0 0.2416799475621732 -0.045103446460497139 0 0.2284550820951865 -0.04834526931520295 0 0.2416799475621732 -0.045103446460497139 0 0.23363966085441551 -0.036450879400170368 0 0.25247179156595462 -0.04401350787044235 0 0.2416799475621732 -0.045103446460497139 0 0.24520535596676671 -0.032188486861168993 0 0.2416799475621732 -0.045103446460497139 0 0.24520535596676671 -0.032188486861168993 0 0.23363966085441551 -0.036450879400170368 0 0.2284550820951865 -0.04834526931520295 0 0.23363966085441551 -0.036450879400170368 0 0.21907390207896771 -0.037388305381253012 0 0.21559517653524299 -0.051563585440778333 0 0.2284550820951865 -0.04834526931520295 0 0.21907390207896771 -0.037388305381253012 0 0.23363966085441551 -0.036450879400170368 0 0.21907390207896771 -0.037388305381253012 0 0.22603091200532011 -0.029172774641285409 0 0.21819340512724769 -0.021783158466771039 0 0.22603091200532011 -0.029172774641285409 0 0.23439358296595991 -0.020635795495830452 0 0.23363966085441551 -0.036450879400170368 0 0.22603091200532011 -0.029172774641285409 0 0.23439358296595991 -0.020635795495830452 0 0.21819340512724769 -0.021783158466771039 0 0.21907390207896771 -0.037388305381253012 0 0.22603091200532011 -0.029172774641285409 0 0.24520535596676671 -0.032188486861168993 0 0.23363966085441551 -0.036450879400170368 0 0.23439358296595991 -0.020635795495830452 0 0.25099995325346047 -0.01825638509775002 0 0.24520535596676671 -0.032188486861168993 0 0.23439358296595991 -0.020635795495830452 0 0.24746525984786619 0.0085428549208306503 0 0.24245823387105189 -0.0075585002598845168 0 0.22539929913979101 -0.003291469267495586 0 0.25099995325346047 -0.01825638509775002 0 0.23439358296595991 -0.020635795495830452 0 0.24245823387105189 -0.0075585002598845168 0 0.24746525984786619 0.0085428549208306503 0 0.2540330741481821 -0.0041517063591771696 0 0.24245823387105189 -0.0075585002598845168 0 0.25099995325346047 -0.01825638509775002 0 0.2540330741481821 -0.0041517063591771696 0 0.24245823387105189 -0.0075585002598845168 0 0.21819340512724769 -0.021783158466771039 0 0.23439358296595991 -0.020635795495830452 0 0.22539929913979101 -0.003291469267495586 0 0.23439358296595991 -0.020635795495830452 0 0.24245823387105189 -0.0075585002598845168 0 0.22539929913979101 -0.003291469267495586 0 0.21498516376663621 -0.1021238487444335 0 0.20708837036672079 -0.1224379186744594 0 0.19146776374546909 -0.1003656291069529 0 0.21498516376663621 -0.1021238487444335 0 0.19146776374546909 -0.1003656291069529 0 0.21498516376663621 -0.1021238487444335 0 0.20492383247343879 -0.094104390631210386 0 0.19146776374546909 -0.1003656291069529 0 0.21498516376663621 -0.1021238487444335 0 0.20708837036672079 -0.1224379186744594 0 0.21498516376663621 -0.1021238487444335 0 0.20708837036672079 -0.1224379186744594 0 0.21928360117796711 -0.11410390344543681 0 0.215395417535405 -0.1247831092238256 0 0.20708837036672079 -0.1224379186744594 0 0.21928360117796711 -0.11410390344543681 0 0.18709332633086589 -0.1240913853495033 0 0.20708837036672079 -0.1224379186744594 0 0.19146776374546909 -0.1003656291069529 0 0.18709332633086589 -0.1240913853495033 0 0.19146776374546909 -0.1003656291069529 0 0.20492383247343879 -0.094104390631210386 0 0.19146776374546909 -0.1003656291069529 0 0.198271336323085 -0.093319797400168131 0 0.1922323919572764 -0.096218494092707524 0 0.19159115049153599 -0.091791865039997436 0 0.198271336323085 -0.093319797400168131 0 0.1922323919572764 -0.096218494092707524 0 0.19146776374546909 -0.1003656291069529 0 0.198271336323085 -0.093319797400168131 0 0.1922323919572764 -0.096218494092707524 0 0.19146776374546909 -0.1003656291069529 0 0.1922323919572764 -0.096218494092707524 0 0.19146776374546909 -0.1003656291069529 0 0.18862953803428989 -0.09472600913673114 0 0.1922323919572764 -0.096218494092707524 0 0.18862953803428989 -0.09472600913673114 0 0.19159115049153599 -0.091791865039997436 0 0.18609537537780349 -0.086545920110805225 0 0.18862953803428989 -0.09472600913673114 0 0.19159115049153599 -0.091791865039997436 0 0.19159115049153599 -0.091791865039997436 0 0.19272711076522511 -0.088149104459575162 0 0.198271336323085 -0.093319797400168131 0 0.18609537537780349 -0.086545920110805225 0 0.19159115049153599 -0.091791865039997436 0 0.19272711076522511 -0.088149104459575162 0 0.18970772040866041 -0.083047553800424043 0 0.19751283766424799 -0.083292164304769586 0 0.18907887126890999 -0.076437943698516336 0 0.18609537537780349 -0.086545920110805225 0 0.19272711076522511 -0.088149104459575162 0 0.18970772040866041 -0.083047553800424043 0 0.19272711076522511 -0.088149104459575162 0 0.18970772040866041 -0.083047553800424043 0 0.19751283766424799 -0.083292164304769586 0 0.20492383247343879 -0.094104390631210386 0 0.19751283766424799 -0.083292164304769586 0 0.198271336323085 -0.093319797400168131 0 0.19272711076522511 -0.088149104459575162 0 0.19751283766424799 -0.083292164304769586 0 0.198271336323085 -0.093319797400168131 0 0.1849739824476726 -0.06830556229337878 0 0.19081558797001669 -0.060801207563941868 0 0.19761632216105751 -0.069419416401335435 0 0.19751283766424799 -0.083292164304769586 0 0.18907887126890999 -0.076437943698516336 0 0.19761632216105751 -0.069419416401335435 0 0.1849739824476726 -0.06830556229337878 0 0.18907887126890999 -0.076437943698516336 0 0.19761632216105751 -0.069419416401335435 0 0.19751283766424799 -0.083292164304769586 0 0.19761632216105751 -0.069419416401335435 0 0.20864596543287209 -0.081570124553313084 0 0.2123151622649119 -0.066132098783109883 0 0.20864596543287209 -0.081570124553313084 0 0.22510857026319089 -0.076081938175620339 0 0.20222447825315451 -0.056851418448328243 0 0.19761632216105751 -0.069419416401335435 0 0.2123151622649119 -0.066132098783109883 0 0.19761632216105751 -0.069419416401335435 0 0.2123151622649119 -0.066132098783109883 0 0.20864596543287209 -0.081570124553313084 0 0.21498516376663621 -0.1021238487444335 0 0.20492383247343879 -0.094104390631210386 0 0.20864596543287209 -0.081570124553313084 0 0.21498516376663621 -0.1021238487444335 0 0.20864596543287209 -0.081570124553313084 0 0.22510857026319089 -0.076081938175620339 0 0.20492383247343879 -0.094104390631210386 0 0.19751283766424799 -0.083292164304769586 0 0.20864596543287209 -0.081570124553313084 0 0.21498516376663621 -0.1021238487444335 0 0.22988189958123201 -0.091746460318814671 0 0.22510857026319089 -0.076081938175620339 0 0.22988189958123201 -0.091746460318814671 0 0.22510857026319089 -0.076081938175620339 0 0.24276161978024891 -0.085034825219369198 0 0.21498516376663621 -0.1021238487444335 0 0.22510857026319089 -0.076081938175620339 0 0.22522399793514741 -0.06139418143638118 0 0.2123151622649119 -0.066132098783109883 0 0.22510857026319089 -0.076081938175620339 0 0.22522399793514741 -0.06139418143638118 0 0.22510857026319089 -0.076081938175620339 0 0.2402529623272128 -0.070946777182671519 0 0.22510857026319089 -0.076081938175620339 0 0.2402529623272128 -0.070946777182671519 0 0.24276161978024891 -0.085034825219369198 0 0.22522399793514741 -0.06139418143638118 0 0.23854313041020189 -0.056797007950708467 0 0.2402529623272128 -0.070946777182671519 0 0.25147290036700071 -0.081915505751528714 0 0.25065970406686261 -0.073467612945337865 0 0.2402529623272128 -0.070946777182671519 0 0.25065970406686261 -0.073467612945337865 0 0.2485243504590314 -0.062024440556852127 0 0.2402529623272128 -0.070946777182671519 0 0.23854313041020189 -0.056797007950708467 0 0.2485243504590314 -0.062024440556852127 0 0.2402529623272128 -0.070946777182671519 0 0.22988189958123201 -0.091746460318814671 0 0.24276161978024891 -0.085034825219369198 0 0.2366722445148518 -0.10374522913583629 0 0.25147290036700071 -0.081915505751528714 0 0.2402529623272128 -0.070946777182671519 0 0.24276161978024891 -0.085034825219369198 0 0.25835932526306737 -0.1053666095272399 0 0.2366722445148518 -0.10374522913583629 0 0.25190825320178373 -0.094092801933563605 0 0.25835932526306737 -0.1053666095272399 0 0.2366722445148518 -0.10374522913583629 0 0.25190825320178373 -0.094092801933563605 0 0.24276161978024891 -0.085034825219369198 0 0.2366722445148518 -0.10374522913583629 0 0.25835932526306737 -0.1053666095272399 0 0.2366722445148518 -0.10374522913583629 0 0.24288030337081251 -0.1174706778130729 0 0.21498516376663621 -0.1021238487444335 0 0.22988189958123201 -0.091746460318814671 0 0.2366722445148518 -0.10374522913583629 0 0.21498516376663621 -0.1021238487444335 0 0.2366722445148518 -0.10374522913583629 0 0.21498516376663621 -0.1021238487444335 0 0.2366722445148518 -0.10374522913583629 0 0.21928360117796711 -0.11410390344543681 0 0.2366722445148518 -0.10374522913583629 0 0.21928360117796711 -0.11410390344543681 0 0.22797601232910911 -0.1216123792447968 0 0.215395417535405 -0.1247831092238256 0 0.21928360117796711 -0.11410390344543681 0 0.22797601232910911 -0.1216123792447968 0 0.22797601232910911 -0.1216123792447968 0 0.24288030337081251 -0.1174706778130729 0 0.2360485552349019 -0.12855953309823381 0 0.2366722445148518 -0.10374522913583629 0 0.22797601232910911 -0.1216123792447968 0 0.24288030337081251 -0.1174706778130729 0 0.25506258670690901 -0.12399732100774979 0 0.24288030337081251 -0.1174706778130729 0 0.2453101778497572 -0.1297840502599068 0 0.25176584815074948 -0.14262803248825939 0 0.2453101778497572 -0.1297840502599068 0 0.24457797348782229 -0.13844073465964671 0 0.2453101778497572 -0.1297840502599068 0 0.24457797348782229 -0.13844073465964671 0 0.23806800105774001 -0.13496178867890421 0 0.24457797348782229 -0.13844073465964671 0 0.23806800105774001 -0.13496178867890421 0 0.23421388654476991 -0.14095598509746551 0 0.2453101778497572 -0.1297840502599068 0 0.23806800105774001 -0.13496178867890421 0 0.2360485552349019 -0.12855953309823381 0 0.23806800105774001 -0.13496178867890421 0 0.2360485552349019 -0.12855953309823381 0 0.2293049680019621 -0.13292976042626931 0 0.24288030337081251 -0.1174706778130729 0 0.2453101778497572 -0.1297840502599068 0 0.2360485552349019 -0.12855953309823381 0 0.24231788049098391 -0.1530996084253301 0 0.24306940483891179 -0.1482252512358084 0 0.22535047957302981 -0.15962953424304571 0 0.25141789005461213 -0.1445944325488028 0 0.24231788049098391 -0.1530996084253301 0 0.24306940483891179 -0.1482252512358084 0 0.24231788049098391 -0.1530996084253301 0 0.24306940483891179 -0.1482252512358084 0 0.24457797348782229 -0.13844073465964671 0 0.24306940483891179 -0.1482252512358084 0 0.25176584815074948 -0.14262803248825939 0 0.24457797348782229 -0.13844073465964671 0 0.24306940483891179 -0.1482252512358084 0 0.25176584815074948 -0.14262803248825939 0 0.25141789005461213 -0.1445944325488028 0 0.24306940483891179 -0.1482252512358084 0 0.25559655317644719 -0.14345312535800109 0 0.24231788049098391 -0.1530996084253301 0 0.25559655317644719 -0.14345312535800109 0 0.25141789005461213 -0.1445944325488028 0 0.24231788049098391 -0.1530996084253301 0 0.25176584815074948 -0.14262803248825939 0 0.24306940483891179 -0.1482252512358084 0 0.24306940483891179 -0.1482252512358084 0 0.23421388654476991 -0.14095598509746551 0 0.22866547549919 -0.1481682463651133 0 0.24457797348782229 -0.13844073465964671 0 0.24306940483891179 -0.1482252512358084 0 0.23421388654476991 -0.14095598509746551 0 0.24306940483891179 -0.1482252512358084 0 0.22535047957302981 -0.15962953424304571 0 0.24306940483891179 -0.1482252512358084 0 0.22866547549919 -0.1481682463651133 0 0.22535047957302981 -0.15962953424304571 0 0.23421388654476991 -0.14095598509746551 0 0.22866547549919 -0.1481682463651133 0 0.2223347812567194 -0.14065844883927531 0 0.22866547549919 -0.1481682463651133 0 0.2223347812567194 -0.14065844883927531 0 0.21835882528251921 -0.1513720124099715 0 0.22866547549919 -0.1481682463651133 0 0.21835882528251921 -0.1513720124099715 0 0.22535047957302981 -0.15962953424304571 0 0.22797601232910911 -0.1216123792447968 0 0.2360485552349019 -0.12855953309823381 0 0.2293049680019621 -0.13292976042626931 0 0.23421388654476991 -0.14095598509746551 0 0.2223347812567194 -0.14065844883927531 0 0.2293049680019621 -0.13292976042626931 0 0.23806800105774001 -0.13496178867890421 0 0.23421388654476991 -0.14095598509746551 0 0.2293049680019621 -0.13292976042626931 0 0.2223347812567194 -0.14065844883927531 0 0.2293049680019621 -0.13292976042626931 0 0.22027301348548489 -0.1310749440614376 0 0.215395417535405 -0.1247831092238256 0 0.22797601232910911 -0.1216123792447968 0 0.22027301348548489 -0.1310749440614376 0 0.22797601232910911 -0.1216123792447968 0 0.2293049680019621 -0.13292976042626931 0 0.22027301348548489 -0.1310749440614376 0 0.215395417535405 -0.1247831092238256 0 0.22027301348548489 -0.1310749440614376 0 0.21304832756300099 -0.13559947477791329 0 0.215395417535405 -0.1247831092238256 0 0.2087255215243061 -0.12958514059854789 0 0.21304832756300099 -0.13559947477791329 0 0.20708837036672079 -0.1224379186744594 0 0.1991915769668037 -0.14275198860448471 0 0.20708837036672079 -0.1224379186744594 0 0.2087255215243061 -0.12958514059854789 0 0.1991915769668037 -0.14275198860448471 0 0.215395417535405 -0.1247831092238256 0 0.20708837036672079 -0.1224379186744594 0 0.2087255215243061 -0.12958514059854789 0 0.2087255215243061 -0.12958514059854789 0 0.21304832756300099 -0.13559947477791329 0 0.1991915769668037 -0.14275198860448471 0 0.2087255215243061 -0.12958514059854789 0 0.1991915769668037 -0.14275198860448471 0 0.2223347812567194 -0.14065844883927531 0 0.21304832756300099 -0.13559947477791329 0 0.21236965460928731 -0.14474321733990861 0 0.2223347812567194 -0.14065844883927531 0 0.22027301348548489 -0.1310749440614376 0 0.21304832756300099 -0.13559947477791329 0 0.21236965460928731 -0.14474321733990861 0 0.1991915769668037 -0.14275198860448471 0 0.20832857791557341 -0.15869455076035299 0 0.2223347812567194 -0.14065844883927531 0 0.21236965460928731 -0.14474321733990861 0 0.21835882528251921 -0.1513720124099715 0 0.21236965460928731 -0.14474321733990861 0 0.21835882528251921 -0.1513720124099715 0 0.20832857791557341 -0.15869455076035299 0 0.21304832756300099 -0.13559947477791329 0 0.21236965460928731 -0.14474321733990861 0 0.1991915769668037 -0.14275198860448471 0 0.1991915769668037 -0.14275198860448471 0 0.19192442837041071 -0.16144633165017611 0 0.20832857791557341 -0.15869455076035299 0 0.1991915769668037 -0.14275198860448471 0 0.1887680142342392 -0.15714744321954599 0 0.18271888891626989 -0.14781714159205511 0 0.1991915769668037 -0.14275198860448471 0 0.19192442837041071 -0.16144633165017611 0 0.1887680142342392 -0.15714744321954599 0 0.1991915769668037 -0.14275198860448471 0 0.19192442837041071 -0.16144633165017611 0 0.1991915769668037 -0.14275198860448471 0 0.1887680142342392 -0.15714744321954599 0 0.18709332633086589 -0.1240913853495033 0 0.1991915769668037 -0.14275198860448471 0 0.18271888891626989 -0.14781714159205511 0 0.18709332633086589 -0.1240913853495033 0 0.20708837036672079 -0.1224379186744594 0 0.1991915769668037 -0.14275198860448471 0 0.19569056433370621 -0.18697269396938879 0 0.19741478864852219 -0.17107254665676211 0 0.18465727977401941 -0.18014067469586831 0 0.19569056433370621 -0.18697269396938879 0 0.19741478864852219 -0.17107254665676211 0 0.20510953832753681 -0.171693985645966 0 0.19741478864852219 -0.17107254665676211 0 0.18465727977401941 -0.18014067469586831 0 0.19192442837041071 -0.16144633165017611 0 0.18465727977401941 -0.18014067469586831 0 0.19192442837041071 -0.16144633165017611 0 0.19741478864852219 -0.17107254665676211 0 0.18465727977401941 -0.18014067469586831 0 0.19192442837041071 -0.16144633165017611 0 0.19741478864852219 -0.17107254665676211 0 0.20832857791557341 -0.15869455076035299 0 0.20832857791557341 -0.15869455076035299 0 0.22535047957302981 -0.15962953424304571 0 0.21900422241234541 -0.1700361511973599 0 0.19741478864852219 -0.17107254665676211 0 0.20510953832753681 -0.171693985645966 0 0.20832857791557341 -0.15869455076035299 0 0.20510953832753681 -0.171693985645966 0 0.20832857791557341 -0.15869455076035299 0 0.21900422241234541 -0.1700361511973599 0 0.21835882528251921 -0.1513720124099715 0 0.20832857791557341 -0.15869455076035299 0 0.22535047957302981 -0.15962953424304571 0 0.19569056433370621 -0.18697269396938879 0 0.21900422241234541 -0.1700361511973599 0 0.2193213409883279 -0.19401441713020709 0 0.19569056433370621 -0.18697269396938879 0 0.21900422241234541 -0.1700361511973599 0 0.19569056433370621 -0.18697269396938879 0 0.20510953832753681 -0.171693985645966 0 0.21900422241234541 -0.1700361511973599 0 0.21900422241234541 -0.1700361511973599 0 0.23846427268442899 -0.1780939562055748 0 0.2193213409883279 -0.19401441713020709 0 0.24231788049098391 -0.1530996084253301 0 0.21900422241234541 -0.1700361511973599 0 0.24231788049098391 -0.1530996084253301 0 0.21900422241234541 -0.1700361511973599 0 0.23846427268442899 -0.1780939562055748 0 0.24231788049098391 -0.1530996084253301 0 0.22535047957302981 -0.15962953424304571 0 0.21900422241234541 -0.1700361511973599 0 0.25227843415052947 -0.17040338943778449 0 0.2536205121116894 -0.15529966459265671 0 0.24231788049098391 -0.1530996084253301 0 0.25227843415052947 -0.17040338943778449 0 0.24231788049098391 -0.1530996084253301 0 0.23846427268442899 -0.1780939562055748 0 0.24231788049098391 -0.1530996084253301 0 0.23846427268442899 -0.1780939562055748 0 0.25910563198202208 -0.1916843197808239 0 0.25227843415052947 -0.17040338943778449 0 0.23846427268442899 -0.1780939562055748 0 0.25910563198202208 -0.1916843197808239 0 0.23846427268442899 -0.1780939562055748 0 0.2346106648778758 -0.2030883039858197 0 0.25251779905789978 -0.2079424461389496 0 0.25910563198202208 -0.1916843197808239 0 0.2346106648778758 -0.2030883039858197 0 0.23846427268442899 -0.1780939562055748 0 0.2346106648778758 -0.2030883039858197 0 0.2346106648778758 -0.2030883039858197 0 0.2450380159957985 -0.21752151142907489 0 0.23075705707132249 -0.2280826517660646 0 0.25251779905789978 -0.2079424461389496 0 0.2346106648778758 -0.2030883039858197 0 0.2450380159957985 -0.21752151142907489 0 0.2346106648778758 -0.2030883039858197 0 0.2212350981707383 -0.21442415339449419 0 0.2193213409883279 -0.19401441713020709 0 0.2346106648778758 -0.2030883039858197 0 0.23075705707132249 -0.2280826517660646 0 0.2346106648778758 -0.2030883039858197 0 0.2212350981707383 -0.21442415339449419 0 0.23075705707132249 -0.2280826517660646 0 0.23846427268442899 -0.1780939562055748 0 0.2346106648778758 -0.2030883039858197 0 0.2193213409883279 -0.19401441713020709 0 0.25219264821724702 -0.22659446127978849 0 0.23706227252860421 -0.25092717962419769 0 0.25219264821724702 -0.22659446127978849 0 0.23706227252860421 -0.25092717962419769 0 0.22885210697730399 -0.23650641758105601 0 0.256245679646319 -0.24611908193733029 0 0.25219264821724702 -0.22659446127978849 0 0.23706227252860421 -0.25092717962419769 0 0.25219264821724702 -0.22659446127978849 0 0.2450380159957985 -0.21752151142907489 0 0.23075705707132249 -0.2280826517660646 0 0.25219264821724702 -0.22659446127978849 0 0.23075705707132249 -0.2280826517660646 0 0.22885210697730399 -0.23650641758105601 0 0.25219264821724702 -0.22659446127978849 0 0.22885210697730399 -0.23650641758105601 0 0.2212350981707383 -0.21442415339449419 0 0.23075705707132249 -0.2280826517660646 0 0.2153492284381493 -0.22697181734637151 0 0.23075705707132249 -0.2280826517660646 0 0.22885210697730399 -0.23650641758105601 0 0.2153492284381493 -0.22697181734637151 0 0.2222054989257623 -0.25141229414652078 0 0.22885210697730399 -0.23650641758105601 0 0.20551156573736071 -0.24641837388232249 0 0.23706227252860421 -0.25092717962419769 0 0.2222054989257623 -0.25141229414652078 0 0.22885210697730399 -0.23650641758105601 0 0.22885210697730399 -0.23650641758105601 0 0.20551156573736071 -0.24641837388232249 0 0.2153492284381493 -0.22697181734637151 0 0.22885210697730399 -0.23650641758105601 0 0.20551156573736071 -0.24641837388232249 0 0.20551156573736071 -0.24641837388232249 0 0.2153492284381493 -0.22697181734637151 0 0.20066448112578639 -0.2255766984459118 0 0.2153492284381493 -0.22697181734637151 0 0.20066448112578639 -0.2255766984459118 0 0.2069232234508728 -0.21147124402860551 0 0.20551156573736071 -0.24641837388232249 0 0.20066448112578639 -0.2255766984459118 0 0.1865353737975512 -0.2307372029529412 0 0.20066448112578639 -0.2255766984459118 0 0.1890030142049981 -0.2122848540193186 0 0.1865353737975512 -0.2307372029529412 0 0.18217102449741759 -0.25633033018358897 0 0.20551156573736071 -0.24641837388232249 0 0.1844209718526682 -0.24354532372405019 0 0.20551156573736071 -0.24641837388232249 0 0.1844209718526682 -0.24354532372405019 0 0.1865353737975512 -0.2307372029529412 0 0.19569056433370621 -0.18697269396938879 0 0.2193213409883279 -0.19401441713020709 0 0.2069232234508728 -0.21147124402860551 0 0.2212350981707383 -0.21442415339449419 0 0.2193213409883279 -0.19401441713020709 0 0.2069232234508728 -0.21147124402860551 0 0.2212350981707383 -0.21442415339449419 0 0.2153492284381493 -0.22697181734637151 0 0.2069232234508728 -0.21147124402860551 0 0.19569056433370621 -0.18697269396938879 0 0.2069232234508728 -0.21147124402860551 0 0.1890030142049981 -0.2122848540193186 0 0.20066448112578639 -0.2255766984459118 0 0.2069232234508728 -0.21147124402860551 0 0.1890030142049981 -0.2122848540193186 0 0.19569056433370621 -0.18697269396938879 0 0.17237690625506649 -0.2039092367414167 0 0.17237690625506649 -0.2039092367414167 0 0.17556804554068489 -0.18660136703135141 0 0.17854839690839641 -0.19585544237965549 0 0.18465727977401941 -0.18014067469586831 0 0.17556804554068489 -0.18660136703135141 0 0.17854839690839641 -0.19585544237965549 0 0.17237690625506649 -0.2039092367414167 0 0.17556804554068489 -0.18660136703135141 0 0.19569056433370621 -0.18697269396938879 0 0.17854839690839641 -0.19585544237965549 0 0.17237690625506649 -0.2039092367414167 0 0.19569056433370621 -0.18697269396938879 0 0.17854839690839641 -0.19585544237965549 0 0.18465727977401941 -0.18014067469586831 0 0.17854839690839641 -0.19585544237965549 0 0.18465727977401941 -0.18014067469586831 0 0.19569056433370621 -0.18697269396938879 0 0.1890030142049981 -0.2122848540193186 0 0.17237690625506649 -0.2039092367414167 0 0.1890030142049981 -0.2122848540193186 0 0.17896275609567161 -0.21873206482492591 0 0.17237690625506649 -0.2039092367414167 0 0.17896275609567161 -0.21873206482492591 0 0.17237690625506649 -0.2039092367414167 0 0.16793573012506979 -0.2279969655860262 0 0.1650040282807079 -0.2092653701609129 0 0.16207819984221261 -0.1961900452932995 0 0.14858835414374141 -0.2057787235552494 0 0.17237690625506649 -0.2039092367414167 0 0.1650040282807079 -0.2092653701609129 0 0.17237690625506649 -0.2039092367414167 0 0.16793573012506979 -0.2279969655860262 0 0.17237690625506649 -0.2039092367414167 0 0.1650040282807079 -0.2092653701609129 0 0.16793573012506979 -0.2279969655860262 0 0.17237690625506649 -0.2039092367414167 0 0.16207819984221261 -0.1961900452932995 0 0.17556804554068489 -0.18660136703135141 0 0.16207819984221261 -0.1961900452932995 0 0.16389868659991999 -0.19149321217131371 0 0.1571815115646297 -0.1835844944736838 0 0.16207819984221261 -0.1961900452932995 0 0.16389868659991999 -0.19149321217131371 0 0.17556804554068489 -0.18660136703135141 0 0.16207819984221261 -0.1961900452932995 0 0.17556804554068489 -0.18660136703135141 0 0.17237690625506649 -0.2039092367414167 0 0.1650040282807079 -0.2092653701609129 0 0.16207819984221261 -0.1961900452932995 0 0.1865353737975512 -0.2307372029529412 0 0.16793573012506979 -0.2279969655860262 0 0.17168713556925899 -0.24606882660282231 0 0.18217102449741759 -0.25633033018358897 0 0.1844209718526682 -0.24354532372405019 0 0.17168713556925899 -0.24606882660282231 0 0.1844209718526682 -0.24354532372405019 0 0.1865353737975512 -0.2307372029529412 0 0.17168713556925899 -0.24606882660282231 0 0.1865353737975512 -0.2307372029529412 0 0.17168713556925899 -0.24606882660282231 0 0.1890030142049981 -0.2122848540193186 0 0.17896275609567161 -0.21873206482492591 0 0.1865353737975512 -0.2307372029529412 0 0.17896275609567161 -0.21873206482492591 0 0.1865353737975512 -0.2307372029529412 0 0.16793573012506979 -0.2279969655860262 0 0.1650040282807079 -0.2092653701609129 0 0.16793573012506979 -0.2279969655860262 0 0.1550870361619153 -0.21916237856871951 0 0.16793573012506979 -0.2279969655860262 0 0.1554359792567036 -0.23321831622581601 0 0.1550870361619153 -0.21916237856871951 0 0.1634945539950747 -0.25208469443063591 0 0.16793573012506979 -0.2279969655860262 0 0.1554359792567036 -0.23321831622581601 0 0.1634945539950747 -0.25208469443063591 0 0.16793573012506979 -0.2279969655860262 0 0.1634945539950747 -0.25208469443063591 0 0.16793573012506979 -0.2279969655860262 0 0.17168713556925899 -0.24606882660282231 0 0.1634945539950747 -0.25208469443063591 0 0.1491671577808075 -0.24274933093213399 0 0.1554359792567036 -0.23321831622581601 0 0.1491671577808075 -0.24274933093213399 0 0.1414954182206499 -0.2240982116115641 0 0.13384896677918601 -0.2438473080892388 0 0.14226907622085039 -0.25665111951193009 0 0.1491671577808075 -0.24274933093213399 0 0.13384896677918601 -0.2438473080892388 0 0.1491671577808075 -0.24274933093213399 0 0.1554359792567036 -0.23321831622581601 0 0.1414954182206499 -0.2240982116115641 0 0.1491671577808075 -0.24274933093213399 0 0.1414954182206499 -0.2240982116115641 0 0.1554359792567036 -0.23321831622581601 0 0.1550870361619153 -0.21916237856871951 0 0.1414954182206499 -0.2240982116115641 0 0.1414954182206499 -0.2240982116115641 0 0.12784762921016379 -0.23071813566463911 0 0.13384896677918601 -0.2438473080892388 0 0.1414954182206499 -0.2240982116115641 0 0.13384896677918601 -0.2438473080892388 0 0.1414954182206499 -0.2240982116115641 0 0.13726945491784359 -0.21382427762476841 0 0.1414954182206499 -0.2240982116115641 0 0.1341522635141488 -0.2160399994439087 0 0.12934497932981689 -0.21739146532378481 0 0.1414954182206499 -0.2240982116115641 0 0.1263330395909652 -0.22137451192945309 0 0.12784762921016379 -0.23071813566463911 0 0.1414954182206499 -0.2240982116115641 0 0.1263330395909652 -0.22137451192945309 0 0.12934497932981689 -0.21739146532378481 0 0.11895464661316579 -0.25072187298028797 0 0.12784762921016379 -0.23071813566463911 0 0.13384896677918601 -0.2438473080892388 0 0.16207819984221261 -0.1961900452932995 0 0.14858835414374141 -0.2057787235552494 0 0.1571815115646297 -0.1835844944736838 0 0.14386994519882121 -0.19082616179272241 0 0.14858835414374141 -0.2057787235552494 0 0.1571815115646297 -0.1835844944736838 0 0.14858835414374141 -0.2057787235552494 0 0.1571815115646297 -0.1835844944736838 0 0.14386994519882121 -0.19082616179272241 0 0.14858835414374141 -0.2057787235552494 0 0.1397588982684386 -0.20122439726537009 0 0.16207819984221261 -0.1961900452932995 0 0.14858835414374141 -0.2057787235552494 0 0.1650040282807079 -0.2092653701609129 0 0.1550870361619153 -0.21916237856871951 0 0.14858835414374141 -0.2057787235552494 0 0.1414954182206499 -0.2240982116115641 0 0.14858835414374141 -0.2057787235552494 0 0.13726945491784359 -0.21382427762476841 0 0.1414954182206499 -0.2240982116115641 0 0.14858835414374141 -0.2057787235552494 0 0.1550870361619153 -0.21916237856871951 0 0.1414954182206499 -0.2240982116115641 0 0.14858835414374141 -0.2057787235552494 0 0.14858835414374141 -0.2057787235552494 0 0.13726945491784359 -0.21382427762476841 0 0.1397588982684386 -0.20122439726537009 0 0.14858835414374141 -0.2057787235552494 0 0.13726945491784359 -0.21382427762476841 0 0.13726945491784359 -0.21382427762476841 0 0.12930783881334909 -0.19446842608874171 0 0.12138945923594451 -0.203631558129896 0 0.1293357939972053 -0.21239783369108881 0 0.12930783881334909 -0.19446842608874171 0 0.13726945491784359 -0.21382427762476841 0 0.1397588982684386 -0.20122439726537009 0 0.12930783881334909 -0.19446842608874171 0 0.13726945491784359 -0.21382427762476841 0 0.1293357939972053 -0.21239783369108881 0 0.12930783881334909 -0.19446842608874171 0 0.1414954182206499 -0.2240982116115641 0 0.13726945491784359 -0.21382427762476841 0 0.1341522635141488 -0.2160399994439087 0 0.13726945491784359 -0.21382427762476841 0 0.1341522635141488 -0.2160399994439087 0 0.1293357939972053 -0.21239783369108881 0 0.13726945491784359 -0.21382427762476841 0 0.1341522635141488 -0.2160399994439087 0 0.1263330395909652 -0.22137451192945309 0 0.12934497932981689 -0.21739146532378481 0 0.1293357939972053 -0.21239783369108881 0 0.1341522635141488 -0.2160399994439087 0 0.12934497932981689 -0.21739146532378481 0 0.1293357939972053 -0.21239783369108881 0 0.14386994519882121 -0.19082616179272241 0 0.1397588982684386 -0.20122439726537009 0 0.12930783881334909 -0.19446842608874171 0 0.14386994519882121 -0.19082616179272241 0 0.12930783881334909 -0.19446842608874171 0 0.13706605049635431 -0.1799619052883058 0 0.1213462227088546 -0.17511257455271501 0 0.13706605049635431 -0.1799619052883058 0 0.13157192721459271 -0.16987146461401559 0 0.1213462227088546 -0.17511257455271501 0 0.12930783881334909 -0.19446842608874171 0 0.1213462227088546 -0.17511257455271501 0 0.12930783881334909 -0.19446842608874171 0 0.13706605049635431 -0.1799619052883058 0 0.13706605049635431 -0.1799619052883058 0 0.1461397245945632 -0.1686506220179618 0 0.13157192721459271 -0.16987146461401559 0 0.14386994519882121 -0.19082616179272241 0 0.13706605049635431 -0.1799619052883058 0 0.14856365411290409 -0.1788762280064036 0 0.13706605049635431 -0.1799619052883058 0 0.14856365411290409 -0.1788762280064036 0 0.1461397245945632 -0.1686506220179618 0 0.14856365411290409 -0.1788762280064036 0 0.1571815115646297 -0.1835844944736838 0 0.15856103871015181 -0.1713579564593441 0 0.14856365411290409 -0.1788762280064036 0 0.1461397245945632 -0.1686506220179618 0 0.15856103871015181 -0.1713579564593441 0 0.14386994519882121 -0.19082616179272241 0 0.14856365411290409 -0.1788762280064036 0 0.1571815115646297 -0.1835844944736838 0 0.1489429190034357 -0.15714001933556099 0 0.15990347929834789 -0.15509900703282459 0 0.15716047280605819 -0.16275026311186649 0 0.1489429190034357 -0.15714001933556099 0 0.1461397245945632 -0.1686506220179618 0 0.15716047280605819 -0.16275026311186649 0 0.1461397245945632 -0.1686506220179618 0 0.15856103871015181 -0.1713579564593441 0 0.15716047280605819 -0.16275026311186649 0 0.1489429190034357 -0.15714001933556099 0 0.1461397245945632 -0.1686506220179618 0 0.1389925149372343 -0.1612162659943715 0 0.1489429190034357 -0.15714001933556099 0 0.1389925149372343 -0.1612162659943715 0 0.13788728918636201 -0.15099226319448009 0 0.1389925149372343 -0.1612162659943715 0 0.13157192721459271 -0.16987146461401559 0 0.13042071468721811 -0.1594269608098392 0 0.1389925149372343 -0.1612162659943715 0 0.13042071468721811 -0.1594269608098392 0 0.13788728918636201 -0.15099226319448009 0 0.1461397245945632 -0.1686506220179618 0 0.1389925149372343 -0.1612162659943715 0 0.13157192721459271 -0.16987146461401559 0 0.11811695268855479 -0.16220582295012551 0 0.13157192721459271 -0.16987146461401559 0 0.13042071468721811 -0.1594269608098392 0 0.1234005852276296 -0.14771089094059309 0 0.13042071468721811 -0.1594269608098392 0 0.13788728918636201 -0.15099226319448009 0 0.1234005852276296 -0.14771089094059309 0 0.13788728918636201 -0.15099226319448009 0 0.1345850191808067 -0.1358936965814854 0 0.13788728918636201 -0.15099226319448009 0 0.1345850191808067 -0.1358936965814854 0 0.14613847691443169 -0.14229739535750349 0 0.13219614793526371 -0.1198706582489745 0 0.14551430292066059 -0.12415072041672701 0 0.1345850191808067 -0.1358936965814854 0 0.1206433177034321 -0.1276047896024104 0 0.1234005852276296 -0.14771089094059309 0 0.1345850191808067 -0.1358936965814854 0 0.1206433177034321 -0.1276047896024104 0 0.13219614793526371 -0.1198706582489745 0 0.1345850191808067 -0.1358936965814854 0 0.14551430292066059 -0.12415072041672701 0 0.15537612369376999 -0.13670422300727211 0 0.14613847691443169 -0.14229739535750349 0 0.14551430292066059 -0.12415072041672701 0 0.1345850191808067 -0.1358936965814854 0 0.14613847691443169 -0.14229739535750349 0 0.14551430292066059 -0.12415072041672701 0 0.15671540388469579 -0.1248661284275529 0 0.15537612369376999 -0.13670422300727211 0 0.1489429190034357 -0.15714001933556099 0 0.13788728918636201 -0.15099226319448009 0 0.14613847691443169 -0.14229739535750349 0 0.15537612369376999 -0.13670422300727211 0 0.14613847691443169 -0.14229739535750349 0 0.1545252075015553 -0.14890344960949581 0 0.1489429190034357 -0.15714001933556099 0 0.14613847691443169 -0.14229739535750349 0 0.1545252075015553 -0.14890344960949581 0 0.1489429190034357 -0.15714001933556099 0 0.1545252075015553 -0.14890344960949581 0 0.15990347929834789 -0.15509900703282459 0 0.16834903329054349 -0.13934453792332691 0 0.16746240317207259 -0.1596319126984484 0 0.16834903329054349 -0.13934453792332691 0 0.17194678016621859 -0.14966483402748171 0 0.16746240317207259 -0.1596319126984484 0 0.15990347929834789 -0.15509900703282459 0 0.16112324939125791 -0.1479366260542736 0 0.16746240317207259 -0.1596319126984484 0 0.16112324939125791 -0.1479366260542736 0 0.16834903329054349 -0.13934453792332691 0 0.16746240317207259 -0.1596319126984484 0 0.1545252075015553 -0.14890344960949581 0 0.15990347929834789 -0.15509900703282459 0 0.16112324939125791 -0.1479366260542736 0 0.15537612369376999 -0.13670422300727211 0 0.16112324939125791 -0.1479366260542736 0 0.16834903329054349 -0.13934453792332691 0 0.15537612369376999 -0.13670422300727211 0 0.1545252075015553 -0.14890344960949581 0 0.16112324939125791 -0.1479366260542736 0 0.1692356634090143 -0.1190571631482054 0 0.16834903329054349 -0.13934453792332691 0 0.1692356634090143 -0.1190571631482054 0 0.15671540388469579 -0.1248661284275529 0 0.16834903329054349 -0.13934453792332691 0 0.15671540388469579 -0.1248661284275529 0 0.15537612369376999 -0.13670422300727211 0 0.16834903329054349 -0.13934453792332691 0 0.18709332633086589 -0.1240913853495033 0 0.16834903329054349 -0.13934453792332691 0 0.18271888891626989 -0.14781714159205511 0 0.18709332633086589 -0.1240913853495033 0 0.18271888891626989 -0.14781714159205511 0 0.18709332633086589 -0.1240913853495033 0 0.1692356634090143 -0.1190571631482054 0 0.16834903329054349 -0.13934453792332691 0 0.17194678016621859 -0.14966483402748171 0 0.18271888891626989 -0.14781714159205511 0 0.17171230031188159 -0.1631498425584518 0 0.16834903329054349 -0.13934453792332691 0 0.17194678016621859 -0.14966483402748171 0 0.18271888891626989 -0.14781714159205511 0 0.19192442837041071 -0.16144633165017611 0 0.1887680142342392 -0.15714744321954599 0 0.17834445150167411 -0.17154289783460691 0 0.19192442837041071 -0.16144633165017611 0 0.17834445150167411 -0.17154289783460691 0 0.18465727977401941 -0.18014067469586831 0 0.18271888891626989 -0.14781714159205511 0 0.17834445150167411 -0.17154289783460691 0 0.17171230031188159 -0.1631498425584518 0 0.18271888891626989 -0.14781714159205511 0 0.17834445150167411 -0.17154289783460691 0 0.1887680142342392 -0.15714744321954599 0 0.18271888891626989 -0.14781714159205511 0 0.17834445150167411 -0.17154289783460691 0 0.17834445150167411 -0.17154289783460691 0 0.1676084175364991 -0.17609089437759939 0 0.17171230031188159 -0.1631498425584518 0 0.1887680142342392 -0.15714744321954599 0 0.17834445150167411 -0.17154289783460691 0 0.16389868659991999 -0.19149321217131371 0 0.17834445150167411 -0.17154289783460691 0 0.17556804554068489 -0.18660136703135141 0 0.18465727977401941 -0.18014067469586831 0 0.17556804554068489 -0.18660136703135141 0 0.17834445150167411 -0.17154289783460691 0 0.17556804554068489 -0.18660136703135141 0 0.17834445150167411 -0.17154289783460691 0 0.18465727977401941 -0.18014067469586831 0 0.17556804554068489 -0.18660136703135141 0 0.1571815115646297 -0.1835844944736838 0 0.15856103871015181 -0.1713579564593441 0 0.16577466898551679 -0.1613902653921177 0 0.1571815115646297 -0.1835844944736838 0 0.16577466898551679 -0.1613902653921177 0 0.16389868659991999 -0.19149321217131371 0 0.17834445150167411 -0.17154289783460691 0 0.1676084175364991 -0.17609089437759939 0 0.16389868659991999 -0.19149321217131371 0 0.17834445150167411 -0.17154289783460691 0 0.1571815115646297 -0.1835844944736838 0 0.16577466898551679 -0.1613902653921177 0 0.1655692245996318 -0.1710538742004632 0 0.16389868659991999 -0.19149321217131371 0 0.1676084175364991 -0.17609089437759939 0 0.1571815115646297 -0.1835844944736838 0 0.1676084175364991 -0.17609089437759939 0 0.1571815115646297 -0.1835844944736838 0 0.1655692245996318 -0.1710538742004632 0 0.15856103871015181 -0.1713579564593441 0 0.16098390876922161 -0.16405746863549481 0 0.16577466898551679 -0.1613902653921177 0 0.15856103871015181 -0.1713579564593441 0 0.15716047280605819 -0.16275026311186649 0 0.16098390876922161 -0.16405746863549481 0 0.15990347929834789 -0.15509900703282459 0 0.15716047280605819 -0.16275026311186649 0 0.16243945457515971 -0.16073138957865071 0 0.15990347929834789 -0.15509900703282459 0 0.16243945457515971 -0.16073138957865071 0 0.16746240317207259 -0.1596319126984484 0 0.16243945457515971 -0.16073138957865071 0 0.16098390876922161 -0.16405746863549481 0 0.16577466898551679 -0.1613902653921177 0 0.15716047280605819 -0.16275026311186649 0 0.16243945457515971 -0.16073138957865071 0 0.16098390876922161 -0.16405746863549481 0 0.16243945457515971 -0.16073138957865071 0 0.16577466898551679 -0.1613902653921177 0 0.16746240317207259 -0.1596319126984484 0 0.17194678016621859 -0.14966483402748171 0 0.16746240317207259 -0.1596319126984484 0 0.17171230031188159 -0.1631498425584518 0 0.16577466898551679 -0.1613902653921177 0 0.16746240317207259 -0.1596319126984484 0 0.17171230031188159 -0.1631498425584518 0 0.1676084175364991 -0.17609089437759939 0 0.17171230031188159 -0.1631498425584518 0 0.1655692245996318 -0.1710538742004632 0 0.16577466898551679 -0.1613902653921177 0 0.17171230031188159 -0.1631498425584518 0 0.1655692245996318 -0.1710538742004632 0 
</DataArray>
</Points>
<Cells>
<DataArray type="UInt32" Name="connectivity" format="ascii">
0 1 2 3 4 5 6 7 8 9 10 11 12 13 14 15 16 17 18 19 20 21 22 23 24 25 26 27 28 29 30 31 32 33 34 35 36 37 38 39 40 41 42 43 44 45 46 47 48 49 50 51 52 53 54 55 56 57 58 59 60 61 62 63 64 65 66 67 68 69 70 71 72 73 74 75 76 77 78 79 80 81 82 83 84 85 86 87 88 89 90 91 92 93 94 95 96 97 98 99 100 101 102 103 104 105 106 107 108 109 110 111 112 113 114 115 116 117 118 119 120 121 122 123 124 125 126 127 128 129 130 131 132 133 134 135 136 137 138 139 140 141 142 143 144 145 146 147 148 149 150 151 152 153 154 155 156 157 158 159 160 161 162 163 164 165 166 167 168 169 170 171 172 173 174 175 176 177 178 179 180 181 182 183 184 185 186 187 188 189 190 191 192 193 194 195 196 197 198 199 200 201 202 203 204 205 206 207 208 209 210 211 212 213 214 215 216 217 218 219 220 221 222 223 224 225 226 227 228 229 230 231 232 233 234 235 236 237 238 239 240 241 242 243 244 245 246 247 248 249 250 251 252 253 254 255 256 257 258 259 260 261 262 263 264 265 266 267 268 269 270 271 272 273 274 275 276 277 278 279 280 281 282 283 284 285 286 287 288 289 290 291 292 293 294 295 296 297 298 299 300 301 302 303 304 305 306 307 308 309 310 311 312 313 314 315 316 317 318 319 320 321 322 323 324 325 326 327 328 329 330 331 332 333 334 335 336 337 338 339 340 341 342 343 344 345 346 347 348 349 350 351 352 353 354 355 356 357 358 359 360 361 362 363 364 365 366 367 368 369 370 371 372 373 374 375 376 377 378 379 380 381 382 383 384 385 386 387 388 389 390 391 392 393 394 395 396 397 398 399 400 401 402 403 404 405 406 407 408 409 410 411 412 413 414 415 416 417 418 419 420 421 422 423 424 425 426 427 428 429 430 431 432 433 434 435 436 437 438 439 440 441 442 443 444 445 446 447 448 449 450 451 452 453 454 455 456 457 458 459 460 461 462 463 464 465 466 467 468 469 470 471 472 473 474 475 476 477 478 479 480 481 482 483 484 485 486 487 488 489 490 491 492 493 494 495 496 497 498 499 500 501 502 503 504 505 506 507 508 509 510 511 512 513 514 515 516 517 518 519 520 521 522 523 524 525 526 527 528 529 530 531 532 533 534 535 536 537 538 539 540 541 542 543 544 545 546 547 548 549 550 551 552 553 554 555 556 557 558 559 560 561 562 563 564 565 566 567 568 569 570 571 572 573 574 575 576 577 578 579 580 581 582 583 584 585 586 587 588 589 590 591 592 593 594 595 596 597 598 599 600 601 602 603 604 605 606 607 608 609 610 611 612 613 614 615 616 617 618 619 620 621 622 623 624 625 626 627 628 629 630 631 632 633 634 635 636 637 638 639 640 641 642 643 644 645 646 647 648 649 650 651 652 653 654 655 656 657 658 659 660 661 662 663 664 665 666 667 668 669 670 671 672 673 674 675 676 677 678 679 680 681 682 683 684 685 686 687 688 689 690 691 692 693 694 695 696 697 698 699 700 701 702 703 704 705 706 707 708 709 710 711 712 713 714 715 716 717 718 719 720 721 722 723 724 725 726 727 728 729 730 731 732 733 734 735 736 737 738 739 740 741 742 743 744 745 746 747 748 749 750 751 752 753 754 755 756 757 758 759 760 761 762 763 764 765 766 767 768 769 770 771 772 773 774 775 776 777 778 779 780 781 782 783 784 785 786 787 788 789 790 791 792 793 794 795 796 797 798 799 800 801 802 803 804 805 806 807 808 809 810 811 812 813 814 815 816 817 818 819 820 821 822 823 824 825 826 827 828 829 830 831 832 833 834 835 836 837 838 839 840 841 842 843 844 845 846 847 848 849 850 851 852 853 854 855 856 857 858 859 860 861 862 863 864 865 866 867 868 869 870 871 872 873 874 875 876 877 878 879 880 881 882 883 884 885 886 887 888 889 890 891 892 893 894 895 896 897 898 899 900 901 902 903 904 905 906 907 908 909 910 911 912 913 914 915 916 917 918 919 920 921 922 923 924 925 926 927 928 929 930 931 932 933 934 935 936 937 938 939 940 941 942 943 944 945 946 947 948 949 950 951 952 953 954 955 956 957 958 959 960 961 962 963 964 965 966 967 968 969 970 971 972 973 974 975 976 977 978 979 980 981 982 983 984 985 986 987 988 989 990 991 992 993 994 995 996 997 998 999 1000 1001 1002 1003 1004 1005 1006 1007 1008 1009 1010 1011 1012 1013 1014 1015 1016 1017 1018 1019 1020 1021 1022 1023 1024 1025 1026 1027 1028 1029 1030 1031 1032 1033 1034 1035 1036 1037 1038 1039 1040 1041 1042 1043 1044 1045 1046 1047 1048 1049 1050 1051 1052 1053 1054 1055 1056 1057 1058 1059 1060 1061 1062 1063 1064 1065 1066 1067 1068 1069 1070 1071 1072 1073 1074 1075 1076 1077 1078 1079 1080 1081 1082 1083 1084 1085 1086 1087 1088 1089 1090 1091 1092 1093 1094 1095 1096 1097 1098 1099 1100 1101 1102 1103 1104 1105 1106 1107 1108 1109 1110 1111 1112 1113 1114 1115 1116 1117 1118 1119 1120 1121 1122 1123 1124 1125 1126 1127 1128 1129 1130 1131 1132 1133 1134 1135 1136 1137 1138 1139 1140 1141 1142 1143 1144 1145 1146 1147 1148 1149 1150 1151 1152 1153 1154 1155 1156 1157 1158 1159 1160 1161 1162 1163 1164 1165 1166 1167 1168 1169 1170 1171 1172 1173 1174 1175 1176 1177 1178 1179 1180 1181 1182 1183 1184 1185 1186 1187 1188 1189 1190 1191 1192 1193 1194 1195 1196 1197 1198 1199 1200 1201 1202 1203 1204 1205 1206 1207 1208 1209 1210 1211 1212 1213 1214 1215 1216 1217 1218 1219 1220 1221 1222 1223 1224 1225 1226 1227 1228 1229 1230 1231 1232 1233 1234 1235 1236 1237 1238 1239 1240 1241 1242 1243 1244 1245 1246 1247 1248 1249 1250 1251 1252 1253 1254 1255 1256 1257 1258 1259 1260 1261 1262 1263 1264 1265 1266 1267 1268 1269 1270 1271 1272 1273 1274 1275 1276 1277 1278 1279 1280 1281 1282 1283 1284 1285 1286 1287 1288 1289 1290 1291 1292 1293 1294 1295 1296 1297 1298 1299 1300 1301 1302 1303 1304 1305 1306 1307 1308 1309 1310 1311 1312 1313 1314 1315 1316 1317 1318 1319 1320 1321 1322 1323 1324 1325 1326 1327 1328 1329 1330 1331 1332 1333 1334 1335 1336 1337 1338 1339 1340 1341 1342 1343 1344 1345 1346 1347 1348 1349 1350 1351 1352 1353 1354 1355 1356 1357 1358 1359 1360 1361 1362 1363 1364 1365 1366 1367 1368 1369 1370 1371 1372 1373 1374 1375 1376 1377 1378 1379 1380 1381 1382 1383 1384 1385 1386 1387 1388 1389 1390 1391 1392 1393 1394 1395 1396 1397 1398 1399 1400 1401 1402 1403 1404 1405 1406 1407 1408 1409 1410 1411 1412 1413 1414 1415 1416 1417 1418 1419 1420 1421 1422 1423 1424 1425 1426 1427 1428 1429 1430 1431 1432 1433 1434 1435 1436 1437 1438 1439 1440 1441 1442 1443 1444 1445 1446 1447 1448 1449 1450 1451 1452 1453 1454 1455 1456 1457 1458 1459 1460 1461 1462 1463 1464 1465 1466 1467 1468 1469 1470 1471 1472 1473 1474 1475 1476 1477 1478 1479 1480 1481 1482 1483 1484 1485 1486 1487 1488 1489 1490 1491 1492 1493 1494 1495 1496 1497 1498 1499 1500 1501 1502 1503 1504 1505 1506 1507 1508 1509 1510 1511 1512 1513 1514 1515 1516 1517 1518 1519 1520 1521 1522 1523 1524 1525 1526 1527 1528 1529 1530 1531 1532 1533 1534 1535 1536 1537 1538 1539 1540 1541 1542 1543 1544 1545 1546 1547 1548 1549 1550 1551 1552 1553 1554 1555 1556 1557 1558 1559 1560 1561 1562 1563 1564 1565 1566 1567 1568 1569 1570 1571 1572 1573 1574 1575 1576 1577 1578 1579 1580 1581 1582 1583 1584 1585 1586 1587 1588 1589 1590 1591 1592 1593 1594 1595 1596 1597 1598 1599 1600 1601 1602 1603 1604 1605 1606 1607 1608 1609 1610 1611 1612 1613 1614 1615 1616 1617 1618 1619 1620 1621 1622 1623 1624 1625 1626 1627 1628 1629 1630 1631 1632 1633 1634 1635 1636 1637 1638 1639 1640 1641 1642 1643 1644 1645 1646 1647 1648 1649 1650 1651 1652 1653 1654 1655 1656 1657 1658 1659 1660 1661 1662 1663 1664 1665 1666 1667 1668 1669 1670 1671 1672 1673 1674 1675 1676 1677 1678 1679 1680 1681 1682 1683 1684 1685 1686 1687 1688 1689 1690 1691 1692 1693 1694 1695 1696 1697 1698 1699 1700 1701 1702 1703 1704 1705 1706 1707 1708 1709 1710 1711 1712 1713 1714 1715 1716 1717 1718 1719 1720 1721 1722 1723 1724 1725 1726 1727 1728 1729 1730 1731 1732 1733 1734 1735 1736 1737 1738 1739 1740 1741 1742 1743 1744 1745 1746 1747 1748 1749 1750 1751 1752 1753 1754 1755 1756 1757 1758 1759 1760 1761 1762 1763 1764 1765 1766 1767 1768 1769 1770 1771 1772 1773 1774 1775 1776 1777 1778 1779 1780 1781 1782 1783 1784 1785 1786 1787 1788 1789 1790 1791 1792 1793 1794 1795 1796 1797 1798 1799 1800 1801 1802 1803 1804 1805 1806 1807 1808 1809 1810 1811 1812 1813 1814 1815 1816 1817 1818 1819 1820 1821 1822 1823 1824 1825 1826 1827 1828 1829 1830 1831 1832 1833 1834 1835 1836 1837 1838 1839 1840 1841 1842 1843 1844 1845 1846 1847 1848 1849 1850 1851 1852 1853 1854 1855 1856 1857 1858 1859 1860 1861 1862 1863 1864 1865 1866 1867 1868 1869 1870 1871 1872 1873 1874 1875 1876 1877 1878 1879 1880 1881 1882 1883 1884 1885 1886 1887 1888 1889 1890 1891 1892 1893 1894 1895 1896 1897 1898 1899 1900 1901 1902 1903 1904 1905 1906 1907 1908 1909 1910 1911 1912 1913 1914 1915 1916 1917 1918 1919 1920 1921 1922 1923 1924 1925 1926 1927 1928 1929 1930 1931 1932 1933 1934 1935 1936 1937 1938 1939 1940 1941 1942 1943 1944 1945 1946 1947 1948 1949 1950 1951 1952 1953 1954 1955 1956 1957 1958 1959 1960 1961 1962 1963 1964 1965 1966 1967 1968 1969 1970 1971 1972 1973 1974 1975 1976 1977 1978 1979 1980 1981 1982 1983 1984 1985 1986 1987 1988 1989 1990 1991 1992 1993 1994 1995 1996 1997 1998 1999 2000 2001 2002 2003 2004 2005 2006 2007 2008 2009 2010 2011 2012 2013 2014 2015 2016 2017 2018 2019 2020 2021 2022 2023 2024 2025 2026 2027 2028 2029 2030 2031 2032 2033 2034 2035 2036 2037 2038 2039 2040 2041 2042 2043 2044 2045 2046 2047 2048 2049 2050 2051 2052 2053 2054 2055 2056 2057 2058 2059 2060 2061 2062 2063 2064 2065 2066 2067 2068 2069 2070 2071 2072 2073 2074 2075 2076 2077 2078 2079 2080 2081 2082 2083 2084 2085 2086 2087 2088 2089 2090 2091 2092 2093 2094 2095 2096 2097 2098 2099 2100 2101 2102 2103 2104 2105 2106 2107 2108 2109 2110 2111 2112 2113 2114 2115 2116 2117 2118 2119 2120 2121 2122 2123 2124 2125 2126 2127 2128 2129 2130 2131 2132 2133 2134 2135 2136 2137 2138 2139 2140 2141 2142 2143 2144 2145 2146 2147 2148 2149 2150 2151 2152 2153 2154 2155 2156 2157 2158 2159 2160 2161 2162 2163 2164 2165 2166 2167 2168 2169 2170 2171 2172 2173 2174 2175 2176 2177 2178 2179 2180 2181 2182 2183 2184 2185 2186 2187 2188 2189 2190 2191 2192 2193 2194 2195 2196 2197 2198 2199 2200 2201 2202 2203 2204 2205 2206 2207 2208 2209 2210 2211 2212 2213 2214 2215 2216 2217 2218 2219 2220 2221 2222 2223 2224 2225 2226 2227 2228 2229 2230 2231 2232 2233 2234 2235 2236 2237 2238 2239 2240 2241 2242 2243 2244 2245 2246 2247 2248 2249 2250 2251 2252 2253 2254 2255 2256 2257 2258 2259 2260 2261 2262 2263 2264 2265 2266 2267 2268 2269 2270 2271 2272 2273 2274 2275 2276 2277 2278 2279 2280 2281 2282 2283 2284 2285 2286 2287 2288 2289 2290 2291 2292 2293 2294 2295 2296 2297 2298 2299 2300 2301 2302 2303 2304 2305 2306 2307 2308 2309 2310 2311 2312 2313 2314 2315 2316 2317 2318 2319 2320 2321 2322 2323 2324 2325 2326 2327 2328 2329 2330 2331 2332 2333 2334 2335 2336 2337 2338 2339 2340 2341 2342 2343 2344 2345 2346 2347 2348 2349 2350 2351 2352 2353 2354 2355 2356 2357 2358 2359 2360 2361 2362 2363 2364 2365 2366 2367 2368 2369 2370 2371 2372 2373 2374 2375 2376 2377 2378 2379 2380 2381 2382 2383 2384 2385 2386 2387 2388 2389 2390 2391 2392 2393 2394 2395 2396 2397 2398 2399 2400 2401 2402 2403 2404 2405 2406 2407 2408 2409 2410 2411 2412 2413 2414 2415 2416 2417 2418 2419 2420 2421 2422 2423 2424 2425 2426 2427 2428 2429 2430 2431 2432 2433 2434 2435 2436 2437 2438 2439 2440 2441 2442 2443 2444 2445 2446 2447 2448 2449 2450 2451 2452 2453 2454 2455 2456 2457 2458 2459 2460 2461 2462 2463 2464 2465 2466 2467 2468 2469 2470 2471 2472 2473 2474 2475 2476 2477 2478 2479 2480 2481 2482 2483 2484 2485 2486 2487 2488 2489 2490 2491 2492 2493 2494 2495 2496 2497 2498 2499 2500 2501 2502 2503 2504 2505 2506 2507 2508 2509 2510 2511 2512 2513 2514 2515 2516 2517 2518 2519 2520 2521 2522 2523 2524 2525 2526 2527 2528 2529 2530 2531 2532 2533 2534 2535 2536 2537 2538 2539 2540 2541 2542 2543 2544 2545 2546 2547 2548 2549 2550 2551 2552 2553 2554 2555 2556 2557 2558 2559 2560 2561 2562 2563 2564 2565 2566 2567 2568 2569 2570 2571 2572 2573 2574 2575 2576 2577 2578 2579 2580 2581 2582 2583 2584 2585 2586 2587 2588 2589 2590 2591 2592 2593 2594 2595 2596 2597 2598 2599 2600 2601 2602 2603 2604 2605 2606 2607 2608 2609 2610 2611 2612 2613 2614 2615 2616 2617 2618 2619 2620 2621 2622 2623 2624 2625 2626 2627 2628 2629 2630 2631 2632 2633 2634 2635 2636 2637 2638 2639 2640 2641 2642 2643 2644 2645 2646 2647 2648 2649 2650 2651 2652 2653 2654 2655 2656 2657 2658 2659 2660 2661 2662 2663 2664 2665 2666 2667 2668 2669 2670 2671 2672 2673 2674 2675 2676 2677 2678 2679 2680 2681 2682 2683 2684 2685 2686 2687 2688 2689 2690 2691 2692 2693 2694 2695 2696 2697 2698 2699 2700 2701 2702 2703 2704 2705 2706 2707 2708 2709 2710 2711 2712 2713 2714 2715 2716 2717 2718 2719 2720 2721 2722 2723 2724 2725 2726 2727 2728 2729 2730 2731 2732 2733 2734 2735 2736 2737 2738 2739 2740 2741 2742 2743 2744 2745 2746 2747 2748 2749 2750 2751 2752 2753 2754 2755 2756 2757 2758 2759 2760 2761 2762 2763 2764 2765 2766 2767 2768 2769 2770 2771 2772 2773 2774 2775 2776 2777 2778 2779 2780 2781 2782 2783 2784 2785 2786 2787 2788 2789 2790 2791 2792 2793 2794 2795 2796 2797 2798 2799 2800 2801 2802 2803 2804 2805 2806 2807 2808 2809 2810 2811 2812 2813 2814 2815 2816 2817 2818 2819 2820 2821 2822 2823 2824 2825 2826 2827 2828 2829 2830 2831 2832 2833 2834 2835 2836 2837 2838 2839 2840 2841 2842 2843 2844 2845 2846 2847 2848 2849 2850 2851 2852 2853 2854 2855 2856 2857 2858 2859 2860 2861 2862 2863 2864 2865 2866 2867 2868 2869 2870 2871 2872 2873 2874 2875 2876 2877 2878 2879 2880 2881 2882 2883 2884 2885 2886 2887 2888 2889 2890 2891 2892 2893 2894 2895 2896 2897 2898 2899 2900 2901 2902 2903 2904 2905 2906 2907 2908 2909 2910 2911 2912 2913 2914 2915 2916 2917 2918 2919 2920 2921 2922 2923 2924 2925 2926 2927 2928 2929 2930 2931 2932 2933 2934 2935 2936 2937 2938 2939 2940 2941 2942 2943 2944 2945 2946 2947 2948 2949 2950 2951 2952 2953 2954 2955 2956 2957 2958 2959 2960 2961 2962 2963 2964 2965 2966 2967 2968 2969 2970 2971 2972 2973 2974 2975 2976 2977 2978 2979 2980 2981 2982 2983 2984 2985 2986 2987 2988 2989 2990 2991 2992 2993 2994 2995 2996 2997 2998 2999 3000 3001 3002 3003 3004 3005 3006 3007 3008 3009 3010 3011 3012 3013 3014 3015 3016 3017 3018 3019 3020 3021 3022 3023 3024 3025 3026 3027 3028 3029 3030 3031 3032 3033 3034 3035 3036 3037 3038 3039 3040 3041 3042 3043 3044 3045 3046 3047 3048 3049 3050 3051 3052 3053 3054 3055 3056 3057 3058 3059 3060 3061 3062 3063 3064 3065 3066 3067 3068 3069 3070 3071 3072 3073 3074 3075 3076 3077 3078 3079 3080 3081 3082 3083 3084 3085 3086 3087 3088 3089 3090 3091 3092 3093 3094 3095 3096 3097 3098 3099 3100 3101 3102 3103 3104 3105 3106 3107 3108 3109 3110 3111 3112 3113 3114 3115 3116 3117 3118 3119 3120 3121 3122 3123 3124 3125 3126 3127 3128 3129 3130 3131 3132 3133 3134 3135 3136 3137 3138 3139 3140 3141 3142 3143 3144 3145 3146 3147 3148 3149 3150 3151 3152 3153 3154 3155 3156 3157 3158 3159 3160 3161 3162 3163 3164 3165 3166 3167 3168 3169 3170 3171 3172 3173 3174 3175 3176 3177 3178 3179 3180 3181 3182 3183 3184 3185 3186 3187 3188 3189 3190 3191 3192 3193 3194 3195 3196 3197 3198 3199 3200 3201 3202 3203 3204 3205 3206 3207 3208 3209 3210 3211 3212 3213 3214 3215 3216 3217 3218 3219 3220 3221 3222 3223 3224 3225 3226 3227 3228 3229 3230 3231 3232 3233 3234 3235 3236 3237 3238 3239 3240 3241 3242 3243 3244 3245 3246 3247 3248 3249 3250 3251 3252 3253 3254 3255 3256 3257 3258 3259 3260 3261 3262 3263 3264 3265 3266 3267 3268 3269 3270 3271 3272 3273 3274 3275 3276 3277 3278 3279 3280 3281 3282 3283 3284 3285 3286 3287 3288 3289 3290 3291 3292 3293 3294 3295 3296 3297 3298 3299 3300 3301 3302 3303 3304 3305 3306 3307 3308 3309 3310 3311 3312 3313 3314 3315 3316 3317 3318 3319 3320 3321 3322 3323 3324 3325 3326 3327 3328 3329 3330 3331 3332 3333 3334 3335 3336 3337 3338 3339 3340 3341 3342 3343 3344 3345 3346 3347 3348 3349 3350 3351 3352 3353 3354 3355 3356 3357 3358 3359 3360 3361 3362 3363 3364 3365 3366 3367 3368 3369 3370 3371 3372 3373 3374 3375 3376 3377 3378 3379 3380 3381 3382 3383 3384 3385 3386 3387 3388 3389 3390 3391 3392 3393 3394 3395 3396 3397 3398 3399 3400 3401 3402 3403 3404 3405 3406 3407 3408 3409 3410 3411 3412 3413 3414 3415 3416 3417 3418 3419 3420 3421 3422 3423 3424 3425 3426 3427 3428 3429 3430 3431 3432 3433 3434 3435 3436 3437 3438 3439 3440 3441 3442 3443 3444 3445 3446 3447 3448 3449 3450 3451 3452 3453 3454 3455 3456 3457 3458 3459 3460 3461 3462 3463 3464 3465 3466 3467 3468 3469 3470 3471 3472 3473 3474 3475 3476 3477 3478 3479 3480 3481 3482 3483 3484 3485 3486 3487 3488 3489 3490 3491 3492 3493 3494 3495 3496 3497 3498 3499 3500 3501 3502 3503 3504 3505 3506 3507 3508 3509 3510 3511 3512 3513 3514 3515 3516 3517 3518 3519 3520 3521 3522 3523 3524 3525 3526 3527 3528 3529 3530 3531 3532 3533 3534 3535 3536 3537 3538 3539 3540 3541 3542 3543 3544 3545 3546 3547 3548 3549 3550 3551 3552 3553 3554 3555 3556 3557 3558 3559 3560 3561 3562 3563 3564 3565 3566 3567 3568 3569 3570 3571 3572 3573 3574 3575 3576 3577 3578 3579 3580 3581 3582 3583 3584 3585 3586 3587 3588 3589 3590 3591 3592 3593 3594 3595 3596 3597 3598 3599 3600 3601 3602 3603 3604 3605 3606 3607 3608 3609 3610 3611 3612 3613 3614 3615 3616 3617 3618 3619 3620 3621 3622 3623 3624 3625 3626 3627 3628 3629 3630 3631 3632 3633 3634 3635 3636 3637 3638 3639 3640 3641 3642 3643 3644 3645 3646 3647 3648 3649 3650 3651 3652 3653 3654 3655 3656 3657 3658 3659 3660 3661 3662 3663 3664 3665 3666 3667 3668 3669 3670 3671 3672 3673 3674 3675 3676 3677 3678 3679 3680 3681 3682 3683 3684 3685 3686 3687 3688 3689 3690 3691 3692 3693 3694 3695 3696 3697 3698 3699 3700 3701 3702 3703 3704 3705 3706 3707 3708 3709 3710 3711 3712 3713 3714 3715 3716 3717 3718 3719 3720 3721 3722 3723 3724 3725 3726 3727 3728 3729 3730 3731 3732 3733 3734 3735 3736 3737 3738 3739 3740 3741 3742 3743 3744 3745 3746 3747 3748 3749 3750 3751 3752 3753 3754 3755 3756 3757 3758 3759 3760 3761 3762 3763 3764 3765 3766 3767 3768 3769 3770 3771 3772 3773 3774 3775 3776 3777 3778 3779 3780 3781 3782 3783 3784 3785 3786 3787 3788 3789 3790 3791 3792 3793 3794 3795 3796 3797 3798 3799 3800 3801 3802 3803 3804 3805 3806 3807 3808 3809 3810 3811 3812 3813 3814 3815 3816 3817 3818 3819 3820 3821 3822 3823 3824 3825 3826 3827 3828 3829 3830 3831 3832 3833 3834 3835 3836 3837 3838 3839 3840 3841 3842 3843 3844 3845 3846 3847 3848 3849 3850 3851 3852 3853 3854 3855 3856 3857 3858 3859 3860 3861 3862 3863 3864 3865 3866 3867 3868 3869 3870 3871 3872 3873 3874 3875 3876 3877 3878 3879 3880 3881 3882 3883 3884 3885 3886 3887 3888 3889 3890 3891 3892 3893 3894 3895 3896 3897 3898 3899 3900 3901 3902 3903 3904 3905 3906 3907 3908 3909 3910 3911 3912 3913 3914 3915 3916 3917 3918 3919 3920 3921 3922 3923 3924 3925 3926 3927 3928 3929 3930 3931 3932 3933 3934 3935 3936 3937 3938 3939 3940 3941 3942 3943 3944 3945 3946 3947 3948 3949 3950 3951 3952 3953 3954 3955 3956 3957 3958 3959 3960 3961 3962 3963 3964 3965 3966 3967 3968 3969 3970 3971 3972 3973 3974 3975 3976 3977 3978 3979 3980 3981 3982 3983 3984 3985 3986 3987 3988 3989 3990 3991 3992 3993 3994 3995 3996 3997 3998 3999 4000 4001 4002 4003 4004 4005 4006 4007 4008 4009 4010 4011 4012 4013 4014 4015 4016 4017 4018 4019 4020 4021 4022 4023 4024 4025 4026 4027 4028 4029 4030 4031 4032 4033 4034 4035 4036 4037 4038 4039 4040 4041 4042 4043 4044 4045 4046 4047 4048 4049 4050 4051 4052 4053 4054 4055 4056 4057 4058 4059 4060 4061 4062 4063 4064 4065 4066 4067 4068 4069 4070 4071 4072 4073 4074 4075 4076 4077 4078 4079 4080 4081 4082 4083 4084 4085 4086 4087 4088 4089 4090 4091 4092 4093 4094 4095 4096 4097 4098 4099 4100 4101 4102 4103 4104 4105 4106 4107 4108 4109 4110 4111 4112 4113 4114 4115 4116 4117 4118 4119 4120 4121 4122 4123 4124 4125 4126 4127 4128 4129 4130 4131 4132 4133 4134 4135 4136 4137 4138 4139 4140 4141 4142 4143 4144 4145 4146 4147 4148 4149 4150 4151 4152 4153 4154 4155 4156 4157 4158 4159 4160 4161 4162 4163 4164 4165 4166 4167 4168 4169 4170 4171 4172 4173 4174 4175 4176 4177 4178 4179 4180 4181 4182 4183 4184 4185 4186 4187 4188 4189 4190 4191 4192 4193 4194 4195 4196 4197 4198 4199 4200 4201 4202 4203 4204 4205 4206 4207 4208 4209 4210 4211 4212 4213 4214 4215 4216 4217 4218 4219 4220 4221 4222 4223 4224 4225 4226 4227 4228 4229 4230 4231 4232 4233 4234 4235 4236 4237 4238 4239 4240 4241 4242 4243 4244 4245 4246 4247 4248 4249 4250 4251 4252 4253 4254 4255 4256 4257 4258 4259 4260 4261 4262 4263 4264 4265 4266 4267 4268 4269 4270 4271 4272 4273 4274 4275 4276 4277 4278 4279 4280 4281 4282 4283 4284 4285 4286 4287 4288 4289 4290 4291 4292 4293 4294 4295 4296 4297 4298 4299 4300 4301 4302 4303 4304 4305 4306 4307 4308 4309 4310 4311 4312 4313 4314 4315 4316 4317 4318 4319 4320 4321 4322 4323 4324 4325 4326 4327 4328 4329 4330 4331 4332 4333 4334 4335 4336 4337 4338 4339 4340 4341 4342 4343 4344 4345 4346 4347 4348 4349 4350 4351 4352 4353 4354 4355 4356 4357 4358 4359 4360 4361 4362 4363 4364 4365 4366 4367 4368 4369 4370 4371 4372 4373 4374 4375 4376 4377 4378 4379 4380 4381 4382 4383 4384 4385 4386 4387 4388 4389 4390 4391 4392 4393 4394 4395 4396 4397 4398 4399 4400 4401 4402 4403 4404 4405 4406 4407 4408 4409 4410 4411 4412 4413 4414 4415 4416 4417 4418 4419 4420 4421 4422 4423 4424 4425 4426 4427 4428 4429 4430 4431 4432 4433 4434 4435 4436 4437 4438 4439 4440 4441 4442 4443 4444 4445 4446 4447 4448 4449 4450 4451 4452 4453 4454 4455 4456 4457 4458 4459 4460 4461 4462 4463 4464 4465 4466 4467 4468 4469 4470 4471 4472 4473 4474 4475 4476 4477 4478 4479 4480 4481 4482 4483 4484 4485 4486 4487 4488 4489 4490 4491 4492 4493 4494 4495 4496 4497 4498 4499 4500 4501 4502 4503 4504 4505 4506 4507 4508 4509 4510 4511 4512 4513 4514 4515 4516 4517 4518 4519 4520 4521 4522 4523 4524 4525 4526 4527 4528 4529 4530 4531 4532 4533 4534 4535 4536 4537 4538 4539 4540 4541 4542 4543 4544 4545 4546 4547 4548 4549 4550 4551 4552 4553 4554 4555 4556 4557 4558 4559 4560 4561 4562 4563 4564 4565 4566 4567 4568 4569 4570 4571 4572 4573 4574 4575 4576 4577 4578 4579 4580 4581 4582 4583 4584 4585 4586 4587 4588 4589 4590 4591 4592 4593 4594 4595 4596 4597 4598 4599 4600 4601 4602 4603 4604 4605 4606 4607 4608 4609 4610 4611 4612 4613 4614 4615 4616 4617 4618 4619 4620 4621 4622 4623 4624 4625 4626 4627 4628 4629 4630 4631 4632 4633 4634 4635 4636 4637 4638 4639 4640 4641 4642 4643 4644 4645 4646 4647 4648 4649 4650 4651 4652 4653 4654 4655 4656 4657 4658 4659 4660 4661 4662 4663 4664 4665 4666 4667 4668 4669 4670 4671 4672 4673 4674 4675 4676 4677 4678 4679 4680 4681 4682 4683 4684 4685 4686 4687 4688 4689 4690 4691 4692 4693 4694 4695 4696 4697 4698 4699 4700 4701 4702 4703 4704 4705 4706 4707 4708 4709 4710 4711 4712 4713 4714 4715 4716 4717 4718 4719 4720 4721 4722 4723 4724 4725 4726 4727 4728 4729 4730 4731 4732 4733 4734 4735 4736 4737 4738 4739 4740 4741 4742 4743 4744 4745 4746 4747 4748 4749 4750 4751 4752 4753 4754 4755 4756 4757 4758 4759 4760 4761 4762 4763 4764 4765 4766 4767 4768 4769 4770 4771 4772 4773 4774 4775 4776 4777 4778 4779 4780 4781 4782 4783 4784 4785 4786 4787 4788 4789 4790 4791 4792 4793 4794 4795 4796 4797 4798 4799 4800 4801 4802 4803 4804 4805 4806 4807 4808 4809 4810 4811 4812 4813 4814 4815 4816 4817 4818 4819 4820 4821 4822 4823 4824 4825 4826 4827 4828 4829 4830 4831 4832 4833 4834 4835 4836 4837 4838 4839 4840 4841 4842 4843 4844 4845 4846 4847 4848 4849 4850 4851 4852 4853 4854 4855 4856 4857 4858 4859 4860 4861 4862 4863 4864 4865 4866 4867 4868 4869 4870 4871 4872 4873 4874 4875 4876 4877 4878 4879 4880 4881 4882 4883 4884 4885 4886 4887 4888 4889 4890 4891 4892 4893 4894 4895 4896 4897 4898 4899 4900 4901 4902 4903 4904 4905 4906 4907 4908 4909 4910 4911 4912 4913 4914 4915 4916 4917 4918 4919 4920 4921 4922 4923 4924 4925 4926 4927 4928 4929 4930 4931 4932 4933 4934 4935 4936 4937 4938 4939 4940 4941 4942 4943 4944 4945 4946 4947 4948 4949 4950 4951 4952 4953 4954 4955 4956 4957 4958 4959 4960 4961 4962 4963 4964 4965 4966 4967 4968 4969 4970 4971 4972 4973 4974 4975 4976 4977 4978 4979 4980 4981 4982 4983 4984 4985 4986 4987 4988 4989 4990 4991 4992 4993 4994 4995 4996 4997 4998 4999 5000 5001 5002 5003 5004 5005 5006 5007 5008 5009 5010 5011 5012 5013 5014 5015 5016 5017 5018 5019 5020 5021 5022 5023 5024 5025 5026 5027 5028 5029 5030 5031 5032 5033 5034 5035 5036 5037 5038 5039 5040 5041 5042 5043 5044 5045 5046 5047 5048 5049 5050 5051 5052 5053 5054 5055 5056 5057 5058 5059 5060 5061 5062 5063 5064 5065 5066 5067 5068 5069 5070 5071 5072 5073 5074 5075 5076 5077 5078 5079 5080 5081 5082 5083 5084 5085 5086 5087 5088 5089 5090 5091 5092 5093 5094 5095 5096 5097 5098 5099 5100 5101 5102 5103 5104 5105 5106 5107 5108 5109 5110 5111 5112 5113 5114 5115 5116 5117 5118 5119 5120 5121 5122 5123 5124 5125 5126 5127 5128 5129 5130 5131 5132 5133 5134 5135 5136 5137 5138 5139 5140 5141 5142 5143 5144 5145 5146 5147 5148 5149 5150 5151 5152 5153 5154 5155 5156 5157 5158 5159 5160 5161 5162 5163 5164 5165 5166 5167 5168 5169 5170 5171 5172 5173 5174 5175 5176 5177 5178 5179 5180 5181 5182 5183 5184 5185 5186 5187 5188 5189 5190 5191 5192 5193 5194 5195 5196 5197 5198 5199 5200 5201 5202 5203 5204 5205 5206 5207 5208 5209 5210 5211 5212 5213 5214 5215 5216 5217 5218 5219 5220 5221 5222 5223 5224 5225 5226 5227 5228 5229 5230 5231 5232 5233 5234 5235 5236 5237 5238 5239 5240 5241 5242 5243 5244 5245 5246 5247 5248 5249 5250 5251 5252 5253 5254 5255 5256 5257 5258 5259 5260 5261 5262 5263 5264 5265 5266 5267 5268 5269 5270 5271 5272 5273 5274 5275 5276 5277 5278 5279 5280 5281 5282 5283 5284 5285 5286 5287 5288 5289 5290 5291 5292 5293 5294 5295 5296 5297 5298 5299 5300 5301 5302 5303 5304 5305 5306 5307 5308 5309 5310 5311 5312 5313 5314 5315 5316 5317 5318 5319 5320 5321 5322 5323 5324 5325 5326 5327 5328 5329 5330 5331 5332 5333 5334 5335 5336 5337 5338 5339 5340 5341 5342 5343 5344 5345 5346 5347 5348 5349 5350 5351 5352 5353 5354 5355 5356 5357 5358 5359 5360 5361 5362 5363 5364 5365 5366 5367 5368 5369 5370 5371 5372 5373 5374 5375 5376 5377 5378 5379 5380 5381 5382 5383 5384 5385 5386 5387 5388 5389 5390 5391 5392 5393 5394 5395 5396 5397 5398 5399 5400 5401 5402 5403 5404 5405 5406 5407 5408 5409 5410 5411 5412 5413 5414 5415 5416 5417 5418 5419 5420 5421 5422 5423 5424 5425 5426 5427 5428 5429 5430 5431 5432 5433 5434 5435 5436 5437 5438 5439 5440 5441 5442 5443 5444 5445 5446 5447 5448 5449 5450 5451 5452 5453 5454 5455 5456 5457 5458 5459 5460 5461 5462 5463 5464 5465 5466 5467 5468 5469 5470 5471 5472 5473 5474 5475 5476 5477 5478 5479 5480 5481 5482 5483 5484 5485 5486 5487 5488 5489 5490 5491 5492 5493 5494 5495 5496 5497 5498 5499 5500 5501 5502 5503 5504 5505 5506 5507 5508 5509 5510 5511 5512 5513 5514 5515 5516 5517 5518 5519 5520 5521 5522 5523 5524 5525 5526 5527 5528 5529 5530 5531 5532 5533 5534 5535 5536 5537 5538 5539 5540 5541 5542 5543 5544 5545 5546 5547 5548 5549 5550 5551 5552 5553 5554 5555 5556 5557 5558 5559 5560 5561 5562 5563 5564 5565 5566 5567 5568 5569 5570 5571 5572 5573 5574 5575 5576 5577 5578 5579 5580 5581 5582 5583 5584 5585 5586 5587 5588 5589 5590 5591 5592 5593 5594 5595 5596 5597 5598 5599 5600 5601 5602 5603 5604 5605 5606 5607 5608 5609 5610 5611 5612 5613 5614 5615 5616 5617 5618 5619 5620 5621 5622 5623 5624 5625 5626 5627 5628 5629 5630 5631 5632 5633 5634 5635 5636 5637 5638 5639 5640 5641 5642 5643 5644 5645 5646 5647 5648 5649 5650 5651 5652 5653 5654 5655 5656 5657 5658 5659 5660 5661 5662 5663 5664 5665 5666 5667 5668 5669 5670 5671 5672 5673 5674 5675 5676 5677 5678 5679 5680 5681 5682 5683 5684 5685 5686 5687 5688 5689 5690 5691 5692 5693 5694 5695 5696 5697 5698 5699 5700 5701 5702 5703 5704 5705 5706 5707 5708 5709 5710 5711 5712 5713 5714 5715 5716 5717 5718 5719 5720 5721 5722 5723 5724 5725 5726 5727 5728 5729 5730 5731 5732 5733 5734 5735 5736 5737 5738 5739 5740 5741 5742 5743 5744 5745 5746 5747 5748 5749 5750 5751 5752 5753 5754 5755 5756 5757 5758 5759 5760 5761 5762 5763 5764 5765 5766 5767 5768 5769 5770 5771 5772 5773 5774 5775 5776 5777 5778 5779 5780 5781 5782 5783 5784 5785 5786 5787 5788 5789 5790 5791 5792 5793 5794 5795 5796 5797 5798 5799 5800 5801 5802 5803 5804 5805 5806 5807 5808 5809 5810 5811 5812 5813 5814 5815 5816 5817 5818 5819 5820 5821 5822 5823 5824 5825 5826 5827 5828 5829 5830 5831 5832 5833 5834 5835 5836 5837 5838 5839 5840 5841 5842 5843 5844 5845 5846 5847 5848 5849 5850 5851 5852 5853 5854 5855 5856 5857 5858 5859 5860 5861 5862 5863 5864 5865 5866 5867 5868 5869 5870 5871 5872 5873 5874 5875 5876 5877 5878 5879 5880 5881 5882 5883 5884 5885 5886 5887 5888 5889 5890 5891 5892 5893 5894 5895 5896 5897 5898 5899 5900 5901 5902 5903 5904 5905 5906 5907 5908 5909 5910 5911 5912 5913 5914 5915 5916 5917 5918 5919 5920 5921 5922 5923 5924 5925 5926 5927 5928 5929 5930 5931 5932 5933 5934 5935 5936 5937 5938 5939 5940 5941 5942 5943 5944 5945 5946 5947 5948 5949 5950 5951 5952 5953 5954 5955 5956 5957 5958 5959 5960 5961 5962 5963 5964 5965 5966 5967 5968 5969 5970 5971 5972 5973 5974 5975 5976 5977 5978 5979 5980 5981 5982 5983 5984 5985 5986 5987 5988 5989 5990 5991 5992 5993 5994 5995 5996 5997 5998 5999 6000 6001 6002 6003 6004 6005 6006 6007 6008 6009 6010 6011 6012 6013 6014 6015 6016 6017 6018 6019 6020 6021 6022 6023 6024 6025 6026 6027 6028 6029 6030 6031 6032 6033 6034 6035 6036 6037 6038 6039 6040 6041 6042 6043 6044 6045 6046 6047 6048 6049 6050 6051 6052 6053 6054 6055 6056 6057 6058 6059 6060 6061 6062 6063 6064 6065 6066 6067 6068 6069 6070 6071 6072 6073 6074 6075 6076 6077 6078 6079 6080 6081 6082 6083 6084 6085 6086 6087 6088 6089 6090 6091 6092 6093 6094 6095 6096 6097 6098 6099 6100 6101 6102 6103 6104 6105 6106 6107 6108 6109 6110 6111 6112 6113 6114 6115 6116 6117 6118 6119 6120 6121 6122 6123 6124 6125 6126 6127 6128 6129 6130 6131 6132 6133 6134 6135 6136 6137 6138 6139 6140 6141 6142 6143 6144 6145 6146 6147 6148 6149 6150 6151 6152 6153 6154 6155 6156 6157 6158 6159 6160 6161 6162 6163 6164 6165 6166 6167 6168 6169 6170 6171 6172 6173 6174 6175 6176 6177 6178 6179 6180 6181 6182 6183 6184 6185 6186 6187 6188 6189 6190 6191 6192 6193 6194 6195 6196 6197 6198 6199 6200 6201 6202 6203 6204 6205 6206 6207 6208 6209 6210 6211 6212 6213 6214 6215 6216 6217 6218 6219 6220 6221 6222 6223 6224 6225 6226 6227 6228 6229 6230 6231 6232 6233 6234 6235 6236 6237 6238 6239 6240 6241 6242 6243 6244 6245 6246 6247 6248 6249 6250 6251 6252 6253 6254 6255 6256 6257 6258 6259 6260 6261 6262 6263 6264 6265 6266 6267 6268 6269 6270 6271 6272 6273 6274 6275 6276 6277 6278 6279 6280 6281 6282 6283 6284 6285 6286 6287 6288 6289 6290 6291 6292 6293 6294 6295 6296 6297 6298 6299 6300 6301 6302 6303 6304 6305 6306 6307 6308 6309 6310 6311 6312 6313 6314 6315 6316 6317 6318 6319 6320 6321 6322 6323 6324 6325 6326 6327 6328 6329 6330 6331 6332 6333 6334 6335 6336 6337 6338 6339 6340 6341 6342 6343 6344 6345 6346 6347 6348 6349 6350 6351 6352 6353 6354 6355 6356 6357 6358 6359 6360 6361 6362 6363 6364 6365 6366 6367 6368 6369 6370 6371 6372 6373 6374 6375 6376 6377 6378 6379 6380 6381 6382 6383 6384 6385 6386 6387 6388 6389 6390 6391 6392 6393 6394 6395 6396 6397 6398 6399 6400 6401 6402 6403 6404 6405 6406 6407 6408 6409 6410 6411 6412 6413 6414 6415 6416 6417 6418 6419 6420 6421 6422 6423 6424 6425 6426 6427 6428 6429 6430 6431 6432 6433 6434 6435 6436 6437 6438 6439 6440 6441 6442 6443 6444 6445 6446 6447 6448 6449 6450 6451 6452 6453 6454 6455 6456 6457 6458 6459 6460 6461 6462 6463 6464 6465 6466 6467 6468 6469 6470 6471 6472 6473 6474 6475 6476 6477 6478 6479 6480 6481 6482 6483 6484 6485 6486 6487 6488 6489 6490 6491 6492 6493 6494 6495 6496 6497 6498 6499 6500 6501 6502 6503 6504 6505 6506 6507 6508 6509 6510 6511 6512 6513 6514 6515 6516 6517 6518 6519 6520 6521 6522 6523 6524 6525 6526 6527 6528 6529 6530 6531 6532 6533 6534 6535 6536 6537 6538 6539 6540 6541 6542 6543 6544 6545 6546 6547 6548 6549 6550 6551 6552 6553 6554 6555 6556 6557 6558 6559 6560 6561 6562 6563 6564 6565 6566 6567 6568 6569 6570 6571 6572 6573 6574 6575 6576 6577 6578 6579 6580 6581 6582 6583 6584 6585 6586 6587 6588 6589 6590 6591 6592 6593 6594 6595 6596 6597 6598 6599 6600 6601 6602 6603 6604 6605 6606 6607 6608 6609 6610 6611 6612 6613 6614 6615 6616 6617 6618 6619 6620 6621 6622 6623 6624 6625 6626 6627 6628 6629 6630 6631 6632 6633 6634 6635 6636 6637 6638 6639 6640 6641 6642 6643 6644 6645 6646 6647 6648 6649 6650 6651 6652 6653 6654 6655 6656 6657 6658 6659 6660 6661 6662 6663 6664 6665 6666 6667 6668 6669 6670 6671 6672 6673 6674 6675 6676 6677 6678 6679 6680 6681 6682 6683 6684 6685 6686 6687 6688 6689 6690 6691 6692 6693 6694 6695 6696 6697 6698 6699 6700 6701 6702 6703 6704 6705 6706 6707 6708 6709 6710 6711 6712 6713 6714 6715 6716 6717 6718 6719 6720 6721 6722 6723 6724 6725 6726 6727 6728 6729 6730 6731 6732 6733 6734 6735 6736 6737 6738 6739 6740 6741 6742 6743 6744 6745 6746 6747 6748 6749 6750 6751 6752 6753 6754 6755 6756 6757 6758 6759 6760 6761 6762 6763 6764 6765 6766 6767 6768 6769 6770 6771 6772 6773 6774 6775 6776 6777 6778 6779 6780 6781 6782 6783 6784 6785 6786 6787 6788 6789 6790 6791 6792 6793 6794 6795 6796 6797 6798 6799 6800 6801 6802 6803 6804 6805 6806 6807 6808 6809 6810 6811 6812 6813 6814 6815 6816 6817 6818 6819 6820 6821 6822 6823 6824 6825 6826 6827 6828 6829 6830 6831 6832 6833 6834 6835 6836 6837 6838 6839 6840 6841 6842 6843 6844 6845 6846 6847 6848 6849 6850 6851 6852 6853 6854 6855 6856 6857 6858 6859 6860 6861 6862 6863 6864 6865 6866 6867 6868 6869 6870 6871 6872 6873 6874 6875 6876 6877 6878 6879 6880 6881 6882 6883 6884 6885 6886 6887 6888 6889 6890 6891 6892 6893 6894 6895 6896 6897 6898 6899 6900 6901 6902 6903 6904 6905 6906 6907 6908 6909 6910 6911 6912 6913 6914 6915 6916 6917 6918 6919 6920 6921 6922 6923 6924 6925 6926 6927 6928 6929 6930 6931 6932 6933 6934 6935 6936 6937 6938 6939 6940 6941 6942 6943 6944 6945 6946 6947 6948 6949 6950 6951 6952 6953 6954 6955 6956 6957 6958 6959 6960 6961 6962 6963 6964 6965 6966 6967 6968 6969 6970 6971 6972 6973 6974 6975 6976 6977 6978 6979 6980 6981 6982 6983 6984 6985 6986 6987 6988 6989 6990 6991 6992 6993 6994 6995 6996 6997 6998 6999 7000 7001 7002 7003 7004 7005 7006 7007 7008 7009 7010 7011 7012 7013 7014 7015 7016 7017 7018 7019 7020 7021 7022 7023 7024 7025 7026 7027 7028 7029 7030 7031 7032 7033 7034 7035 7036 7037 7038 7039 7040 7041 7042 7043 7044 7045 7046 7047 7048 7049 7050 7051 7052 7053 7054 7055 7056 7057 7058 7059 7060 7061 7062 7063 7064 7065 7066 7067 7068 7069 7070 7071 7072 7073 7074 7075 7076 7077 7078 7079 7080 7081 7082 7083 7084 7085 7086 7087 7088 7089 7090 7091 7092 7093 7094 7095 7096 7097 7098 7099 7100 7101 7102 7103 7104 7105 7106 7107 7108 7109 7110 7111 7112 7113 7114 7115 7116 7117 7118 7119 7120 7121 7122 7123 7124 7125 7126 7127 7128 7129 7130 7131 7132 7133 7134 7135 7136 7137 7138 7139 7140 7141 7142 7143 7144 7145 7146 7147 7148 7149 7150 7151 7152 7153 7154 7155 7156 7157 7158 7159 7160 7161 7162 7163 7164 7165 7166 7167 7168 7169 7170 7171 7172 7173 7174 7175 7176 7177 7178 7179 7180 7181 7182 7183 7184 7185 7186 7187 7188 7189 7190 7191 7192 7193 7194 7195 7196 7197 7198 7199 7200 7201 7202 7203 7204 7205 7206 7207 7208 7209 7210 7211 7212 7213 7214 7215 7216 7217 7218 7219 7220 7221 7222 7223 7224 7225 7226 7227 7228 7229 7230 7231 7232 7233 7234 7235 7236 7237 7238 7239 7240 7241 7242 7243 7244 7245 7246 7247 7248 7249 7250 7251 7252 7253 7254 7255 7256 7257 7258 7259 7260 7261 7262 7263 7264 7265 7266 7267 7268 7269 7270 7271 7272 7273 7274 7275 7276 7277 7278 7279 7280 7281 7282 7283 7284 7285 7286 7287 7288 7289 7290 7291 7292 7293 7294 7295 7296 7297 7298 7299 7300 7301 7302 7303 7304 7305 7306 7307 7308 7309 7310 7311 7312 7313 7314 7315 7316 7317 7318 7319 7320 7321 7322 7323 7324 7325 7326 7327 7328 7329 7330 7331 7332 7333 7334 7335 7336 7337 7338 7339 7340 7341 7342 7343 7344 7345 7346 7347 7348 7349 7350 7351 7352 7353 7354 7355 7356 7357 7358 7359 7360 7361 7362 7363 7364 7365 7366 7367 7368 7369 7370 7371 7372 7373 7374 7375 7376 7377 7378 7379 7380 7381 7382 7383 7384 7385 7386 7387 7388 7389 7390 7391 7392 7393 7394 7395 7396 7397 7398 7399 7400 7401 7402 7403 7404 7405 7406 7407 7408 7409 7410 7411 7412 7413 7414 7415 7416 7417 7418 7419 7420 7421 7422 7423 7424 7425 7426 7427 7428 7429 7430 7431 7432 7433 7434 7435 7436 7437 7438 7439 7440 7441 7442 7443 7444 7445 7446 7447 7448 7449 7450 7451 7452 7453 7454 7455 7456 7457 7458 7459 7460 7461 7462 7463 7464 7465 7466 7467 7468 7469 7470 7471 7472 7473 7474 7475 7476 7477 7478 7479 7480 7481 7482 7483 7484 7485 7486 7487 7488 7489 7490 7491 7492 7493 7494 7495 7496 7497 7498 7499 7500 7501 7502 7503 7504 7505 7506 7507 7508 7509 7510 7511 7512 7513 7514 7515 7516 7517 7518 7519 7520 7521 7522 7523 7524 7525 7526 7527 7528 7529 7530 7531 7532 7533 7534 7535 7536 7537 7538 7539 7540 7541 7542 7543 7544 7545 7546 7547 7548 7549 7550 7551 7552 7553 7554 7555 7556 7557 7558 7559 7560 7561 7562 7563 7564 7565 7566 7567 7568 7569 7570 7571 7572 7573 7574 7575 7576 7577 7578 7579 7580 7581 7582 7583 7584 7585 7586 7587 7588 7589 7590 7591 7592 7593 7594 7595 7596 7597 7598 7599 7600 7601 7602 7603 7604 7605 7606 7607 7608 7609 7610 7611 7612 7613 7614 7615 7616 7617 7618 7619 7620 7621 7622 7623 7624 7625 7626 7627 7628 7629 7630 7631 7632 7633 7634 7635 7636 7637 7638 7639 7640 7641 7642 7643 7644 7645 7646 7647 7648 7649 7650 7651 7652 7653 7654 7655 7656 7657 7658 7659 7660 7661 7662 7663 7664 7665 7666 7667 7668 7669 7670 7671 7672 7673 7674 7675 7676 7677 7678 7679 7680 7681 7682 7683 7684 7685 7686 7687 7688 7689 7690 7691 7692 7693 7694 7695 7696 7697 7698 7699 7700 7701 7702 7703 7704 7705 7706 7707 7708 7709 7710 7711 7712 7713 7714 7715 7716 7717 7718 7719 7720 7721 7722 7723 7724 7725 7726 7727 7728 7729 7730 7731 7732 7733 7734 7735 7736 7737 7738 7739 7740 7741 7742 7743 7744 7745 7746 7747 7748 7749 7750 7751 7752 7753 7754 7755 7756 7757 7758 7759 7760 7761 7762 7763 7764 7765 7766 7767 7768 7769 7770 7771 7772 7773 7774 7775 7776 7777 7778 7779 7780 7781 7782 7783 7784 7785 7786 7787 7788 7789 7790 7791 7792 7793 7794 7795 7796 7797 7798 7799 7800 7801 7802 7803 7804 7805 7806 7807 7808 7809 7810 7811 7812 7813 7814 7815 7816 7817 7818 7819 7820 7821 7822 7823 7824 7825 7826 7827 7828 7829 7830 7831 7832 7833 7834 7835 7836 7837 7838 7839 7840 7841 7842 7843 7844 7845 7846 7847 7848 7849 7850 7851 7852 7853 7854 7855 7856 7857 7858 7859 7860 7861 7862 7863 7864 7865 7866 7867 7868 7869 7870 7871 7872 7873 7874 7875 7876 7877 7878 7879 7880 7881 7882 7883 7884 7885 7886 7887 7888 7889 7890 7891 7892 7893 7894 7895 7896 7897 7898 7899 7900 7901 7902 7903 7904 7905 7906 7907 7908 7909 7910 7911 7912 7913 7914 7915 7916 7917 7918 7919 7920 7921 7922 7923 7924 7925 7926 7927 7928 7929 7930 7931 7932 7933 7934 7935 7936 7937 7938 7939 7940 7941 7942 7943 7944 7945 7946 7947 7948 7949 7950 7951 7952 7953 7954 7955 7956 7957 7958 7959 7960 7961 7962 7963 7964 7965 7966 7967 7968 7969 7970 7971 7972 7973 7974 7975 7976 7977 7978 7979 7980 7981 7982 7983 7984 7985 7986 7987 7988 7989 7990 7991 7992 7993 7994 7995 7996 7997 7998 7999 8000 8001 8002 8003 8004 8005 8006 8007 8008 8009 8010 8011 8012 8013 8014 8015 8016 8017 8018 8019 8020 8021 8022 8023 8024 8025 8026 8027 8028 8029 8030 8031 8032 8033 8034 8035 8036 8037 8038 8039 8040 8041 8042 8043 8044 8045 8046 8047 8048 8049 8050 8051 8052 8053 8054 8055 8056 8057 8058 8059 8060 8061 8062 8063 8064 8065 8066 8067 8068 8069 8070 8071 8072 8073 8074 8075 8076 8077 8078 8079 8080 8081 8082 8083 8084 8085 8086 8087 8088 8089 8090 8091 8092 8093 8094 8095 8096 8097 8098 8099 8100 8101 8102 8103 8104 8105 8106 8107 8108 8109 8110 8111 8112 8113 8114 8115 8116 8117 8118 8119 8120 8121 8122 8123 8124 8125 8126 8127 8128 8129 8130 8131 8132 8133 8134 8135 8136 8137 8138 8139 8140 8141 8142 8143 8144 8145 8146 8147 8148 8149 8150 8151 8152 8153 8154 8155 8156 8157 8158 8159 8160 8161 8162 8163 8164 8165 8166 8167 8168 8169 8170 8171 8172 8173 8174 8175 8176 8177 8178 8179 8180 8181 8182 8183 8184 8185 8186 8187 8188 8189 8190 8191 8192 8193 8194 8195 8196 8197 8198 8199 8200 8201 8202 8203 8204 8205 8206 8207 8208 8209 8210 8211 8212 8213 8214 8215 8216 8217 8218 8219 8220 8221 8222 8223 8224 8225 8226 8227 8228 8229 8230 8231 8232 8233 8234 8235 8236 8237 8238 8239 8240 8241 8242 8243 8244 8245 8246 8247 8248 8249 8250 8251 8252 8253 8254 8255 8256 8257 8258 8259 8260 8261 8262 8263 8264 8265 8266 8267 8268 8269 8270 8271 8272 8273 8274 8275 8276 8277 8278 8279 8280 8281 8282 8283 8284 8285 8286 8287 8288 8289 8290 8291 8292 8293 8294 8295 8296 8297 8298 8299 8300 8301 8302 8303 8304 8305 8306 8307 8308 8309 8310 8311 8312 8313 8314 8315 8316 8317 8318 8319 8320 8321 8322 8323 8324 8325 8326 8327 8328 8329 8330 8331 8332 8333 8334 8335 8336 8337 8338 8339 8340 8341 8342 8343 8344 8345 8346 8347 8348 8349 8350 8351 8352 8353 8354 8355 8356 8357 8358 8359 8360 8361 8362 8363 8364 8365 8366 8367 8368 8369 8370 8371 8372 8373 8374 8375 8376 8377 8378 8379 8380 8381 8382 8383 8384 8385 8386 8387 8388 8389 8390 8391 8392 8393 8394 8395 8396 8397 8398 8399 8400 8401 8402 8403 8404 8405 8406 8407 8408 8409 8410 8411 8412 8413 8414 8415 8416 8417 8418 8419 8420 8421 8422 8423 8424 8425 8426 8427 8428 8429 8430 8431 8432 8433 8434 8435 8436 8437 8438 8439 8440 8441 8442 8443 8444 8445 8446 8447 8448 8449 8450 8451 8452 8453 8454 8455 8456 8457 8458 8459 8460 8461 8462 8463 8464 8465 8466 8467 8468 8469 8470 8471 8472 8473 8474 8475 8476 8477 8478 8479 8480 8481 8482 8483 8484 8485 8486 8487 8488 8489 8490 8491 8492 8493 8494 8495 8496 8497 8498 8499 8500 8501 8502 8503 8504 8505 8506 8507 8508 8509 8510 8511 8512 8513 8514 8515 8516 8517 8518 8519 8520 8521 8522 8523 8524 8525 8526 8527 8528 8529 8530 8531 8532 8533 8534 8535 8536 8537 8538 8539 8540 8541 8542 8543 8544 8545 8546 8547 8548 8549 8550 8551 8552 8553 8554 8555 8556 8557 8558 8559 8560 8561 8562 8563 8564 8565 8566 8567 8568 8569 8570 8571 8572 8573 8574 8575 8576 8577 8578 8579 8580 8581 8582 8583 8584 8585 8586 8587 8588 8589 8590 8591 8592 8593 8594 8595 8596 8597 8598 8599 8600 8601 8602 8603 8604 8605 8606 8607 8608 8609 8610 8611 8612 8613 8614 8615 8616 8617 8618 8619 8620 8621 8622 8623 8624 8625 8626 8627 8628 8629 8630 8631 8632 8633 8634 8635 8636 8637 8638 8639 8640 8641 8642 8643 8644 8645 8646 8647 8648 8649 8650 8651 8652 8653 8654 8655 8656 8657 8658 8659 8660 8661 8662 8663 8664 8665 8666 8667 8668 8669 8670 8671 8672 8673 8674 8675 8676 8677 8678 8679 8680 8681 8682 8683 8684 8685 8686 8687 8688 8689 8690 8691 8692 8693 8694 8695 8696 8697 8698 8699 8700 8701 8702 8703 8704 8705 8706 8707 8708 8709 8710 8711 8712 8713 8714 8715 8716 8717 8718 8719 8720 8721 8722 8723 8724 8725 8726 8727 8728 8729 8730 8731 8732 8733 8734 8735 8736 8737 8738 8739 8740 8741 8742 8743 8744 8745 8746 8747 8748 8749 8750 8751 8752 8753 8754 8755 8756 8757 8758 8759 8760 8761 8762 8763 8764 8765 8766 8767 8768 8769 8770 8771 8772 8773 8774 8775 8776 8777 8778 8779 8780 8781 8782 8783 8784 8785 8786 8787 8788 8789 8790 8791 8792 8793 8794 8795 8796 8797 8798 8799 8800 8801 8802 8803 8804 8805 8806 8807 8808 8809 8810 8811 8812 8813 8814 8815 8816 8817 8818 8819 8820 8821 8822 8823 8824 8825 8826 8827 8828 8829 8830 8831 8832 8833 8834 8835 8836 8837 8838 8839 8840 8841 8842 8843 8844 8845 8846 8847 8848 8849 8850 8851 8852 8853 8854 8855 8856 8857 8858 8859 8860 8861 8862 8863 8864 8865 8866 8867 8868 8869 8870 8871 8872 8873 8874 8875 8876 8877 8878 8879 8880 8881 8882 8883 8884 8885 8886 8887 8888 8889 8890 8891 8892 8893 8894 8895 8896 8897 8898 8899 8900 8901 8902 8903 8904 8905 8906 8907 8908 8909 8910 8911 8912 8913 8914 8915 8916 8917 8918 8919 8920 8921 8922 8923 8924 8925 8926 8927 8928 8929 8930 8931 8932 8933 8934 8935 8936 8937 8938 8939 8940 8941 8942 8943 8944 8945 8946 8947 8948 8949 8950 8951 8952 8953 8954 8955 8956 8957 8958 8959 8960 8961 8962 8963 8964 8965 8966 8967 8968 8969 8970 8971 8972 8973 8974 8975 8976 8977 8978 8979 8980 8981 8982 8983 8984 8985 8986 8987 8988 8989 8990 8991 8992 8993 8994 8995 8996 8997 8998 8999 9000 9001 9002 9003 9004 9005 9006 9007 9008 9009 9010 9011 9012 9013 9014 9015 9016 9017 9018 9019 9020 9021 9022 9023 9024 9025 9026 9027 9028 9029 9030 9031 9032 9033 9034 9035 9036 9037 9038 9039 9040 9041 9042 9043 9044 9045 9046 9047 9048 9049 9050 9051 9052 9053 9054 9055 9056 9057 9058 9059 9060 9061 9062 9063 9064 9065 9066 9067 9068 9069 9070 9071 9072 9073 9074 9075 9076 9077 9078 9079 9080 9081 9082 9083 9084 9085 9086 9087 9088 9089 9090 9091 9092 9093 9094 9095 9096 9097 9098 9099 9100 9101 9102 9103 9104 9105 9106 9107 9108 9109 9110 9111 9112 9113 9114 9115 9116 9117 9118 9119 9120 9121 9122 9123 9124 9125 9126 9127 9128 9129 9130 9131 9132 9133 9134 9135 9136 9137 9138 9139 9140 9141 9142 9143 9144 9145 9146 9147 9148 9149 9150 9151 9152 9153 9154 9155 9156 9157 9158 9159 9160 9161 9162 9163 9164 9165 9166 9167 9168 9169 9170 9171 9172 9173 9174 9175 9176 9177 9178 9179 9180 9181 9182 9183 9184 9185 9186 9187 9188 9189 9190 9191 9192 9193 9194 9195 9196 9197 9198 9199 9200 9201 9202 9203 9204 9205 9206 9207 9208 9209 9210 9211 9212 9213 9214 9215 9216 9217 9218 9219 9220 9221 9222 9223 9224 9225 9226 9227 9228 9229 9230 9231 9232 9233 9234 9235 9236 9237 9238 9239 9240 9241 9242 9243 9244 9245 9246 9247 9248 9249 9250 9251 9252 9253 9254 9255 9256 9257 9258 9259 9260 9261 9262 9263 9264 9265 9266 9267 9268 9269 9270 9271 9272 9273 9274 9275 9276 9277 9278 9279 9280 9281 9282 9283 9284 9285 9286 9287 9288 9289 9290 9291 9292 9293 9294 9295 9296 9297 9298 9299 9300 9301 9302 9303 9304 9305 9306 9307 9308 9309 9310 9311 9312 9313 9314 9315 9316 9317 9318 9319 9320 9321 9322 9323 9324 9325 9326 9327 9328 9329 9330 9331 9332 9333 9334 9335 9336 9337 9338 9339 9340 9341 9342 9343 9344 9345 9346 9347 9348 9349 9350 9351 9352 9353 9354 9355 9356 9357 9358 9359 9360 9361 9362 9363 9364 9365 9366 9367 9368 9369 9370 9371 9372 9373 9374 9375 9376 9377 9378 9379 9380 9381 9382 9383 9384 9385 9386 9387 9388 9389 9390 9391 9392 9393 9394 9395 9396 9397 9398 9399 9400 9401 9402 9403 9404 9405 9406 9407 9408 9409 9410 9411 9412 9413 9414 9415 9416 9417 9418 9419 9420 9421 9422 9423 9424 9425 9426 9427 9428 9429 9430 9431 9432 9433 9434 9435 9436 9437 9438 9439 9440 9441 9442 9443 9444 9445 9446 9447 9448 9449 9450 9451 9452 9453 9454 9455 9456 9457 9458 9459 9460 9461 9462 9463 9464 9465 9466 9467 9468 9469 9470 9471 9472 9473 9474 9475 9476 9477 9478 9479 9480 9481 9482 9483 9484 9485 9486 9487 9488 9489 9490 9491 9492 9493 9494 9495 9496 9497 9498 9499 9500 9501 9502 9503 9504 9505 9506 9507 9508 9509 9510 9511 9512 9513 9514 9515 9516 9517 9518 9519 9520 9521 9522 9523 9524 9525 9526 9527 9528 9529 9530 9531 9532 9533 9534 9535 9536 9537 9538 9539 9540 9541 9542 9543 9544 9545 9546 9547 9548 9549 9550 9551 9552 9553 9554 9555 9556 9557 9558 9559 9560 9561 9562 9563 9564 9565 9566 9567 9568 9569 9570 9571 9572 9573 9574 9575 9576 9577 9578 9579 9580 9581 9582 9583 9584 9585 9586 9587 9588 9589 9590 9591 9592 9593 9594 9595 9596 9597 9598 9599 9600 9601 9602 9603 9604 9605 9606 9607 9608 9609 9610 9611 9612 9613 9614 9615 9616 9617 9618 9619 9620 9621 9622 9623 9624 9625 9626 9627 9628 9629 9630 9631 9632 9633 9634 9635 9636 9637 9638 9639 9640 9641 9642 9643 9644 9645 9646 9647 9648 9649 9650 9651 9652 9653 9654 9655 9656 9657 9658 9659 9660 9661 9662 9663 9664 9665 9666 9667 9668 9669 9670 9671 9672 9673 9674 9675 9676 9677 9678 9679 9680 9681 9682 9683 9684 9685 9686 9687 9688 9689 9690 9691 9692 9693 9694 9695 9696 9697 9698 9699 9700 9701 9702 9703 9704 9705 9706 9707 9708 9709 9710 9711 9712 9713 9714 9715 9716 9717 9718 9719 9720 9721 9722 9723 9724 9725 9726 9727 9728 9729 9730 9731 9732 9733 9734 9735 9736 9737 9738 9739 9740 9741 9742 9743 9744 9745 9746 9747 9748 9749 9750 9751 9752 9753 9754 9755 9756 9757 9758 9759 9760 9761 9762 9763 9764 9765 9766 9767 9768 9769 9770 9771 9772 9773 9774 9775 9776 9777 9778 9779 9780 9781 9782 9783 9784 9785 9786 9787 9788 9789 9790 9791 9792 9793 9794 9795 9796 9797 9798 9799 9800 9801 9802 9803 9804 9805 9806 9807 9808 9809 9810 9811 9812 9813 9814 9815 9816 9817 9818 9819 9820 9821 9822 9823 9824 9825 9826 9827 9828 9829 9830 9831 9832 9833 9834 9835 9836 9837 9838 9839 9840 9841 9842 9843 9844 9845 9846 9847 9848 9849 9850 9851 9852 9853 9854 9855 9856 9857 9858 9859 9860 9861 9862 9863 9864 9865 9866 9867 9868 9869 9870 9871 9872 9873 9874 9875 9876 9877 9878 9879 9880 9881 9882 9883 9884 9885 9886 9887 9888 9889 9890 9891 9892 9893 9894 9895 9896 9897 9898 9899 9900 9901 9902 9903 9904 9905 9906 9907 9908 9909 9910 9911 9912 9913 9914 9915 9916 9917 9918 9919 9920 9921 9922 9923 9924 9925 9926 9927 9928 9929 9930 9931 9932 9933 9934 9935 9936 9937 9938 9939 9940 9941 9942 9943 9944 9945 9946 9947 9948 9949 9950 9951 9952 9953 9954 9955 9956 9957 9958 9959 9960 9961 9962 9963 9964 9965 9966 9967 9968 9969 9970 9971 9972 9973 9974 9975 9976 9977 9978 9979 9980 9981 9982 9983 9984 9985 9986 9987 9988 9989 9990 9991 9992 9993 9994 9995 9996 9997 9998 9999 10000 10001 10002 10003 10004 10005 10006 10007 10008 10009 10010 10011 10012 10013 10014 10015 10016 10017 10018 10019 10020 10021 10022 10023 10024 10025 10026 10027 10028 10029 10030 10031 10032 10033 10034 10035 10036 10037 10038 10039 10040 10041 10042 10043 10044 10045 10046 10047 10048 10049 10050 10051 10052 10053 10054 10055 10056 10057 10058 10059 10060 10061 10062 10063 10064 10065 10066 10067 10068 10069 10070 10071 10072 10073 10074 10075 10076 10077 10078 10079 10080 10081 10082 10083 10084 10085 10086 10087 10088 10089 10090 10091 10092 10093 10094 10095 10096 10097 10098 10099 10100 10101 10102 10103 10104 10105 10106 10107 10108 10109 10110 10111 10112 10113 10114 10115 10116 10117 10118 10119 10120 10121 10122 10123 10124 10125 10126 10127 10128 10129 10130 10131 10132 10133 10134 10135 10136 10137 10138 10139 10140 10141 10142 10143 10144 10145 10146 10147 10148 10149 10150 10151 10152 10153 10154 10155 10156 10157 10158 10159 10160 10161 10162 10163 10164 10165 10166 10167 10168 10169 10170 10171 10172 10173 10174 10175 10176 10177 10178 10179 10180 10181 10182 10183 10184 10185 10186 10187 10188 10189 10190 10191 10192 10193 10194 10195 10196 10197 10198 10199 10200 10201 10202 10203 10204 10205 10206 10207 10208 10209 10210 10211 10212 10213 10214 10215 10216 10217 10218 10219 10220 10221 10222 10223 10224 10225 10226 10227 10228 10229 10230 10231 10232 10233 10234 10235 10236 10237 10238 10239 10240 10241 10242 10243 10244 10245 10246 10247 10248 10249 10250 10251 10252 10253 10254 10255 10256 10257 10258 10259 10260 10261 10262 10263 10264 10265 10266 10267 10268 10269 10270 10271 10272 10273 10274 10275 10276 10277 10278 10279 10280 10281 10282 10283 10284 10285 10286 10287 10288 10289 10290 10291 10292 10293 10294 10295 10296 10297 10298 10299 10300 10301 10302 10303 10304 10305 10306 10307 10308 10309 10310 10311 10312 10313 10314 10315 10316 10317 10318 10319 10320 10321 10322 10323 10324 10325 10326 10327 10328 10329 10330 10331 10332 10333 10334 10335 10336 10337 10338 10339 10340 10341 10342 10343 10344 10345 10346 10347 10348 10349 10350 10351 10352 10353 10354 10355 10356 10357 10358 10359 10360 10361 10362 10363 10364 10365 10366 10367 10368 10369 10370 10371 10372 10373 10374 10375 10376 10377 10378 10379 10380 10381 10382 10383 10384 10385 10386 10387 10388 10389 10390 10391 10392 10393 10394 10395 10396 10397 10398 10399 10400 10401 10402 10403 10404 10405 10406 10407 10408 10409 10410 10411 10412 10413 10414 10415 10416 10417 10418 10419 10420 10421 10422 10423 10424 10425 10426 10427 10428 10429 10430 10431 10432 10433 10434 10435 10436 10437 10438 10439 10440 10441 10442 10443 10444 10445 10446 10447 10448 10449 10450 10451 10452 10453 10454 10455 10456 10457 10458 10459 10460 10461 10462 10463 10464 10465 10466 10467 10468 10469 10470 10471 10472 10473 10474 10475 10476 10477 10478 10479 10480 10481 10482 10483 10484 10485 10486 10487 10488 10489 10490 10491 10492 10493 10494 10495 10496 10497 10498 10499 10500 10501 10502 10503 10504 10505 10506 10507 10508 10509 10510 10511 10512 10513 10514 10515 10516 10517 10518 10519 10520 10521 10522 10523 10524 10525 10526 10527 10528 10529 10530 10531 10532 10533 10534 10535 10536 10537 10538 10539 10540 10541 10542 10543 10544 10545 10546 10547 10548 10549 10550 10551 10552 10553 10554 10555 10556 10557 10558 10559 10560 10561 10562 10563 10564 10565 10566 10567 10568 10569 10570 10571 10572 10573 10574 10575 10576 10577 10578 10579 10580 10581 10582 10583 10584 10585 10586 10587 10588 10589 10590 10591 10592 10593 10594 10595 10596 10597 10598 10599 10600 10601 10602 10603 10604 10605 10606 10607 10608 10609 10610 10611 10612 10613 10614 10615 10616 10617 10618 10619 10620 10621 10622 10623 10624 10625 10626 10627 10628 10629 10630 10631 10632 10633 10634 10635 10636 10637 10638 10639 10640 10641 10642 10643 10644 10645 10646 10647 10648 10649 10650 10651 10652 10653 10654 10655 10656 10657 10658 10659 10660 10661 10662 10663 10664 10665 10666 10667 10668 10669 10670 10671 10672 10673 10674 10675 10676 10677 10678 10679 10680 10681 10682 10683 10684 10685 10686 10687 10688 10689 10690 10691 10692 10693 10694 10695 10696 10697 10698 10699 10700 10701 10702 10703 10704 10705 10706 10707 10708 10709 10710 10711 10712 10713 10714 10715 10716 10717 10718 10719 10720 10721 10722 10723 10724 10725 10726 10727 10728 10729 10730 10731 10732 10733 10734 10735 10736 10737 10738 10739 10740 10741 10742 10743 10744 10745 10746 10747 10748 10749 10750 10751 10752 10753 10754 10755 10756 10757 10758 10759 10760 10761 10762 10763 10764 10765 10766 10767 10768 10769 10770 10771 10772 10773 10774 10775 10776 10777 10778 10779 10780 10781 10782 10783 10784 10785 10786 10787 10788 10789 10790 10791 10792 10793 10794 10795 10796 10797 10798 10799 10800 10801 10802 10803 10804 10805 10806 10807 10808 10809 10810 10811 10812 10813 10814 10815 10816 10817 10818 10819 10820 10821 10822 10823 10824 10825 10826 10827 10828 10829 10830 10831 10832 10833 10834 10835 10836 10837 10838 10839 10840 10841 10842 10843 10844 10845 10846 10847 10848 10849 10850 10851 10852 10853 10854 10855 10856 10857 10858 10859 10860 10861 10862 10863 10864 10865 10866 10867 10868 10869 10870 10871 10872 10873 10874 10875 10876 10877 10878 10879 10880 10881 10882 10883 10884 10885 10886 10887 10888 10889 10890 10891 10892 10893 10894 10895 10896 10897 10898 10899 10900 10901 10902 10903 10904 10905 10906 10907 10908 10909 10910 10911 10912 10913 10914 10915 10916 10917 10918 10919 10920 10921 10922 10923 10924 10925 10926 10927 10928 10929 10930 10931 10932 10933 10934 10935 10936 10937 10938 10939 10940 10941 10942 10943 10944 10945 10946 10947 10948 10949 10950 10951 10952 10953 10954 10955 10956 10957 10958 10959 10960 10961 10962 10963 10964 10965 10966 10967 10968 10969 10970 10971 10972 10973 10974 10975 10976 10977 10978 10979 10980 10981 10982 10983 10984 10985 10986 10987 10988 10989 10990 10991 10992 10993 10994 10995 10996 10997 10998 10999 11000 11001 11002 11003 11004 11005 11006 11007 11008 11009 11010 11011 11012 11013 11014 11015 11016 11017 11018 11019 11020 11021 11022 11023 11024 11025 11026 11027 11028 11029 11030 11031 11032 11033 11034 11035 11036 11037 11038 11039 11040 11041 11042 11043 11044 11045 11046 11047 11048 11049 11050 11051 11052 11053 11054 11055 11056 11057 11058 11059 11060 11061 11062 11063 11064 11065 11066 11067 11068 11069 11070 11071 11072 11073 11074 11075 11076 11077 11078 11079 11080 11081 11082 11083 11084 11085 11086 11087 11088 11089 11090 11091 11092 11093 11094 11095 11096 11097 11098 11099 11100 11101 11102 11103 11104 11105 11106 11107 11108 11109 11110 11111 11112 11113 11114 11115 11116 11117 11118 11119 11120 11121 11122 11123 11124 11125 11126 11127 11128 11129 11130 11131 11132 11133 11134 11135 11136 11137 11138 11139 11140 11141 11142 11143 11144 11145 11146 11147 11148 11149 11150 11151 11152 11153 11154 11155 11156 11157 11158 11159 11160 11161 11162 11163 11164 11165 11166 11167 11168 11169 11170 11171 11172 11173 11174 11175 11176 11177 11178 11179 11180 11181 11182 11183 11184 11185 11186 11187 11188 11189 11190 11191 11192 11193 11194 11195 11196 11197 11198 11199 11200 11201 11202 11203 11204 11205 11206 11207 11208 11209 11210 11211 11212 11213 11214 11215 11216 11217 11218 11219 11220 11221 11222 11223 11224 11225 11226 11227 11228 11229 11230 11231 11232 11233 11234 11235 11236 11237 11238 11239 11240 11241 11242 11243 11244 11245 11246 11247 11248 11249 11250 11251 11252 11253 11254 11255 11256 11257 11258 11259 11260 11261 11262 11263 11264 11265 11266 11267 11268 11269 11270 11271 11272 11273 11274 11275 11276 11277 11278 11279 11280 11281 11282 11283 11284 11285 11286 11287 11288 11289 11290 11291 11292 11293 11294 11295 11296 11297 11298 11299 11300 11301 11302 11303 11304 11305 11306 11307 11308 11309 11310 11311 11312 11313 11314 11315 11316 11317 11318 11319 11320 11321 11322 11323 11324 11325 11326 11327 11328 11329 11330 11331 11332 11333 11334 11335 11336 11337 11338 11339 11340 11341 11342 11343 11344 11345 11346 11347 11348 11349 11350 11351 11352 11353 11354 11355 11356 11357 11358 11359 11360 11361 11362 11363 11364 11365 11366 11367 11368 11369 11370 11371 11372 11373 11374 11375 11376 11377 11378 11379 11380 11381 11382 11383 11384 11385 11386 11387 11388 11389 11390 11391 11392 11393 11394 11395 11396 11397 11398 11399 11400 11401 11402 11403 11404 11405 11406 11407 11408 11409 11410 11411 11412 11413 11414 11415 11416 11417 11418 11419 11420 11421 11422 11423 11424 11425 11426 11427 11428 11429 11430 11431 11432 11433 11434 11435 11436 11437 11438 11439 11440 11441 11442 11443 11444 11445 11446 11447 11448 11449 11450 11451 11452 11453 11454 11455 11456 11457 11458 11459 11460 11461 11462 11463 11464 11465 11466 11467 11468 11469 11470 11471 11472 11473 11474 11475 11476 11477 11478 11479 11480 11481 11482 11483 11484 11485 11486 11487 11488 11489 11490 11491 11492 11493 11494 11495 11496 11497 11498 11499 11500 11501 11502 11503 11504 11505 11506 11507 11508 11509 11510 11511 11512 11513 11514 11515 11516 11517 11518 11519 11520 11521 11522 11523 11524 11525 11526 11527 11528 11529 11530 11531 11532 11533 11534 11535 11536 11537 11538 11539 11540 11541 11542 11543 11544 11545 11546 11547 11548 11549 11550 11551 11552 11553 11554 11555 11556 11557 11558 11559 11560 11561 11562 11563 11564 11565 11566 11567 11568 11569 11570 11571 11572 11573 11574 11575 11576 11577 11578 11579 11580 11581 11582 11583 11584 11585 11586 11587 11588 11589 11590 11591 11592 11593 11594 11595 11596 11597 11598 11599 11600 11601 11602 11603 11604 11605 11606 11607 11608 11609 11610 11611 11612 11613 11614 11615 11616 11617 11618 11619 11620 11621 11622 11623 11624 11625 11626 11627 11628 11629 11630 11631 11632 11633 11634 11635 11636 11637 11638 11639 11640 11641 11642 11643 11644 11645 11646 11647 11648 11649 11650 11651 11652 11653 11654 11655 11656 11657 11658 11659 11660 11661 11662 11663 11664 11665 11666 11667 11668 11669 11670 11671 11672 11673 11674 11675 11676 11677 11678 11679 11680 11681 11682 11683 11684 11685 11686 11687 11688 11689 11690 11691 11692 11693 11694 11695 11696 11697 11698 11699 11700 11701 11702 11703 11704 11705 11706 11707 11708 11709 11710 11711 11712 11713 11714 11715 11716 11717 11718 11719 11720 11721 11722 11723 11724 11725 11726 11727 11728 11729 11730 11731 11732 11733 11734 11735 11736 11737 11738 11739 11740 11741 11742 11743 11744 11745 11746 11747 11748 11749 11750 11751 11752 11753 11754 11755 11756 11757 11758 11759 11760 11761 11762 11763 11764 11765 11766 11767 11768 11769 11770 11771 11772 11773 11774 11775 11776 11777 11778 11779 11780 11781 11782 11783 11784 11785 11786 11787 11788 11789 11790 11791 11792 11793 11794 11795 11796 11797 11798 11799 11800 11801 11802 11803 11804 11805 11806 11807 11808 11809 11810 11811 11812 11813 11814 11815 11816 11817 11818 11819 11820 11821 11822 11823 11824 11825 11826 11827 11828 11829 11830 11831 11832 11833 11834 11835 11836 11837 11838 11839 11840 11841 11842 11843 11844 11845 11846 11847 11848 11849 11850 11851 11852 11853 11854 11855 11856 11857 11858 11859 11860 11861 11862 11863 11864 11865 11866 11867 11868 11869 11870 11871 11872 11873 11874 11875 11876 11877 11878 11879 11880 11881 11882 11883 11884 11885 11886 11887 11888 11889 11890 11891 11892 11893 11894 11895 11896 11897 11898 11899 11900 11901 11902 11903 11904 11905 11906 11907 11908 11909 11910 11911 11912 11913 11914 11915 11916 11917 11918 11919 11920 11921 11922 11923 11924 11925 11926 11927 11928 11929 11930 11931 11932 11933 11934 11935 11936 11937 11938 11939 11940 11941 11942 11943 11944 11945 11946 11947 11948 11949 11950 11951 11952 11953 11954 11955 11956 11957 11958 11959 11960 11961 11962 11963 11964 11965 11966 11967 11968 11969 11970 11971 11972 11973 11974 11975 11976 11977 11978 11979 11980 11981 11982 11983 11984 11985 11986 11987 11988 11989 11990 11991 11992 11993 11994 11995 11996 11997 11998 11999 12000 12001 12002 12003 12004 12005 12006 12007 12008 12009 12010 12011 12012 12013 12014 12015 12016 12017 12018 12019 12020 12021 12022 12023 12024 12025 12026 12027 12028 12029 12030 12031 12032 12033 12034 12035 12036 12037 12038 12039 12040 12041 12042 12043 12044 12045 12046 12047 12048 12049 12050 12051 12052 12053 12054 12055 12056 12057 12058 12059 12060 12061 12062 12063 12064 12065 12066 12067 12068 12069 12070 12071 12072 12073 12074 12075 12076 12077 12078 12079 12080 12081 12082 12083 12084 12085 12086 12087 12088 12089 12090 12091 12092 12093 12094 12095 12096 12097 12098 12099 12100 12101 12102 12103 12104 12105 12106 12107 12108 12109 12110 12111 12112 12113 12114 12115 12116 12117 12118 12119 12120 12121 12122 12123 12124 12125 12126 12127 12128 12129 12130 12131 12132 12133 12134 12135 12136 12137 12138 12139 12140 12141 12142 12143 12144 12145 12146 12147 12148 12149 12150 12151 12152 12153 12154 12155 12156 12157 12158 12159 12160 12161 12162 12163 12164 12165 12166 12167 12168 12169 12170 12171 12172 12173 12174 12175 12176 12177 12178 12179 12180 12181 12182 12183 12184 12185 12186 12187 12188 12189 12190 12191 12192 12193 12194 12195 12196 12197 12198 12199 12200 12201 12202 12203 12204 12205 12206 12207 12208 12209 12210 12211 12212 12213 12214 12215 12216 12217 12218 12219 12220 12221 12222 12223 12224 12225 12226 12227 12228 12229 12230 12231 12232 12233 12234 12235 12236 12237 12238 12239 12240 12241 12242 12243 12244 12245 12246 12247 12248 12249 12250 12251 12252 12253 12254 12255 12256 12257 12258 12259 12260 12261 12262 12263 12264 12265 12266 12267 12268 12269 12270 12271 12272 12273 12274 12275 12276 12277 12278 12279 12280 12281 12282 12283 12284 12285 12286 12287 12288 12289 12290 12291 12292 12293 12294 12295 12296 12297 12298 12299 12300 12301 12302 12303 12304 12305 12306 12307 12308 12309 12310 12311 12312 12313 12314 12315 12316 12317 12318 12319 12320 12321 12322 12323 12324 12325 12326 12327 12328 12329 12330 12331 12332 12333 12334 12335 12336 12337 12338 12339 12340 12341 12342 12343 12344 12345 12346 12347 12348 12349 12350 12351 12352 12353 12354 12355 12356 12357 12358 12359 12360 12361 12362 12363 12364 12365 12366 12367 12368 12369 12370 12371 12372 12373 12374 12375 12376 12377 12378 12379 12380 12381 12382 12383 12384 12385 12386 12387 12388 12389 12390 12391 12392 12393 12394 12395 12396 12397 12398 12399 12400 12401 12402 12403 12404 12405 12406 12407 12408 12409 12410 12411 12412 12413 12414 12415 12416 12417 12418 12419 12420 12421 12422 12423 12424 12425 12426 12427 12428 12429 12430 12431 12432 12433 12434 12435 12436 12437 12438 12439 12440 12441 12442 12443 12444 12445 12446 12447 12448 12449 12450 12451 12452 12453 12454 12455 12456 12457 12458 12459 12460 12461 12462 12463 12464 12465 12466 12467 12468 12469 12470 12471 12472 12473 12474 12475 12476 12477 12478 12479 12480 12481 12482 12483 12484 12485 12486 12487 12488 12489 12490 12491 12492 12493 12494 12495 12496 12497 12498 12499 12500 12501 12502 12503 12504 12505 12506 12507 12508 12509 12510 12511 12512 12513 12514 12515 12516 12517 12518 12519 12520 12521 12522 12523 12524 12525 12526 12527 12528 12529 12530 12531 12532 12533 12534 12535 12536 12537 12538 12539 12540 12541 12542 12543 12544 12545 12546 12547 12548 12549 12550 12551 12552 12553 12554 12555 12556 12557 12558 12559 12560 12561 12562 12563 12564 12565 12566 12567 12568 12569 12570 12571 12572 12573 12574 12575 12576 12577 12578 12579 12580 12581 12582 12583 12584 12585 12586 12587 12588 12589 12590 12591 12592 12593 12594 12595 12596 12597 12598 12599 12600 12601 12602 12603 12604 12605 12606 12607 12608 12609 12610 12611 12612 12613 12614 12615 12616 12617 12618 12619 12620 12621 12622 12623 12624 12625 12626 12627 12628 12629 12630 12631 12632 12633 12634 12635 12636 12637 12638 12639 12640 12641 12642 12643 12644 12645 12646 12647 12648 12649 12650 12651 12652 12653 12654 12655 12656 12657 12658 12659 12660 12661 12662 12663 12664 12665 12666 12667 12668 12669 12670 12671 12672 12673 12674 12675 12676 12677 12678 12679 12680 12681 12682 12683 12684 12685 12686 12687 12688 12689 12690 12691 12692 12693 12694 12695 12696 12697 12698 12699 12700 12701 12702 12703 12704 12705 12706 12707 12708 12709 12710 12711 12712 12713 12714 12715 12716 12717 12718 12719 12720 12721 12722 12723 12724 12725 12726 12727 12728 12729 12730 12731 12732 12733 12734 12735 12736 12737 12738 12739 12740 12741 12742 12743 12744 12745 12746 12747 12748 12749 12750 12751 12752 12753 12754 12755 12756 12757 12758 12759 12760 12761 12762 12763 12764 12765 12766 12767 12768 12769 12770 12771 12772 12773 12774 12775 12776 12777 12778 12779 12780 12781 12782 12783 12784 12785 12786 12787 12788 12789 12790 12791 12792 12793 12794 12795 12796 12797 12798 12799 12800 12801 12802 12803 12804 12805 12806 12807 12808 12809 12810 12811 12812 12813 12814 12815 12816 12817 12818 12819 12820 12821 12822 12823 12824 12825 12826 12827 12828 12829 12830 12831 12832 12833 12834 12835 12836 12837 12838 12839 12840 12841 12842 12843 12844 12845 12846 12847 12848 12849 12850 12851 12852 12853 12854 12855 12856 12857 12858 12859 12860 12861 12862 12863 12864 12865 12866 12867 12868 12869 12870 12871 12872 12873 12874 12875 12876 12877 12878 12879 12880 12881 12882 12883 12884 12885 12886 12887 12888 12889 12890 12891 12892 12893 12894 12895 12896 12897 12898 12899 12900 12901 12902 12903 12904 12905 12906 12907 12908 12909 12910 12911 12912 12913 12914 12915 12916 12917 12918 12919 12920 12921 12922 12923 12924 12925 12926 12927 12928 12929 12930 12931 12932 12933 12934 12935 12936 12937 12938 12939 12940 12941 12942 12943 12944 12945 12946 12947 12948 12949 12950 12951 12952 12953 12954 12955 12956 12957 12958 12959 12960 12961 12962 12963 12964 12965 12966 12967 12968 12969 12970 12971 12972 12973 12974 12975 12976 12977 12978 12979 12980 12981 12982 12983 12984 12985 12986 12987 12988 12989 12990 12991 12992 12993 12994 12995 12996 12997 12998 12999 13000 13001 13002 13003 13004 13005 13006 13007 13008 13009 13010 13011 13012 13013 13014 13015 13016 13017 13018 13019 13020 13021 13022 13023 13024 13025 13026 13027 13028 13029 13030 13031 13032 13033 13034 13035 13036 13037 13038 13039 13040 13041 13042 13043 13044 13045 13046 13047 13048 13049 13050 13051 13052 13053 13054 13055 13056 13057 13058 13059 13060 13061 13062 13063 13064 13065 13066 13067 13068 13069 13070 13071 13072 13073 13074 13075 13076 13077 13078 13079 13080 13081 13082 13083 13084 13085 13086 13087 13088 13089 13090 13091 13092 13093 13094 13095 13096 13097 13098 13099 13100 13101 13102 13103 13104 13105 13106 13107 13108 13109 13110 13111 13112 13113 13114 13115 13116 13117 13118 13119 13120 13121 13122 13123 13124 13125 13126 13127 13128 13129 13130 13131 13132 13133 13134 13135 13136 13137 13138 13139 13140 13141 13142 13143 13144 13145 13146 13147 13148 13149 13150 13151 13152 13153 13154 13155 13156 13157 13158 13159 13160 13161 13162 13163 13164 13165 13166 13167 13168 13169 13170 13171 13172 13173 13174 13175 13176 13177 13178 13179 13180 13181 13182 13183 13184 13185 13186 13187 13188 13189 13190 13191 13192 13193 13194 13195 13196 13197 13198 13199 13200 13201 13202 13203 13204 13205 13206 13207 13208 13209 13210 13211 13212 13213 13214 13215 13216 13217 13218 13219 13220 13221 13222 13223 13224 13225 13226 13227 13228 13229 13230 13231 13232 13233 13234 13235 13236 13237 13238 13239 13240 13241 13242 13243 13244 13245 13246 13247 13248 13249 13250 13251 13252 13253 13254 13255 13256 13257 13258 13259 13260 13261 13262 13263 13264 13265 13266 13267 13268 13269 13270 13271 13272 13273 13274 13275 13276 13277 13278 13279 13280 13281 13282 13283 13284 13285 13286 13287 13288 13289 13290 13291 13292 13293 13294 13295 13296 13297 13298 13299 13300 13301 13302 13303 13304 13305 13306 13307 13308 13309 13310 13311 13312 13313 13314 13315 13316 13317 13318 13319 13320 13321 13322 13323 13324 13325 13326 13327 13328 13329 13330 13331 13332 13333 13334 13335 13336 13337 13338 13339 13340 13341 13342 13343 13344 13345 13346 13347 13348 13349 13350 13351 13352 13353 13354 13355 13356 13357 13358 13359 13360 13361 13362 13363 13364 13365 13366 13367 13368 13369 13370 13371 13372 13373 13374 13375 13376 13377 13378 13379 13380 13381 13382 13383 13384 13385 13386 13387 13388 13389 13390 13391 13392 13393 13394 13395 13396 13397 13398 13399 13400 13401 13402 13403 13404 13405 13406 13407 13408 13409 13410 13411 13412 13413 13414 13415 13416 13417 13418 13419 13420 13421 13422 13423 13424 13425 13426 13427 13428 13429 13430 13431 13432 13433 13434 13435 13436 13437 13438 13439 13440 13441 13442 13443 13444 13445 13446 13447 13448 13449 13450 13451 13452 13453 13454 13455 13456 13457 13458 13459 13460 13461 13462 13463 13464 13465 13466 13467 13468 13469 13470 13471 13472 13473 13474 13475 13476 13477 13478 13479 13480 13481 13482 13483 13484 13485 13486 13487 13488 13489 13490 13491 13492 13493 13494 13495 13496 13497 13498 13499 13500 13501 13502 13503 13504 13505 13506 13507 13508 13509 13510 13511 13512 13513 13514 13515 13516 13517 13518 13519 13520 13521 13522 13523 13524 13525 13526 13527 13528 13529 13530 13531 13532 13533 13534 13535 13536 13537 13538 13539 13540 13541 13542 13543 13544 13545 13546 13547 13548 13549 13550 13551 13552 13553 13554 13555 13556 13557 13558 13559 13560 13561 13562 13563 13564 13565 13566 13567 13568 13569 13570 13571 13572 13573 13574 13575 13576 13577 13578 13579 13580 13581 13582 13583 13584 13585 13586 13587 13588 13589 13590 13591 13592 13593 13594 13595 13596 13597 13598 13599 13600 13601 13602 13603 13604 13605 13606 13607 13608 13609 13610 13611 13612 13613 13614 13615 13616 13617 13618 13619 13620 13621 13622 13623 13624 13625 13626 13627 13628 13629 13630 13631 13632 13633 13634 13635 13636 13637 13638 13639 13640 13641 13642 13643 13644 13645 13646 13647 13648 13649 13650 13651 13652 13653 13654 13655 13656 13657 13658 13659 13660 13661 13662 13663 13664 13665 13666 13667 13668 13669 13670 13671 13672 13673 13674 13675 13676 13677 13678 13679 13680 13681 13682 13683 13684 13685 13686 13687 13688 13689 13690 13691 13692 13693 13694 13695 13696 13697 13698 13699 13700 13701 13702 13703 13704 13705 13706 13707 13708 13709 13710 13711 13712 13713 13714 13715 13716 13717 13718 13719 13720 13721 13722 13723 13724 13725 13726 13727 13728 13729 13730 13731 13732 13733 13734 13735 13736 13737 13738 13739 13740 13741 13742 13743 13744 13745 13746 13747 13748 13749 13750 13751 13752 13753 13754 13755 13756 13757 13758 13759 13760 13761 13762 13763 13764 13765 13766 13767 13768 13769 13770 13771 13772 13773 13774 13775 13776 13777 13778 13779 13780 13781 13782 13783 13784 13785 13786 13787 13788 13789 13790 13791 13792 13793 13794 13795 13796 13797 13798 13799 13800 13801 13802 13803 13804 13805 13806 13807 13808 13809 13810 13811 13812 13813 13814 13815 13816 13817 13818 13819 13820 13821 13822 13823 13824 13825 13826 13827 13828 13829 13830 13831 13832 13833 13834 13835 13836 13837 13838 13839 13840 13841 13842 13843 13844 13845 13846 13847 13848 13849 13850 13851 13852 13853 13854 13855 13856 13857 13858 13859 13860 13861 13862 13863 13864 13865 13866 13867 13868 13869 13870 13871 13872 13873 13874 13875 13876 13877 13878 13879 13880 13881 13882 13883 13884 13885 13886 13887 13888 13889 13890 13891 13892 13893 13894 13895 13896 13897 13898 13899 13900 13901 13902 13903 13904 13905 13906 13907 13908 13909 13910 13911 13912 13913 13914 13915 13916 13917 13918 13919 13920 13921 13922 13923 13924 13925 13926 13927 13928 13929 13930 13931 13932 13933 13934 13935 13936 13937 13938 13939 13940 13941 13942 13943 13944 13945 13946 13947 13948 13949 13950 13951 13952 13953 13954 13955 13956 13957 13958 13959 13960 13961 13962 13963 13964 13965 13966 13967 13968 13969 13970 13971 13972 13973 13974 13975 13976 13977 13978 13979 13980 13981 13982 13983 13984 13985 13986 13987 13988 13989 13990 13991 13992 13993 13994 13995 13996 13997 13998 13999 14000 14001 14002 14003 14004 14005 14006 14007 14008 14009 14010 14011 14012 14013 14014 14015 14016 14017 14018 14019 14020 14021 14022 14023 14024 14025 14026 14027 14028 14029 14030 14031 14032 14033 14034 14035 14036 14037 14038 14039 14040 14041 14042 14043 14044 14045 14046 14047 14048 14049 14050 14051 14052 14053 14054 14055 14056 14057 14058 14059 14060 14061 14062 14063 14064 14065 14066 14067 14068 14069 14070 14071 14072 14073 14074 14075 14076 14077 14078 14079 14080 14081 14082 14083 14084 14085 14086 14087 14088 14089 14090 14091 14092 14093 14094 14095 14096 14097 14098 14099 14100 14101 14102 14103 14104 14105 14106 14107 14108 14109 14110 14111 14112 14113 14114 14115 14116 14117 14118 14119 14120 14121 14122 14123 14124 14125 14126 14127 14128 14129 14130 14131 14132 14133 14134 14135 14136 14137 14138 14139 14140 14141 14142 14143 14144 14145 14146 14147 14148 14149 14150 14151 14152 14153 14154 14155 14156 14157 14158 14159 14160 14161 14162 14163 14164 14165 14166 14167 14168 14169 14170 14171 14172 14173 14174 14175 14176 14177 14178 14179 14180 14181 14182 14183 14184 14185 14186 14187 14188 14189 14190 14191 14192 14193 14194 14195 14196 14197 14198 14199 14200 14201 14202 14203 14204 14205 14206 14207 14208 14209 14210 14211 14212 14213 14214 14215 14216 14217 14218 14219 14220 14221 14222 14223 14224 14225 14226 14227 14228 14229 14230 14231 14232 14233 14234 14235 14236 14237 14238 14239 14240 14241 14242 14243 14244 14245 14246 14247 14248 14249 14250 14251 14252 14253 14254 14255 14256 14257 14258 14259 14260 14261 14262 14263 14264 14265 14266 14267 14268 14269 14270 14271 14272 14273 14274 14275 14276 14277 14278 14279 14280 14281 14282 14283 14284 14285 14286 14287 14288 14289 14290 14291 14292 14293 14294 14295 14296 14297 14298 14299 14300 14301 14302 14303 14304 14305 14306 14307 14308 14309 14310 14311 14312 14313 14314 14315 14316 14317 14318 14319 14320 14321 14322 14323 14324 14325 14326 14327 14328 14329 14330 14331 14332 14333 14334 14335 14336 14337 14338 14339 14340 14341 14342 14343 14344 14345 14346 14347 14348 14349 14350 14351 14352 14353 14354 14355 14356 14357 14358 14359 14360 14361 14362 14363 14364 14365 14366 14367 14368 14369 14370 14371 14372 14373 14374 14375 14376 14377 14378 14379 14380 14381 14382 14383 14384 14385 14386 14387 14388 14389 14390 14391 14392 14393 14394 14395 14396 14397 14398 14399 14400 14401 14402 14403 14404 14405 14406 14407 14408 14409 14410 14411 14412 14413 14414 14415 14416 14417 14418 14419 14420 14421 14422 14423 14424 14425 14426 14427 14428 14429 14430 14431 14432 14433 14434 14435 14436 14437 14438 14439 14440 14441 14442 14443 14444 14445 14446 14447 14448 14449 14450 14451 14452 14453 14454 14455 14456 14457 14458 14459 14460 14461 14462 14463 14464 14465 14466 14467 14468 14469 14470 14471 14472 14473 14474 14475 14476 14477 14478 14479 14480 14481 14482 14483 14484 14485 14486 14487 14488 14489 14490 14491 14492 14493 14494 14495 14496 14497 14498 14499 14500 14501 14502 14503 14504 14505 14506 14507 14508 14509 14510 14511 14512 14513 14514 14515 14516 14517 14518 14519 14520 14521 14522 14523 14524 14525 14526 14527 14528 14529 14530 14531 14532 14533 14534 14535 14536 14537 14538 14539 14540 14541 14542 14543 14544 14545 14546 14547 14548 14549 14550 14551 14552 14553 14554 14555 14556 14557 14558 14559 14560 14561 14562 14563 14564 14565 14566 14567 14568 14569 14570 14571 14572 14573 14574 14575 14576 14577 14578 14579 14580 14581 14582 14583 14584 14585 14586 14587 14588 14589 14590 14591 14592 14593 14594 14595 14596 14597 14598 14599 14600 14601 14602 14603 14604 14605 14606 14607 14608 14609 14610 14611 14612 14613 14614 14615 14616 14617 14618 14619 14620 14621 14622 14623 14624 14625 14626 14627 14628 14629 14630 14631 14632 14633 14634 14635 14636 14637 14638 14639 14640 14641 14642 14643 14644 14645 14646 14647 14648 14649 14650 14651 14652 14653 14654 14655 14656 14657 14658 14659 14660 14661 14662 14663 14664 14665 14666 14667 14668 14669 14670 14671 14672 14673 14674 14675 14676 14677 14678 14679 14680 14681 14682 14683 14684 14685 14686 14687 14688 14689 14690 14691 14692 14693 14694 14695 14696 14697 14698 14699 14700 14701 14702 14703 14704 14705 14706 14707 14708 14709 14710 14711 14712 14713 14714 14715 14716 14717 14718 14719 14720 14721 14722 14723 14724 14725 14726 14727 14728 14729 14730 14731 14732 14733 14734 14735 14736 14737 14738 14739 14740 14741 14742 14743 14744 14745 14746 14747 14748 14749 14750 14751 14752 14753 14754 14755 14756 14757 14758 14759 14760 14761 14762 14763 14764 14765 14766 14767 14768 14769 14770 14771 14772 14773 14774 14775 14776 14777 14778 14779 14780 14781 14782 14783 14784 14785 14786 14787 14788 14789 14790 14791 14792 14793 14794 14795 14796 14797 14798 14799 14800 14801 14802 14803 14804 14805 14806 14807 14808 14809 14810 14811 14812 14813 14814 14815 14816 14817 14818 14819 14820 14821 14822 14823 14824 14825 14826 14827 14828 14829 14830 14831 14832 14833 14834 14835 14836 14837 14838 14839 14840 14841 14842 14843 14844 14845 14846 14847 14848 14849 14850 14851 14852 14853 14854 14855 14856 14857 14858 14859 14860 14861 14862 14863 14864 14865 14866 14867 14868 14869 14870 14871 14872 14873 14874 14875 14876 14877 14878 14879 14880 14881 14882 14883 14884 14885 14886 14887 14888 14889 14890 14891 14892 14893 14894 14895 14896 14897 14898 14899 14900 14901 14902 14903 14904 14905 14906 14907 14908 14909 14910 14911 14912 14913 14914 14915 14916 14917 14918 14919 14920 14921 14922 14923 14924 14925 14926 14927 14928 14929 14930 14931 14932 14933 14934 14935 14936 14937 14938 14939 14940 14941 14942 14943 14944 14945 14946 14947 14948 14949 14950 14951 14952 14953 14954 14955 14956 14957 14958 14959 14960 14961 14962 14963 14964 14965 14966 14967 14968 14969 14970 14971 14972 14973 14974 14975 14976 14977 14978 14979 14980 14981 14982 14983 14984 14985 14986 14987 14988 14989 14990 14991 14992 14993 14994 14995 14996 14997 14998 14999 15000 15001 15002 15003 15004 15005 15006 15007 15008 15009 15010 15011 15012 15013 15014 15015 15016 15017 15018 15019 15020 15021 15022 15023 15024 15025 15026 15027 15028 15029 15030 15031 15032 15033 15034 15035 15036 15037 15038 15039 15040 15041 15042 15043 15044 15045 15046 15047 15048 15049 15050 15051 15052 15053 15054 15055 15056 15057 15058 15059 15060 15061 15062 15063 15064 15065 15066 15067 15068 15069 15070 15071 15072 15073 15074 15075 15076 15077 15078 15079 15080 15081 15082 15083 15084 15085 15086 15087 15088 15089 15090 15091 15092 15093 15094 15095 15096 15097 15098 15099 15100 15101 15102 15103 15104 15105 15106 15107 15108 15109 15110 15111 15112 15113 15114 15115 15116 15117 15118 15119 15120 15121 15122 15123 15124 15125 15126 15127 15128 15129 15130 15131 15132 15133 15134 15135 15136 15137 15138 15139 15140 15141 15142 15143 15144 15145 15146 15147 15148 15149 15150 15151 15152 15153 15154 15155 15156 15157 15158 15159 15160 15161 15162 15163 15164 15165 15166 15167 15168 15169 15170 15171 15172 15173 15174 15175 15176 15177 15178 15179 15180 15181 15182 15183 15184 15185 15186 15187 15188 15189 15190 15191 15192 15193 15194 15195 15196 15197 15198 15199 15200 15201 15202 15203 15204 15205 15206 15207 15208 15209 15210 15211 15212 15213 15214 15215 15216 15217 15218 15219 15220 15221 15222 15223 15224 15225 15226 15227 15228 15229 15230 15231 15232 15233 15234 15235 15236 15237 15238 15239 15240 15241 15242 15243 15244 15245 15246 15247 15248 15249 15250 15251 15252 15253 15254 15255 15256 15257 15258 15259 15260 15261 15262 15263 15264 15265 15266 15267 15268 15269 15270 15271 15272 15273 15274 15275 15276 15277 15278 15279 15280 15281 15282 15283 15284 15285 15286 15287 15288 15289 15290 15291 15292 15293 15294 15295 15296 15297 15298 15299 15300 15301 15302 15303 15304 15305 15306 15307 15308 15309 15310 15311 15312 15313 15314 15315 15316 15317 15318 15319 15320 15321 15322 15323 15324 15325 15326 15327 15328 15329 15330 15331 15332 15333 15334 15335 15336 15337 15338 15339 15340 15341 15342 15343 15344 15345 15346 15347 15348 15349 15350 15351 15352 15353 15354 15355 15356 15357 15358 15359 15360 15361 15362 15363 15364 15365 15366 15367 15368 15369 15370 15371 15372 15373 15374 15375 15376 15377 15378 15379 15380 15381 15382 15383 15384 15385 15386 15387 15388 15389 15390 15391 15392 15393 15394 15395 15396 15397 15398 15399 15400 15401 15402 15403 15404 15405 15406 15407 15408 15409 15410 15411 15412 15413 15414 15415 15416 15417 15418 15419 15420 15421 15422 15423 15424 15425 15426 15427 15428 15429 15430 15431 15432 15433 15434 15435 15436 15437 15438 15439 15440 15441 15442 15443 15444 15445 15446 15447 15448 15449 15450 15451 15452 15453 15454 15455 15456 15457 15458 15459 15460 15461 15462 15463 15464 15465 15466 15467 15468 15469 15470 15471 15472 15473 15474 15475 15476 15477 15478 15479 15480 15481 15482 15483 15484 15485 15486 15487 15488 15489 15490 15491 15492 15493 15494 15495 15496 15497 15498 15499 15500 15501 15502 15503 15504 15505 15506 15507 15508 15509 15510 15511 15512 15513 15514 15515 15516 15517 15518 15519 15520 15521 15522 15523 15524 15525 15526 15527 15528 15529 15530 15531 15532 15533 15534 15535 15536 15537 15538 15539 15540 15541 15542 15543 15544 15545 15546 15547 15548 15549 15550 15551 15552 15553 15554 15555 15556 15557 15558 15559 15560 15561 15562 15563 15564 15565 15566 15567 15568 15569 15570 15571 15572 15573 15574 15575 15576 15577 15578 15579 15580 15581 15582 15583 15584 15585 15586 15587 15588 15589 15590 15591 15592 15593 15594 15595 15596 15597 15598 15599 15600 15601 15602 15603 15604 15605 15606 15607 15608 15609 15610 15611 15612 15613 15614 15615 15616 15617 15618 15619 15620 15621 15622 15623 15624 15625 15626 15627 15628 15629 15630 15631 15632 15633 15634 15635 15636 15637 15638 15639 15640 15641 15642 15643 15644 15645 15646 15647 15648 15649 15650 15651 15652 15653 15654 15655 15656 15657 15658 15659 15660 15661 15662 15663 15664 15665 15666 15667 15668 15669 15670 15671 15672 15673 15674 15675 15676 15677 15678 15679 15680 15681 15682 15683 15684 15685 15686 15687 15688 15689 15690 15691 15692 15693 15694 15695 15696 15697 15698 15699 15700 15701 15702 15703 15704 15705 15706 15707 15708 15709 15710 15711 15712 15713 15714 15715 15716 15717 15718 15719 15720 15721 15722 15723 15724 15725 15726 15727 15728 15729 15730 15731 15732 15733 15734 15735 15736 15737 15738 15739 15740 15741 15742 15743 15744 15745 15746 15747 15748 15749 15750 15751 15752 15753 15754 15755 15756 15757 15758 15759 15760 15761 15762 15763 15764 15765 15766 15767 15768 15769 15770 15771 15772 15773 15774 15775 15776 15777 15778 15779 15780 15781 15782 15783 15784 15785 15786 15787 15788 15789 15790 15791 15792 15793 15794 15795 15796 15797 15798 15799 15800 15801 15802 15803 15804 15805 15806 15807 15808 15809 15810 15811 15812 15813 15814 15815 15816 15817 15818 15819 15820 15821 15822 15823 15824 15825 15826 15827 15828 15829 15830 15831 15832 15833 15834 15835 15836 15837 15838 15839 15840 15841 15842 15843 15844 15845 15846 15847 15848 15849 15850 15851 15852 15853 15854 15855 15856 15857 15858 15859 15860 15861 15862 15863 15864 15865 15866 15867 15868 15869 15870 15871 15872 15873 15874 15875 15876 15877 15878 15879 15880 15881 15882 15883 15884 15885 15886 15887 15888 15889 15890 15891 15892 15893 15894 15895 15896 15897 15898 15899 15900 15901 15902 15903 15904 15905 15906 15907 15908 15909 15910 15911 15912 15913 15914 15915 15916 15917 15918 15919 15920 15921 15922 15923 15924 15925 15926 15927 15928 15929 15930 15931 15932 15933 15934 15935 15936 15937 15938 15939 15940 15941 15942 15943 15944 15945 15946 15947 15948 15949 15950 15951 15952 15953 15954 15955 15956 15957 15958 15959 15960 15961 15962 15963 15964 15965 15966 15967 15968 15969 15970 15971 15972 15973 15974 15975 15976 15977 15978 15979 15980 15981 15982 15983 15984 15985 15986 15987 15988 15989 15990 15991 15992 15993 15994 15995 15996 15997 15998 15999 16000 16001 16002 16003 16004 16005 16006 16007 16008 16009 16010 16011 16012 16013 16014 16015 16016 16017 16018 16019 16020 16021 16022 16023 16024 16025 16026 16027 16028 16029 16030 16031 16032 16033 16034 16035 16036 16037 16038 16039 16040 16041 16042 16043 16044 16045 16046 16047 16048 16049 16050 16051 16052 16053 16054 16055 16056 16057 16058 16059 16060 16061 16062 16063 16064 16065 16066 16067 16068 16069 16070 16071 16072 16073 16074 16075 16076 16077 16078 16079 16080 16081 16082 16083 16084 16085 16086 16087 16088 16089 16090 16091 16092 16093 16094 16095 16096 16097 16098 16099 16100 16101 16102 16103 16104 16105 16106 16107 16108 16109 16110 16111 16112 16113 16114 16115 16116 16117 16118 16119 16120 16121 16122 16123 16124 16125 16126 16127 16128 16129 16130 16131 16132 16133 16134 16135 16136 16137 16138 16139 16140 16141 16142 16143 16144 16145 16146 16147 16148 16149 16150 16151 16152 16153 16154 16155 16156 16157 16158 16159 16160 16161 16162 16163 16164 16165 16166 16167 16168 16169 16170 16171 16172 16173 16174 16175 16176 16177 16178 16179 16180 16181 16182 16183 16184 16185 16186 16187 16188 16189 16190 16191 16192 16193 16194 16195 16196 16197 16198 16199 16200 16201 16202 16203 16204 16205 16206 16207 16208 16209 16210 16211 16212 16213 16214 16215 16216 16217 16218 16219 16220 16221 16222 16223 16224 16225 16226 16227 16228 16229 16230 16231 16232 16233 16234 16235 16236 16237 16238 16239 16240 16241 16242 16243 16244 16245 16246 16247 16248 16249 16250 16251 16252 16253 16254 16255 16256 16257 16258 16259 16260 16261 16262 16263 16264 16265 16266 16267 16268 16269 16270 16271 16272 16273 16274 16275 16276 16277 16278 16279 16280 16281 16282 16283 16284 16285 16286 16287 16288 16289 16290 16291 16292 16293 16294 16295 16296 16297 16298 16299 16300 16301 16302 16303 16304 16305 16306 16307 16308 16309 16310 16311 16312 16313 16314 16315 16316 16317 16318 16319 16320 16321 16322 16323 16324 16325 16326 16327 16328 16329 16330 16331 16332 16333 16334 16335 16336 16337 16338 16339 16340 16341 16342 16343 16344 16345 16346 16347 16348 16349 16350 16351 16352 16353 16354 16355 16356 16357 16358 16359 16360 16361 16362 16363 16364 16365 16366 16367 16368 16369 16370 16371 16372 16373 16374 16375 16376 16377 16378 16379 16380 16381 16382 16383 16384 16385 16386 16387 16388 16389 16390 16391 16392 16393 16394 16395 16396 16397 16398 16399 16400 16401 16402 16403 16404 16405 16406 16407 16408 16409 16410 16411 16412 16413 16414 16415 16416 16417 16418 16419 16420 16421 16422 16423 16424 16425 16426 16427 16428 16429 16430 16431 16432 16433 16434 16435 16436 16437 16438 16439 16440 16441 16442 16443 16444 16445 16446 16447 16448 16449 16450 16451 16452 16453 16454 16455 16456 16457 16458 16459 16460 16461 16462 16463 16464 16465 16466 16467 16468 16469 16470 16471 16472 16473 16474 16475 16476 16477 16478 16479 16480 16481 16482 16483 16484 16485 16486 16487 16488 16489 16490 16491 16492 16493 16494 16495 16496 16497 16498 16499 16500 16501 16502 16503 16504 16505 16506 16507 16508 16509 16510 16511 16512 16513 16514 16515 16516 16517 16518 16519 16520 16521 16522 16523 16524 16525 16526 16527 16528 16529 16530 16531 16532 16533 16534 16535 16536 16537 16538 16539 16540 16541 16542 16543 16544 16545 16546 16547 16548 16549 16550 16551 16552 16553 16554 16555 16556 16557 16558 16559 16560 16561 16562 16563 16564 16565 16566 16567 16568 16569 16570 16571 16572 16573 16574 16575 16576 16577 16578 16579 16580 16581 16582 16583 16584 16585 16586 16587 16588 16589 16590 16591 16592 16593 16594 16595 16596 16597 16598 16599 16600 16601 16602 16603 16604 16605 16606 16607 16608 16609 16610 16611 16612 16613 16614 16615 16616 16617 16618 16619 16620 16621 16622 16623 16624 16625 16626 16627 16628 16629 16630 16631 16632 16633 16634 16635 16636 16637 16638 16639 16640 16641 16642 16643 16644 16645 16646 16647 16648 16649 16650 16651 16652 16653 16654 16655 16656 16657 16658 16659 16660 16661 16662 16663 16664 16665 16666 16667 16668 16669 16670 16671 16672 16673 16674 16675 16676 16677 16678 16679 16680 16681 16682 16683 16684 16685 16686 16687 16688 16689 16690 16691 16692 16693 16694 16695 16696 16697 16698 16699 16700 16701 16702 16703 16704 16705 16706 16707 16708 16709 16710 16711 16712 16713 16714 16715 16716 16717 16718 16719 16720 16721 16722 16723 16724 16725 16726 16727 16728 16729 16730 16731 16732 16733 16734 16735 16736 16737 16738 16739 16740 16741 16742 16743 16744 16745 16746 16747 16748 16749 16750 16751 16752 16753 16754 16755 16756 16757 16758 16759 16760 16761 16762 16763 16764 16765 16766 16767 16768 16769 16770 16771 16772 16773 16774 16775 16776 16777 16778 16779 16780 16781 16782 16783 16784 16785 16786 16787 16788 16789 16790 16791 16792 16793 16794 16795 16796 16797 16798 16799 16800 16801 16802 16803 16804 16805 16806 16807 16808 16809 16810 16811 16812 16813 16814 16815 16816 16817 16818 16819 16820 16821 16822 16823 16824 16825 16826 16827 16828 16829 16830 16831 16832 16833 16834 16835 16836 16837 16838 16839 16840 16841 16842 16843 16844 16845 16846 16847 16848 16849 16850 16851 16852 16853 16854 16855 16856 16857 16858 16859 16860 16861 16862 16863 16864 16865 16866 16867 16868 16869 16870 16871 16872 16873 16874 16875 16876 16877 16878 16879 16880 16881 16882 16883 16884 16885 16886 16887 16888 16889 16890 16891 16892 16893 16894 16895 16896 16897 16898 16899 16900 16901 16902 16903 16904 16905 16906 16907 16908 16909 16910 16911 16912 16913 16914 16915 16916 16917 16918 16919 16920 16921 16922 16923 16924 16925 16926 16927 16928 16929 16930 16931 16932 16933 16934 16935 16936 16937 16938 16939 16940 16941 16942 16943 16944 16945 16946 16947 16948 16949 16950 16951 16952 16953 16954 16955 16956 16957 16958 16959 16960 16961 16962 16963 16964 16965 16966 16967 16968 16969 16970 16971 16972 16973 16974 16975 16976 16977 16978 16979 16980 16981 16982 16983 16984 16985 16986 16987 16988 16989 16990 16991 16992 16993 16994 16995 16996 16997 16998 16999 17000 17001 17002 17003 17004 17005 17006 17007 17008 17009 17010 17011 17012 17013 17014 17015 17016 17017 17018 17019 17020 17021 17022 17023 17024 17025 17026 17027 17028 17029 17030 17031 17032 17033 17034 17035 17036 17037 17038 17039 17040 17041 17042 17043 17044 17045 17046 17047 17048 17049 17050 17051 17052 17053 17054 17055 17056 17057 17058 17059 17060 17061 17062 17063 17064 17065 17066 17067 17068 17069 17070 17071 17072 17073 17074 17075 17076 17077 17078 17079 17080 17081 17082 17083 17084 17085 17086 17087 17088 17089 17090 17091 17092 17093 17094 17095 17096 17097 17098 17099 17100 17101 17102 17103 17104 17105 17106 17107 17108 17109 17110 17111 17112 17113 17114 17115 17116 17117 17118 17119 17120 17121 17122 17123 17124 17125 17126 17127 17128 17129 17130 17131 17132 17133 17134 17135 17136 17137 17138 17139 17140 17141 17142 17143 17144 17145 17146 17147 17148 17149 17150 17151 17152 17153 17154 17155 17156 17157 17158 17159 17160 17161 17162 17163 17164 17165 17166 17167 17168 17169 17170 17171 17172 17173 17174 17175 17176 17177 17178 17179 17180 17181 17182 17183 17184 17185 17186 17187 17188 17189 17190 17191 17192 17193 17194 17195 17196 17197 17198 17199 17200 17201 17202 17203 17204 17205 17206 17207 17208 17209 17210 17211 17212 17213 17214 17215 17216 17217 17218 17219 17220 17221 17222 17223 17224 17225 17226 17227 17228 17229 17230 17231 17232 17233 17234 17235 17236 17237 17238 17239 17240 17241 17242 17243 17244 17245 17246 17247 17248 17249 17250 17251 17252 17253 17254 17255 17256 17257 17258 17259 17260 17261 17262 17263 17264 17265 17266 17267 17268 17269 17270 17271 17272 17273 17274 17275 17276 17277 17278 17279 17280 17281 17282 17283 17284 17285 17286 17287 17288 17289 17290 17291 17292 17293 17294 17295 17296 17297 17298 17299 17300 17301 17302 17303 17304 17305 17306 17307 17308 17309 17310 17311 17312 17313 17314 17315 17316 17317 17318 17319 17320 17321 17322 17323 17324 17325 17326 17327 17328 17329 17330 17331 17332 17333 17334 17335 17336 17337 17338 17339 17340 17341 17342 17343 17344 17345 17346 17347 17348 17349 17350 17351 17352 17353 17354 17355 17356 17357 17358 17359 17360 17361 17362 17363 17364 17365 17366 17367 17368 17369 17370 17371 17372 17373 17374 17375 17376 17377 17378 17379 17380 17381 17382 17383 17384 17385 17386 17387 17388 17389 17390 17391 17392 17393 17394 17395 17396 17397 17398 17399 17400 17401 17402 17403 17404 17405 17406 17407 17408 17409 17410 17411 17412 17413 17414 17415 17416 17417 17418 17419 17420 17421 17422 17423 17424 17425 17426 17427 17428 17429 17430 17431 17432 17433 17434 17435 17436 17437 17438 17439 17440 17441 17442 17443 17444 17445 17446 17447 17448 17449 17450 17451 17452 17453 17454 17455 17456 17457 17458 17459 17460 17461 17462 17463 17464 17465 17466 17467 17468 17469 17470 17471 17472 17473 17474 17475 17476 17477 17478 17479 17480 17481 17482 17483 17484 17485 17486 17487 17488 17489 17490 17491 17492 17493 17494 17495 17496 17497 17498 17499 17500 17501 17502 17503 17504 17505 17506 17507 17508 17509 17510 17511 17512 17513 17514 17515 17516 17517 17518 17519 17520 17521 17522 17523 17524 17525 17526 17527 17528 17529 17530 17531 17532 17533 17534 17535 17536 17537 17538 17539 17540 17541 17542 17543 17544 17545 17546 17547 17548 17549 17550 17551 17552 17553 17554 17555 17556 17557 17558 17559 17560 17561 17562 17563 17564 17565 17566 17567 17568 17569 17570 17571 17572 17573 17574 17575 17576 17577 17578 17579 17580 17581 17582 17583 17584 17585 17586 17587 17588 17589 17590 17591 17592 17593 17594 17595 17596 17597 17598 17599 17600 17601 17602 17603 17604 17605 17606 17607 17608 17609 17610 17611 17612 17613 17614 17615 17616 17617 17618 17619 17620 17621 17622 17623 17624 17625 17626 17627 17628 17629 17630 17631 17632 17633 17634 17635 17636 17637 17638 17639 17640 17641 17642 17643 17644 17645 17646 17647 17648 17649 17650 17651 17652 17653 17654 17655 17656 17657 17658 17659 17660 17661 17662 17663 17664 17665 17666 17667 17668 17669 17670 17671 17672 17673 17674 17675 17676 17677 17678 17679 17680 17681 17682 17683 17684 17685 17686 17687 17688 17689 17690 17691 17692 17693 17694 17695 17696 17697 17698 17699 17700 17701 17702 17703 17704 17705 17706 17707 17708 17709 17710 17711 17712 17713 17714 17715 17716 17717 17718 17719 17720 17721 17722 17723 17724 17725 17726 17727 17728 17729 17730 17731 17732 17733 17734 17735 17736 17737 17738 17739 17740 17741 17742 17743 17744 17745 17746 17747 17748 17749 17750 17751 17752 17753 17754 17755 17756 17757 17758 17759 17760 17761 17762 17763 17764 17765 17766 17767 17768 17769 17770 17771 17772 17773 17774 17775 17776 17777 17778 17779 17780 17781 17782 17783 17784 17785 17786 17787 17788 17789 17790 17791 17792 17793 17794 17795 17796 17797 17798 17799 17800 17801 17802 17803 17804 17805 17806 17807 17808 17809 17810 17811 17812 17813 17814 17815 17816 17817 17818 17819 17820 17821 17822 17823 17824 17825 17826 17827 17828 17829 17830 17831 17832 17833 17834 17835 17836 17837 17838 17839 17840 17841 17842 17843 17844 17845 17846 17847 17848 17849 17850 17851 17852 17853 17854 17855 17856 17857 17858 17859 17860 17861 17862 17863 17864 17865 17866 17867 17868 17869 17870 17871 17872 17873 17874 17875 17876 17877 17878 17879 17880 17881 17882 17883 17884 17885 17886 17887 17888 17889 17890 17891 17892 17893 17894 17895 17896 17897 17898 17899 17900 17901 17902 17903 17904 17905 17906 17907 17908 17909 17910 17911 17912 17913 17914 17915 17916 17917 17918 17919 17920 17921 17922 17923 17924 17925 17926 17927 17928 17929 17930 17931 17932 17933 17934 17935 17936 17937 17938 17939 17940 17941 17942 17943 17944 17945 17946 17947 17948 17949 17950 17951 17952 17953 17954 17955 17956 17957 17958 17959 17960 17961 17962 17963 17964 17965 17966 17967 17968 17969 17970 17971 17972 17973 17974 17975 17976 17977 17978 17979 17980 17981 17982 17983 17984 17985 17986 17987 17988 17989 17990 17991 17992 17993 17994 17995 17996 17997 17998 17999 18000 18001 18002 18003 18004 18005 18006 18007 18008 18009 18010 18011 18012 18013 18014 18015 18016 18017 18018 18019 18020 18021 18022 18023 18024 18025 18026 18027 18028 18029 18030 18031 18032 18033 18034 18035 18036 18037 18038 18039 18040 18041 18042 18043 18044 18045 18046 18047 18048 18049 18050 18051 18052 18053 18054 18055 18056 18057 18058 18059 18060 18061 18062 18063 18064 18065 18066 18067 18068 18069 18070 18071 18072 18073 18074 18075 18076 18077 18078 18079 18080 18081 18082 18083 18084 18085 18086 18087 18088 18089 18090 18091 18092 18093 18094 18095 18096 18097 18098 18099 18100 18101 18102 18103 18104 18105 18106 18107 18108 18109 18110 18111 18112 18113 18114 18115 18116 18117 18118 18119 18120 18121 18122 18123 18124 18125 18126 18127 18128 18129 18130 18131 18132 18133 18134 18135 18136 18137 18138 18139 18140 18141 18142 18143 18144 18145 18146 18147 18148 18149 18150 18151 18152 18153 18154 18155 18156 18157 18158 18159 18160 18161 18162 18163 18164 18165 18166 18167 18168 18169 18170 18171 18172 18173 18174 18175 18176 18177 18178 18179 18180 18181 18182 18183 18184 18185 18186 18187 18188 18189 18190 18191 18192 18193 18194 18195 18196 18197 18198 18199 18200 18201 18202 18203 18204 18205 18206 18207 18208 18209 18210 18211 18212 18213 18214 18215 18216 18217 18218 18219 18220 18221 18222 18223 18224 18225 18226 18227 18228 18229 18230 18231 18232 18233 18234 18235 18236 18237 18238 18239 18240 18241 18242 18243 18244 18245 18246 18247 18248 18249 18250 18251 18252 18253 18254 18255 18256 18257 18258 18259 18260 18261 18262 18263 18264 18265 18266 18267 18268 18269 18270 18271 18272 18273 18274 18275 18276 18277 18278 18279 18280 18281 18282 18283 18284 18285 18286 18287 18288 18289 18290 18291 18292 18293 18294 18295 18296 18297 18298 18299 18300 18301 18302 18303 18304 18305 18306 18307 18308 18309 18310 18311 18312 18313 18314 18315 18316 18317 18318 18319 18320 18321 18322 18323 18324 18325 18326 18327 18328 18329 18330 18331 18332 18333 18334 18335 18336 18337 18338 18339 18340 18341 18342 18343 18344 18345 18346 18347 18348 18349 18350 18351 18352 18353 18354 18355 18356 18357 18358 18359 18360 18361 18362 18363 18364 18365 18366 18367 18368 18369 18370 18371 18372 18373 18374 18375 18376 18377 18378 18379 18380 18381 18382 18383 18384 18385 18386 18387 18388 18389 18390 18391 18392 18393 18394 18395 18396 18397 18398 18399 18400 18401 18402 18403 18404 18405 18406 18407 18408 18409 18410 18411 18412 18413 18414 18415 18416 18417 18418 18419 18420 18421 18422 18423 18424 18425 18426 18427 18428 18429 18430 18431 18432 18433 18434 18435 18436 18437 18438 18439 18440 18441 18442 18443 18444 18445 18446 18447 18448 18449 18450 18451 18452 18453 18454 18455 18456 18457 18458 18459 18460 18461 18462 18463 18464 18465 18466 18467 18468 18469 18470 18471 18472 18473 18474 18475 18476 18477 18478 18479 18480 18481 18482 18483 18484 18485 18486 18487 18488 18489 18490 18491 18492 18493 18494 18495 18496 18497 18498 18499 18500 18501 18502 18503 18504 18505 18506 18507 18508 18509 18510 18511 18512 18513 18514 18515 18516 18517 18518 18519 18520 18521 18522 18523 18524 18525 18526 18527 18528 18529 18530 18531 18532 18533 18534 18535 18536 18537 18538 18539 18540 18541 18542 18543 18544 18545 18546 18547 18548 18549 18550 18551 18552 18553 18554 18555 18556 18557 18558 18559 18560 18561 18562 18563 18564 18565 18566 18567 18568 18569 18570 18571 18572 18573 18574 18575 18576 18577 18578 18579 18580 18581 18582 18583 18584 18585 18586 18587 18588 18589 18590 18591 18592 18593 18594 18595 18596 18597 18598 18599 18600 18601 18602 18603 18604 18605 18606 18607 18608 18609 18610 18611 18612 18613 18614 18615 18616 18617 18618 18619 18620 18621 18622 18623 18624 18625 18626 18627 18628 18629 18630 18631 18632 18633 18634 18635 18636 18637 18638 18639 18640 18641 18642 18643 18644 18645 18646 18647 18648 18649 18650 18651 18652 18653 18654 18655 18656 18657 18658 18659 18660 18661 18662 18663 18664 18665 18666 18667 18668 18669 18670 18671 18672 18673 18674 18675 18676 18677 18678 18679 18680 18681 18682 18683 18684 18685 18686 18687 18688 18689 18690 18691 18692 18693 18694 18695 18696 18697 18698 18699 18700 18701 18702 18703 18704 18705 18706 18707 18708 18709 18710 18711 18712 18713 18714 18715 18716 18717 18718 18719 18720 18721 18722 18723 18724 18725 18726 18727 18728 18729 18730 18731 18732 18733 18734 18735 18736 18737 18738 18739 18740 18741 18742 18743 18744 18745 18746 18747 18748 18749 18750 18751 18752 18753 18754 18755 18756 18757 18758 18759 18760 18761 18762 18763 18764 18765 18766 18767 18768 18769 18770 18771 18772 18773 18774 18775 18776 18777 18778 18779 18780 18781 18782 18783 18784 18785 18786 18787 18788 18789 18790 18791 18792 18793 18794 18795 18796 18797 18798 18799 18800 18801 18802 18803 18804 18805 18806 18807 18808 18809 18810 18811 18812 18813 18814 18815 18816 18817 18818 18819 18820 18821 18822 18823 18824 18825 18826 18827 18828 18829 18830 18831 18832 18833 18834 18835 18836 18837 18838 18839 18840 18841 18842 18843 18844 18845 18846 18847 18848 18849 18850 18851 18852 18853 18854 18855 18856 18857 18858 18859 18860 18861 18862 18863 18864 18865 18866 18867 18868 18869 18870 18871 18872 18873 18874 18875 18876 18877 18878 18879 18880 18881 18882 18883 18884 18885 18886 18887 18888 18889 18890 18891 18892 18893 18894 18895 18896 18897 18898 18899 18900 18901 18902 18903 18904 18905 18906 18907 18908 18909 18910 18911 18912 18913 18914 18915 18916 18917 18918 18919 18920 18921 18922 18923 18924 18925 18926 18927 18928 18929 18930 18931 18932 18933 18934 18935 18936 18937 18938 18939 18940 18941 18942 18943 18944 18945 18946 18947 18948 18949 18950 18951 18952 18953 18954 18955 18956 18957 18958 18959 18960 18961 18962 18963 18964 18965 18966 18967 18968 18969 18970 18971 18972 18973 18974 18975 18976 18977 18978 18979 18980 18981 18982 18983 18984 18985 18986 18987 18988 18989 18990 18991 18992 18993 18994 18995 18996 18997 18998 18999 19000 19001 19002 19003 19004 19005 19006 19007 19008 19009 19010 19011 19012 19013 19014 19015 19016 19017 19018 19019 19020 19021 19022 19023 19024 19025 19026 19027 19028 19029 19030 19031 19032 19033 19034 19035 19036 19037 19038 19039 19040 19041 19042 19043 19044 19045 19046 19047 19048 19049 19050 19051 19052 19053 19054 19055 19056 19057 19058 19059 19060 19061 19062 19063 19064 19065 19066 19067 19068 19069 19070 19071 19072 19073 19074 19075 19076 19077 19078 19079 19080 19081 19082 19083 19084 19085 19086 19087 19088 19089 19090 19091 19092 19093 19094 19095 19096 19097 19098 19099 19100 19101 19102 19103 19104 19105 19106 19107 19108 19109 19110 19111 19112 19113 19114 19115 19116 19117 19118 19119 19120 19121 19122 19123 19124 19125 19126 19127 19128 19129 19130 19131 19132 19133 19134 19135 19136 19137 19138 19139 19140 19141 19142 19143 19144 19145 19146 19147 19148 19149 19150 19151 19152 19153 19154 19155 19156 19157 19158 19159 19160 19161 19162 19163 19164 19165 19166 19167 19168 19169 19170 19171 19172 19173 19174 19175 19176 19177 19178 19179 19180 19181 19182 19183 19184 19185 19186 19187 19188 19189 19190 19191 19192 19193 19194 19195 19196 19197 19198 19199 19200 19201 19202 19203 19204 19205 19206 19207 19208 19209 19210 19211 19212 19213 19214 19215 19216 19217 19218 19219 19220 19221 19222 19223 19224 19225 19226 19227 19228 19229 19230 19231 19232 19233 19234 19235 19236 19237 19238 19239 19240 19241 19242 19243 19244 19245 19246 19247 19248 19249 19250 19251 19252 19253 19254 19255 19256 19257 19258 19259 19260 19261 19262 19263 19264 19265 19266 19267 19268 19269 19270 19271 19272 19273 19274 19275 19276 19277 19278 19279 19280 19281 19282 19283 19284 19285 19286 19287 19288 19289 19290 19291 19292 19293 19294 19295 19296 19297 19298 19299 19300 19301 19302 19303 19304 19305 19306 19307 19308 19309 19310 19311 19312 19313 19314 19315 19316 19317 19318 19319 19320 19321 19322 19323 19324 19325 19326 19327 19328 19329 19330 19331 19332 19333 19334 19335 19336 19337 19338 19339 19340 19341 19342 19343 19344 19345 19346 19347 19348 19349 19350 19351 19352 19353 19354 19355 19356 19357 19358 19359 19360 19361 19362 19363 19364 19365 19366 19367 19368 19369 19370 19371 19372 19373 19374 19375 19376 19377 19378 19379 19380 19381 19382 19383 19384 19385 19386 19387 19388 19389 19390 19391 19392 19393 19394 19395 19396 19397 19398 19399 19400 19401 19402 19403 19404 19405 19406 19407 19408 19409 19410 19411 19412 19413 19414 19415 19416 19417 19418 19419 19420 19421 19422 19423 19424 19425 19426 19427 19428 19429 19430 19431 19432 19433 19434 19435 19436 19437 19438 19439 19440 19441 19442 19443 19444 19445 19446 19447 19448 19449 19450 19451 19452 19453 19454 19455 19456 19457 19458 19459 19460 19461 19462 19463 19464 19465 19466 19467 19468 19469 19470 19471 19472 19473 19474 19475 19476 19477 19478 19479 19480 19481 19482 19483 19484 19485 19486 19487 19488 19489 19490 19491 19492 19493 19494 19495 19496 19497 19498 19499 19500 19501 19502 19503 19504 19505 19506 19507 19508 19509 19510 19511 19512 19513 19514 19515 19516 19517 19518 19519 19520 19521 19522 19523 19524 19525 19526 19527 19528 19529 19530 19531 19532 19533 19534 19535 19536 19537 19538 19539 19540 19541 19542 19543 19544 19545 19546 19547 19548 19549 19550 19551 19552 19553 19554 19555 19556 19557 19558 19559 19560 19561 19562 19563 19564 19565 19566 19567 19568 19569 19570 19571 19572 19573 19574 19575 19576 19577 19578 19579 19580 19581 19582 19583 19584 19585 19586 19587 19588 19589 19590 19591 19592 19593 19594 19595 19596 19597 19598 19599 19600 19601 19602 19603 19604 19605 19606 19607 19608 19609 19610 19611 19612 19613 19614 19615 19616 19617 19618 19619 19620 19621 19622 19623 19624 19625 19626 19627 19628 19629 19630 19631 19632 19633 19634 19635 19636 19637 19638 19639 19640 19641 19642 19643 19644 19645 19646 19647 19648 19649 19650 19651 19652 19653 19654 19655 19656 19657 19658 19659 19660 19661 19662 19663 19664 19665 19666 19667 19668 19669 19670 19671 19672 19673 19674 19675 19676 19677 19678 19679 19680 19681 19682 19683 19684 19685 19686 19687 19688 19689 19690 19691 19692 19693 19694 19695 19696 19697 19698 19699 19700 19701 19702 19703 19704 19705 19706 19707 19708 19709 19710 19711 19712 19713 19714 19715 19716 19717 19718 19719 19720 19721 19722 19723 19724 19725 19726 19727 19728 19729 19730 19731 19732 19733 19734 19735 19736 19737 19738 19739 19740 19741 19742 19743 19744 19745 19746 19747 19748 19749 19750 19751 19752 19753 19754 19755 19756 19757 19758 19759 19760 19761 19762 19763 19764 19765 19766 19767 19768 19769 19770 19771 19772 19773 19774 19775 19776 19777 19778 19779 19780 19781 19782 19783 19784 19785 19786 19787 19788 19789 19790 19791 19792 19793 19794 19795 19796 19797 19798 19799 19800 19801 19802 19803 19804 19805 19806 19807 19808 19809 19810 19811 19812 19813 19814 19815 19816 19817 19818 19819 19820 19821 19822 19823 19824 19825 19826 19827 19828 19829 19830 19831 19832 19833 19834 19835 19836 19837 19838 19839 19840 19841 19842 19843 19844 19845 19846 19847 19848 19849 19850 19851 19852 19853 19854 19855 19856 19857 19858 19859 19860 19861 19862 19863 19864 19865 19866 19867 19868 19869 19870 19871 19872 19873 19874 19875 19876 19877 19878 19879 19880 19881 19882 19883 19884 19885 19886 19887 19888 19889 19890 19891 19892 19893 19894 19895 19896 19897 19898 19899 19900 19901 19902 19903 19904 19905 19906 19907 19908 19909 19910 19911 19912 19913 19914 19915 19916 19917 19918 19919 19920 19921 19922 19923 19924 19925 19926 19927 19928 19929 19930 19931 19932 19933 19934 19935 19936 19937 19938 19939 19940 19941 19942 19943 19944 19945 19946 19947 19948 19949 19950 19951 19952 19953 19954 19955 19956 19957 19958 19959 19960 19961 19962 19963 19964 19965 19966 19967 19968 19969 19970 19971 19972 19973 19974 19975 19976 19977 19978 19979 19980 19981 19982 19983 19984 19985 19986 19987 19988 19989 19990 19991 19992 19993 19994 19995 19996 19997 19998 19999 20000 20001 20002 20003 20004 20005 20006 20007 20008 20009 20010 20011 20012 20013 20014 20015 20016 20017 20018 20019 20020 20021 20022 20023 20024 20025 20026 20027 20028 20029 20030 20031 20032 20033 20034 20035 20036 20037 20038 20039 20040 20041 20042 20043 20044 20045 20046 20047 20048 20049 20050 20051 20052 20053 20054 20055 20056 20057 20058 20059 20060 20061 20062 20063 20064 20065 20066 20067 20068 20069 20070 20071 20072 20073 20074 20075 20076 20077 20078 20079 20080 20081 20082 20083 20084 20085 20086 20087 20088 20089 20090 20091 20092 20093 20094 20095 20096 20097 20098 20099 20100 20101 20102 20103 20104 20105 20106 20107 20108 20109 20110 20111 20112 20113 20114 20115 20116 20117 20118 20119 20120 20121 20122 20123 20124 20125 20126 20127 20128 20129 20130 20131 20132 20133 20134 20135 20136 20137 20138 20139 20140 20141 20142 20143 20144 20145 20146 20147 20148 20149 20150 20151 20152 20153 20154 20155 20156 20157 20158 20159 20160 20161 20162 20163 20164 20165 20166 20167 20168 20169 20170 20171 20172 20173 20174 20175 20176 20177 20178 20179 20180 20181 20182 20183 20184 20185 20186 20187 20188 20189 20190 20191 20192 20193 20194 20195 20196 20197 20198 20199 20200 20201 20202 20203 20204 20205 20206 20207 20208 20209 20210 20211 20212 20213 20214 20215 20216 20217 20218 20219 20220 20221 20222 20223 20224 20225 20226 20227 20228 20229 20230 20231 20232 20233 20234 20235 20236 20237 20238 20239 20240 20241 20242 20243 20244 20245 20246 20247 20248 20249 20250 20251 20252 20253 20254 20255 20256 20257 20258 20259 20260 20261 20262 20263 20264 20265 20266 20267 20268 20269 20270 20271 20272 20273 20274 20275 20276 20277 20278 20279 20280 20281 20282 20283 20284 20285 20286 20287 20288 20289 20290 20291 20292 20293 20294 20295 20296 20297 20298 20299 20300 20301 20302 20303 20304 20305 20306 20307 20308 20309 20310 20311 20312 20313 20314 20315 20316 20317 20318 20319 20320 20321 20322 20323 20324 20325 20326 20327 20328 20329 20330 20331 20332 20333 20334 20335 20336 20337 20338 20339 20340 20341 20342 20343 20344 20345 20346 20347 20348 20349 20350 20351 20352 20353 20354 20355 20356 20357 20358 20359 20360 20361 20362 20363 20364 20365 20366 20367 20368 20369 20370 20371 20372 20373 20374 20375 20376 20377 20378 20379 20380 20381 20382 20383 20384 20385 20386 20387 20388 20389 20390 20391 20392 20393 20394 20395 20396 20397 20398 20399 20400 20401 20402 20403 20404 20405 20406 20407 20408 20409 20410 20411 20412 20413 20414 20415 20416 20417 20418 20419 20420 20421 20422 20423 20424 20425 20426 20427 20428 20429 20430 20431 20432 20433 20434 20435 20436 20437 20438 20439 20440 20441 20442 20443 20444 20445 20446 20447 20448 20449 20450 20451 20452 20453 20454 20455 20456 20457 20458 20459 20460 20461 20462 20463 20464 20465 20466 20467 20468 20469 20470 20471 20472 20473 20474 20475 20476 20477 20478 20479 20480 20481 20482 20483 20484 20485 20486 20487 20488 20489 20490 20491 20492 20493 20494 20495 20496 20497 20498 20499 20500 20501 20502 20503 20504 20505 20506 20507 20508 20509 20510 20511 20512 20513 20514 20515 20516 20517 20518 20519 20520 20521 20522 20523 20524 20525 20526 20527 20528 20529 20530 20531 20532 20533 20534 20535 20536 20537 20538 20539 20540 20541 20542 20543 20544 20545 20546 20547 20548 20549 20550 20551 20552 20553 20554 20555 20556 20557 20558 20559 20560 20561 20562 20563 20564 20565 20566 20567 20568 20569 20570 20571 20572 20573 20574 20575 20576 20577 20578 20579 20580 20581 20582 20583 20584 20585 20586 20587 20588 20589 20590 20591 20592 20593 20594 20595 20596 20597 20598 20599 20600 20601 20602 20603 20604 20605 20606 20607 20608 20609 20610 20611 20612 20613 20614 20615 20616 20617 20618 20619 20620 20621 20622 20623 20624 20625 20626 20627 20628 20629 20630 20631 20632 20633 20634 20635 20636 20637 20638 20639 20640 20641 20642 20643 20644 20645 20646 20647 20648 20649 20650 20651 20652 20653 20654 20655 20656 20657 20658 20659 20660 20661 20662 20663 20664 20665 20666 20667 20668 20669 20670 20671 20672 20673 20674 20675 20676 20677 20678 20679 20680 20681 20682 20683 20684 20685 20686 20687 20688 20689 20690 20691 20692 20693 20694 20695 20696 20697 20698 20699 20700 20701 20702 20703 20704 20705 20706 20707 20708 20709 20710 20711 20712 20713 20714 20715 20716 20717 20718 20719 20720 20721 20722 20723 20724 20725 20726 20727 20728 20729 20730 20731 20732 20733 20734 20735 20736 20737 20738 20739 20740 20741 20742 20743 20744 20745 20746 20747 20748 20749 20750 20751 20752 20753 20754 20755 20756 20757 20758 20759 20760 20761 20762 20763 20764 20765 20766 20767 20768 20769 20770 20771 20772 20773 20774 20775 20776 20777 20778 20779 20780 20781 20782 20783 20784 20785 20786 20787 20788 20789 20790 20791 20792 20793 20794 20795 20796 20797 20798 20799 20800 20801 20802 20803 20804 20805 20806 20807 20808 20809 20810 20811 20812 20813 20814 20815 20816 20817 20818 20819 20820 20821 20822 20823 20824 20825 20826 20827 20828 20829 20830 20831 20832 20833 20834 20835 20836 20837 20838 20839 20840 20841 20842 20843 20844 20845 20846 20847 20848 20849 20850 20851 20852 20853 20854 20855 20856 20857 20858 20859 20860 20861 20862 20863 20864 20865 20866 20867 20868 20869 20870 20871 20872 20873 20874 20875 20876 20877 20878 20879 20880 20881 20882 20883 20884 20885 20886 20887 20888 20889 20890 20891 20892 20893 20894 20895 20896 20897 20898 20899 20900 20901 20902 20903 20904 20905 20906 20907 20908 20909 20910 20911 20912 20913 20914 20915 20916 20917 20918 20919 20920 20921 20922 20923 20924 20925 20926 20927 20928 20929 20930 20931 20932 20933 20934 20935 20936 20937 20938 20939 20940 20941 20942 20943 20944 20945 20946 20947 20948 20949 20950 20951 20952 20953 20954 20955 20956 20957 20958 20959 20960 20961 20962 20963 20964 20965 20966 20967 20968 20969 20970 20971 20972 20973 20974 20975 20976 20977 20978 20979 20980 20981 20982 20983 20984 20985 20986 20987 20988 20989 20990 20991 20992 20993 20994 20995 20996 20997 20998 20999 21000 21001 21002 21003 21004 21005 21006 21007 21008 21009 21010 21011 21012 21013 21014 21015 21016 21017 21018 21019 21020 21021 21022 21023 21024 21025 21026 21027 21028 21029 21030 21031 21032 21033 21034 21035 21036 21037 21038 21039 21040 21041 21042 21043 21044 21045 21046 21047 21048 21049 21050 21051 21052 21053 21054 21055 21056 21057 21058 21059 21060 21061 21062 21063 21064 21065 21066 21067 21068 21069 21070 21071 21072 21073 21074 21075 21076 21077 21078 21079 21080 21081 21082 21083 21084 21085 21086 21087 21088 21089 21090 21091 21092 21093 21094 21095 21096 21097 21098 21099 21100 21101 21102 21103 21104 21105 21106 21107 21108 21109 21110 21111 21112 21113 21114 21115 21116 21117 21118 21119 21120 21121 21122 21123 21124 21125 21126 21127 21128 21129 21130 21131 21132 21133 21134 21135 21136 21137 21138 21139 21140 21141 21142 21143 21144 21145 21146 21147 21148 21149 21150 21151 21152 21153 21154 21155 21156 21157 21158 21159 21160 21161 21162 21163 21164 21165 21166 21167 21168 21169 21170 21171 21172 21173 21174 21175 21176 21177 21178 21179 21180 21181 21182 21183 21184 21185 21186 21187 21188 21189 21190 21191 21192 21193 21194 21195 21196 21197 21198 21199 21200 21201 21202 21203 21204 21205 21206 21207 21208 21209 21210 21211 21212 21213 21214 21215 21216 21217 21218 21219 21220 21221 21222 21223 21224 21225 21226 21227 21228 21229 21230 21231 21232 21233 21234 21235 21236 21237 21238 21239 21240 21241 21242 21243 21244 21245 21246 21247 21248 21249 21250 21251 21252 21253 21254 21255 21256 21257 21258 21259 21260 21261 21262 21263 21264 21265 21266 21267 21268 21269 21270 21271 21272 21273 21274 21275 21276 21277 21278 21279 21280 21281 21282 21283 21284 21285 21286 21287 21288 21289 21290 21291 21292 21293 21294 21295 21296 21297 21298 21299 21300 21301 21302 21303 21304 21305 21306 21307 21308 21309 21310 21311 21312 21313 21314 21315 21316 21317 21318 21319 21320 21321 21322 21323 21324 21325 21326 21327 21328 21329 21330 21331 21332 21333 21334 21335 21336 21337 21338 21339 21340 21341 21342 21343 21344 21345 21346 21347 21348 21349 21350 21351 21352 21353 21354 21355 21356 21357 21358 21359 21360 21361 21362 21363 21364 21365 21366 21367 21368 21369 21370 21371 21372 21373 21374 21375 21376 21377 21378 21379 21380 21381 21382 21383 21384 21385 21386 21387 21388 21389 21390 21391 21392 21393 21394 21395 21396 21397 21398 21399 21400 21401 21402 21403 21404 21405 21406 21407 21408 21409 21410 21411 21412 21413 21414 21415 21416 21417 21418 21419 21420 21421 21422 21423 21424 21425 21426 21427 21428 21429 21430 21431 21432 21433 21434 21435 21436 21437 21438 21439 21440 21441 21442 21443 21444 21445 21446 21447 21448 21449 21450 21451 21452 21453 21454 21455 21456 21457 21458 21459 21460 21461 21462 21463 21464 21465 21466 21467 21468 21469 21470 21471 21472 21473 21474 21475 21476 21477 21478 21479 21480 21481 21482 21483 21484 21485 21486 21487 21488 21489 21490 21491 21492 21493 21494 21495 21496 21497 21498 21499 21500 21501 21502 21503 21504 21505 21506 21507 21508 21509 21510 21511 21512 21513 21514 21515 21516 21517 21518 21519 21520 21521 21522 21523 21524 21525 21526 21527 21528 21529 21530 21531 21532 21533 21534 21535 21536 21537 21538 21539 21540 21541 21542 21543 21544 21545 21546 21547 21548 21549 21550 21551 21552 21553 21554 21555 21556 21557 21558 21559 21560 21561 21562 21563 21564 21565 21566 21567 21568 21569 21570 21571 21572 21573 21574 21575 21576 21577 21578 21579 21580 21581 21582 21583 21584 21585 21586 21587 21588 21589 21590 21591 21592 21593 21594 21595 21596 21597 21598 21599 21600 21601 21602 21603 21604 21605 21606 21607 21608 21609 21610 21611 21612 21613 21614 21615 21616 21617 21618 21619 21620 21621 21622 21623 21624 21625 21626 21627 21628 21629 21630 21631 21632 21633 21634 21635 21636 21637 21638 21639 21640 21641 21642 21643 21644 21645 21646 21647 21648 21649 21650 21651 21652 21653 21654 21655 21656 21657 21658 21659 21660 21661 21662 21663 21664 21665 21666 21667 21668 21669 21670 21671 21672 21673 21674 21675 21676 21677 21678 21679 21680 21681 21682 21683 21684 21685 21686 21687 21688 21689 21690 21691 21692 21693 21694 21695 21696 21697 21698 21699 21700 21701 21702 21703 21704 21705 21706 21707 21708 21709 21710 21711 21712 21713 21714 21715 21716 21717 21718 21719 21720 21721 21722 21723 21724 21725 21726 21727 21728 21729 21730 21731 21732 21733 21734 21735 21736 21737 21738 21739 21740 21741 21742 21743 21744 21745 21746 21747 21748 21749 21750 21751 21752 21753 21754 21755 21756 21757 21758 21759 21760 21761 21762 21763 21764 21765 21766 21767 21768 21769 21770 21771 21772 21773 21774 21775 21776 21777 21778 21779 21780 21781 21782 21783 21784 21785 21786 21787 21788 21789 21790 21791 21792 21793 21794 21795 21796 21797 21798 21799 21800 21801 21802 21803 21804 21805 21806 21807 21808 21809 21810 21811 21812 21813 21814 21815 21816 21817 21818 21819 21820 21821 21822 21823 21824 21825 21826 21827 21828 21829 21830 21831 21832 21833 21834 21835 21836 21837 21838 21839 21840 21841 21842 21843 21844 21845 21846 21847 21848 21849 21850 21851 21852 21853 21854 21855 21856 21857 21858 21859 21860 21861 21862 21863 21864 21865 21866 21867 21868 21869 21870 21871 21872 21873 21874 21875 21876 21877 21878 21879 21880 21881 21882 21883 21884 21885 21886 21887 21888 21889 21890 21891 21892 21893 21894 21895 21896 21897 21898 21899 21900 21901 21902 21903 21904 21905 21906 21907 21908 21909 21910 21911 21912 21913 21914 21915 21916 21917 21918 21919 21920 21921 21922 21923 21924 21925 21926 21927 21928 21929 21930 21931 21932 21933 21934 21935 21936 21937 21938 21939 21940 21941 21942 21943 21944 21945 21946 21947 21948 21949 21950 21951 21952 21953 21954 21955 21956 21957 21958 21959 21960 21961 21962 21963 21964 21965 21966 21967 21968 21969 21970 21971 21972 21973 21974 21975 21976 21977 21978 21979 21980 21981 21982 21983 21984 21985 21986 21987 21988 21989 21990 21991 21992 21993 21994 21995 21996 21997 21998 21999 22000 22001 22002 22003 22004 22005 22006 22007 22008 22009 22010 22011 22012 22013 22014 22015 22016 22017 22018 22019 22020 22021 22022 22023 22024 22025 22026 22027 22028 22029 22030 22031 22032 22033 22034 22035 22036 22037 22038 22039 22040 22041 22042 22043 22044 22045 22046 22047 22048 22049 22050 22051 22052 22053 22054 22055 22056 22057 22058 22059 22060 22061 22062 22063 22064 22065 22066 22067 22068 22069 22070 22071 22072 22073 22074 22075 22076 22077 22078 22079 22080 22081 22082 22083 22084 22085 22086 22087 22088 22089 22090 22091 22092 22093 22094 22095 22096 22097 22098 22099 22100 22101 22102 22103 22104 22105 22106 22107 22108 22109 22110 22111 22112 22113 22114 22115 22116 22117 22118 22119 22120 22121 22122 22123 22124 22125 22126 22127 22128 22129 22130 22131 22132 22133 22134 22135 22136 22137 22138 22139 22140 22141 22142 22143 22144 22145 22146 22147 22148 22149 22150 22151 22152 22153 22154 22155 22156 22157 22158 22159 22160 22161 22162 22163 22164 22165 22166 22167 22168 22169 22170 22171 22172 22173 22174 22175 22176 22177 22178 22179 22180 22181 22182 22183 22184 22185 22186 22187 22188 22189 22190 22191 22192 22193 22194 22195 22196 22197 22198 22199 22200 22201 22202 22203 22204 22205 22206 22207 22208 22209 22210 22211 22212 22213 22214 22215 22216 22217 22218 22219 22220 22221 22222 22223 22224 22225 22226 22227 22228 22229 22230 22231 22232 22233 22234 22235 22236 22237 22238 22239 22240 22241 22242 22243 22244 22245 22246 22247 22248 22249 22250 22251 22252 22253 22254 22255 22256 22257 22258 22259 22260 22261 22262 22263 22264 22265 22266 22267 22268 22269 22270 22271 22272 22273 22274 22275 22276 22277 22278 22279 22280 22281 22282 22283 22284 22285 22286 22287 22288 22289 22290 22291 22292 22293 22294 22295 22296 22297 22298 22299 22300 22301 22302 22303 22304 22305 22306 22307 22308 22309 22310 22311 22312 22313 22314 22315 22316 22317 22318 22319 22320 22321 22322 22323 22324 22325 22326 22327 22328 22329 22330 22331 22332 22333 22334 22335 22336 22337 22338 22339 22340 22341 22342 22343 22344 22345 22346 22347 22348 22349 22350 22351 22352 22353 22354 22355 22356 22357 22358 22359 22360 22361 22362 22363 22364 22365 22366 22367 22368 22369 22370 22371 22372 22373 22374 22375 22376 22377 22378 22379 22380 22381 22382 22383 22384 22385 22386 22387 22388 22389 22390 22391 22392 22393 22394 22395 22396 22397 22398 22399 22400 22401 22402 22403 22404 22405 22406 22407 22408 22409 22410 22411 22412 22413 22414 22415 22416 22417 22418 22419 22420 22421 22422 22423 22424 22425 22426 22427 22428 22429 22430 22431 22432 22433 22434 22435 22436 22437 22438 22439 22440 22441 22442 22443 22444 22445 22446 22447 22448 22449 22450 22451 22452 22453 22454 22455 22456 22457 22458 22459 22460 22461 22462 22463 22464 22465 22466 22467 22468 22469 22470 22471 22472 22473 22474 22475 22476 22477 22478 22479 22480 22481 22482 22483 22484 22485 22486 22487 22488 22489 22490 22491 22492 22493 22494 22495 22496 22497 22498 22499 22500 22501 22502 22503 22504 22505 22506 22507 22508 22509 22510 22511 22512 22513 22514 22515 22516 22517 22518 22519 22520 22521 22522 22523 22524 22525 22526 22527 22528 22529 22530 22531 22532 22533 22534 22535 22536 22537 22538 22539 22540 22541 22542 22543 22544 22545 22546 22547 22548 22549 22550 22551 22552 22553 22554 22555 22556 22557 22558 22559 22560 22561 22562 22563 22564 22565 22566 22567 22568 22569 22570 22571 22572 22573 22574 22575 22576 22577 22578 22579 22580 22581 22582 22583 22584 22585 22586 22587 22588 22589 22590 22591 22592 22593 22594 22595 22596 22597 22598 22599 22600 22601 22602 22603 22604 22605 22606 22607 22608 22609 22610 22611 22612 22613 22614 22615 22616 22617 22618 22619 22620 22621 22622 22623 22624 22625 22626 22627 22628 22629 22630 22631 22632 22633 22634 22635 22636 22637 22638 22639 22640 22641 22642 22643 22644 22645 22646 22647 22648 22649 22650 22651 22652 22653 22654 22655 22656 22657 22658 22659 22660 22661 22662 22663 22664 22665 22666 22667 22668 22669 22670 22671 22672 22673 22674 22675 22676 22677 22678 22679 22680 22681 22682 22683 22684 22685 22686 22687 22688 22689 22690 22691 22692 22693 22694 22695 22696 22697 22698 22699 22700 22701 22702 22703 22704 22705 22706 22707 22708 22709 22710 22711 22712 22713 22714 22715 22716 22717 22718 22719 22720 22721 22722 22723 22724 22725 22726 22727 22728 22729 22730 22731 22732 22733 22734 22735 22736 22737 22738 22739 22740 22741 22742 22743 22744 22745 22746 22747 22748 22749 22750 22751 22752 22753 22754 22755 22756 22757 22758 22759 22760 22761 22762 22763 22764 22765 22766 22767 22768 22769 22770 22771 22772 22773 22774 22775 22776 22777 22778 22779 22780 22781 22782 22783 22784 22785 22786 22787 22788 22789 22790 22791 22792 22793 22794 22795 22796 22797 22798 22799 22800 22801 22802 22803 22804 22805 22806 22807 22808 22809 22810 22811 22812 22813 22814 22815 22816 22817 22818 22819 22820 22821 22822 22823 22824 22825 22826 22827 22828 22829 22830 22831 22832 22833 22834 22835 22836 22837 22838 22839 22840 22841 22842 22843 22844 22845 22846 22847 22848 22849 22850 22851 22852 22853 22854 22855 22856 22857 22858 22859 22860 22861 22862 22863 22864 22865 22866 22867 22868 22869 22870 22871 22872 22873 22874 22875 22876 22877 22878 22879 22880 22881 22882 22883 22884 22885 22886 22887 22888 22889 22890 22891 22892 22893 22894 22895 22896 22897 22898 22899 22900 22901 22902 22903 22904 22905 22906 22907 22908 22909 22910 22911 22912 22913 22914 22915 22916 22917 22918 22919 22920 22921 22922 22923 22924 22925 22926 22927 22928 22929 22930 22931 22932 22933 22934 22935 22936 22937 22938 22939 22940 22941 22942 22943 22944 22945 22946 22947 22948 22949 22950 22951 22952 22953 22954 22955 22956 22957 22958 22959 22960 22961 22962 22963 22964 22965 22966 22967 22968 22969 22970 22971 22972 22973 22974 22975 22976 22977 22978 22979 22980 22981 22982 22983 22984 22985 22986 22987 22988 22989 22990 22991 22992 22993 22994 22995 22996 22997 22998 22999 23000 23001 23002 23003 23004 23005 23006 23007 23008 23009 23010 23011 23012 23013 23014 23015 23016 23017 23018 23019 23020 23021 23022 23023 23024 23025 23026 23027 23028 23029 23030 23031 23032 23033 23034 23035 23036 23037 23038 23039 23040 23041 23042 23043 23044 23045 23046 23047 23048 23049 23050 23051 23052 23053 23054 23055 23056 23057 23058 23059 23060 23061 23062 23063 23064 23065 23066 23067 23068 23069 23070 23071 23072 23073 23074 23075 23076 23077 23078 23079 23080 23081 23082 23083 23084 23085 23086 23087 23088 23089 23090 23091 23092 23093 23094 23095 23096 23097 23098 23099 23100 23101 23102 23103 23104 23105 23106 23107 23108 23109 23110 23111 23112 23113 23114 23115 23116 23117 23118 23119 23120 23121 23122 23123 23124 23125 23126 23127 23128 23129 23130 23131 23132 23133 23134 23135 23136 23137 23138 23139 23140 23141 23142 23143 23144 23145 23146 23147 23148 23149 23150 23151 23152 23153 23154 23155 23156 23157 23158 23159 23160 23161 23162 23163 23164 23165 23166 23167 23168 23169 23170 23171 23172 23173 23174 23175 23176 23177 23178 23179 23180 23181 23182 23183 23184 23185 23186 23187 23188 23189 23190 23191 23192 23193 23194 23195 23196 23197 23198 23199 23200 23201 23202 23203 23204 23205 23206 23207 23208 23209 23210 23211 23212 23213 23214 23215 23216 23217 23218 23219 23220 23221 23222 23223 23224 23225 23226 23227 23228 23229 23230 23231 23232 23233 23234 23235 23236 23237 23238 23239 23240 23241 23242 23243 23244 23245 23246 23247 23248 23249 23250 23251 23252 23253 23254 23255 23256 23257 23258 23259 23260 23261 23262 23263 23264 23265 23266 23267 23268 23269 23270 23271 23272 23273 23274 23275 23276 23277 23278 23279 23280 23281 23282 23283 23284 23285 23286 23287 23288 23289 23290 23291 23292 23293 23294 23295 23296 23297 23298 23299 23300 23301 23302 23303 23304 23305 23306 23307 23308 23309 23310 23311 23312 23313 23314 23315 23316 23317 23318 23319 23320 23321 23322 23323 23324 23325 23326 23327 23328 23329 23330 23331 23332 23333 23334 23335 23336 23337 23338 23339 23340 23341 23342 23343 23344 23345 23346 23347 23348 23349 23350 23351 23352 23353 23354 23355 23356 23357 23358 23359 23360 23361 23362 23363 23364 23365 23366 23367 23368 23369 23370 23371 23372 23373 23374 23375 23376 23377 23378 23379 23380 23381 23382 23383 23384 23385 23386 23387 23388 23389 23390 23391 23392 23393 23394 23395 23396 23397 23398 23399 23400 23401 23402 23403 23404 23405 23406 23407 23408 23409 23410 23411 23412 23413 23414 23415 23416 23417 23418 23419 23420 23421 23422 23423 23424 23425 23426 23427 23428 23429 23430 23431 23432 23433 23434 23435 23436 23437 23438 23439 23440 23441 23442 23443 23444 23445 23446 23447 23448 23449 23450 23451 23452 23453 23454 23455 23456 23457 23458 23459 23460 23461 23462 23463 23464 23465 23466 23467 23468 23469 23470 23471 23472 23473 23474 23475 23476 23477 23478 23479 23480 23481 23482 23483 23484 23485 23486 23487 23488 23489 23490 23491 23492 23493 23494 23495 23496 23497 23498 23499 23500 23501 23502 23503 23504 23505 23506 23507 23508 23509 23510 23511 23512 23513 23514 23515 23516 23517 23518 23519 23520 23521 23522 23523 23524 23525 23526 23527 23528 23529 23530 23531 23532 23533 23534 23535 23536 23537 23538 23539 23540 23541 23542 23543 23544 23545 23546 23547 23548 23549 23550 23551 23552 23553 23554 23555 23556 23557 23558 23559 23560 23561 23562 23563 23564 23565 23566 23567 23568 23569 23570 23571 23572 23573 23574 23575 23576 23577 23578 23579 23580 23581 23582 23583 23584 23585 23586 23587 23588 23589 23590 23591 23592 23593 23594 23595 23596 23597 23598 23599 23600 23601 23602 23603 23604 23605 23606 23607 23608 23609 23610 23611 23612 23613 23614 23615 23616 23617 23618 23619 23620 23621 23622 23623 23624 23625 23626 23627 23628 23629 23630 23631 23632 23633 23634 23635 23636 23637 23638 23639 23640 23641 23642 23643 23644 23645 23646 23647 23648 23649 23650 23651 23652 23653 23654 23655 23656 23657 23658 23659 23660 23661 23662 23663 23664 23665 23666 23667 23668 23669 23670 23671 23672 23673 23674 23675 23676 23677 23678 23679 23680 23681 23682 23683 23684 23685 23686 23687 23688 23689 23690 23691 23692 23693 23694 23695 23696 23697 23698 23699 23700 23701 23702 23703 23704 23705 23706 23707 23708 23709 23710 23711 23712 23713 23714 23715 23716 23717 23718 23719 23720 23721 23722 23723 23724 23725 23726 23727 23728 23729 23730 23731 23732 23733 23734 23735 23736 23737 23738 23739 23740 23741 23742 23743 23744 23745 23746 23747 23748 23749 23750 23751 23752 23753 23754 23755 23756 23757 23758 23759 23760 23761 23762 23763 23764 23765 23766 23767 23768 23769 23770 23771 23772 23773 23774 23775 23776 23777 23778 23779 23780 23781 23782 23783 23784 23785 23786 23787 23788 23789 23790 23791 23792 23793 23794 23795 23796 23797 23798 23799 23800 23801 23802 23803 23804 23805 23806 23807 23808 23809 23810 23811 23812 23813 23814 23815 23816 23817 23818 23819 23820 23821 23822 23823 23824 23825 23826 23827 23828 23829 23830 23831 23832 23833 23834 23835 23836 23837 23838 23839 23840 23841 23842 23843 23844 23845 23846 23847 23848 23849 23850 23851 23852 23853 23854 23855 23856 23857 23858 23859 23860 23861 23862 23863 23864 23865 23866 23867 23868 23869 23870 23871 23872 23873 23874 23875 23876 23877 23878 23879 23880 23881 23882 23883 23884 23885 23886 23887 23888 23889 23890 23891 23892 23893 23894 23895 23896 23897 23898 23899 23900 23901 23902 23903 23904 23905 23906 23907 23908 23909 23910 23911 23912 23913 23914 23915 23916 23917 23918 23919 23920 23921 23922 23923 23924 23925 23926 23927 23928 23929 23930 23931 23932 23933 23934 23935 23936 23937 23938 23939 23940 23941 23942 23943 23944 23945 23946 23947 23948 23949 23950 23951 23952 23953 23954 23955 23956 23957 23958 23959 23960 23961 23962 23963 23964 23965 23966 23967 23968 23969 23970 23971 23972 23973 23974 23975 23976 23977 23978 23979 23980 23981 23982 23983 23984 23985 23986 23987 23988 23989 23990 23991 23992 23993 23994 23995 23996 23997 23998 23999 24000 24001 24002 24003 24004 24005 24006 24007 24008 24009 24010 24011 24012 24013 24014 24015 24016 24017 24018 24019 24020 24021 24022 24023 24024 24025 24026 24027 24028 24029 24030 24031 24032 24033 24034 24035 24036 24037 24038 24039 24040 24041 24042 24043 24044 24045 24046 24047 24048 24049 24050 24051 24052 24053 24054 24055 24056 24057 24058 24059 24060 24061 24062 24063 24064 24065 24066 24067 24068 24069 24070 24071 24072 24073 24074 24075 24076 24077 24078 24079 24080 24081 24082 24083 24084 24085 24086 24087 24088 24089 24090 24091 24092 24093 24094 24095 24096 24097 24098 24099 24100 24101 24102 24103 24104 24105 24106 24107 24108 24109 24110 24111 24112 24113 24114 24115 24116 24117 24118 24119 24120 24121 24122 24123 24124 24125 24126 24127 24128 24129 24130 24131 24132 24133 24134 24135 24136 24137 24138 24139 24140 24141 24142 24143 24144 24145 24146 24147 24148 24149 24150 24151 24152 24153 24154 24155 24156 24157 24158 24159 24160 24161 24162 24163 24164 24165 24166 24167 24168 24169 24170 24171 24172 24173 24174 24175 24176 24177 24178 24179 24180 24181 24182 24183 24184 24185 24186 24187 24188 24189 24190 24191 24192 24193 24194 24195 24196 24197 24198 24199 24200 24201 24202 24203 24204 24205 24206 24207 24208 24209 24210 24211 24212 24213 24214 24215 24216 24217 24218 24219 24220 24221 24222 24223 24224 24225 24226 24227 24228 24229 24230 24231 24232 24233 24234 24235 24236 24237 24238 24239 24240 24241 24242 24243 24244 24245 24246 24247 24248 24249 24250 24251 24252 24253 24254 24255 24256 24257 24258 24259 24260 24261 24262 24263 24264 24265 24266 24267 24268 24269 24270 24271 24272 24273 24274 24275 24276 24277 24278 24279 24280 24281 24282 24283 24284 24285 24286 24287 24288 24289 24290 24291 24292 24293 24294 24295 24296 24297 24298 24299 24300 24301 24302 24303 24304 24305 24306 24307 24308 24309 24310 24311 24312 24313 24314 24315 24316 24317 24318 24319 24320 24321 24322 24323 24324 24325 24326 24327 24328 24329 24330 24331 24332 24333 24334 24335 24336 24337 24338 24339 24340 24341 24342 24343 24344 24345 24346 24347 24348 24349 24350 24351 24352 24353 24354 24355 24356 24357 24358 24359 24360 24361 24362 24363 24364 24365 24366 24367 24368 24369 24370 24371 24372 24373 24374 24375 24376 24377 24378 24379 24380 24381 24382 24383 24384 24385 24386 24387 24388 24389 24390 24391 24392 24393 24394 24395 24396 24397 24398 24399 24400 24401 24402 24403 24404 24405 24406 24407 24408 24409 24410 24411 24412 24413 24414 24415 24416 24417 24418 24419 24420 24421 24422 24423 24424 24425 24426 24427 24428 24429 24430 24431 24432 24433 24434 24435 24436 24437 24438 24439 24440 24441 24442 24443 24444 24445 24446 24447 24448 24449 24450 24451 24452 24453 24454 24455 24456 24457 24458 24459 24460 24461 24462 24463 24464 24465 24466 24467 24468 24469 24470 24471 24472 24473 24474 24475 24476 24477 24478 24479 24480 24481 24482 24483 24484 24485 24486 24487 24488 24489 24490 24491 24492 24493 24494 24495 24496 24497 24498 24499 24500 24501 24502 24503 24504 24505 24506 24507 24508 24509 24510 24511 24512 24513 24514 24515 24516 24517 24518 24519 24520 24521 24522 24523 24524 24525 24526 24527 24528 24529 24530 24531 24532 24533 24534 24535 24536 24537 24538 24539 24540 24541 24542 24543 24544 24545 24546 24547 24548 24549 24550 24551 24552 24553 24554 24555 24556 24557 24558 24559 24560 24561 24562 24563 24564 24565 24566 24567 24568 24569 24570 24571 24572 24573 24574 24575 24576 24577 24578 24579 24580 24581 24582 24583 24584 24585 24586 24587 24588 24589 24590 24591 24592 24593 24594 24595 24596 24597 24598 24599 24600 24601 24602 24603 24604 24605 24606 24607 24608 24609 24610 24611 24612 24613 24614 24615 24616 24617 24618 24619 24620 24621 24622 24623 24624 24625 24626 24627 24628 24629 24630 24631 24632 24633 24634 24635 24636 24637 24638 24639 24640 24641 24642 24643 24644 24645 24646 24647 24648 24649 24650 24651 24652 24653 24654 24655 24656 24657 24658 24659 24660 24661 24662 24663 24664 24665 24666 24667 24668 24669 24670 24671 24672 24673 24674 24675 24676 24677 24678 24679 24680 24681 24682 24683 24684 24685 24686 24687 24688 24689 24690 24691 24692 24693 24694 24695 24696 24697 24698 24699 24700 24701 24702 24703 24704 24705 24706 24707 24708 24709 24710 24711 24712 24713 24714 24715 24716 24717 24718 24719 24720 24721 24722 24723 24724 24725 24726 24727 24728 24729 24730 24731 24732 24733 24734 24735 24736 24737 24738 24739 24740 24741 24742 24743 24744 24745 24746 24747 24748 24749 24750 24751 24752 24753 24754 24755 24756 24757 24758 24759 24760 24761 24762 24763 24764 24765 24766 24767 24768 24769 24770 24771 24772 24773 24774 24775 24776 24777 24778 24779 24780 24781 24782 24783 24784 24785 24786 24787 24788 24789 24790 24791 24792 24793 24794 24795 24796 24797 24798 24799 24800 24801 24802 24803 24804 24805 24806 24807 24808 24809 24810 24811 24812 24813 24814 24815 24816 24817 24818 24819 24820 24821 24822 24823 24824 24825 24826 24827 24828 24829 24830 24831 24832 24833 24834 24835 24836 24837 24838 24839 24840 24841 24842 24843 24844 24845 24846 24847 24848 24849 24850 24851 24852 24853 24854 24855 24856 24857 24858 24859 24860 24861 24862 24863 24864 24865 24866 24867 24868 24869 24870 24871 24872 24873 24874 24875 24876 24877 24878 24879 24880 24881 24882 24883 24884 24885 24886 24887 24888 24889 24890 24891 24892 24893 24894 24895 24896 24897 24898 24899 24900 24901 24902 24903 24904 24905 24906 24907 24908 24909 24910 24911 24912 24913 24914 24915 24916 24917 24918 24919 24920 24921 24922 24923 24924 24925 24926 24927 24928 24929 24930 24931 24932 24933 24934 24935 24936 24937 24938 24939 24940 24941 24942 24943 24944 24945 24946 24947 24948 24949 24950 24951 24952 24953 24954 24955 24956 24957 24958 24959 24960 24961 24962 24963 24964 24965 24966 24967 24968 24969 24970 24971 24972 24973 24974 24975 24976 24977 24978 24979 24980 24981 24982 24983 24984 24985 24986 24987 24988 24989 24990 24991 24992 24993 24994 24995 24996 24997 24998 24999 25000 25001 25002 25003 25004 25005 25006 25007 25008 25009 25010 25011 25012 25013 25014 25015 25016 25017 25018 25019 25020 25021 25022 25023 25024 25025 25026 25027 25028 25029 25030 25031 25032 25033 25034 25035 25036 25037 25038 25039 25040 25041 25042 25043 25044 25045 25046 25047 25048 25049 25050 25051 25052 25053 25054 25055 25056 25057 25058 25059 25060 25061 25062 25063 25064 25065 25066 25067 25068 25069 25070 25071 25072 25073 25074 25075 25076 25077 25078 25079 25080 25081 25082 25083 25084 25085 25086 25087 25088 25089 25090 25091 25092 25093 25094 25095 25096 25097 25098 25099 25100 25101 25102 25103 25104 25105 25106 25107 25108 25109 25110 25111 25112 25113 25114 25115 25116 25117 25118 25119 25120 25121 25122 25123 25124 25125 25126 25127 25128 25129 25130 25131 25132 25133 25134 25135 25136 25137 25138 25139 25140 25141 25142 25143 25144 25145 25146 25147 25148 25149 25150 25151 25152 25153 25154 25155 25156 25157 25158 25159 25160 25161 25162 25163 25164 25165 25166 25167 25168 25169 25170 25171 25172 25173 25174 25175 25176 25177 25178 25179 25180 25181 25182 25183 25184 25185 25186 25187 25188 25189 25190 25191 25192 25193 25194 25195 25196 25197 25198 25199 25200 25201 25202 25203 25204 25205 25206 25207 25208 25209 25210 25211 25212 25213 25214 25215 25216 25217 25218 25219 25220 25221 25222 25223 25224 25225 25226 25227 25228 25229 25230 25231 25232 25233 25234 25235 25236 25237 25238 25239 25240 25241 25242 25243 25244 25245 25246 25247 25248 25249 25250 25251 25252 25253 25254 25255 25256 25257 25258 25259 25260 25261 25262 25263 25264 25265 25266 25267 25268 25269 25270 25271 25272 25273 25274 25275 25276 25277 25278 25279 25280 25281 25282 25283 25284 25285 25286 25287 25288 25289 25290 25291 25292 25293 25294 25295 25296 25297 25298 25299 25300 25301 25302 25303 25304 25305 25306 25307 25308 25309 25310 25311 25312 25313 25314 25315 25316 25317 25318 25319 25320 25321 25322 25323 25324 25325 25326 25327 25328 25329 25330 25331 25332 25333 25334 25335 25336 25337 25338 25339 25340 25341 25342 25343 25344 25345 25346 25347 25348 25349 25350 25351 25352 25353 25354 25355 25356 25357 25358 25359 25360 25361 25362 25363 25364 25365 25366 25367 25368 25369 25370 25371 25372 25373 25374 25375 25376 25377 25378 25379 25380 25381 25382 25383 25384 25385 25386 25387 25388 25389 25390 25391 25392 25393 25394 25395 25396 25397 25398 25399 25400 25401 25402 25403 25404 25405 25406 25407 25408 25409 25410 25411 25412 25413 25414 25415 25416 25417 25418 25419 25420 25421 25422 25423 25424 25425 25426 25427 25428 25429 25430 25431 25432 25433 25434 25435 25436 25437 25438 25439 25440 25441 25442 25443 25444 25445 25446 25447 25448 25449 25450 25451 25452 25453 25454 25455 25456 25457 25458 25459 25460 25461 25462 25463 25464 25465 25466 25467 25468 25469 25470 25471 25472 25473 25474 25475 25476 25477 25478 25479 25480 25481 25482 25483 25484 25485 25486 25487 25488 25489 25490 25491 25492 25493 25494 25495 25496 25497 25498 25499 25500 25501 25502 25503 25504 25505 25506 25507 25508 25509 25510 25511 25512 25513 25514 25515 25516 25517 25518 25519 25520 25521 25522 25523 25524 25525 25526 25527 25528 25529 25530 25531 25532 25533 25534 25535 25536 25537 25538 25539 25540 25541 25542 25543 25544 25545 25546 25547 25548 25549 25550 25551 25552 25553 25554 25555 25556 25557 25558 25559 25560 25561 25562 25563 25564 25565 25566 25567 25568 25569 25570 25571 25572 25573 25574 25575 25576 25577 25578 25579 25580 25581 25582 25583 25584 25585 25586 25587 25588 25589 25590 25591 25592 25593 25594 25595 25596 25597 25598 25599 25600 25601 25602 25603 25604 25605 25606 25607 25608 25609 25610 25611 25612 25613 25614 25615 25616 25617 25618 25619 25620 25621 25622 25623 25624 25625 25626 25627 25628 25629 25630 25631 25632 25633 25634 25635 25636 25637 25638 25639 25640 25641 25642 25643 25644 25645 25646 25647 25648 25649 25650 25651 25652 25653 25654 25655 25656 25657 25658 25659 25660 25661 25662 25663 25664 25665 25666 25667 25668 25669 25670 25671 25672 25673 25674 25675 25676 25677 25678 25679 25680 25681 25682 25683 25684 25685 25686 25687 25688 25689 25690 25691 25692 25693 25694 25695 25696 25697 25698 25699 25700 25701 25702 25703 25704 25705 25706 25707 25708 25709 25710 25711 25712 25713 25714 25715 25716 25717 25718 25719 25720 25721 25722 25723 25724 25725 25726 25727 25728 25729 25730 25731 25732 25733 25734 25735 25736 25737 25738 25739 25740 25741 25742 25743 25744 25745 25746 25747 25748 25749 25750 25751 25752 25753 25754 25755 25756 25757 25758 25759 25760 25761 25762 25763 25764 25765 25766 25767 25768 25769 25770 25771 25772 25773 25774 25775 25776 25777 25778 25779 25780 25781 25782 25783 25784 25785 25786 25787 25788 25789 25790 25791 25792 25793 25794 25795 25796 25797 25798 25799 25800 25801 25802 25803 25804 25805 25806 25807 25808 25809 25810 25811 25812 25813 25814 25815 25816 25817 25818 25819 25820 25821 25822 25823 25824 25825 25826 25827 25828 25829 25830 25831 25832 25833 25834 25835 25836 25837 25838 25839 25840 25841 25842 25843 25844 25845 25846 25847 25848 25849 25850 25851 25852 25853 25854 25855 25856 25857 25858 25859 25860 25861 25862 25863 25864 25865 25866 25867 25868 25869 25870 25871 25872 25873 25874 25875 25876 25877 25878 25879 25880 25881 25882 25883 25884 25885 25886 25887 25888 25889 25890 25891 25892 25893 25894 25895 25896 25897 25898 25899 25900 25901 25902 25903 25904 25905 25906 25907 25908 25909 25910 25911 25912 25913 25914 25915 25916 25917 25918 25919 25920 25921 25922 25923 25924 25925 25926 25927 25928 25929 25930 25931 25932 25933 25934 25935 25936 25937 25938 25939 25940 25941 25942 25943 25944 25945 25946 25947 25948 25949 25950 25951 25952 25953 25954 25955 25956 25957 25958 25959 25960 25961 25962 25963 25964 25965 25966 25967 25968 25969 25970 25971 25972 25973 25974 25975 25976 25977 25978 25979 25980 25981 25982 25983 25984 25985 25986 25987 25988 25989 25990 25991 25992 25993 25994 25995 25996 25997 25998 25999 26000 26001 26002 26003 26004 26005 26006 26007 26008 26009 26010 26011 26012 26013 26014 26015 26016 26017 26018 26019 26020 26021 26022 26023 26024 26025 26026 26027 26028 26029 26030 26031 26032 26033 26034 26035 26036 26037 26038 26039 26040 26041 26042 26043 26044 26045 26046 26047 26048 26049 26050 26051 26052 26053 26054 26055 26056 26057 26058 26059 26060 26061 26062 26063 26064 26065 26066 26067 26068 26069 26070 26071 26072 26073 26074 26075 26076 26077 26078 26079 26080 26081 26082 26083 26084 26085 26086 26087 26088 26089 26090 26091 26092 26093 26094 26095 26096 26097 26098 26099 26100 26101 26102 26103 26104 26105 26106 26107 26108 26109 26110 26111 26112 26113 26114 26115 26116 26117 26118 26119 26120 26121 26122 26123 26124 26125 26126 26127 26128 26129 26130 26131 26132 26133 26134 26135 26136 26137 26138 26139 26140 26141 26142 26143 26144 26145 26146 26147 26148 26149 26150 26151 26152 26153 26154 26155 26156 26157 26158 26159 26160 26161 26162 26163 26164 26165 26166 26167 26168 26169 26170 26171 26172 26173 26174 26175 26176 26177 26178 26179 26180 26181 26182 26183 26184 26185 26186 26187 26188 26189 26190 26191 26192 26193 26194 26195 26196 26197 26198 26199 26200 26201 26202 26203 26204 26205 26206 26207 26208 26209 26210 26211 26212 26213 26214 26215 26216 26217 26218 26219 26220 26221 26222 26223 26224 26225 26226 26227 26228 26229 26230 26231 26232 26233 26234 26235 26236 26237 26238 26239 26240 26241 26242 26243 26244 26245 26246 26247 26248 26249 26250 26251 26252 26253 26254 26255 26256 26257 26258 26259 26260 26261 26262 26263 26264 26265 26266 26267 26268 26269 26270 26271 26272 26273 26274 26275 26276 26277 26278 26279 26280 26281 26282 26283 26284 26285 26286 26287 26288 26289 26290 26291 26292 26293 26294 26295 26296 26297 26298 26299 26300 26301 26302 26303 26304 26305 26306 26307 26308 26309 26310 26311 26312 26313 26314 26315 26316 26317 26318 26319 26320 26321 26322 26323 26324 26325 26326 26327 26328 26329 26330 26331 26332 26333 26334 26335 26336 26337 26338 26339 26340 26341 26342 26343 26344 26345 26346 26347 26348 26349 26350 26351 26352 26353 26354 26355 26356 26357 26358 26359 26360 26361 26362 26363 26364 26365 26366 26367 26368 26369 26370 26371 26372 26373 26374 26375 26376 26377 26378 26379 26380 26381 26382 26383 26384 26385 26386 26387 26388 26389 26390 26391 26392 26393 26394 26395 26396 26397 26398 26399 26400 26401 26402 26403 26404 26405 26406 26407 26408 26409 26410 26411 26412 26413 26414 26415 26416 26417 26418 26419 26420 26421 26422 26423 26424 26425 26426 26427 26428 26429 26430 26431 26432 26433 26434 26435 26436 26437 26438 26439 26440 26441 26442 26443 26444 26445 26446 26447 26448 26449 26450 26451 26452 26453 26454 26455 26456 26457 26458 26459 26460 26461 26462 26463 26464 26465 26466 26467 26468 26469 26470 26471 26472 26473 26474 26475 26476 26477 26478 26479 26480 26481 26482 26483 26484 26485 26486 26487 26488 26489 26490 26491 26492 26493 26494 26495 26496 26497 26498 26499 26500 26501 26502 26503 26504 26505 26506 26507 26508 26509 26510 26511 26512 26513 26514 26515 26516 26517 26518 26519 26520 26521 26522 26523 26524 26525 26526 26527 26528 26529 26530 26531 26532 26533 26534 26535 26536 26537 26538 26539 26540 26541 26542 26543 26544 26545 26546 26547 26548 26549 26550 26551 26552 26553 26554 26555 26556 26557 26558 26559 26560 26561 26562 26563 26564 26565 26566 26567 26568 26569 26570 26571 26572 26573 26574 26575 26576 26577 26578 26579 26580 26581 26582 26583 26584 26585 26586 26587 26588 26589 26590 26591 26592 26593 26594 26595 26596 26597 26598 26599 26600 26601 26602 26603 26604 26605 26606 26607 26608 26609 26610 26611 26612 26613 26614 26615 26616 26617 26618 26619 26620 26621 26622 26623 26624 26625 26626 26627 26628 26629 26630 26631 26632 26633 26634 26635 26636 26637 26638 26639 26640 26641 26642 26643 26644 26645 26646 26647 26648 26649 26650 26651 26652 26653 26654 26655 26656 26657 26658 26659 26660 26661 26662 26663 26664 26665 26666 26667 26668 26669 26670 26671 26672 26673 26674 26675 26676 26677 26678 26679 26680 26681 26682 26683 26684 26685 26686 26687 26688 26689 26690 26691 26692 26693 26694 26695 26696 26697 26698 26699 26700 26701 26702 26703 26704 26705 26706 26707 26708 26709 26710 26711 26712 26713 26714 26715 26716 26717 26718 26719 26720 26721 26722 26723 26724 26725 26726 26727 26728 26729 26730 26731 26732 26733 26734 26735 26736 26737 26738 26739 26740 26741 26742 26743 26744 26745 26746 26747 26748 26749 26750 26751 26752 26753 26754 26755 26756 26757 26758 26759 26760 26761 26762 26763 26764 26765 26766 26767 26768 26769 26770 26771 26772 26773 26774 26775 26776 26777 26778 26779 26780 26781 26782 26783 26784 26785 26786 26787 26788 26789 26790 26791 26792 26793 26794 26795 26796 26797 26798 26799 26800 26801 26802 26803 26804 26805 26806 26807 26808 26809 26810 26811 26812 26813 26814 26815 26816 26817 26818 26819 26820 26821 26822 26823 26824 26825 26826 26827 26828 26829 26830 26831 26832 26833 26834 26835 26836 26837 26838 26839 26840 26841 26842 26843 26844 26845 26846 26847 26848 26849 26850 26851 26852 26853 26854 26855 26856 26857 26858 26859 26860 26861 26862 26863 26864 26865 26866 26867 26868 26869 26870 26871 26872 26873 26874 26875 26876 26877 26878 26879 26880 26881 26882 26883 26884 26885 26886 26887 26888 26889 26890 26891 26892 26893 26894 26895 26896 26897 26898 26899 26900 26901 26902 26903 26904 26905 26906 26907 26908 26909 26910 26911 26912 26913 26914 26915 26916 26917 26918 26919 26920 26921 26922 26923 26924 26925 26926 26927 26928 26929 26930 26931 26932 26933 26934 26935 26936 26937 26938 26939 26940 26941 26942 26943 26944 26945 26946 26947 26948 26949 26950 26951 26952 26953 26954 26955 26956 26957 26958 26959 26960 26961 26962 26963 26964 26965 26966 26967 26968 26969 26970 26971 26972 26973 26974 26975 26976 26977 26978 26979 26980 26981 26982 26983 26984 26985 26986 26987 26988 26989 26990 26991 26992 26993 26994 26995 26996 26997 26998 26999 27000 27001 27002 27003 27004 27005 27006 27007 27008 27009 27010 27011 27012 27013 27014 27015 27016 27017 27018 27019 27020 27021 27022 27023 27024 27025 27026 27027 27028 27029 27030 27031 27032 27033 27034 27035 27036 27037 27038 27039 27040 27041 27042 27043 27044 27045 27046 27047 27048 27049 27050 27051 27052 27053 27054 27055 27056 27057 27058 27059 27060 27061 27062 27063 27064 27065 27066 27067 27068 27069 27070 27071 27072 27073 27074 27075 27076 27077 27078 27079 27080 27081 27082 27083 27084 27085 27086 27087 27088 27089 27090 27091 27092 27093 27094 27095 27096 27097 27098 27099 27100 27101 27102 27103 27104 27105 27106 27107 27108 27109 27110 27111 27112 27113 27114 27115 27116 27117 27118 27119 27120 27121 27122 27123 27124 27125 27126 27127 27128 27129 27130 27131 27132 27133 27134 27135 27136 27137 27138 27139 27140 27141 27142 27143 27144 27145 27146 27147 27148 27149 27150 27151 27152 27153 27154 27155 27156 27157 27158 27159 27160 27161 27162 27163 27164 27165 27166 27167 27168 27169 27170 27171 27172 27173 27174 27175 27176 27177 27178 27179 27180 27181 27182 27183 27184 27185 27186 27187 27188 27189 27190 27191 27192 27193 27194 27195 27196 27197 27198 27199 27200 27201 27202 27203 27204 27205 27206 27207 27208 27209 27210 27211 27212 27213 27214 27215 27216 27217 27218 27219 27220 27221 27222 27223 27224 27225 27226 27227 27228 27229 27230 27231 27232 27233 27234 27235 27236 27237 27238 27239 27240 27241 27242 27243 27244 27245 27246 27247 27248 27249 27250 27251 27252 27253 27254 27255 27256 27257 27258 27259 27260 27261 27262 27263 27264 27265 27266 27267 27268 27269 27270 27271 27272 27273 27274 27275 27276 27277 27278 27279 27280 27281 27282 27283 27284 27285 27286 27287 27288 27289 27290 27291 27292 27293 27294 27295 27296 27297 27298 27299 27300 27301 27302 27303 27304 27305 27306 27307 27308 27309 27310 27311 27312 27313 27314 27315 27316 27317 27318 27319 27320 27321 27322 27323 27324 27325 27326 27327 27328 27329 27330 27331 27332 27333 27334 27335 27336 27337 27338 27339 27340 27341 27342 27343 27344 27345 27346 27347 27348 27349 27350 27351 27352 27353 27354 27355 27356 27357 27358 27359 27360 27361 27362 27363 27364 27365 27366 27367 27368 27369 27370 27371 27372 27373 27374 27375 27376 27377 27378 27379 27380 27381 27382 27383 27384 27385 27386 27387 27388 27389 27390 27391 27392 27393 27394 27395 27396 27397 27398 27399 27400 27401 27402 27403 27404 27405 27406 27407 27408 27409 27410 27411 27412 27413 27414 27415 27416 27417 27418 27419 27420 27421 27422 27423 27424 27425 27426 27427 27428 27429 27430 27431 27432 27433 27434 27435 27436 27437 27438 27439 27440 27441 27442 27443 27444 27445 27446 27447 27448 27449 27450 27451 27452 27453 27454 27455 27456 27457 27458 27459 27460 27461 27462 27463 27464 27465 27466 27467 27468 27469 27470 27471 27472 27473 27474 27475 27476 27477 27478 27479 27480 27481 27482 27483 27484 27485 27486 27487 27488 27489 27490 27491 27492 27493 27494 27495 27496 27497 27498 27499 27500 27501 27502 27503 27504 27505 27506 27507 27508 27509 27510 27511 27512 27513 27514 27515 27516 27517 27518 27519 27520 27521 27522 27523 27524 27525 27526 27527 27528 27529 27530 27531 27532 27533 27534 27535 27536 27537 27538 27539 27540 27541 27542 27543 27544 27545 27546 27547 27548 27549 27550 27551 27552 27553 27554 27555 27556 27557 27558 27559 27560 27561 27562 27563 27564 27565 27566 27567 27568 27569 27570 27571 27572 27573 27574 27575 27576 27577 27578 27579 27580 27581 27582 27583 27584 27585 27586 27587 27588 27589 27590 27591 27592 27593 27594 27595 27596 27597 27598 27599 27600 27601 27602 27603 27604 27605 27606 27607 27608 27609 27610 27611 27612 27613 27614 27615 27616 27617 27618 27619 27620 27621 27622 27623 27624 27625 27626 27627 27628 27629 27630 27631 27632 27633 27634 27635 27636 27637 27638 27639 27640 27641 27642 27643 27644 27645 27646 27647 27648 27649 27650 27651 27652 27653 27654 27655 27656 27657 27658 27659 27660 27661 27662 27663 27664 27665 27666 27667 27668 27669 27670 27671 27672 27673 27674 27675 27676 27677 27678 27679 27680 27681 27682 27683 27684 27685 27686 27687 27688 27689 27690 27691 27692 27693 27694 27695 27696 27697 27698 27699 27700 27701 27702 27703 27704 27705 27706 27707 27708 27709 27710 27711 27712 27713 27714 27715 27716 27717 27718 27719 27720 27721 27722 27723 27724 27725 27726 27727 27728 27729 27730 27731 27732 27733 27734 27735 27736 27737 27738 27739 27740 27741 27742 27743 27744 27745 27746 27747 27748 27749 27750 27751 27752 27753 27754 27755 27756 27757 27758 27759 27760 27761 27762 27763 27764 27765 27766 27767 27768 27769 27770 27771 27772 27773 27774 27775 27776 27777 27778 27779 27780 27781 27782 27783 27784 27785 27786 27787 27788 27789 27790 27791 27792 27793 27794 27795 27796 27797 27798 27799 27800 27801 27802 27803 27804 27805 27806 27807 27808 27809 27810 27811 27812 27813 27814 27815 27816 27817 27818 27819 27820 27821 27822 27823 27824 27825 27826 27827 27828 27829 27830 27831 27832 27833 27834 27835 27836 27837 27838 27839 27840 27841 27842 27843 27844 27845 27846 27847 27848 27849 27850 27851 27852 27853 27854 27855 27856 27857 27858 27859 27860 27861 27862 27863 27864 27865 27866 27867 27868 27869 27870 27871 27872 27873 27874 27875 27876 27877 27878 27879 27880 27881 27882 27883 27884 27885 27886 27887 27888 27889 27890 27891 27892 27893 27894 27895 27896 27897 27898 27899 27900 27901 27902 27903 27904 27905 27906 27907 27908 27909 27910 27911 27912 27913 27914 27915 27916 27917 27918 27919 27920 27921 27922 27923 27924 27925 27926 27927 27928 27929 27930 27931 27932 27933 27934 27935 27936 27937 27938 27939 27940 27941 27942 27943 27944 27945 27946 27947 27948 27949 27950 27951 27952 27953 27954 27955 27956 27957 27958 27959 27960 27961 27962 27963 27964 27965 27966 27967 27968 27969 27970 27971 27972 27973 27974 27975 27976 27977 27978 27979 27980 27981 27982 27983 27984 27985 27986 27987 27988 27989 27990 27991 27992 27993 27994 27995 27996 27997 27998 27999 28000 28001 28002 28003 28004 28005 28006 28007 28008 28009 28010 28011 28012 28013 28014 28015 28016 28017 28018 28019 28020 28021 28022 28023 28024 28025 28026 28027 28028 28029 28030 28031 28032 28033 28034 28035 28036 28037 28038 28039 28040 28041 28042 28043 28044 28045 28046 28047 28048 28049 28050 28051 28052 28053 28054 28055 28056 28057 28058 28059 28060 28061 28062 28063 28064 28065 28066 28067 28068 28069 28070 28071 28072 28073 28074 28075 28076 28077 28078 28079 28080 28081 28082 28083 28084 28085 28086 28087 28088 28089 28090 28091 28092 28093 28094 28095 28096 28097 28098 28099 28100 28101 28102 28103 28104 28105 28106 28107 28108 28109 28110 28111 28112 28113 28114 28115 28116 28117 28118 28119 28120 28121 28122 28123 28124 28125 28126 28127 28128 28129 28130 28131 28132 28133 28134 28135 28136 28137 28138 28139 28140 28141 28142 28143 28144 28145 28146 28147 28148 28149 28150 28151 28152 28153 28154 28155 28156 28157 28158 28159 28160 28161 28162 28163 28164 28165 28166 28167 28168 28169 28170 28171 28172 28173 28174 28175 28176 28177 28178 28179 28180 28181 28182 28183 28184 28185 28186 28187 28188 28189 28190 28191 28192 28193 28194 28195 28196 28197 28198 28199 28200 28201 28202 28203 28204 28205 28206 28207 28208 28209 28210 28211 28212 28213 28214 28215 28216 28217 28218 28219 28220 28221 28222 28223 28224 28225 28226 28227 28228 28229 28230 28231 28232 28233 28234 28235 28236 28237 28238 28239 28240 28241 28242 28243 28244 28245 28246 28247 28248 28249 28250 28251 28252 28253 28254 28255 28256 28257 28258 28259 28260 28261 28262 28263 28264 28265 28266 28267 28268 28269 28270 28271 28272 28273 28274 28275 28276 28277 28278 28279 28280 28281 28282 28283 28284 28285 28286 28287 28288 28289 28290 28291 28292 28293 28294 28295 28296 28297 28298 28299 28300 28301 28302 28303 28304 28305 28306 28307 28308 28309 28310 28311 28312 28313 28314 28315 28316 28317 28318 28319 28320 28321 28322 28323 28324 28325 28326 28327 28328 28329 28330 28331 28332 28333 28334 28335 28336 28337 28338 28339 28340 28341 28342 28343 28344 28345 28346 28347 28348 28349 28350 28351 28352 28353 28354 28355 28356 28357 28358 28359 28360 28361 28362 28363 28364 28365 28366 28367 28368 28369 28370 28371 28372 28373 28374 28375 28376 28377 28378 28379 28380 28381 28382 28383 28384 28385 28386 28387 28388 28389 28390 28391 28392 28393 28394 28395 28396 28397 28398 28399 28400 28401 28402 28403 28404 28405 28406 28407 28408 28409 28410 28411 28412 28413 28414 28415 28416 28417 28418 28419 28420 28421 28422 28423 28424 28425 28426 28427 28428 28429 28430 28431 28432 28433 28434 28435 28436 28437 28438 28439 28440 28441 28442 28443 28444 28445 28446 28447 28448 28449 28450 28451 28452 28453 28454 28455 28456 28457 28458 28459 28460 28461 28462 28463 28464 28465 28466 28467 28468 28469 28470 28471 28472 28473 28474 28475 28476 28477 28478 28479 28480 28481 28482 28483 28484 28485 28486 28487 28488 28489 28490 28491 28492 28493 28494 28495 28496 28497 28498 28499 28500 28501 28502 28503 28504 28505 28506 28507 28508 28509 28510 28511 28512 28513 28514 28515 28516 28517 28518 28519 28520 28521 28522 28523 28524 28525 28526 28527 28528 28529 28530 28531 28532 28533 28534 28535 28536 28537 28538 28539 28540 28541 28542 28543 28544 28545 28546 28547 28548 28549 28550 28551 28552 28553 28554 28555 28556 28557 28558 28559 28560 28561 28562 28563 28564 28565 28566 28567 28568 28569 28570 28571 28572 28573 28574 28575 28576 28577 28578 28579 28580 28581 28582 28583 28584 28585 28586 28587 28588 28589 28590 28591 28592 28593 28594 28595 28596 28597 28598 28599 28600 28601 28602 28603 28604 28605 28606 28607 28608 28609 28610 28611 28612 28613 28614 28615 28616 28617 28618 28619 28620 28621 28622 28623 28624 28625 28626 28627 28628 28629 28630 28631 28632 28633 28634 28635 28636 28637 28638 28639 28640 28641 28642 28643 28644 28645 28646 28647 28648 28649 28650 28651 28652 28653 28654 28655 28656 28657 28658 28659 28660 28661 28662 28663 28664 28665 28666 28667 28668 28669 28670 28671 28672 28673 28674 28675 28676 28677 28678 28679 28680 28681 28682 28683 28684 28685 28686 28687 28688 28689 28690 28691 28692 28693 28694 28695 28696 28697 28698 28699 28700 28701 28702 28703 28704 28705 28706 28707 28708 28709 28710 28711 28712 28713 28714 28715 28716 28717 28718 28719 28720 28721 28722 28723 28724 28725 28726 28727 28728 28729 28730 28731 28732 28733 28734 28735 28736 28737 28738 28739 28740 28741 28742 28743 28744 28745 28746 28747 28748 28749 28750 28751 28752 28753 28754 28755 28756 28757 28758 28759 28760 28761 28762 28763 28764 28765 28766 28767 28768 28769 28770 28771 28772 28773 28774 28775 28776 28777 28778 28779 28780 28781 28782 28783 28784 28785 28786 28787 28788 28789 28790 28791 28792 28793 28794 28795 28796 28797 28798 28799 28800 28801 28802 28803 28804 28805 28806 28807 28808 28809 28810 28811 28812 28813 28814 28815 28816 28817 28818 28819 28820 28821 28822 28823 28824 28825 28826 28827 28828 28829 28830 28831 28832 28833 28834 28835 28836 28837 28838 28839 28840 28841 28842 28843 28844 28845 28846 28847 28848 28849 28850 28851 28852 28853 28854 28855 28856 28857 28858 28859 28860 28861 28862 28863 28864 28865 28866 28867 28868 28869 28870 28871 28872 28873 28874 28875 28876 28877 28878 28879 28880 28881 28882 28883 28884 28885 28886 28887 28888 28889 28890 28891 28892 28893 28894 28895 28896 28897 28898 28899 28900 28901 28902 28903 28904 28905 28906 28907 28908 28909 28910 28911 28912 28913 28914 28915 28916 28917 28918 28919 28920 28921 28922 28923 28924 28925 28926 28927 28928 28929 28930 28931 28932 28933 28934 28935 28936 28937 28938 28939 28940 28941 28942 28943 28944 28945 28946 28947 28948 28949 28950 28951 28952 28953 28954 28955 28956 28957 28958 28959 28960 28961 28962 28963 28964 28965 28966 28967 28968 28969 28970 28971 28972 28973 28974 28975 28976 28977 28978 28979 28980 28981 28982 28983 28984 28985 28986 28987 28988 28989 28990 28991 28992 28993 28994 28995 28996 28997 28998 28999 29000 29001 29002 29003 29004 29005 29006 29007 29008 29009 29010 29011 29012 29013 29014 29015 29016 29017 29018 29019 29020 29021 29022 29023 29024 29025 29026 29027 29028 29029 29030 29031 29032 29033 29034 29035 29036 29037 29038 29039 29040 29041 29042 29043 29044 29045 29046 29047 29048 29049 29050 29051 29052 29053 29054 29055 29056 29057 29058 29059 29060 29061 29062 29063 29064 29065 29066 29067 29068 29069 29070 29071 29072 29073 29074 29075 29076 29077 29078 29079 29080 29081 29082 29083 29084 29085 29086 29087 29088 29089 29090 29091 29092 29093 29094 29095 29096 29097 29098 29099 29100 29101 29102 29103 29104 29105 29106 29107 29108 29109 29110 29111 29112 29113 29114 29115 29116 29117 29118 29119 29120 29121 29122 29123 29124 29125 29126 29127 29128 29129 29130 29131 29132 29133 29134 29135 29136 29137 29138 29139 29140 29141 29142 29143 29144 29145 29146 29147 29148 29149 29150 29151 29152 29153 29154 29155 29156 29157 29158 29159 29160 29161 29162 29163 29164 29165 29166 29167 29168 29169 29170 29171 29172 29173 29174 29175 29176 29177 29178 29179 29180 29181 29182 29183 29184 29185 29186 29187 29188 29189 29190 29191 29192 29193 29194 29195 29196 29197 29198 29199 29200 29201 29202 29203 29204 29205 29206 29207 29208 29209 29210 29211 29212 29213 29214 29215 29216 29217 29218 29219 29220 29221 29222 29223 29224 29225 29226 29227 29228 29229 29230 29231 29232 29233 29234 29235 29236 29237 29238 29239 29240 29241 29242 29243 29244 29245 29246 29247 29248 29249 29250 29251 29252 29253 29254 29255 29256 29257 29258 29259 29260 29261 29262 29263 29264 29265 29266 29267 29268 29269 29270 29271 29272 29273 29274 29275 29276 29277 29278 29279 29280 29281 29282 29283 29284 29285 29286 29287 29288 29289 29290 29291 29292 29293 29294 29295 29296 29297 29298 29299 29300 29301 29302 29303 29304 29305 29306 29307 29308 29309 29310 29311 29312 29313 29314 29315 29316 29317 29318 29319 29320 29321 29322 29323 29324 29325 29326 29327 29328 29329 29330 29331 29332 29333 29334 29335 29336 29337 29338 29339 29340 29341 29342 29343 29344 29345 29346 29347 29348 29349 29350 29351 29352 29353 29354 29355 29356 29357 29358 29359 29360 29361 29362 29363 29364 29365 29366 29367 29368 29369 29370 29371 29372 29373 29374 29375 29376 29377 29378 29379 29380 29381 29382 29383 29384 29385 29386 29387 29388 29389 29390 29391 29392 29393 29394 29395 29396 29397 29398 29399 29400 29401 29402 29403 29404 29405 29406 29407 29408 29409 29410 29411 29412 29413 29414 29415 29416 29417 29418 29419 29420 29421 29422 29423 29424 29425 29426 29427 29428 29429 29430 29431 29432 29433 29434 29435 29436 29437 29438 29439 29440 29441 29442 29443 29444 29445 29446 29447 29448 29449 29450 29451 29452 29453 29454 29455 29456 29457 29458 29459 29460 29461 29462 29463 29464 29465 29466 29467 29468 29469 29470 29471 29472 29473 29474 29475 29476 29477 29478 29479 29480 29481 29482 29483 29484 29485 29486 29487 29488 29489 29490 29491 29492 29493 29494 29495 29496 29497 29498 29499 29500 29501 29502 29503 29504 29505 29506 29507 29508 29509 29510 29511 29512 29513 29514 29515 29516 29517 29518 29519 29520 29521 29522 29523 29524 29525 29526 29527 29528 29529 29530 29531 29532 29533 29534 29535 29536 29537 29538 29539 29540 29541 29542 29543 29544 29545 29546 29547 29548 29549 29550 29551 29552 29553 29554 29555 29556 29557 29558 29559 29560 29561 29562 29563 29564 29565 29566 29567 29568 29569 29570 29571 29572 29573 29574 29575 29576 29577 29578 29579 29580 29581 29582 29583 29584 29585 29586 29587 29588 29589 29590 29591 29592 29593 29594 29595 29596 29597 29598 29599 29600 29601 29602 29603 29604 29605 29606 29607 29608 29609 29610 29611 29612 29613 29614 29615 29616 29617 29618 29619 29620 29621 29622 29623 29624 29625 29626 29627 29628 29629 29630 29631 29632 29633 29634 29635 29636 29637 29638 29639 29640 29641 29642 29643 29644 29645 29646 29647 29648 29649 29650 29651 29652 29653 29654 29655 29656 29657 29658 29659 29660 29661 29662 29663 29664 29665 29666 29667 29668 29669 29670 29671 29672 29673 29674 29675 29676 29677 29678 29679 29680 29681 29682 29683 29684 29685 29686 29687 29688 29689 29690 29691 29692 29693 29694 29695 29696 29697 29698 29699 29700 29701 29702 29703 29704 29705 29706 29707 29708 29709 29710 29711 29712 29713 29714 29715 29716 29717 29718 29719 29720 29721 29722 29723 29724 29725 29726 29727 29728 29729 29730 29731 29732 29733 29734 29735 29736 29737 29738 29739 29740 29741 29742 29743 29744 29745 29746 29747 29748 29749 29750 29751 29752 29753 29754 29755 29756 29757 29758 29759 29760 29761 29762 29763 29764 29765 29766 29767 29768 29769 29770 29771 29772 29773 29774 29775 29776 29777 29778 29779 29780 29781 29782 29783 29784 29785 29786 29787 29788 29789 29790 29791 29792 29793 29794 29795 29796 29797 29798 29799 29800 29801 29802 29803 29804 29805 29806 29807 29808 29809 29810 29811 29812 29813 29814 29815 29816 29817 29818 29819 29820 29821 29822 29823 29824 29825 29826 29827 29828 29829 29830 29831 29832 29833 29834 29835 29836 29837 29838 29839 29840 29841 29842 29843 29844 29845 29846 29847 29848 29849 29850 29851 29852 29853 29854 29855 29856 29857 29858 29859 29860 29861 29862 29863 29864 29865 29866 29867 29868 29869 29870 29871 29872 29873 29874 29875 29876 29877 29878 29879 29880 29881 29882 29883 29884 29885 29886 29887 29888 29889 29890 29891 29892 29893 29894 29895 29896 29897 29898 29899 29900 29901 29902 29903 29904 29905 29906 29907 29908 29909 29910 29911 29912 29913 29914 29915 29916 29917 29918 29919 29920 29921 29922 29923 29924 29925 29926 29927 29928 29929 29930 29931 29932 29933 29934 29935 29936 29937 29938 29939 29940 29941 29942 29943 29944 29945 29946 29947 29948 29949 29950 29951 29952 29953 29954 29955 29956 29957 29958 29959 29960 29961 29962 29963 29964 29965 29966 29967 29968 29969 29970 29971 29972 29973 29974 29975 29976 29977 29978 29979 29980 29981 29982 29983 29984 29985 29986 29987 29988 29989 29990 29991 29992 29993 29994 29995 29996 29997 29998 29999 30000 30001 30002 30003 30004 30005 30006 30007 30008 30009 30010 30011 30012 30013 30014 30015 30016 30017 30018 30019 30020 30021 30022 30023 30024 30025 30026 30027 30028 30029 30030 30031 30032 30033 30034 30035 30036 30037 30038 30039 30040 30041 30042 30043 30044 30045 30046 30047 30048 30049 30050 30051 30052 30053 30054 30055 30056 30057 30058 30059 30060 30061 30062 30063 30064 30065 30066 30067 30068 30069 30070 30071 30072 30073 30074 30075 30076 30077 30078 30079 30080 30081 30082 30083 30084 30085 30086 30087 30088 30089 30090 30091 30092 30093 30094 30095 30096 30097 30098 30099 30100 30101 30102 30103 30104 30105 30106 30107 30108 30109 30110 30111 30112 30113 30114 30115 30116 30117 30118 30119 30120 30121 30122 30123 30124 30125 30126 30127 30128 30129 30130 30131 30132 30133 30134 30135 30136 30137 30138 30139 30140 30141 30142 30143 30144 30145 30146 30147 30148 30149 30150 30151 30152 30153 30154 30155 30156 30157 30158 30159 30160 30161 30162 30163 30164 30165 30166 30167 30168 30169 30170 30171 30172 30173 30174 30175 30176 30177 30178 30179 30180 30181 30182 30183 30184 30185 30186 30187 30188 30189 30190 30191 30192 30193 30194 30195 30196 30197 30198 30199 30200 30201 30202 30203 30204 30205 30206 30207 30208 30209 30210 30211 30212 30213 30214 30215 30216 30217 30218 30219 30220 30221 30222 30223 30224 30225 30226 30227 30228 30229 30230 30231 30232 30233 30234 30235 30236 30237 30238 30239 30240 30241 30242 30243 30244 30245 30246 30247 30248 30249 30250 30251 30252 30253 30254 30255 30256 30257 30258 30259 30260 30261 30262 30263 30264 30265 30266 30267 30268 30269 30270 30271 30272 30273 30274 30275 30276 30277 30278 30279 30280 30281 30282 30283 30284 30285 30286 30287 30288 30289 30290 30291 30292 30293 30294 30295 30296 30297 30298 30299 30300 30301 30302 30303 30304 30305 30306 30307 30308 30309 30310 30311 30312 30313 30314 30315 30316 30317 30318 30319 30320 30321 30322 30323 30324 30325 30326 30327 30328 30329 30330 30331 30332 30333 30334 30335 30336 30337 30338 30339 30340 30341 30342 30343 30344 30345 30346 30347 30348 30349 30350 30351 30352 30353 30354 30355 30356 30357 30358 30359 30360 30361 30362 30363 30364 30365 30366 30367 30368 30369 30370 30371 30372 30373 30374 30375 30376 30377 30378 30379 30380 30381 30382 30383 30384 30385 30386 30387 30388 30389 30390 30391 30392 30393 30394 30395 30396 30397 30398 30399 30400 30401 30402 30403 30404 30405 30406 30407 30408 30409 30410 30411 30412 30413 30414 30415 30416 30417 30418 30419 30420 30421 30422 30423 30424 30425 30426 30427 30428 30429 30430 30431 30432 30433 30434 30435 30436 30437 30438 30439 30440 30441 30442 30443 30444 30445 30446 30447 30448 30449 30450 30451 30452 30453 30454 30455 30456 30457 30458 30459 30460 30461 30462 30463 30464 30465 30466 30467 30468 30469 30470 30471 30472 30473 30474 30475 30476 30477 30478 30479 30480 30481 30482 30483 30484 30485 30486 30487 30488 30489 30490 30491 30492 30493 30494 30495 30496 30497 30498 30499 30500 30501 30502 30503 30504 30505 30506 30507 30508 30509 30510 30511 30512 30513 30514 30515 30516 30517 30518 30519 30520 30521 30522 30523 30524 30525 30526 30527 30528 30529 30530 30531 30532 30533 30534 30535 30536 30537 30538 30539 30540 30541 30542 30543 30544 30545 30546 30547 30548 30549 30550 30551 30552 30553 30554 30555 30556 30557 30558 30559 30560 30561 30562 30563 30564 30565 30566 30567 30568 30569 30570 30571 30572 30573 30574 30575 30576 30577 30578 30579 30580 30581 30582 30583 30584 30585 30586 30587 30588 30589 30590 30591 30592 30593 30594 30595 30596 30597 30598 30599 30600 30601 30602 30603 30604 30605 30606 30607 30608 30609 30610 30611 30612 30613 30614 30615 30616 30617 30618 30619 30620 30621 30622 30623 30624 30625 30626 30627 30628 30629 30630 30631 30632 30633 30634 30635 30636 30637 30638 30639 30640 30641 30642 30643 30644 30645 30646 30647 30648 30649 30650 30651 30652 30653 30654 30655 30656 30657 30658 30659 30660 30661 30662 30663 30664 30665 30666 30667 30668 30669 30670 30671 30672 30673 30674 30675 30676 30677 30678 30679 30680 30681 30682 30683 30684 30685 30686 30687 30688 30689 30690 30691 30692 30693 30694 30695 30696 30697 30698 30699 30700 30701 30702 30703 30704 30705 30706 30707 30708 30709 30710 30711 30712 30713 30714 30715 30716 30717 30718 30719 30720 30721 30722 30723 30724 30725 30726 30727 30728 30729 30730 30731 30732 30733 30734 30735 30736 30737 30738 30739 30740 30741 30742 30743 30744 30745 30746 30747 30748 30749 30750 30751 30752 30753 30754 30755 30756 30757 30758 30759 30760 30761 30762 30763 30764 30765 30766 30767 30768 30769 30770 30771 30772 30773 30774 30775 30776 30777 30778 30779 30780 30781 30782 30783 30784 30785 30786 30787 30788 30789 30790 30791 30792 30793 30794 30795 30796 30797 30798 30799 30800 30801 30802 30803 30804 30805 30806 30807 30808 30809 30810 30811 30812 30813 30814 30815 30816 30817 30818 30819 30820 30821 30822 30823 30824 30825 30826 30827 30828 30829 30830 30831 30832 30833 30834 30835 30836 30837 30838 30839 30840 30841 30842 30843 30844 30845 30846 30847 30848 30849 30850 30851 30852 30853 30854 30855 30856 30857 30858 30859 30860 30861 30862 30863 30864 30865 30866 30867 30868 30869 30870 30871 30872 30873 30874 30875 30876 30877 30878 30879 30880 30881 30882 30883 30884 30885 30886 30887 30888 30889 30890 30891 30892 30893 30894 30895 30896 30897 30898 30899 30900 30901 30902 30903 30904 30905 30906 30907 30908 30909 30910 30911 30912 30913 30914 30915 30916 30917 30918 30919 30920 30921 30922 30923 30924 30925 30926 30927 30928 30929 30930 30931 30932 30933 30934 30935 30936 30937 30938 30939 30940 30941 30942 30943 30944 30945 30946 30947 30948 30949 30950 30951 30952 30953 30954 30955 30956 30957 30958 30959 30960 30961 30962 30963 30964 30965 30966 30967 30968 30969 30970 30971 30972 30973 30974 30975 30976 30977 30978 30979 30980 30981 30982 30983 30984 30985 30986 30987 30988 30989 30990 30991 30992 30993 30994 30995 30996 30997 30998 30999 31000 31001 31002 31003 31004 31005 31006 31007 31008 31009 31010 31011 31012 31013 31014 31015 31016 31017 31018 31019 31020 31021 31022 31023 31024 31025 31026 31027 31028 31029 31030 31031 31032 31033 31034 31035 31036 31037 31038 31039 31040 31041 31042 31043 31044 31045 31046 31047 31048 31049 31050 31051 31052 31053 31054 31055 31056 31057 31058 31059 31060 31061 31062 31063 31064 31065 31066 31067 31068 31069 31070 31071 31072 31073 31074 31075 31076 31077 31078 31079 31080 31081 31082 31083 31084 31085 31086 31087 31088 31089 31090 31091 31092 31093 31094 31095 31096 31097 31098 31099 31100 31101 31102 31103 31104 31105 31106 31107 31108 31109 31110 31111 31112 31113 31114 31115 31116 31117 31118 31119 31120 31121 31122 31123 31124 31125 31126 31127 31128 31129 31130 31131 31132 31133 31134 31135 31136 31137 31138 31139 31140 31141 31142 31143 31144 31145 31146 31147 31148 31149 31150 31151 31152 31153 31154 31155 31156 31157 31158 31159 31160 31161 31162 31163 31164 31165 31166 31167 31168 31169 31170 31171 31172 31173 31174 31175 31176 31177 31178 31179 31180 31181 31182 31183 31184 31185 31186 31187 31188 31189 31190 31191 31192 31193 31194 31195 31196 31197 31198 31199 31200 31201 31202 31203 31204 31205 31206 31207 31208 31209 31210 31211 31212 31213 31214 31215 31216 31217 31218 31219 31220 31221 31222 31223 31224 31225 31226 31227 31228 31229 31230 31231 31232 31233 31234 31235 31236 31237 31238 31239 31240 31241 31242 31243 31244 31245 31246 31247 31248 31249 31250 31251 31252 31253 31254 31255 31256 31257 31258 31259 31260 31261 31262 31263 31264 31265 31266 31267 31268 31269 31270 31271 31272 31273 31274 31275 31276 31277 31278 31279 31280 31281 31282 31283 31284 31285 31286 31287 31288 31289 31290 31291 31292 31293 31294 31295 31296 31297 31298 31299 31300 31301 31302 31303 31304 31305 31306 31307 31308 31309 31310 31311 31312 31313 31314 31315 31316 31317 31318 31319 31320 31321 31322 31323 31324 31325 31326 31327 31328 31329 31330 31331 31332 31333 31334 31335 31336 31337 31338 31339 31340 31341 31342 31343 31344 31345 31346 31347 31348 31349 31350 31351 31352 31353 31354 
</DataArray>
<DataArray type="UInt32" Name="offsets" format="ascii">
3 6 9 12 15 18 21 24 27 30 33 36 39 42 45 47 50 53 56 59 62 65 68 71 73 76 79 82 85 87 90 93 96 99 102 104 107 110 113 116 119 122 124 127 130 133 136 139 141 144 147 150 153 156 159 162 165 167 170 173 175 178 181 184 187 190 192 195 198 200 202 205 208 210 213 215 218 221 224 227 230 233 235 238 241 244 247 250 253 256 259 262 264 267 270 273 276 279 282 285 288 291 294 296 299 302 304 307 310 313 315 318 321 324 327 330 333 336 339 342 345 348 350 353 356 358 361 363 366 369 372 374 377 380 382 385 387 390 393 396 398 401 404 407 409 412 415 418 420 423 425 427 430 433 436 438 440 443 446 449 452 455 458 461 464 467 470 473 476 479 482 485 488 491 494 497 500 503 506 509 512 515 518 521 524 527 530 533 536 539 542 545 548 551 553 556 559 562 565 568 571 574 577 580 583 586 589 592 595 598 601 604 607 610 613 616 619 622 625 628 631 634 637 640 643 645 648 651 654 657 660 663 666 669 671 673 676 679 682 685 688 690 693 696 699 702 705 708 711 714 717 720 723 726 728 731 734 737 740 742 745 748 750 752 755 757 760 763 766 768 771 773 776 779 782 785 787 790 793 796 799 801 804 807 810 813 816 819 822 825 828 831 834 837 840 843 846 849 852 855 858 861 864 867 870 873 876 879 882 885 888 891 894 896 899 902 905 908 911 914 917 920 923 926 929 932 935 938 941 944 947 950 953 956 958 961 964 967 970 973 976 979 981 984 987 989 992 995 998 1001 1004 1007 1009 1012 1015 1018 1021 1024 1027 1030 1033 1036 1039 1042 1045 1048 1051 1054 1056 1059 1062 1065 1068 1070 1073 1076 1078 1081 1083 1086 1089 1092 1095 1098 1101 1104 1106 1109 1112 1115 1118 1120 1123 1126 1129 1132 1135 1138 1141 1144 1147 1150 1153 1156 1158 1161 1164 1167 1170 1173 1176 1179 1182 1185 1188 1191 1194 1197 1200 1203 1206 1209 1212 1215 1218 1221 1224 1227 1230 1233 1236 1239 1242 1245 1248 1251 1254 1256 1259 1262 1264 1267 1270 1273 1276 1279 1282 1285 1288 1290 1293 1296 1299 1302 1305 1308 1311 1314 1317 1320 1322 1325 1328 1331 1333 1335 1338 1341 1344 1346 1349 1352 1355 1358 1361 1364 1367 1370 1373 1376 1378 1381 1384 1386 1389 1392 1394 1397 1400 1403 1406 1409 1412 1415 1418 1421 1424 1427 1430 1432 1435 1438 1441 1444 1447 1450 1452 1455 1458 1460 1463 1466 1469 1472 1475 1478 1480 1483 1486 1489 1492 1494 1496 1499 1502 1505 1507 1510 1512 1515 1518 1521 1524 1527 1530 1533 1535 1538 1541 1544 1547 1550 1553 1556 1559 1562 1565 1568 1571 1574 1577 1580 1582 1584 1587 1590 1593 1596 1599 1602 1605 1608 1611 1614 1617 1619 1622 1625 1628 1631 1634 1637 1640 1643 1646 1649 1652 1655 1658 1661 1664 1667 1670 1673 1676 1679 1682 1685 1687 1690 1692 1695 1698 1701 1703 1706 1709 1712 1715 1718 1721 1723 1726 1729 1732 1735 1738 1741 1744 1747 1750 1753 1756 1759 1762 1765 1768 1771 1774 1777 1780 1783 1786 1789 1792 1795 1798 1801 1804 1807 1810 1813 1816 1819 1822 1825 1828 1831 1833 1836 1839 1841 1844 1847 1850 1853 1856 1859 1862 1865 1867 1870 1873 1876 1879 1882 1885 1888 1891 1894 1897 1900 1903 1906 1909 1912 1915 1918 1921 1924 1927 1930 1932 1935 1938 1940 1943 1946 1949 1951 1954 1957 1959 1962 1965 1968 1971 1973 1976 1978 1981 1984 1987 1990 1992 1995 1998 2001 2004 2006 2008 2011 2014 2017 2019 2022 2024 2027 2030 2033 2036 2039 2042 2045 2048 2051 2053 2055 2058 2060 2063 2066 2069 2072 2075 2078 2081 2084 2087 2090 2093 2096 2099 2102 2105 2108 2111 2114 2117 2120 2123 2126 2129 2131 2134 2137 2139 2142 2145 2148 2151 2154 2157 2160 2163 2166 2169 2171 2174 2177 2180 2183 2186 2189 2191 2194 2197 2200 2202 2205 2208 2211 2214 2217 2220 2223 2226 2229 2232 2235 2238 2241 2244 2247 2250 2252 2255 2258 2260 2263 2266 2269 2271 2274 2277 2279 2281 2284 2287 2290 2293 2296 2298 2301 2304 2307 2310 2313 2316 2319 2322 2324 2327 2330 2333 2336 2339 2342 2345 2348 2350 2353 2355 2358 2361 2364 2366 2369 2371 2374 2377 2380 2383 2386 2388 2391 2393 2396 2399 2402 2405 2408 2410 2413 2416 2418 2421 2424 2427 2430 2432 2434 2437 2440 2443 2445 2448 2451 2454 2457 2459 2462 2465 2467 2470 2473 2476 2479 2482 2485 2488 2491 2494 2497 2500 2503 2506 2509 2511 2514 2517 2520 2523 2525 2528 2531 2534 2536 2539 2541 2543 2546 2549 2552 2555 2558 2561 2564 2566 2568 2571 2574 2577 2580 2582 2585 2587 2590 2593 2595 2598 2601 2603 2606 2609 2612 2615 2618 2621 2624 2627 2630 2632 2634 2637 2640 2643 2645 2647 2650 2653 2656 2659 2661 2664 2666 2669 2672 2674 2677 2680 2683 2686 2688 2691 2694 2697 2700 2702 2704 2707 2710 2713 2716 2719 2722 2725 2727 2729 2732 2735 2737 2740 2743 2746 2749 2752 2755 2758 2760 2763 2766 2768 2771 2774 2776 2778 2781 2784 2787 2790 2792 2795 2798 2801 2804 2807 2809 2812 2815 2818 2821 2824 2827 2830 2833 2836 2839 2842 2845 2848 2851 2854 2857 2859 2862 2865 2868 2871 2873 2876 2878 2881 2883 2886 2889 2892 2895 2898 2900 2903 2906 2909 2912 2915 2918 2921 2923 2926 2929 2932 2935 2938 2941 2944 2947 2950 2953 2956 2959 2961 2964 2966 2969 2972 2974 2977 2980 2983 2986 2989 2992 2994 2997 2999 3002 3005 3008 3011 3014 3017 3019 3022 3025 3028 3030 3033 3036 3039 3042 3045 3047 3050 3053 3056 3058 3061 3063 3065 3068 3071 3073 3076 3079 3082 3085 3088 3091 3094 3096 3099 3101 3104 3107 3110 3113 3116 3119 3122 3125 3128 3130 3133 3136 3138 3140 3143 3146 3149 3152 3155 3157 3160 3162 3165 3168 3171 3174 3176 3179 3181 3184 3186 3189 3192 3195 3198 3201 3204 3207 3210 3213 3216 3219 3221 3224 3227 3230 3233 3236 3239 3241 3244 3247 3250 3253 3256 3259 3262 3265 3267 3270 3273 3275 3278 3280 3283 3286 3289 3292 3294 3297 3300 3303 3306 3309 3312 3315 3318 3321 3324 3327 3330 3332 3334 3337 3340 3343 3345 3347 3350 3352 3354 3356 3358 3361 3364 3367 3370 3373 3376 3378 3381 3384 3387 3390 3393 3396 3399 3402 3405 3408 3410 3412 3415 3418 3421 3424 3427 3430 3433 3436 3439 3442 3445 3448 3451 3454 3457 3460 3462 3465 3467 3470 3473 3476 3479 3482 3484 3487 3489 3492 3495 3498 3501 3504 3507 3509 3512 3515 3518 3521 3524 3527 3530 3533 3536 3539 3542 3545 3548 3551 3554 3557 3560 3563 3566 3569 3572 3574 3577 3580 3583 3586 3589 3592 3595 3598 3601 3604 3606 3609 3612 3614 3617 3620 3623 3626 3629 3632 3635 3637 3639 3641 3644 3647 3649 3652 3655 3658 3661 3664 3667 3670 3673 3676 3679 3682 3685 3688 3691 3694 3697 3700 3702 3705 3708 3710 3713 3716 3719 3722 3724 3726 3728 3730 3733 3735 3738 3740 3743 3746 3749 3752 3755 3758 3761 3764 3766 3769 3772 3774 3777 3780 3783 3786 3789 3792 3795 3797 3800 3803 3806 3808 3811 3813 3816 3819 3822 3825 3827 3830 3833 3835 3838 3841 3844 3847 3850 3853 3856 3859 3862 3865 3868 3871 3874 3877 3880 3883 3886 3889 3892 3895 3898 3901 3903 3906 3909 3912 3914 3917 3920 3923 3926 3929 3932 3935 3937 3940 3943 3946 3948 3951 3954 3957 3960 3963 3966 3969 3972 3975 3977 3980 3983 3986 3989 3992 3994 3997 4000 4003 4005 4007 4010 4013 4016 4019 4022 4025 4028 4030 4033 4036 4039 4042 4044 4047 4050 4052 4055 4058 4061 4064 4067 4070 4072 4075 4078 4081 4084 4087 4090 4093 4096 4099 4102 4105 4108 4111 4114 4117 4120 4123 4126 4129 4132 4135 4138 4141 4144 4147 4150 4153 4156 4159 4162 4165 4167 4170 4173 4176 4179 4182 4185 4188 4190 4193 4195 4198 4201 4204 4206 4209 4212 4215 4218 4221 4223 4226 4229 4232 4235 4238 4241 4244 4247 4250 4253 4256 4259 4262 4265 4268 4271 4274 4277 4280 4283 4286 4289 4291 4294 4297 4300 4302 4305 4308 4311 4313 4316 4319 4322 4325 4328 4331 4334 4337 4340 4342 4345 4348 4351 4354 4357 4360 4362 4365 4368 4370 4373 4376 4379 4382 4385 4388 4391 4394 4397 4399 4402 4405 4408 4411 4414 4417 4420 4423 4426 4429 4431 4434 4437 4440 4443 4446 4449 4452 4455 4458 4461 4464 4467 4470 4473 4475 4478 4481 4483 4486 4489 4492 4495 4498 4500 4503 4506 4509 4512 4515 4518 4521 4524 4527 4529 4532 4535 4538 4541 4544 4547 4550 4552 4555 4558 4561 4563 4566 4569 4572 4575 4578 4581 4584 4587 4590 4593 4596 4599 4602 4605 4608 4611 4614 4617 4620 4623 4626 4629 4632 4635 4638 4641 4644 4646 4649 4652 4655 4658 4661 4664 4667 4670 4673 4676 4679 4682 4685 4688 4691 4694 4697 4700 4703 4705 4708 4711 4714 4717 4720 4723 4726 4729 4732 4735 4738 4741 4744 4747 4750 4753 4756 4759 4762 4765 4767 4770 4773 4776 4779 4782 4785 4788 4791 4793 4796 4799 4802 4805 4808 4811 4814 4817 4820 4823 4825 4828 4830 4833 4836 4839 4842 4844 4847 4850 4853 4856 4859 4862 4865 4868 4871 4874 4877 4880 4883 4886 4889 4892 4895 4898 4901 4904 4907 4910 4913 4916 4919 4922 4925 4927 4930 4933 4935 4938 4941 4944 4947 4950 4953 4955 4958 4961 4964 4966 4969 4972 4975 4978 4981 4983 4986 4989 4992 4994 4997 5000 5003 5006 5008 5011 5014 5017 5020 5023 5025 5028 5031 5034 5037 5040 5043 5046 5049 5052 5055 5057 5060 5062 5065 5068 5070 5073 5075 5078 5081 5084 5087 5090 5093 5095 5098 5101 5104 5107 5110 5113 5116 5119 5121 5124 5127 5130 5132 5135 5137 5140 5143 5146 5149 5152 5155 5158 5161 5164 5167 5169 5172 5175 5178 5181 5184 5187 5190 5193 5196 5199 5202 5205 5208 5211 5214 5217 5220 5223 5226 5229 5232 5235 5238 5241 5244 5247 5250 5253 5256 5259 5262 5265 5268 5271 5274 5277 5280 5283 5286 5289 5292 5295 5298 5301 5304 5307 5310 5313 5316 5319 5322 5325 5328 5331 5334 5337 5340 5343 5346 5349 5351 5354 5357 5360 5363 5366 5369 5372 5374 5377 5380 5383 5385 5388 5390 5393 5396 5399 5402 5405 5408 5411 5414 5417 5419 5422 5425 5428 5431 5434 5437 5440 5443 5446 5449 5452 5455 5458 5461 5464 5467 5470 5473 5476 5479 5482 5485 5488 5491 5494 5497 5500 5503 5506 5509 5512 5515 5518 5521 5524 5527 5530 5533 5536 5539 5542 5545 5548 5551 5554 5557 5560 5563 5566 5569 5572 5575 5578 5581 5584 5587 5589 5592 5595 5598 5601 5604 5607 5610 5613 5616 5619 5622 5625 5628 5630 5633 5636 5639 5642 5645 5648 5651 5654 5657 5660 5663 5666 5669 5672 5674 5677 5680 5683 5686 5689 5691 5694 5697 5700 5703 5706 5709 5712 5715 5718 5721 5724 5727 5730 5733 5736 5739 5742 5745 5748 5751 5754 5757 5760 5763 5766 5769 5772 5775 5777 5780 5782 5785 5788 5791 5794 5797 5799 5802 5805 5807 5810 5813 5816 5819 5822 5825 5828 5831 5834 5837 5840 5843 5846 5848 5851 5854 5857 5860 5863 5865 5868 5871 5874 5877 5880 5883 5886 5889 5892 5895 5898 5901 5904 5907 5910 5913 5916 5919 5922 5925 5927 5930 5933 5936 5939 5942 5944 5947 5950 5953 5956 5959 5962 5964 5967 5970 5973 5976 5979 5982 5985 5988 5991 5994 5997 6000 6003 6006 6009 6011 6014 6017 6019 6022 6025 6028 6031 6034 6037 6040 6043 6046 6049 6052 6055 6058 6061 6064 6067 6070 6073 6076 6079 6082 6084 6087 6090 6093 6095 6098 6101 6104 6107 6110 6113 6116 6119 6122 6125 6128 6131 6134 6137 6140 6143 6146 6149 6152 6155 6158 6161 6164 6167 6170 6173 6176 6179 6182 6185 6188 6191 6194 6197 6200 6203 6205 6208 6211 6214 6216 6218 6221 6223 6226 6229 6232 6235 6238 6241 6244 6247 6250 6253 6256 6259 6262 6265 6267 6270 6273 6276 6279 6282 6285 6288 6291 6294 6297 6300 6303 6306 6309 6312 6315 6318 6321 6324 6327 6330 6333 6336 6339 6342 6345 6347 6350 6353 6356 6359 6362 6365 6368 6371 6374 6377 6380 6382 6385 6388 6391 6393 6396 6399 6402 6405 6408 6410 6413 6416 6419 6422 6425 6428 6431 6433 6436 6439 6442 6445 6448 6451 6454 6457 6460 6463 6465 6468 6471 6474 6477 6480 6483 6486 6489 6492 6494 6497 6500 6503 6506 6509 6512 6515 6518 6521 6524 6527 6530 6533 6536 6539 6541 6544 6547 6550 6552 6555 6557 6560 6563 6565 6567 6570 6573 6576 6579 6582 6584 6587 6590 6593 6596 6599 6602 6605 6608 6610 6612 6614 6617 6620 6623 6625 6628 6631 6633 6635 6638 6641 6644 6647 6650 6653 6656 6659 6662 6665 6668 6671 6674 6677 6680 6683 6686 6689 6692 6695 6698 6701 6704 6707 6710 6713 6716 6719 6722 6725 6728 6731 6734 6737 6740 6743 6746 6749 6752 6755 6758 6761 6764 6767 6770 6773 6776 6779 6782 6785 6788 6791 6794 6797 6799 6802 6805 6808 6811 6813 6816 6819 6822 6825 6828 6830 6833 6836 6839 6842 6845 6848 6851 6854 6857 6860 6863 6866 6868 6871 6874 6877 6880 6882 6885 6888 6891 6894 6897 6900 6903 6906 6909 6912 6915 6918 6921 6924 6927 6930 6933 6936 6939 6942 6945 6948 6951 6954 6957 6960 6962 6965 6967 6970 6973 6976 6979 6982 6985 6988 6991 6994 6997 6999 7002 7005 7008 7010 7013 7016 7019 7022 7025 7028 7030 7033 7036 7039 7042 7045 7048 7050 7053 7056 7059 7062 7065 7067 7069 7071 7073 7076 7079 7082 7085 7088 7091 7094 7097 7100 7103 7106 7109 7112 7115 7118 7121 7124 7127 7130 7132 7135 7137 7140 7143 7146 7149 7152 7155 7158 7160 7163 7166 7169 7172 7175 7177 7180 7183 7186 7188 7191 7194 7196 7198 7201 7203 7205 7207 7210 7213 7216 7219 7222 7225 7228 7231 7233 7236 7239 7241 7243 7245 7248 7251 7254 7256 7258 7261 7264 7266 7269 7272 7275 7277 7280 7283 7286 7288 7291 7294 7297 7300 7303 7306 7309 7312 7315 7318 7321 7324 7326 7329 7332 7335 7338 7341 7344 7347 7350 7353 7356 7358 7361 7364 7367 7370 7373 7376 7379 7381 7384 7387 7390 7392 7395 7398 7401 7404 7407 7410 7413 7415 7418 7421 7424 7427 7430 7433 7436 7439 7442 7445 7448 7451 7454 7457 7460 7463 7466 7469 7472 7475 7478 7481 7483 7486 7489 7492 7495 7498 7501 7504 7507 7510 7513 7516 7519 7522 7525 7528 7531 7534 7537 7540 7543 7546 7549 7552 7554 7557 7560 7562 7565 7568 7571 7574 7577 7580 7583 7586 7589 7592 7595 7598 7601 7604 7607 7610 7613 7616 7619 7622 7625 7628 7631 7634 7637 7639 7642 7645 7648 7651 7654 7657 7660 7663 7666 7669 7672 7675 7678 7680 7683 7686 7689 7692 7695 7698 7701 7704 7707 7710 7713 7716 7719 7721 7724 7727 7729 7732 7735 7738 7741 7744 7747 7750 7753 7755 7758 7761 7764 7766 7769 7772 7775 7778 7781 7784 7787 7789 7792 7794 7797 7799 7802 7805 7807 7810 7812 7815 7818 7821 7824 7827 7829 7832 7834 7837 7840 7843 7845 7848 7851 7854 7857 7860 7863 7866 7869 7872 7875 7878 7881 7883 7886 7889 7892 7895 7897 7900 7903 7905 7908 7911 7914 7917 7920 7923 7926 7928 7931 7934 7937 7939 7942 7945 7948 7951 7953 7956 7959 7961 7964 7967 7969 7972 7974 7977 7980 7983 7986 7989 7992 7995 7998 8001 8003 8006 8009 8012 8015 8017 8019 8022 8025 8028 8031 8034 8037 8040 8043 8045 8048 8050 8053 8056 8059 8061 8063 8066 8069 8072 8075 8078 8081 8084 8086 8089 8092 8095 8098 8101 8103 8106 8109 8112 8114 8117 8120 8123 8126 8129 8132 8135 8137 8140 8143 8146 8149 8152 8155 8158 8161 8164 8167 8170 8173 8175 8178 8181 8183 8186 8189 8192 8195 8198 8201 8204 8207 8210 8213 8215 8218 8221 8224 8227 8230 8233 8236 8239 8242 8245 8248 8251 8253 8256 8259 8262 8265 8268 8271 8274 8277 8280 8283 8286 8289 8292 8295 8298 8300 8303 8306 8309 8311 8314 8317 8320 8323 8326 8329 8332 8335 8338 8341 8344 8347 8350 8353 8356 8358 8361 8363 8366 8369 8372 8375 8378 8381 8384 8387 8390 8393 8396 8399 8402 8404 8407 8410 8413 8416 8419 8422 8425 8428 8431 8434 8437 8440 8443 8446 8449 8452 8455 8458 8461 8464 8467 8470 8473 8476 8479 8482 8485 8488 8491 8494 8497 8500 8503 8506 8509 8512 8515 8518 8521 8524 8527 8530 8533 8536 8539 8542 8544 8547 8550 8553 8556 8559 8561 8564 8567 8570 8573 8576 8579 8582 8585 8588 8591 8594 8597 8600 8603 8606 8609 8612 8614 8617 8620 8623 8626 8629 8632 8635 8638 8641 8644 8647 8650 8653 8656 8659 8662 8665 8668 8671 8674 8677 8680 8683 8686 8689 8692 8695 8698 8701 8704 8707 8710 8713 8715 8718 8721 8724 8726 8729 8732 8735 8738 8741 8744 8747 8750 8753 8756 8759 8761 8764 8767 8770 8773 8776 8779 8781 8784 8787 8790 8793 8796 8798 8801 8804 8807 8810 8813 8816 8819 8822 8825 8828 8831 8833 8836 8839 8842 8845 8847 8850 8853 8855 8858 8861 8864 8867 8869 8871 8873 8875 8878 8881 8883 8885 8888 8890 8892 8895 8898 8901 8904 8907 8910 8913 8916 8919 8922 8924 8927 8930 8933 8936 8939 8942 8945 8948 8951 8954 8957 8960 8963 8966 8969 8972 8974 8977 8979 8982 8985 8987 8990 8993 8996 8998 9001 9004 9007 9009 9012 9015 9018 9021 9024 9027 9030 9033 9036 9039 9041 9044 9047 9050 9053 9056 9059 9062 9065 9068 9071 9073 9076 9079 9082 9085 9088 9091 9093 9096 9099 9102 9105 9108 9111 9114 9117 9120 9123 9126 9129 9132 9135 9137 9140 9143 9146 9149 9151 9154 9157 9160 9163 9166 9168 9171 9174 9177 9180 9183 9186 9189 9192 9195 9198 9201 9204 9207 9210 9213 9216 9219 9222 9225 9228 9231 9234 9237 9240 9243 9246 9249 9252 9255 9258 9261 9264 9267 9270 9273 9276 9279 9282 9285 9288 9291 9294 9297 9300 9303 9306 9309 9312 9315 9318 9321 9324 9327 9330 9333 9336 9339 9342 9345 9348 9351 9354 9357 9360 9363 9366 9369 9372 9375 9378 9381 9384 9387 9390 9393 9396 9399 9402 9404 9407 9410 9413 9416 9419 9422 9425 9428 9431 9434 9437 9440 9443 9446 9449 9452 9455 9457 9460 9463 9466 9469 9472 9475 9478 9480 9483 9486 9489 9492 9494 9497 9500 9503 9506 9509 9512 9515 9518 9521 9524 9526 9529 9532 9535 9537 9540 9542 9545 9548 9551 9554 9557 9559 9562 9565 9567 9569 9572 9575 9578 9581 9584 9587 9590 9592 9595 9598 9601 9604 9607 9610 9613 9616 9619 9622 9625 9628 9630 9633 9636 9639 9642 9644 9647 9650 9653 9656 9659 9662 9665 9668 9670 9672 9675 9678 9681 9684 9687 9690 9693 9696 9699 9702 9705 9708 9711 9713 9716 9718 9721 9724 9726 9729 9732 9734 9737 9740 9743 9746 9749 9752 9755 9757 9760 9763 9766 9768 9771 9774 9777 9780 9783 9785 9788 9791 9794 9797 9800 9803 9805 9808 9811 9814 9817 9820 9823 9826 9829 9832 9835 9837 9840 9843 9846 9849 9852 9855 9858 9861 9864 9867 9870 9873 9876 9878 9881 9884 9887 9890 9893 9896 9899 9902 9905 9908 9911 9914 9916 9919 9922 9925 9928 9930 9933 9936 9939 9941 9943 9946 9949 9952 9955 9958 9961 9964 9966 9968 9971 9974 9977 9980 9983 9985 9988 9991 9994 9997 10000 10003 10006 10008 10011 10014 10016 10019 10022 10025 10028 10031 10033 10036 10039 10042 10045 10048 10051 10054 10056 10059 10062 10065 10068 10070 10073 10076 10079 10082 10085 10088 10091 10094 10097 10100 10103 10106 10109 10112 10115 10118 10121 10123 10126 10129 10132 10135 10138 10141 10144 10146 10149 10152 10155 10158 10161 10164 10167 10170 10173 10176 10179 10182 10185 10188 10191 10194 10197 10200 10202 10205 10208 10211 10214 10217 10220 10223 10226 10229 10232 10234 10237 10240 10243 10246 10249 10252 10255 10258 10261 10264 10267 10270 10273 10276 10279 10282 10285 10288 10291 10294 10297 10300 10303 10306 10309 10311 10314 10317 10320 10323 10326 10329 10332 10334 10337 10340 10343 10346 10349 10351 10354 10356 10358 10361 10364 10367 10370 10373 10376 10379 10382 10385 10388 10391 10394 10397 10400 10403 10406 10408 10411 10414 10417 10419 10422 10425 10428 10431 10434 10436 10439 10442 10445 10448 10451 10454 10457 10460 10463 10466 10469 10471 10474 10477 10479 10482 10485 10488 10491 10494 10497 10500 10503 10506 10509 10512 10515 10518 10521 10524 10527 10530 10533 10536 10539 10542 10545 10548 10551 10554 10557 10560 10563 10566 10569 10572 10575 10578 10581 10584 10587 10589 10592 10594 10597 10600 10603 10605 10608 10611 10614 10617 10620 10623 10626 10629 10632 10635 10638 10641 10644 10646 10649 10652 10655 10657 10660 10663 10666 10669 10672 10675 10678 10681 10684 10687 10690 10693 10696 10699 10702 10705 10708 10711 10714 10717 10720 10723 10726 10729 10732 10735 10737 10740 10743 10746 10748 10751 10754 10757 10760 10763 10766 10769 10772 10775 10778 10781 10784 10786 10789 10792 10795 10797 10800 10803 10806 10809 10812 10814 10817 10820 10823 10826 10829 10832 10835 10838 10841 10844 10847 10850 10853 10856 10859 10862 10865 10868 10871 10874 10877 10879 10882 10885 10888 10891 10894 10897 10900 10903 10906 10909 10912 10915 10918 10921 10924 10927 10929 10932 10934 10937 10940 10943 10946 10949 10952 10955 10958 10961 10964 10967 10970 10973 10976 10979 10982 10985 10988 10991 10993 10996 10999 11001 11004 11007 11010 11013 11016 11019 11021 11024 11027 11030 11033 11036 11039 11042 11045 11048 11051 11054 11057 11060 11062 11065 11067 11069 11072 11075 11078 11081 11083 11086 11089 11092 11095 11098 11101 11104 11107 11110 11113 11116 11119 11122 11125 11128 11131 11134 11137 11140 11143 11146 11149 11152 11155 11157 11160 11163 11166 11169 11172 11175 11178 11181 11184 11187 11190 11193 11195 11198 11201 11204 11207 11209 11212 11214 11217 11220 11223 11226 11229 11231 11234 11237 11240 11243 11246 11249 11252 11255 11258 11261 11264 11266 11268 11270 11273 11276 11278 11280 11283 11286 11289 11292 11295 11297 11300 11303 11305 11308 11311 11314 11317 11320 11323 11326 11328 11331 11334 11337 11340 11343 11346 11349 11352 11355 11358 11361 11364 11367 11370 11372 11375 11378 11381 11384 11387 11390 11393 11396 11399 11401 11404 11407 11409 11412 11415 11417 11420 11422 11425 11428 11430 11433 11435 11438 11440 11443 11446 11449 11451 11454 11456 11459 11461 11463 11465 11468 11471 11474 11476 11479 11482 11484 11486 11488 11491 11494 11497 11499 11502 11505 11508 11510 11512 11515 11518 11521 11523 11525 11527 11530 11533 11536 11539 11542 11545 11548 11551 11554 11557 11560 11562 11565 11568 11571 11574 11577 11580 11582 11585 11588 11590 11593 11596 11599 11602 11605 11608 11611 11614 11617 11620 11623 11626 11629 11632 11634 11637 11640 11642 11644 11647 11649 11652 11654 11657 11660 11663 11666 11669 11672 11675 11678 11681 11683 11686 11689 11692 11695 11698 11700 11703 11706 11709 11712 11715 11718 11721 11724 11727 11730 11733 11736 11738 11741 11744 11747 11750 11752 11754 11757 11760 11763 11766 11768 11770 11773 11775 11777 11780 11783 11786 11789 11792 11795 11798 11801 11804 11807 11810 11812 11814 11817 11820 11823 11826 11829 11832 11835 11838 11841 11844 11847 11850 11853 11856 11859 11862 11865 11868 11871 11874 11877 11880 11883 11886 11888 11891 11894 11897 11900 11903 11905 11908 11910 11913 11916 11919 11922 11925 11928 11931 11934 11937 11940 11943 11945 11948 11951 11954 11956 11959 11962 11965 11968 11971 11974 11977 11980 11983 11986 11989 11992 11995 11998 12001 12004 12007 12010 12013 12016 12019 12022 12024 12027 12030 12033 12035 12038 12041 12044 12047 12050 12053 12056 12059 12062 12065 12068 12071 12074 12077 12080 12083 12086 12089 12092 12095 12098 12101 12104 12107 12110 12113 12116 12119 12122 12125 12128 12131 12134 12137 12140 12143 12146 12149 12152 12155 12158 12161 12164 12167 12170 12173 12175 12178 12181 12183 12186 12189 12192 12194 12197 12200 12203 12206 12209 12212 12215 12218 12221 12224 12227 12230 12233 12236 12239 12242 12245 12248 12251 12254 12257 12260 12263 12266 12269 12272 12274 12276 12279 12281 12284 12287 12289 12291 12294 12297 12299 12301 12304 12307 12310 12313 12316 12319 12321 12324 12327 12330 12333 12336 12339 12342 12344 12347 12349 12352 12354 12357 12360 12363 12366 12368 12371 12374 12377 12380 12383 12385 12388 12391 12394 12397 12400 12403 12406 12409 12412 12415 12418 12421 12423 12425 12427 12430 12433 12436 12438 12441 12444 12447 12450 12453 12456 12459 12461 12464 12466 12469 12471 12474 12476 12479 12482 12485 12487 12489 12492 12495 12498 12501 12504 12507 12510 12513 12516 12519 12521 12524 12526 12529 12532 12535 12538 12541 12543 12546 12548 12551 12554 12557 12560 12563 12566 12569 12572 12575 12577 12579 12582 12585 12587 12590 12592 12594 12597 12600 12603 12606 12608 12610 12613 12616 12619 12621 12624 12627 12629 12632 12635 12638 12641 12643 12646 12649 12652 12655 12657 12660 12662 12665 12668 12671 12674 12677 12680 12683 12686 12688 12691 12694 12696 12699 12702 12704 12707 12710 12713 12716 12718 12721 12723 12726 12728 12730 12733 12735 12738 12740 12742 12745 12748 12750 12752 12754 12756 12758 12761 12764 12767 12770 12773 12776 12779 12782 12785 12788 12791 12794 12797 12800 12803 12806 12809 12812 12814 12817 12820 12823 12825 12827 12830 12833 12836 12839 12842 12845 12847 12850 12853 12856 12858 12860 12863 12866 12869 12872 12875 12877 12880 12882 12885 12887 12889 12892 12895 12898 12901 12904 12906 12909 12911 12914 12916 12919 12922 12924 12927 12930 12933 12935 12938 12941 12943 12945 12948 12950 12953 12955 12958 12961 12964 12966 12968 12971 12973 12975 12978 12981 12984 12987 12990 12993 12996 12999 13002 13004 13007 13009 13012 13015 13018 13020 13023 13026 13028 13030 13033 13035 13038 13041 13044 13047 13050 13052 13054 13057 13060 13062 13065 13068 13071 13074 13077 13080 13083 13086 13088 13091 13094 13097 13100 13103 13105 13108 13110 13112 13115 13118 13121 13124 13126 13129 13131 13134 13136 13139 13141 13144 13147 13150 13153 13156 13159 13161 13164 13167 13170 13173 13176 13179 13182 13185 13188 13191 13194 13197 13200 13203 13205 13208 13210 13213 13216 13218 13221 13224 13227 13230 13233 13236 13239 13242 13244 13247 13249 13252 13255 13258 13260 13263 13266 13269 13272 13275 13277 13280 13283 13286 13289 13291 13294 13296 13299 13301 13304 13307 13310 13312 13315 13318 13321 13323 13326 13328 13331 13333 13336 13338 13341 13343 13346 13349 13352 13355 13358 13361 13364 13367 13370 13373 13376 13379 13382 13385 13388 13391 13394 13397 13400 13403 13406 13409 13412 13414 13417 13420 13423 13426 13429 13432 13435 13438 13441 13444 13447 13450 13453 13456 13459 13462 13465 13468 13471 13474 13477 13480 13483 13486 13489 13492 13495 13498 13501 13504 13507 13510 13513 13516 13519 13522 13524 13526 13529 13532 13535 13538 13541 13544 13546 13549 13552 13554 13557 13559 13562 13564 13567 13570 13573 13575 13578 13581 13583 13586 13589 13591 13594 13597 13599 13602 13605 13608 13611 13614 13617 13620 13623 13626 13629 13632 13635 13638 13641 13644 13647 13650 13653 13656 13659 13662 13664 13667 13670 13673 13676 13679 13682 13685 13687 13690 13692 13695 13698 13701 13704 13707 13710 13713 13716 13719 13722 13725 13728 13731 13734 13736 13739 13742 13745 13748 13751 13754 13757 13760 13763 13766 13769 13772 13774 13777 13780 13783 13786 13789 13792 13794 13797 13799 13801 13804 13807 13810 13813 13816 13819 13822 13825 13827 13830 13833 13836 13839 13842 13845 13848 13851 13854 13856 13859 13862 13865 13868 13871 13874 13877 13880 13883 13886 13889 13892 13895 13898 13901 13903 13906 13909 13912 13914 13917 13920 13923 13926 13929 13932 13935 13938 13941 13944 13947 13950 13953 13956 13959 13962 13964 13967 13969 13972 13975 13978 13980 13983 13986 13988 13991 13994 13997 14000 14003 14006 14009 14012 14015 14018 14021 14024 14027 14030 14033 14036 14039 14042 14045 14047 14050 14053 14055 14058 14061 14064 14067 14070 14073 14076 14079 14082 14085 14088 14091 14094 14097 14100 14103 14106 14109 14112 14115 14118 14121 14124 14127 14130 14133 14136 14139 14142 14145 14148 14151 14154 14157 14160 14163 14166 14169 14172 14175 14178 14181 14184 14187 14190 14193 14196 14198 14201 14204 14207 14210 14213 14216 14219 14222 14225 14228 14231 14234 14236 14239 14242 14245 14248 14251 14254 14256 14259 14262 14264 14266 14269 14271 14273 14275 14278 14281 14284 14287 14290 14292 14295 14298 14300 14302 14305 14308 14310 14313 14315 14317 14319 14322 14325 14327 14330 14333 14336 14339 14341 14344 14347 14350 14353 14356 14358 14361 14364 14367 14370 14373 14376 14378 14381 14383 14386 14388 14391 14394 14397 14400 14403 14406 14409 14412 14414 14417 14420 14423 14426 14429 14432 14435 14438 14441 14444 14446 14449 14452 14454 14457 14460 14463 14466 14469 14472 14475 14478 14481 14484 14487 14489 14492 14495 14498 14501 14504 14507 14510 14513 14515 14517 14520 14523 14525 14528 14531 14534 14537 14539 14542 14545 14547 14550 14553 14556 14558 14561 14563 14565 14568 14571 14574 14576 14579 14581 14583 14586 14588 14591 14594 14596 14598 14601 14604 14606 14609 14612 14615 14617 14619 14622 14625 14628 14631 14633 14636 14639 14642 14645 14647 14650 14652 14654 14657 14659 14661 14664 14667 14670 14673 14676 14679 14682 14685 14687 14690 14693 14696 14699 14702 14705 14708 14710 14712 14715 14718 14720 14723 14726 14729 14731 14734 14736 14739 14741 14743 14746 14748 14751 14754 14756 14759 14761 14764 14767 14769 14771 14774 14777 14780 14783 14786 14788 14791 14794 14797 14800 14802 14804 14807 14810 14813 14816 14819 14821 14824 14827 14829 14832 14835 14838 14841 14844 14847 14850 14852 14855 14858 14861 14863 14866 14869 14872 14875 14878 14880 14883 14886 14889 14891 14894 14896 14899 14902 14905 14908 14911 14913 14916 14919 14922 14925 14928 14931 14934 14937 14939 14942 14945 14948 14951 14954 14957 14960 14963 14966 14968 14971 14974 14977 14980 14983 14986 14989 14992 14995 14997 14999 15002 15005 15008 15011 15014 15017 15019 15022 15024 15027 15030 15033 15035 15037 15040 15043 15045 15048 15051 15054 15057 15060 15063 15066 15069 15072 15075 15078 15081 15084 15087 15090 15093 15096 15099 15102 15105 15108 15111 15114 15117 15120 15123 15126 15129 15132 15135 15138 15141 15144 15147 15149 15152 15155 15157 15160 15163 15166 15168 15171 15174 15177 15179 15182 15185 15188 15191 15194 15197 15199 15201 15204 15207 15210 15213 15216 15219 15221 15224 15227 15230 15233 15236 15239 15242 15245 15248 15251 15254 15256 15259 15262 15265 15267 15270 15273 15276 15279 15282 15285 15288 15291 15294 15297 15300 15302 15305 15308 15311 15314 15317 15319 15322 15324 15327 15330 15333 15335 15338 15341 15343 15345 15348 15350 15353 15356 15359 15362 15365 15367 15370 15373 15376 15379 15382 15385 15388 15391 15394 15396 15399 15402 15405 15407 15410 15413 15416 15419 15422 15425 15427 15430 15433 15436 15438 15441 15444 15447 15450 15453 15456 15459 15462 15465 15468 15470 15473 15476 15478 15481 15483 15485 15488 15491 15493 15496 15498 15500 15502 15505 15508 15511 15514 15517 15520 15523 15525 15527 15530 15533 15536 15538 15541 15544 15546 15549 15552 15555 15558 15561 15564 15567 15570 15573 15575 15578 15580 15583 15585 15588 15591 15594 15597 15600 15603 15606 15609 15612 15614 15617 15620 15623 15626 15628 15631 15634 15637 15640 15643 15646 15649 15652 15655 15658 15660 15663 15666 15669 15672 15674 15677 15680 15683 15686 15689 15692 15695 15698 15701 15704 15707 15710 15712 15714 15716 15719 15722 15725 15728 15731 15734 15737 15739 15742 15745 15747 15750 15752 15755 15758 15761 15764 15767 15769 15771 15774 15777 15780 15783 15786 15789 15792 15795 15798 15800 15803 15806 15808 15810 15813 15816 15819 15822 15824 15827 15829 15832 15835 15838 15841 15843 15846 15849 15852 15854 15857 15860 15863 15866 15869 15872 15875 15878 15881 15884 15887 15890 15893 15896 15899 15902 15905 15908 15911 15914 15917 15920 15923 15926 15929 15932 15934 15936 15939 15942 15945 15948 15950 15953 15955 15957 15960 15962 15965 15968 15971 15974 15977 15980 15983 15986 15989 15992 15994 15997 16000 16003 16006 16009 16012 16015 16017 16020 16023 16026 16028 16031 16034 16037 16040 16042 16045 16048 16051 16054 16057 16060 16062 16065 16068 16071 16074 16077 16080 16082 16084 16087 16089 16092 16094 16097 16100 16103 16106 16109 16112 16114 16117 16120 16123 16126 16129 16131 16134 16137 16140 16143 16146 16149 16151 16154 16157 16160 16163 16166 16169 16172 16174 16177 16180 16183 16185 16188 16191 16194 16196 16199 16202 16205 16207 16209 16212 16214 16217 16220 16223 16226 16229 16232 16235 16238 16241 16244 16247 16250 16253 16256 16259 16262 16265 16268 16271 16274 16277 16280 16282 16284 16287 16289 16292 16295 16298 16301 16303 16306 16309 16311 16314 16317 16319 16322 16325 16328 16331 16333 16336 16339 16341 16343 16346 16349 16352 16355 16357 16360 16363 16366 16369 16372 16375 16378 16381 16384 16387 16390 16393 16396 16399 16401 16404 16407 16410 16413 16415 16418 16421 16424 16426 16429 16432 16435 16438 16440 16443 16445 16448 16450 16453 16455 16458 16461 16463 16466 16469 16472 16475 16478 16481 16483 16485 16488 16491 16493 16496 16499 16502 16505 16507 16510 16513 16516 16519 16522 16525 16528 16531 16534 16537 16540 16542 16545 16548 16551 16554 16556 16558 16560 16563 16566 16568 16570 16573 16576 16578 16580 16583 16586 16589 16592 16595 16597 16600 16603 16606 16609 16612 16614 16616 16619 16621 16624 16627 16630 16633 16636 16639 16642 16645 16648 16651 16653 16656 16659 16662 16665 16668 16671 16674 16677 16680 16683 16686 16689 16692 16695 16698 16701 16704 16707 16710 16713 16716 16719 16722 16725 16728 16731 16733 16736 16739 16742 16744 16747 16750 16752 16755 16758 16761 16764 16767 16770 16773 16776 16779 16782 16785 16787 16790 16793 16796 16799 16802 16805 16808 16811 16814 16817 16820 16823 16826 16829 16832 16835 16838 16841 16844 16847 16849 16851 16854 16857 16860 16863 16865 16868 16871 16873 16876 16878 16881 16884 16887 16890 16893 16895 16898 16900 16903 16906 16909 16911 16913 16916 16919 16922 16925 16927 16929 16932 16935 16938 16941 16944 16947 16950 16953 16956 16959 16962 16964 16966 16968 16971 16974 16977 16979 16982 16984 16987 16990 16992 16995 16998 17001 17004 17006 17009 17012 17015 17017 17020 17022 17025 17027 17030 17033 17036 17038 17040 17042 17044 17047 17050 17052 17055 17058 17060 17063 17066 17068 17070 17073 17076 17078 17081 17084 17086 17089 17092 17095 17097 17100 17103 17106 17109 17112 17115 17118 17121 17124 17127 17130 17133 17136 17139 17142 17145 17148 17151 17154 17157 17160 17163 17166 17169 17172 17175 17178 17180 17183 17186 17189 17192 17195 17197 17200 17203 17205 17208 17211 17214 17217 17220 17223 17226 17229 17231 17234 17237 17240 17243 17246 17249 17252 17255 17258 17261 17264 17267 17269 17272 17275 17278 17281 17284 17287 17289 17292 17294 17297 17300 17303 17306 17309 17311 17314 17317 17320 17323 17326 17328 17331 17334 17336 17339 17342 17345 17347 17350 17353 17356 17358 17361 17364 17367 17370 17373 17376 17379 17382 17384 17387 17390 17393 17396 17399 17402 17405 17408 17411 17413 17416 17419 17422 17425 17428 17431 17434 17437 17439 17442 17445 17447 17450 17453 17456 17459 17462 17465 17468 17471 17474 17477 17480 17483 17486 17489 17492 17494 17497 17500 17502 17505 17508 17510 17513 17516 17518 17521 17523 17526 17529 17532 17535 17538 17541 17544 17547 17550 17553 17556 17558 17561 17564 17566 17569 17572 17575 17578 17580 17583 17586 17588 17591 17594 17597 17599 17602 17605 17608 17610 17613 17615 17617 17620 17623 17626 17628 17631 17634 17637 17640 17642 17645 17648 17651 17654 17657 17659 17662 17665 17667 17669 17671 17674 17677 17680 17683 17686 17689 17692 17694 17697 17699 17702 17705 17707 17710 17713 17716 17719 17722 17724 17727 17730 17732 17735 17737 17739 17742 17745 17748 17751 17754 17756 17759 17762 17765 17768 17771 17774 17777 17779 17782 17785 17787 17790 17793 17795 17798 17800 17803 17806 17809 17812 17815 17818 17820 17823 17825 17828 17831 17834 17837 17840 17843 17846 17849 17852 17855 17858 17861 17864 17867 17869 17871 17874 17877 17879 17882 17885 17888 17890 17893 17896 17899 17902 17905 17908 17911 17914 17917 17920 17922 17925 17928 17930 17933 17936 17939 17942 17945 17948 17951 17954 17956 17959 17962 17965 17968 17971 17974 17977 17980 17983 17986 17989 17992 17995 17998 18001 18004 18007 18010 18013 18016 18019 18022 18025 18028 18030 18033 18035 18038 18041 18044 18047 18050 18053 18055 18058 18061 18063 18066 18069 18072 18075 18078 18080 18083 18086 18089 18092 18094 18096 18099 18101 18104 18107 18110 18113 18116 18119 18121 18123 18126 18129 18132 18135 18138 18141 18143 18146 18149 18152 18154 18157 18160 18163 18166 18169 18172 18175 18177 18180 18183 18186 18189 18192 18194 18197 18200 18203 18206 18209 18212 18214 18217 18220 18223 18226 18228 18230 18233 18236 18239 18242 18245 18248 18251 18254 18256 18259 18261 18264 18267 18269 18272 18274 18277 18279 18282 18284 18287 18290 18293 18295 18298 18301 18304 18307 18310 18313 18315 18318 18321 18324 18327 18329 18332 18334 18337 18340 18342 18345 18348 18351 18354 18357 18360 18363 18366 18369 18372 18374 18377 18380 18383 18386 18389 18391 18394 18397 18399 18402 18405 18408 18411 18414 18417 18419 18422 18425 18428 18431 18434 18437 18440 18443 18446 18449 18452 18455 18458 18461 18463 18466 18469 18472 18475 18478 18481 18483 18486 18489 18492 18495 18497 18500 18503 18506 18509 18512 18515 18518 18520 18523 18526 18529 18532 18534 18537 18540 18543 18546 18549 18552 18555 18558 18561 18564 18567 18570 18573 18576 18579 18582 18585 18588 18591 18594 18597 18599 18602 18605 18608 18611 18614 18616 18619 18622 18625 18628 18631 18634 18637 18640 18643 18646 18649 18652 18655 18658 18661 18664 18667 18670 18673 18676 18679 18682 18685 18688 18691 18694 18697 18700 18702 18704 18707 18710 18713 18716 18718 18721 18723 18726 18729 18732 18735 18738 18741 18744 18747 18750 18753 18756 18759 18762 18765 18768 18771 18774 18777 18780 18783 18786 18789 18792 18795 18798 18801 18804 18807 18810 18812 18815 18818 18821 18823 18826 18829 18832 18835 18838 18841 18844 18847 18850 18853 18856 18859 18862 18865 18868 18871 18874 18877 18880 18882 18885 18888 18891 18894 18897 18900 18903 18906 18909 18912 18915 18918 18921 18924 18927 18930 18933 18936 18939 18942 18945 18948 18951 18954 18957 18960 18963 18966 18969 18972 18975 18978 18981 18984 18987 18990 18993 18995 18998 19001 19004 19007 19010 19013 19016 19019 19021 19024 19027 19030 19033 19036 19039 19042 19045 19048 19050 19052 19055 19058 19061 19064 19067 19070 19073 19076 19079 19082 19085 19087 19090 19093 19096 19099 19102 19105 19107 19110 19113 19116 19119 19122 19125 19128 19131 19134 19137 19140 19143 19146 19149 19152 19154 19157 19159 19162 19164 19166 19169 19171 19174 19177 19180 19183 19185 19188 19191 19194 19197 19200 19203 19206 19209 19212 19215 19218 19221 19224 19226 19229 19232 19235 19238 19240 19243 19246 19249 19252 19255 19258 19261 19264 19267 19270 19273 19276 19279 19282 19285 19288 19291 19294 19297 19300 19303 19306 19309 19311 19314 19317 19319 19322 19325 19328 19331 19334 19337 19340 19343 19346 19349 19352 19355 19358 19361 19364 19367 19370 19373 19376 19379 19382 19385 19387 19390 19392 19394 19397 19400 19403 19406 19409 19412 19415 19418 19420 19423 19425 19428 19431 19434 19437 19440 19443 19445 19448 19451 19454 19456 19459 19462 19465 19468 19470 19472 19475 19478 19481 19484 19487 19490 19493 19496 19499 19502 19505 19508 19511 19513 19516 19519 19522 19525 19528 19530 19533 19536 19538 19541 19544 19547 19550 19553 19556 19558 19561 19564 19567 19570 19573 19576 19579 19582 19585 19588 19591 19594 19596 19599 19602 19605 19608 19611 19614 19617 19619 19622 19625 19628 19631 19634 19637 19640 19643 19646 19649 19651 19654 19656 19659 19662 19665 19667 19669 19672 19675 19677 19680 19682 19684 19687 19690 19693 19696 19699 19701 19704 19706 19709 19712 19715 19718 19721 19724 19727 19730 19733 19736 19739 19742 19745 19748 19751 19753 19756 19759 19762 19764 19767 19770 19772 19775 19777 19780 19782 19785 19788 19790 19792 19795 19798 19801 19804 19807 19810 19812 19815 19818 19820 19823 19826 19829 19832 19835 19837 19840 19843 19845 19848 19850 19853 19855 19858 19861 19864 19866 19869 19871 19873 19876 19879 19881 19884 19887 19889 19892 19895 19898 19900 19903 19906 19909 19912 19915 19918 19920 19923 19926 19928 19930 19933 19935 19938 19941 19943 19946 19949 19952 19955 19958 19960 19963 19966 19969 19972 19975 19978 19980 19983 19986 19988 19991 19993 19995 19998 20001 20004 20007 20010 20012 20015 20018 20021 20024 20027 20030 20033 20036 20038 20041 20043 20046 20049 20052 20054 20057 20060 20062 20065 20068 20071 20074 20076 20079 20082 20085 20088 20091 20094 20097 20100 20103 20105 20108 20111 20114 20117 20120 20122 20125 20128 20131 20134 20136 20139 20142 20145 20148 20151 20153 20156 20159 20162 20165 20167 20170 20173 20176 20179 20182 20185 20188 20191 20194 20197 20200 20203 20206 20208 20211 20214 20217 20219 20222 20224 20227 20230 20232 20235 20238 20241 20243 20246 20249 20252 20255 20258 20260 20263 20266 20269 20272 20275 20278 20281 20284 20287 20290 20293 20296 20299 20301 20303 20306 20309 20312 20315 20318 20320 20323 20325 20328 20331 20333 20336 20338 20341 20344 20346 20349 20352 20355 20358 20360 20362 20364 20367 20370 20373 20375 20378 20380 20383 20386 20389 20392 20394 20396 20399 20402 20405 20407 20410 20413 20416 20419 20422 20425 20428 20431 20434 20437 20439 20442 20444 20447 20450 20453 20456 20459 20462 20465 20468 20471 20474 20477 20480 20483 20486 20489 20492 20494 20497 20500 20503 20506 20509 20512 20514 20516 20519 20522 20524 20527 20530 20533 20536 20539 20542 20544 20547 20550 20553 20556 20559 20562 20565 20568 20571 20574 20577 20580 20582 20585 20588 20591 20594 20597 20600 20603 20606 20609 20612 20615 20617 20620 20623 20626 20629 20632 20635 20638 20641 20644 20647 20649 20652 20655 20658 20660 20663 20666 20669 20672 20675 20678 20681 20684 20686 20689 20692 20694 20697 20700 20703 20706 20709 20711 20714 20717 20720 20723 20726 20728 20731 20733 20736 20739 20742 20745 20748 20751 20754 20757 20760 20763 20766 20769 20772 20775 20778 20781 20784 20787 20790 20793 20796 20799 20802 20805 20808 20811 20814 20817 20820 20823 20826 20829 20832 20835 20838 20841 20844 20847 20850 20853 20856 20859 20862 20865 20868 20871 20874 20876 20879 20882 20885 20888 20891 20894 20896 20899 20902 20905 20908 20911 20914 20917 20920 20923 20926 20929 20932 20935 20938 20941 20943 20946 20948 20951 20954 20957 20960 20963 20966 20969 20972 20975 20978 20981 20984 20987 20989 20992 20995 20998 21001 21003 21006 21009 21012 21015 21018 21021 21024 21027 21030 21033 21036 21039 21041 21043 21046 21049 21052 21055 21058 21061 21064 21067 21070 21073 21076 21079 21082 21085 21088 21091 21094 21097 21100 21103 21106 21109 21112 21115 21118 21121 21124 21127 21130 21133 21136 21139 21142 21145 21148 21151 21154 21156 21159 21162 21165 21168 21171 21174 21177 21180 21183 21186 21189 21192 21195 21198 21201 21204 21207 21210 21212 21215 21217 21219 21221 21224 21227 21230 21232 21235 21238 21240 21242 21245 21248 21251 21253 21256 21259 21262 21265 21268 21271 21273 21276 21279 21282 21285 21288 21291 21294 21297 21300 21302 21304 21307 21310 21313 21315 21318 21321 21323 21326 21329 21331 21334 21337 21339 21342 21345 21348 21350 21353 21355 21358 21360 21363 21366 21368 21371 21374 21377 21379 21382 21385 21388 21390 21392 21395 21398 21401 21404 21407 21410 21413 21416 21419 21421 21424 21426 21429 21432 21435 21437 21440 21442 21445 21448 21451 21453 21456 21458 21460 21463 21466 21469 21472 21475 21478 21480 21482 21485 21488 21490 21492 21495 21498 21501 21503 21506 21509 21511 21514 21517 21519 21522 21525 21528 21531 21533 21536 21538 21541 21543 21546 21549 21552 21554 21557 21559 21562 21565 21568 21571 21573 21575 21578 21580 21583 21586 21589 21592 21594 21597 21600 21603 21605 21607 21609 21611 21613 21616 21619 21621 21624 21627 21629 21631 21633 21636 21639 21641 21643 21645 21648 21651 21653 21656 21659 21661 21663 21666 21668 21671 21673 21675 21678 21681 21684 21687 21689 21691 21694 21697 21700 21702 21705 21707 21710 21713 21716 21719 21722 21725 21727 21730 21733 21736 21739 21741 21744 21747 21749 21752 21754 21757 21759 21762 21764 21767 21770 21772 21775 21778 21781 21784 21787 21790 21793 21796 21799 21802 21805 21807 21810 21813 21816 21818 21820 21823 21825 21828 21831 21834 21837 21839 21842 21845 21848 21850 21853 21855 21858 21861 21864 21867 21869 21871 21874 21877 21880 21883 21885 21888 21891 21893 21895 21898 21901 21903 21905 21908 21911 21913 21916 21919 21922 21924 21926 21929 21932 21935 21938 21940 21943 21945 21948 21950 21953 21955 21958 21960 21963 21966 21968 21970 21973 21976 21978 21981 21984 21986 21989 21991 21993 21996 21999 22001 22004 22007 22009 22012 22014 22017 22019 22022 22024 22027 22030 22032 22035 22038 22041 22044 22047 22049 22051 22054 22057 22060 22063 22066 22069 22072 22075 22078 22081 22084 22087 22090 22093 22095 22098 22100 22103 22106 22108 22111 22114 22117 22120 22122 22125 22128 22130 22133 22135 22138 22141 22144 22147 22150 22153 22156 22159 22162 22165 22167 22170 22173 22176 22179 22182 22185 22188 22191 22194 22197 22200 22203 22206 22209 22212 22214 22216 22219 22222 22225 22227 22229 22232 22235 22238 22241 22243 22246 22249 22252 22255 22258 22260 22263 22266 22269 22272 22275 22277 22280 22283 22286 22289 22292 22295 22298 22301 22304 22307 22310 22313 22316 22319 22321 22324 22327 22329 22331 22334 22336 22339 22342 22344 22347 22350 22352 22355 22358 22361 22364 22367 22370 22372 22375 22378 22380 22383 22385 22388 22391 22394 22397 22400 22403 22406 22409 22412 22415 22418 22421 22424 22426 22429 22432 22435 22437 22440 22443 22445 22448 22451 22453 22456 22459 22462 22464 22467 22469 22472 22475 22477 22480 22483 22485 22488 22490 22493 22496 22498 22501 22504 22507 22510 22512 22515 22518 22521 22524 22526 22529 22532 22535 22537 22540 22543 22546 22549 22552 22554 22557 22560 22563 22566 22569 22572 22575 22578 22580 22583 22586 22589 22592 22595 22598 22601 22604 22607 22610 22612 22615 22617 22620 22623 22626 22628 22631 22634 22637 22640 22643 22646 22649 22652 22655 22658 22661 22664 22667 22670 22673 22676 22679 22682 22685 22688 22691 22694 22697 22700 22703 22706 22709 22712 22715 22718 22721 22724 22727 22730 22733 22736 22739 22741 22744 22747 22750 22752 22755 22758 22761 22764 22767 22770 22773 22776 22779 22782 22785 22788 22791 22794 22797 22800 22802 22805 22808 22811 22814 22816 22819 22822 22825 22828 22831 22834 22837 22840 22843 22846 22849 22852 22855 22858 22861 22864 22866 22869 22872 22875 22878 22881 22884 22887 22890 22893 22896 22899 22902 22905 22908 22911 22914 22917 22920 22923 22926 22929 22932 22935 22938 22941 22944 22947 22950 22953 22956 22958 22961 22963 22966 22969 22972 22974 22977 22980 22983 22986 22989 22992 22995 22998 23001 23004 23007 23010 23013 23016 23019 23022 23025 23028 23031 23034 23037 23040 23042 23045 23048 23051 23053 23056 23059 23062 23065 23067 23070 23073 23076 23079 23082 23085 23087 23090 23093 23096 23099 23102 23105 23108 23111 23113 23116 23119 23122 23125 23128 23131 23133 23136 23139 23141 23143 23146 23149 23152 23154 23156 23159 23162 23164 23167 23169 23172 23174 23176 23179 23182 23185 23188 23190 23193 23195 23198 23201 23204 23207 23209 23212 23215 23217 23220 23222 23225 23228 23231 23233 23235 23237 23240 23242 23245 23247 23250 23252 23255 23257 23259 23262 23264 23266 23269 23272 23275 23277 23280 23282 23285 23288 23291 23294 23297 23299 23302 23304 23307 23310 23313 23316 23319 23321 23324 23326 23329 23331 23334 23337 23340 23343 23346 23348 23351 23354 23356 23359 23362 23365 23368 23370 23373 23376 23379 23382 23384 23387 23389 23392 23395 23397 23400 23403 23406 23408 23411 23414 23417 23420 23423 23426 23429 23432 23435 23438 23441 23444 23447 23450 23453 23456 23459 23462 23465 23467 23470 23473 23476 23478 23481 23484 23487 23489 23492 23495 23498 23501 23503 23506 23509 23512 23515 23518 23521 23524 23527 23530 23533 23536 23539 23542 23545 23548 23551 23554 23557 23560 23563 23566 23569 23572 23575 23578 23581 23584 23587 23589 23592 23595 23598 23601 23604 23607 23610 23613 23616 23619 23622 23625 23628 23630 23633 23636 23639 23642 23645 23648 23651 23654 23657 23659 23662 23664 23667 23670 23673 23676 23678 23681 23684 23687 23690 23693 23696 23698 23701 23704 23707 23710 23712 23714 23717 23719 23722 23724 23727 23730 23733 23736 23738 23741 23744 23746 23748 23751 23754 23757 23760 23763 23765 23767 23770 23773 23775 23778 23780 23783 23785 23787 23790 23793 23796 23799 23802 23804 23807 23809 23812 23814 23816 23819 23822 23824 23826 23829 23831 23834 23836 23839 23842 23845 23847 23850 23853 23856 23858 23861 23864 23866 23868 23870 23872 23875 23877 23880 23883 23886 23889 23891 23893 23896 23899 23901 23904 23907 23909 23912 23915 23917 23920 23923 23926 23929 23932 23935 23938 23940 23943 23946 23949 23952 23954 23956 23959 23961 23963 23966 23969 23972 23975 23977 23980 23983 23985 23988 23990 23993 23996 23999 24001 24003 24005 24007 24010 24013 24015 24018 24021 24024 24027 24029 24032 24035 24038 24041 24043 24045 24048 24051 24053 24056 24059 24062 24065 24068 24071 24074 24077 24079 24082 24084 24087 24089 24092 24095 24098 24101 24104 24107 24110 24113 24116 24119 24122 24124 24127 24130 24133 24136 24138 24141 24144 24146 24149 24152 24155 24158 24160 24163 24166 24169 24171 24174 24176 24179 24182 24184 24187 24190 24193 24196 24199 24202 24205 24208 24211 24214 24217 24220 24223 24225 24228 24230 24233 24236 24239 24242 24245 24248 24251 24254 24257 24260 24263 24266 24269 24272 24275 24278 24281 24284 24287 24290 24293 24295 24297 24300 24303 24306 24309 24311 24314 24317 24320 24323 24326 24329 24332 24334 24337 24340 24343 24346 24348 24351 24354 24357 24360 24363 24365 24368 24371 24374 24377 24380 24383 24386 24389 24392 24395 24398 24401 24404 24407 24410 24413 24416 24418 24421 24424 24427 24430 24433 24436 24439 24442 24445 24448 24451 24454 24457 24460 24463 24465 24468 24471 24474 24477 24480 24483 24486 24488 24491 24493 24496 24499 24502 24505 24508 24511 24513 24516 24519 24521 24524 24526 24529 24532 24535 24538 24541 24544 24547 24550 24553 24555 24558 24561 24564 24567 24570 24572 24575 24578 24581 24584 24587 24590 24593 24596 24599 24602 24605 24607 24610 24613 24616 24618 24621 24624 24626 24629 24632 24635 24637 24640 24642 24645 24648 24650 24653 24655 24658 24661 24664 24667 24669 24672 24675 24678 24681 24684 24686 24689 24692 24694 24696 24699 24702 24705 24707 24710 24712 24714 24717 24720 24723 24725 24728 24731 24734 24737 24740 24743 24746 24749 24752 24755 24758 24760 24763 24766 24769 24772 24775 24778 24781 24784 24787 24790 24793 24796 24799 24802 24805 24808 24811 24814 24817 24820 24823 24826 24829 24831 24834 24837 24839 24842 24844 24847 24850 24852 24854 24857 24859 24862 24865 24868 24870 24873 24876 24879 24882 24884 24887 24890 24893 24896 24899 24901 24903 24905 24908 24911 24913 24916 24919 24922 24925 24928 24931 24934 24937 24939 24942 24945 24948 24951 24954 24957 24959 24962 24964 24967 24970 24973 24976 24978 24980 24983 24986 24989 24992 24995 24998 25000 25003 25005 25008 25011 25014 25016 25019 25022 25025 25027 25030 25033 25035 25038 25041 25043 25046 25049 25052 25054 25057 25060 25062 25065 25068 25071 25073 25076 25079 25082 25085 25088 25091 25094 25097 25100 25103 25106 25109 25111 25114 25117 25120 25123 25126 25129 25131 25134 25137 25140 25143 25145 25148 25151 25154 25157 25159 25162 25164 25167 25170 25172 25175 25178 25181 25184 25187 25190 25193 25196 25199 25202 25205 25207 25210 25213 25216 25219 25222 25225 25228 25231 25234 25237 25240 25243 25246 25249 25252 25255 25258 25261 25264 25267 25270 25273 25276 25279 25281 25284 25287 25290 25293 25296 25299 25302 25305 25308 25311 25314 25317 25319 25322 25325 25328 25331 25334 25337 25340 25343 25346 25349 25352 25355 25358 25361 25364 25367 25370 25373 25376 25379 25382 25385 25388 25391 25394 25397 25400 25403 25406 25409 25412 25415 25418 25421 25424 25427 25430 25433 25436 25439 25441 25444 25447 25450 25453 25456 25458 25461 25464 25467 25470 25473 25476 25479 25482 25485 25488 25491 25494 25497 25500 25503 25506 25509 25512 25515 25518 25521 25524 25527 25530 25533 25536 25539 25542 25545 25548 25551 25554 25557 25560 25562 25565 25568 25571 25574 25577 25579 25581 25584 25587 25590 25593 25596 25598 25601 25604 25607 25610 25612 25615 25618 25621 25624 25627 25630 25633 25636 25639 25641 25644 25647 25650 25653 25656 25659 25662 25665 25668 25671 25674 25677 25680 25683 25686 25689 25692 25695 25698 25701 25703 25706 25708 25711 25714 25716 25718 25721 25723 25725 25728 25731 25734 25737 25739 25741 25744 25746 25749 25751 25754 25757 25760 25762 25764 25767 25769 25772 25775 25778 25781 25783 25786 25788 25791 25794 25797 25800 25802 25805 25808 25811 25814 25817 25819 25822 25825 25827 25830 25833 25836 25839 25842 25845 25848 25851 25854 25857 25859 25862 25865 25868 25871 25874 25877 25880 25883 25886 25889 25892 25895 25897 25900 25903 25906 25909 25912 25914 25917 25920 25923 25926 25929 25932 25935 25938 25941 25944 25947 25950 25953 25956 25959 25962 25965 25968 25971 25974 25977 25980 25983 25985 25988 25991 25994 25997 26000 26003 26006 26008 26011 26014 26016 26019 26022 26025 26028 26031 26034 26037 26040 26043 26046 26049 26051 26054 26056 26059 26062 26065 26068 26071 26073 26076 26078 26080 26083 26086 26089 26091 26094 26097 26100 26102 26104 26107 26110 26113 26116 26119 26122 26125 26128 26131 26134 26137 26140 26143 26146 26149 26152 26155 26158 26161 26164 26167 26170 26173 26176 26179 26182 26185 26188 26191 26194 26197 26200 26202 26205 26208 26211 26214 26217 26220 26223 26226 26229 26232 26235 26238 26240 26243 26246 26249 26251 26254 26257 26260 26263 26266 26269 26272 26275 26278 26281 26284 26287 26290 26293 26296 26299 26302 26305 26308 26311 26314 26317 26320 26323 26326 26329 26332 26335 26337 26340 26343 26346 26349 26351 26353 26355 26358 26360 26362 26365 26368 26371 26373 26376 26379 26382 26385 26388 26391 26393 26396 26399 26402 26405 26408 26411 26414 26417 26420 26423 26426 26429 26432 26435 26438 26441 26444 26447 26450 26453 26456 26459 26462 26465 26468 26471 26474 26477 26480 26482 26485 26488 26491 26493 26496 26499 26502 26505 26508 26511 26514 26517 26520 26523 26526 26529 26531 26534 26537 26540 26543 26545 26548 26551 26554 26556 26559 26562 26565 26568 26570 26573 26575 26578 26581 26584 26587 26590 26593 26595 26598 26600 26603 26606 26609 26612 26615 26617 26620 26623 26626 26629 26631 26634 26637 26640 26642 26645 26648 26651 26654 26657 26660 26663 26665 26668 26671 26673 26676 26679 26681 26684 26687 26690 26693 26696 26699 26702 26705 26708 26711 26714 26717 26720 26723 26726 26729 26732 26735 26738 26741 26744 26747 26750 26752 26755 26757 26760 26763 26766 26768 26771 26773 26776 26778 26780 26783 26786 26789 26792 26795 26798 26801 26804 26806 26809 26812 26815 26818 26821 26824 26827 26830 26833 26836 26839 26842 26845 26848 26851 26854 26857 26860 26863 26865 26868 26871 26874 26877 26880 26883 26886 26889 26891 26894 26897 26900 26903 26906 26909 26912 26915 26918 26921 26924 26927 26930 26933 26936 26939 26942 26945 26948 26951 26954 26957 26960 26963 26966 26969 26972 26975 26978 26981 26984 26987 26990 26993 26996 26999 27002 27005 27008 27011 27014 27017 27020 27023 27026 27029 27032 27035 27038 27041 27044 27047 27050 27053 27056 27059 27062 27065 27068 27071 27074 27077 27080 27082 27085 27088 27091 27094 27096 27099 27102 27105 27108 27110 27113 27116 27119 27122 27125 27128 27131 27134 27137 27140 27143 27145 27148 27151 27153 27155 27158 27161 27164 27167 27170 27172 27175 27178 27181 27184 27187 27190 27193 27196 27199 27202 27205 27208 27211 27213 27216 27219 27221 27224 27227 27230 27233 27236 27239 27242 27245 27248 27251 27254 27257 27259 27262 27265 27267 27270 27273 27276 27279 27282 27285 27288 27291 27294 27297 27300 27303 27306 27309 27312 27315 27318 27321 27324 27327 27330 27333 27335 27338 27341 27344 27346 27348 27351 27354 27357 27360 27362 27365 27368 27370 27373 27375 27378 27381 27384 27387 27389 27392 27395 27397 27400 27403 27406 27409 27411 27414 27417 27420 27422 27425 27427 27429 27432 27435 27438 27441 27444 27446 27449 27452 27455 27458 27461 27464 27467 27469 27472 27475 27477 27480 27483 27485 27488 27490 27493 27496 27499 27502 27505 27508 27511 27514 27517 27520 27523 27526 27529 27531 27534 27537 27540 27543 27546 27549 27552 27555 27558 27561 27564 27567 27570 27573 27576 27578 27580 27583 27586 27589 27592 27594 27597 27600 27603 27606 27609 27612 27615 27618 27621 27623 27626 27629 27632 27635 27637 27640 27643 27646 27649 27652 27655 27658 27660 27663 27666 27669 27672 27675 27678 27681 27683 27686 27689 27692 27695 27698 27701 27704 27707 27710 27713 27716 27719 27722 27725 27728 27731 27734 27737 27740 27743 27746 27749 27752 27755 27758 27761 27764 27767 27770 27773 27776 27779 27782 27785 27788 27791 27794 27797 27800 27803 27806 27809 27812 27814 27817 27820 27823 27826 27829 27832 27835 27838 27841 27844 27847 27850 27853 27856 27859 27862 27865 27868 27871 27874 27877 27880 27883 27886 27889 27892 27895 27898 27900 27903 27906 27908 27911 27914 27917 27920 27923 27926 27929 27932 27934 27937 27940 27943 27946 27949 27952 27955 27958 27961 27964 27967 27970 27973 27976 27979 27982 27985 27988 27991 27994 27997 28000 28003 28006 28009 28012 28015 28017 28020 28023 28026 28029 28032 28035 28038 28041 28044 28047 28050 28053 28056 28059 28062 28064 28067 28070 28073 28076 28078 28081 28084 28087 28090 28093 28096 28098 28101 28104 28107 28110 28112 28115 28118 28121 28124 28127 28130 28132 28135 28138 28141 28144 28147 28150 28153 28156 28159 28162 28165 28168 28170 28173 28176 28179 28182 28185 28188 28191 28193 28195 28198 28200 28202 28205 28208 28210 28213 28216 28218 28220 28223 28226 28228 28231 28233 28236 28239 28242 28245 28247 28250 28252 28255 28257 28260 28263 28265 28268 28270 28272 28275 28278 28281 28283 28286 28289 28292 28295 28298 28301 28304 28307 28310 28313 28316 28318 28321 28324 28326 28329 28332 28335 28337 28340 28342 28344 28347 28350 28352 28355 28357 28360 28362 28365 28367 28370 28373 28376 28378 28381 28384 28387 28389 28392 28394 28396 28399 28402 28404 28407 28410 28413 28415 28418 28421 28424 28427 28429 28432 28434 28437 28440 28443 28446 28449 28452 28455 28458 28461 28464 28466 28469 28472 28475 28477 28480 28483 28486 28489 28492 28495 28498 28501 28504 28507 28510 28513 28516 28518 28521 28524 28527 28530 28533 28536 28539 28542 28545 28548 28551 28554 28556 28558 28561 28564 28567 28570 28573 28576 28579 28582 28585 28588 28591 28594 28597 28600 28603 28606 28609 28612 28615 28618 28621 28624 28627 28629 28632 28635 28638 28640 28643 28646 28648 28651 28653 28656 28658 28661 28664 28667 28670 28673 28676 28679 28681 28683 28686 28689 28692 28695 28698 28700 28702 28705 28708 28711 28714 28717 28719 28722 28725 28728 28730 28733 28736 28738 28740 28743 28746 28749 28752 28754 28756 28759 28762 28764 28767 28770 28773 28775 28777 28779 28782 28785 28787 28790 28793 28796 28799 28802 28805 28808 28811 28814 28817 28820 28822 28825 28828 28831 28834 28837 28840 28842 28845 28848 28851 28853 28856 28858 28861 28864 28867 28870 28873 28875 28878 28881 28884 28887 28890 28893 28896 28899 28902 28905 28908 28910 28912 28915 28918 28921 28924 28927 28929 28932 28935 28938 28941 28944 28947 28950 28952 28955 28958 28960 28963 28966 28969 28971 28974 28977 28980 28983 28986 28989 28992 28995 28997 29000 29003 29005 29008 29010 29012 29015 29018 29021 29023 29026 29029 29032 29035 29038 29041 29043 29046 29049 29052 29055 29058 29061 29064 29067 29069 29072 29075 29078 29081 29084 29086 29089 29092 29095 29098 29101 29104 29107 29110 29113 29116 29119 29121 29124 29127 29130 29132 29135 29138 29141 29144 29147 29150 29153 29156 29158 29161 29163 29166 29169 29172 29174 29177 29180 29183 29186 29189 29192 29195 29198 29201 29204 29207 29210 29213 29216 29219 29222 29225 29228 29231 29234 29237 29240 29243 29246 29249 29252 29255 29258 29261 29264 29267 29270 29273 29276 29279 29282 29285 29288 29291 29294 29297 29300 29303 29306 29309 29312 29314 29317 29320 29323 29326 29329 29332 29335 29338 29341 29344 29346 29349 29352 29354 29357 29360 29363 29366 29369 29372 29375 29378 29381 29384 29386 29389 29392 29395 29398 29401 29404 29407 29409 29412 29415 29418 29421 29423 29425 29428 29431 29433 29436 29439 29441 29444 29447 29449 29452 29454 29457 29460 29463 29466 29469 29471 29474 29477 29480 29482 29485 29487 29490 29492 29495 29498 29501 29503 29506 29508 29511 29514 29517 29520 29523 29526 29529 29532 29535 29538 29541 29543 29546 29549 29551 29554 29557 29559 29562 29565 29568 29570 29573 29576 29578 29581 29584 29586 29588 29591 29594 29597 29600 29602 29604 29606 29609 29612 29615 29618 29621 29624 29627 29629 29632 29634 29637 29640 29643 29645 29647 29650 29653 29656 29658 29661 29664 29667 29670 29672 29675 29678 29681 29684 29687 29690 29693 29696 29699 29702 29704 29707 29710 29712 29715 29717 29720 29723 29726 29729 29732 29735 29738 29741 29743 29746 29749 29752 29755 29758 29761 29764 29767 29770 29773 29776 29779 29782 29785 29788 29791 29793 29796 29799 29802 29804 29807 29810 29812 29815 29818 29821 29824 29827 29830 29833 29836 29839 29841 29844 29847 29850 29852 29855 29858 29861 29864 29867 29870 29872 29875 29878 29881 29884 29887 29890 29893 29896 29899 29902 29905 29908 29911 29914 29917 29919 29922 29925 29928 29931 29934 29936 29939 29942 29945 29948 29951 29954 29957 29960 29963 29965 29968 29971 29973 29976 29978 29981 29984 29986 29989 29992 29995 29997 30000 30003 30005 30008 30011 30014 30017 30020 30023 30026 30029 30032 30035 30037 30040 30043 30046 30049 30052 30054 30057 30060 30063 30066 30069 30072 30075 30078 30081 30084 30086 30088 30091 30094 30097 30099 30102 30105 30107 30109 30111 30113 30116 30119 30122 30125 30128 30130 30133 30135 30138 30141 30143 30146 30148 30151 30154 30156 30159 30162 30164 30167 30169 30172 30175 30177 30180 30183 30186 30189 30192 30195 30198 30201 30204 30206 30209 30212 30215 30218 30220 30223 30226 30229 30232 30234 30236 30238 30241 30244 30247 30249 30252 30255 30258 30261 30264 30267 30269 30272 30275 30278 30281 30284 30287 30290 30293 30296 30299 30302 30305 30308 30311 30314 30317 30319 30322 30325 30328 30330 30333 30336 30338 30341 30343 30346 30348 30350 30353 30356 30359 30362 30364 30367 30370 30373 30376 30379 30382 30385 30388 30391 30394 30397 30400 30403 30406 30409 30412 30415 30418 30421 30424 30427 30430 30433 30436 30439 30442 30445 30448 30451 30454 30457 30460 30463 30466 30469 30472 30475 30478 30481 30484 30487 30490 30493 30496 30499 30502 30505 30508 30511 30514 30517 30520 30522 30525 30527 30530 30533 30536 30538 30541 30544 30547 30549 30552 30555 30558 30561 30564 30567 30570 30573 30576 30579 30582 30585 30588 30591 30594 30597 30600 30603 30606 30609 30612 30615 30617 30620 30623 30626 30629 30632 30635 30638 30641 30644 30646 30649 30652 30655 30658 30660 30663 30666 30669 30672 30675 30678 30681 30684 30687 30690 30693 30696 30699 30702 30704 30706 30709 30712 30714 30717 30719 30722 30725 30727 30730 30733 30736 30739 30742 30745 30748 30751 30754 30757 30760 30763 30765 30768 30771 30774 30776 30779 30782 30785 30788 30791 30794 30797 30800 30803 30805 30807 30810 30813 30816 30819 30821 30823 30826 30829 30832 30835 30838 30841 30844 30846 30849 30852 30854 30857 30860 30863 30866 30868 30871 30874 30877 30879 30882 30885 30888 30890 30893 30896 30898 30901 30904 30907 30910 30912 30915 30918 30921 30924 30927 30929 30932 30935 30938 30941 30944 30947 30950 30953 30956 30959 30962 30964 30966 30969 30972 30975 30978 30980 30983 30986 30989 30992 30994 30996 30999 31002 31005 31008 31010 31013 31016 31019 31022 31024 31027 31030 31033 31036 31039 31041 31044 31047 31050 31053 31056 31058 31061 31064 31066 31068 31071 31074 31077 31080 31083 31086 31088 31091 31093 31096 31099 31101 31104 31107 31109 31111 31114 31117 31120 31123 31126 31128 31131 31134 31137 31140 31143 31145 31148 31151 31154 31157 31160 31163 31166 31169 31172 31175 31178 31181 31184 31187 31190 31193 31196 31199 31202 31205 31208 31211 31214 31217 31220 31223 31226 31229 31232 31234 31237 31240 31243 31246 31249 31252 31254 31257 31260 31263 31265 31268 31271 31274 31277 31280 31283 31285 31288 31291 31293 31296 31298 31300 31303 31306 31308 31311 31313 31316 31319 31322 31325 31328 31331 31334 31337 31340 31343 31346 31349 31352 31355 
</DataArray>
<DataArray type="UInt32" Name="types" format="ascii">
5 5 5 5 5 5 5 5 5 5 5 5 5 5 5 3 5 5 5 5 5 5 5 5 3 5 5 5 5 3 5 5 5 5 5 3 5 5 5 5 5 5 3 5 5 5 5 5 3 5 5 5 5 5 5 5 5 3 5 5 3 5 5 5 5 5 3 5 5 3 3 5 5 3 5 3 5 5 5 5 5 5 3 5 5 5 5 5 5 5 5 5 3 5 5 5 5 5 5 5 5 5 5 3 5 5 3 5 5 5 3 5 5 5 5 5 5 5 5 5 5 5 3 5 5 3 5 3 5 5 5 3 5 5 3 5 3 5 5 5 3 5 5 5 3 5 5 5 3 5 3 3 5 5 5 3 3 5 5 5 5 5 5 5 5 5 5 5 5 5 5 5 5 5 5 5 5 5 5 5 5 5 5 5 5 5 5 5 5 5 5 5 5 5 3 5 5 5 5 5 5 5 5 5 5 5 5 5 5 5 5 5 5 5 5 5 5 5 5 5 5 5 5 5 5 3 5 5 5 5 5 5 5 5 3 3 5 5 5 5 5 3 5 5 5 5 5 5 5 5 5 5 5 5 3 5 5 5 5 3 5 5 3 3 5 3 5 5 5 3 5 3 5 5 5 5 3 5 5 5 5 3 5 5 5 5 5 5 5 5 5 5 5 5 5 5 5 5 5 5 5 5 5 5 5 5 5 5 5 5 5 5 5 3 5 5 5 5 5 5 5 5 5 5 5 5 5 5 5 5 5 5 5 5 3 5 5 5 5 5 5 5 3 5 5 3 5 5 5 5 5 5 3 5 5 5 5 5 5 5 5 5 5 5 5 5 5 5 3 5 5 5 5 3 5 5 3 5 3 5 5 5 5 5 5 5 3 5 5 5 5 3 5 5 5 5 5 5 5 5 5 5 5 5 3 5 5 5 5 5 5 5 5 5 5 5 5 5 5 5 5 5 5 5 5 5 5 5 5 5 5 5 5 5 5 5 5 3 5 5 3 5 5 5 5 5 5 5 5 3 5 5 5 5 5 5 5 5 5 5 3 5 5 5 3 3 5 5 5 3 5 5 5 5 5 5 5 5 5 5 3 5 5 3 5 5 3 5 5 5 5 5 5 5 5 5 5 5 5 3 5 5 5 5 5 5 3 5 5 3 5 5 5 5 5 5 3 5 5 5 5 3 3 5 5 5 3 5 3 5 5 5 5 5 5 5 3 5 5 5 5 5 5 5 5 5 5 5 5 5 5 5 3 3 5 5 5 5 5 5 5 5 5 5 5 3 5 5 5 5 5 5 5 5 5 5 5 5 5 5 5 5 5 5 5 5 5 5 3 5 3 5 5 5 3 5 5 5 5 5 5 3 5 5 5 5 5 5 5 5 5 5 5 5 5 5 5 5 5 5 5 5 5 5 5 5 5 5 5 5 5 5 5 5 5 5 5 5 3 5 5 3 5 5 5 5 5 5 5 5 3 5 5 5 5 5 5 5 5 5 5 5 5 5 5 5 5 5 5 5 5 5 3 5 5 3 5 5 5 3 5 5 3 5 5 5 5 3 5 3 5 5 5 5 3 5 5 5 5 3 3 5 5 5 3 5 3 5 5 5 5 5 5 5 5 5 3 3 5 3 5 5 5 5 5 5 5 5 5 5 5 5 5 5 5 5 5 5 5 5 5 5 5 3 5 5 3 5 5 5 5 5 5 5 5 5 5 3 5 5 5 5 5 5 3 5 5 5 3 5 5 5 5 5 5 5 5 5 5 5 5 5 5 5 5 3 5 5 3 5 5 5 3 5 5 3 3 5 5 5 5 5 3 5 5 5 5 5 5 5 5 3 5 5 5 5 5 5 5 5 3 5 3 5 5 5 3 5 3 5 5 5 5 5 3 5 3 5 5 5 5 5 3 5 5 3 5 5 5 5 3 3 5 5 5 3 5 5 5 5 3 5 5 3 5 5 5 5 5 5 5 5 5 5 5 5 5 5 3 5 5 5 5 3 5 5 5 3 5 3 3 5 5 5 5 5 5 5 3 3 5 5 5 5 3 5 3 5 5 3 5 5 3 5 5 5 5 5 5 5 5 5 3 3 5 5 5 3 3 5 5 5 5 3 5 3 5 5 3 5 5 5 5 3 5 5 5 5 3 3 5 5 5 5 5 5 5 3 3 5 5 3 5 5 5 5 5 5 5 3 5 5 3 5 5 3 3 5 5 5 5 3 5 5 5 5 5 3 5 5 5 5 5 5 5 5 5 5 5 5 5 5 5 5 3 5 5 5 5 3 5 3 5 3 5 5 5 5 5 3 5 5 5 5 5 5 5 3 5 5 5 5 5 5 5 5 5 5 5 5 3 5 3 5 5 3 5 5 5 5 5 5 3 5 3 5 5 5 5 5 5 3 5 5 5 3 5 5 5 5 5 3 5 5 5 3 5 3 3 5 5 3 5 5 5 5 5 5 5 3 5 3 5 5 5 5 5 5 5 5 5 3 5 5 3 3 5 5 5 5 5 3 5 3 5 5 5 5 3 5 3 5 3 5 5 5 5 5 5 5 5 5 5 5 3 5 5 5 5 5 5 3 5 5 5 5 5 5 5 5 3 5 5 3 5 3 5 5 5 5 3 5 5 5 5 5 5 5 5 5 5 5 5 3 3 5 5 5 3 3 5 3 3 3 3 5 5 5 5 5 5 3 5 5 5 5 5 5 5 5 5 5 3 3 5 5 5 5 5 5 5 5 5 5 5 5 5 5 5 5 3 5 3 5 5 5 5 5 3 5 3 5 5 5 5 5 5 3 5 5 5 5 5 5 5 5 5 5 5 5 5 5 5 5 5 5 5 5 5 3 5 5 5 5 5 5 5 5 5 5 3 5 5 3 5 5 5 5 5 5 5 3 3 3 5 5 3 5 5 5 5 5 5 5 5 5 5 5 5 5 5 5 5 5 3 5 5 3 5 5 5 5 3 3 3 3 5 3 5 3 5 5 5 5 5 5 5 5 3 5 5 3 5 5 5 5 5 5 5 3 5 5 5 3 5 3 5 5 5 5 3 5 5 3 5 5 5 5 5 5 5 5 5 5 5 5 5 5 5 5 5 5 5 5 5 5 3 5 5 5 3 5 5 5 5 5 5 5 3 5 5 5 3 5 5 5 5 5 5 5 5 5 3 5 5 5 5 5 3 5 5 5 3 3 5 5 5 5 5 5 5 3 5 5 5 5 3 5 5 3 5 5 5 5 5 5 3 5 5 5 5 5 5 5 5 5 5 5 5 5 5 5 5 5 5 5 5 5 5 5 5 5 5 5 5 5 5 5 3 5 5 5 5 5 5 5 3 5 3 5 5 5 3 5 5 5 5 5 3 5 5 5 5 5 5 5 5 5 5 5 5 5 5 5 5 5 5 5 5 5 5 3 5 5 5 3 5 5 5 3 5 5 5 5 5 5 5 5 5 3 5 5 5 5 5 5 3 5 5 3 5 5 5 5 5 5 5 5 5 3 5 5 5 5 5 5 5 5 5 5 3 5 5 5 5 5 5 5 5 5 5 5 5 5 5 3 5 5 3 5 5 5 5 5 3 5 5 5 5 5 5 5 5 5 3 5 5 5 5 5 5 5 3 5 5 5 3 5 5 5 5 5 5 5 5 5 5 5 5 5 5 5 5 5 5 5 5 5 5 5 5 5 5 5 3 5 5 5 5 5 5 5 5 5 5 5 5 5 5 5 5 5 5 5 3 5 5 5 5 5 5 5 5 5 5 5 5 5 5 5 5 5 5 5 5 3 5 5 5 5 5 5 5 5 3 5 5 5 5 5 5 5 5 5 5 3 5 3 5 5 5 5 3 5 5 5 5 5 5 5 5 5 5 5 5 5 5 5 5 5 5 5 5 5 5 5 5 5 5 5 3 5 5 3 5 5 5 5 5 5 3 5 5 5 3 5 5 5 5 5 3 5 5 5 3 5 5 5 5 3 5 5 5 5 5 3 5 5 5 5 5 5 5 5 5 5 3 5 3 5 5 3 5 3 5 5 5 5 5 5 3 5 5 5 5 5 5 5 5 3 5 5 5 3 5 3 5 5 5 5 5 5 5 5 5 5 3 5 5 5 5 5 5 5 5 5 5 5 5 5 5 5 5 5 5 5 5 5 5 5 5 5 5 5 5 5 5 5 5 5 5 5 5 5 5 5 5 5 5 5 5 5 5 5 5 5 5 5 5 5 5 5 5 5 5 5 5 3 5 5 5 5 5 5 5 3 5 5 5 3 5 3 5 5 5 5 5 5 5 5 5 3 5 5 5 5 5 5 5 5 5 5 5 5 5 5 5 5 5 5 5 5 5 5 5 5 5 5 5 5 5 5 5 5 5 5 5 5 5 5 5 5 5 5 5 5 5 5 5 5 5 5 5 5 5 5 5 5 3 5 5 5 5 5 5 5 5 5 5 5 5 5 3 5 5 5 5 5 5 5 5 5 5 5 5 5 5 3 5 5 5 5 5 3 5 5 5 5 5 5 5 5 5 5 5 5 5 5 5 5 5 5 5 5 5 5 5 5 5 5 5 5 3 5 3 5 5 5 5 5 3 5 5 3 5 5 5 5 5 5 5 5 5 5 5 5 5 3 5 5 5 5 5 3 5 5 5 5 5 5 5 5 5 5 5 5 5 5 5 5 5 5 5 5 3 5 5 5 5 5 3 5 5 5 5 5 5 3 5 5 5 5 5 5 5 5 5 5 5 5 5 5 5 3 5 5 3 5 5 5 5 5 5 5 5 5 5 5 5 5 5 5 5 5 5 5 5 5 3 5 5 5 3 5 5 5 5 5 5 5 5 5 5 5 5 5 5 5 5 5 5 5 5 5 5 5 5 5 5 5 5 5 5 5 5 5 5 5 5 3 5 5 5 3 3 5 3 5 5 5 5 5 5 5 5 5 5 5 5 5 5 3 5 5 5 5 5 5 5 5 5 5 5 5 5 5 5 5 5 5 5 5 5 5 5 5 5 5 3 5 5 5 5 5 5 5 5 5 5 5 3 5 5 5 3 5 5 5 5 5 3 5 5 5 5 5 5 5 3 5 5 5 5 5 5 5 5 5 5 3 5 5 5 5 5 5 5 5 5 3 5 5 5 5 5 5 5 5 5 5 5 5 5 5 5 3 5 5 5 3 5 3 5 5 3 3 5 5 5 5 5 3 5 5 5 5 5 5 5 5 3 3 3 5 5 5 3 5 5 3 3 5 5 5 5 5 5 5 5 5 5 5 5 5 5 5 5 5 5 5 5 5 5 5 5 5 5 5 5 5 5 5 5 5 5 5 5 5 5 5 5 5 5 5 5 5 5 5 5 5 5 5 5 5 5 3 5 5 5 5 3 5 5 5 5 5 3 5 5 5 5 5 5 5 5 5 5 5 5 3 5 5 5 5 3 5 5 5 5 5 5 5 5 5 5 5 5 5 5 5 5 5 5 5 5 5 5 5 5 5 5 3 5 3 5 5 5 5 5 5 5 5 5 5 3 5 5 5 3 5 5 5 5 5 5 3 5 5 5 5 5 5 3 5 5 5 5 5 3 3 3 3 5 5 5 5 5 5 5 5 5 5 5 5 5 5 5 5 5 5 5 3 5 3 5 5 5 5 5 5 5 3 5 5 5 5 5 3 5 5 5 3 5 5 3 3 5 3 3 3 5 5 5 5 5 5 5 5 3 5 5 3 3 3 5 5 5 3 3 5 5 3 5 5 5 3 5 5 5 3 5 5 5 5 5 5 5 5 5 5 5 5 3 5 5 5 5 5 5 5 5 5 5 3 5 5 5 5 5 5 5 3 5 5 5 3 5 5 5 5 5 5 5 3 5 5 5 5 5 5 5 5 5 5 5 5 5 5 5 5 5 5 5 5 5 5 3 5 5 5 5 5 5 5 5 5 5 5 5 5 5 5 5 5 5 5 5 5 5 5 3 5 5 3 5 5 5 5 5 5 5 5 5 5 5 5 5 5 5 5 5 5 5 5 5 5 5 5 5 3 5 5 5 5 5 5 5 5 5 5 5 5 5 3 5 5 5 5 5 5 5 5 5 5 5 5 5 3 5 5 3 5 5 5 5 5 5 5 5 3 5 5 5 3 5 5 5 5 5 5 5 3 5 3 5 3 5 5 3 5 3 5 5 5 5 5 3 5 3 5 5 5 3 5 5 5 5 5 5 5 5 5 5 5 5 3 5 5 5 5 3 5 5 3 5 5 5 5 5 5 5 3 5 5 5 3 5 5 5 5 3 5 5 3 5 5 3 5 3 5 5 5 5 5 5 5 5 5 3 5 5 5 5 3 3 5 5 5 5 5 5 5 5 3 5 3 5 5 5 3 3 5 5 5 5 5 5 5 3 5 5 5 5 5 3 5 5 5 3 5 5 5 5 5 5 5 3 5 5 5 5 5 5 5 5 5 5 5 5 3 5 5 3 5 5 5 5 5 5 5 5 5 5 3 5 5 5 5 5 5 5 5 5 5 5 5 3 5 5 5 5 5 5 5 5 5 5 5 5 5 5 5 3 5 5 5 3 5 5 5 5 5 5 5 5 5 5 5 5 5 5 5 3 5 3 5 5 5 5 5 5 5 5 5 5 5 5 5 3 5 5 5 5 5 5 5 5 5 5 5 5 5 5 5 5 5 5 5 5 5 5 5 5 5 5 5 5 5 5 5 5 5 5 5 5 5 5 5 5 5 5 5 5 5 5 3 5 5 5 5 5 3 5 5 5 5 5 5 5 5 5 5 5 5 5 5 5 5 5 3 5 5 5 5 5 5 5 5 5 5 5 5 5 5 5 5 5 5 5 5 5 5 5 5 5 5 5 5 5 5 5 5 5 3 5 5 5 3 5 5 5 5 5 5 5 5 5 5 5 3 5 5 5 5 5 5 3 5 5 5 5 5 3 5 5 5 5 5 5 5 5 5 5 5 3 5 5 5 5 3 5 5 3 5 5 5 5 3 3 3 3 5 5 3 3 5 3 3 5 5 5 5 5 5 5 5 5 5 3 5 5 5 5 5 5 5 5 5 5 5 5 5 5 5 5 3 5 3 5 5 3 5 5 5 3 5 5 5 3 5 5 5 5 5 5 5 5 5 5 3 5 5 5 5 5 5 5 5 5 5 3 5 5 5 5 5 5 3 5 5 5 5 5 5 5 5 5 5 5 5 5 5 3 5 5 5 5 3 5 5 5 5 5 3 5 5 5 5 5 5 5 5 5 5 5 5 5 5 5 5 5 5 5 5 5 5 5 5 5 5 5 5 5 5 5 5 5 5 5 5 5 5 5 5 5 5 5 5 5 5 5 5 5 5 5 5 5 5 5 5 5 5 5 5 5 5 5 5 5 5 5 5 5 5 5 5 5 5 5 5 5 5 3 5 5 5 5 5 5 5 5 5 5 5 5 5 5 5 5 5 3 5 5 5 5 5 5 5 3 5 5 5 5 3 5 5 5 5 5 5 5 5 5 5 3 5 5 5 3 5 3 5 5 5 5 5 3 5 5 3 3 5 5 5 5 5 5 5 3 5 5 5 5 5 5 5 5 5 5 5 5 3 5 5 5 5 3 5 5 5 5 5 5 5 5 3 3 5 5 5 5 5 5 5 5 5 5 5 5 5 3 5 3 5 5 3 5 5 3 5 5 5 5 5 5 5 3 5 5 5 3 5 5 5 5 5 3 5 5 5 5 5 5 3 5 5 5 5 5 5 5 5 5 5 3 5 5 5 5 5 5 5 5 5 5 5 5 5 3 5 5 5 5 5 5 5 5 5 5 5 5 3 5 5 5 5 3 5 5 5 3 3 5 5 5 5 5 5 5 3 3 5 5 5 5 5 3 5 5 5 5 5 5 5 3 5 5 3 5 5 5 5 5 3 5 5 5 5 5 5 5 3 5 5 5 5 3 5 5 5 5 5 5 5 5 5 5 5 5 5 5 5 5 5 3 5 5 5 5 5 5 5 3 5 5 5 5 5 5 5 5 5 5 5 5 5 5 5 5 5 5 3 5 5 5 5 5 5 5 5 5 5 3 5 5 5 5 5 5 5 5 5 5 5 5 5 5 5 5 5 5 5 5 5 5 5 5 5 3 5 5 5 5 5 5 5 3 5 5 5 5 5 3 5 3 3 5 5 5 5 5 5 5 5 5 5 5 5 5 5 5 5 3 5 5 5 3 5 5 5 5 5 3 5 5 5 5 5 5 5 5 5 5 5 3 5 5 3 5 5 5 5 5 5 5 5 5 5 5 5 5 5 5 5 5 5 5 5 5 5 5 5 5 5 5 5 5 5 5 5 5 5 5 5 3 5 3 5 5 5 3 5 5 5 5 5 5 5 5 5 5 5 5 5 3 5 5 5 3 5 5 5 5 5 5 5 5 5 5 5 5 5 5 5 5 5 5 5 5 5 5 5 5 5 5 3 5 5 5 3 5 5 5 5 5 5 5 5 5 5 5 5 3 5 5 5 3 5 5 5 5 5 3 5 5 5 5 5 5 5 5 5 5 5 5 5 5 5 5 5 5 5 5 5 3 5 5 5 5 5 5 5 5 5 5 5 5 5 5 5 5 3 5 3 5 5 5 5 5 5 5 5 5 5 5 5 5 5 5 5 5 5 5 3 5 5 3 5 5 5 5 5 5 3 5 5 5 5 5 5 5 5 5 5 5 5 5 3 5 3 3 5 5 5 5 3 5 5 5 5 5 5 5 5 5 5 5 5 5 5 5 5 5 5 5 5 5 5 5 5 3 5 5 5 5 5 5 5 5 5 5 5 5 3 5 5 5 5 3 5 3 5 5 5 5 5 3 5 5 5 5 5 5 5 5 5 5 5 3 3 3 5 5 3 3 5 5 5 5 5 3 5 5 3 5 5 5 5 5 5 5 3 5 5 5 5 5 5 5 5 5 5 5 5 5 5 3 5 5 5 5 5 5 5 5 5 3 5 5 3 5 5 3 5 3 5 5 3 5 3 5 3 5 5 5 3 5 3 5 3 3 3 5 5 5 3 5 5 3 3 3 5 5 5 3 5 5 5 3 3 5 5 5 3 3 3 5 5 5 5 5 5 5 5 5 5 5 3 5 5 5 5 5 5 3 5 5 3 5 5 5 5 5 5 5 5 5 5 5 5 5 5 3 5 5 3 3 5 3 5 3 5 5 5 5 5 5 5 5 5 3 5 5 5 5 5 3 5 5 5 5 5 5 5 5 5 5 5 5 3 5 5 5 5 3 3 5 5 5 5 3 3 5 3 3 5 5 5 5 5 5 5 5 5 5 5 3 3 5 5 5 5 5 5 5 5 5 5 5 5 5 5 5 5 5 5 5 5 5 5 5 5 3 5 5 5 5 5 3 5 3 5 5 5 5 5 5 5 5 5 5 5 3 5 5 5 3 5 5 5 5 5 5 5 5 5 5 5 5 5 5 5 5 5 5 5 5 5 5 3 5 5 5 3 5 5 5 5 5 5 5 5 5 5 5 5 5 5 5 5 5 5 5 5 5 5 5 5 5 5 5 5 5 5 5 5 5 5 5 5 5 5 5 5 5 5 5 5 5 5 3 5 5 3 5 5 5 3 5 5 5 5 5 5 5 5 5 5 5 5 5 5 5 5 5 5 5 5 5 5 5 5 5 5 3 3 5 3 5 5 3 3 5 5 3 3 5 5 5 5 5 5 3 5 5 5 5 5 5 5 3 5 3 5 3 5 5 5 5 3 5 5 5 5 5 3 5 5 5 5 5 5 5 5 5 5 5 5 3 3 3 5 5 5 3 5 5 5 5 5 5 5 3 5 3 5 3 5 3 5 5 5 3 3 5 5 5 5 5 5 5 5 5 5 3 5 3 5 5 5 5 5 3 5 3 5 5 5 5 5 5 5 5 5 3 3 5 5 3 5 3 3 5 5 5 5 3 3 5 5 5 3 5 5 3 5 5 5 5 3 5 5 5 5 3 5 3 5 5 5 5 5 5 5 5 3 5 5 3 5 5 3 5 5 5 5 3 5 3 5 3 3 5 3 5 3 3 5 5 3 3 3 3 3 5 5 5 5 5 5 5 5 5 5 5 5 5 5 5 5 5 5 3 5 5 5 3 3 5 5 5 5 5 5 3 5 5 5 3 3 5 5 5 5 5 3 5 3 5 3 3 5 5 5 5 5 3 5 3 5 3 5 5 3 5 5 5 3 5 5 3 3 5 3 5 3 5 5 5 3 3 5 3 3 5 5 5 5 5 5 5 5 5 3 5 3 5 5 5 3 5 5 3 3 5 3 5 5 5 5 5 3 3 5 5 3 5 5 5 5 5 5 5 5 3 5 5 5 5 5 3 5 3 3 5 5 5 5 3 5 3 5 3 5 3 5 5 5 5 5 5 3 5 5 5 5 5 5 5 5 5 5 5 5 5 5 3 5 3 5 5 3 5 5 5 5 5 5 5 5 3 5 3 5 5 5 3 5 5 5 5 5 3 5 5 5 5 3 5 3 5 3 5 5 5 3 5 5 5 3 5 3 5 3 5 3 5 3 5 5 5 5 5 5 5 5 5 5 5 5 5 5 5 5 5 5 5 5 5 5 5 3 5 5 5 5 5 5 5 5 5 5 5 5 5 5 5 5 5 5 5 5 5 5 5 5 5 5 5 5 5 5 5 5 5 5 5 5 3 3 5 5 5 5 5 5 3 5 5 3 5 3 5 3 5 5 5 3 5 5 3 5 5 3 5 5 3 5 5 5 5 5 5 5 5 5 5 5 5 5 5 5 5 5 5 5 5 5 3 5 5 5 5 5 5 5 3 5 3 5 5 5 5 5 5 5 5 5 5 5 5 5 5 3 5 5 5 5 5 5 5 5 5 5 5 5 3 5 5 5 5 5 5 3 5 3 3 5 5 5 5 5 5 5 5 3 5 5 5 5 5 5 5 5 5 3 5 5 5 5 5 5 5 5 5 5 5 5 5 5 5 3 5 5 5 3 5 5 5 5 5 5 5 5 5 5 5 5 5 5 5 5 3 5 3 5 5 5 3 5 5 3 5 5 5 5 5 5 5 5 5 5 5 5 5 5 5 5 5 5 5 3 5 5 3 5 5 5 5 5 5 5 5 5 5 5 5 5 5 5 5 5 5 5 5 5 5 5 5 5 5 5 5 5 5 5 5 5 5 5 5 5 5 5 5 5 5 5 5 5 5 5 3 5 5 5 5 5 5 5 5 5 5 5 5 3 5 5 5 5 5 5 3 5 5 3 3 5 3 3 3 5 5 5 5 5 3 5 5 3 3 5 5 3 5 3 3 3 5 5 3 5 5 5 5 3 5 5 5 5 5 3 5 5 5 5 5 5 3 5 3 5 3 5 5 5 5 5 5 5 5 3 5 5 5 5 5 5 5 5 5 5 3 5 5 3 5 5 5 5 5 5 5 5 5 5 5 3 5 5 5 5 5 5 5 5 3 3 5 5 3 5 5 5 5 3 5 5 3 5 5 5 3 5 3 3 5 5 5 3 5 3 3 5 3 5 5 3 3 5 5 3 5 5 5 3 3 5 5 5 5 3 5 5 5 5 3 5 3 3 5 3 3 5 5 5 5 5 5 5 5 3 5 5 5 5 5 5 5 3 3 5 5 3 5 5 5 3 5 3 5 3 3 5 3 5 5 3 5 3 5 5 3 3 5 5 5 5 5 3 5 5 5 5 3 3 5 5 5 5 5 3 5 5 3 5 5 5 5 5 5 5 3 5 5 5 3 5 5 5 5 5 3 5 5 5 3 5 3 5 5 5 5 5 3 5 5 5 5 5 5 5 5 3 5 5 5 5 5 5 5 5 5 3 5 5 5 5 5 5 5 5 5 3 3 5 5 5 5 5 5 3 5 3 5 5 5 3 3 5 5 3 5 5 5 5 5 5 5 5 5 5 5 5 5 5 5 5 5 5 5 5 5 5 5 5 5 5 5 5 5 5 5 5 5 5 3 5 5 3 5 5 5 3 5 5 5 3 5 5 5 5 5 5 3 3 5 5 5 5 5 5 3 5 5 5 5 5 5 5 5 5 5 5 3 5 5 5 3 5 5 5 5 5 5 5 5 5 5 5 3 5 5 5 5 5 3 5 3 5 5 5 3 5 5 3 3 5 3 5 5 5 5 5 3 5 5 5 5 5 5 5 5 5 3 5 5 5 3 5 5 5 5 5 5 3 5 5 5 3 5 5 5 5 5 5 5 5 5 5 3 5 5 3 5 3 3 5 5 3 5 3 3 3 5 5 5 5 5 5 5 3 3 5 5 5 3 5 5 3 5 5 5 5 5 5 5 5 5 3 5 3 5 3 5 5 5 5 5 5 5 5 5 3 5 5 5 5 3 5 5 5 5 5 5 5 5 5 5 3 5 5 5 5 3 5 5 5 5 5 5 5 5 5 5 5 5 3 3 3 5 5 5 5 5 5 5 3 5 5 3 5 3 5 5 5 5 5 3 3 5 5 5 5 5 5 5 5 5 3 5 5 3 3 5 5 5 5 3 5 3 5 5 5 5 3 5 5 5 3 5 5 5 5 5 5 5 5 5 5 5 5 5 5 5 5 5 5 5 5 5 5 5 5 5 5 3 3 5 5 5 5 3 5 3 3 5 3 5 5 5 5 5 5 5 5 5 5 3 5 5 5 5 5 5 5 3 5 5 5 3 5 5 5 5 3 5 5 5 5 5 5 3 5 5 5 5 5 5 3 3 5 3 5 3 5 5 5 5 5 5 3 5 5 5 5 5 3 5 5 5 5 5 5 3 5 5 5 5 5 5 5 3 5 5 5 3 5 5 5 3 5 5 5 3 3 5 3 5 5 5 5 5 5 5 5 5 5 5 5 5 5 5 5 5 5 5 5 5 5 3 3 5 3 5 5 5 5 3 5 5 3 5 5 3 5 5 5 5 3 5 5 3 3 5 5 5 5 3 5 5 5 5 5 5 5 5 5 5 5 5 5 5 3 5 5 5 5 3 5 5 5 3 5 5 5 5 3 5 3 5 3 5 3 5 5 3 5 5 5 5 5 5 3 3 5 5 3 5 5 5 5 3 5 5 5 5 5 5 5 5 5 5 5 3 5 5 5 5 3 3 3 5 5 3 3 5 5 3 3 5 5 5 5 5 3 5 5 5 5 5 3 3 5 3 5 5 5 5 5 5 5 5 5 5 3 5 5 5 5 5 5 5 5 5 5 5 5 5 5 5 5 5 5 5 5 5 5 5 5 5 5 3 5 5 5 3 5 5 3 5 5 5 5 5 5 5 5 5 5 5 3 5 5 5 5 5 5 5 5 5 5 5 5 5 5 5 5 5 5 5 5 3 3 5 5 5 5 3 5 5 3 5 3 5 5 5 5 5 3 5 3 5 5 5 3 3 5 5 5 5 3 3 5 5 5 5 5 5 5 5 5 5 5 3 3 3 5 5 5 3 5 3 5 5 3 5 5 5 5 3 5 5 5 3 5 3 5 3 5 5 5 3 3 3 3 5 5 3 5 5 3 5 5 3 3 5 5 3 5 5 3 5 5 5 3 5 5 5 5 5 5 5 5 5 5 5 5 5 5 5 5 5 5 5 5 5 5 5 5 5 5 5 3 5 5 5 5 5 3 5 5 3 5 5 5 5 5 5 5 5 3 5 5 5 5 5 5 5 5 5 5 5 5 3 5 5 5 5 5 5 3 5 3 5 5 5 5 5 3 5 5 5 5 5 3 5 5 3 5 5 5 3 5 5 5 3 5 5 5 5 5 5 5 5 3 5 5 5 5 5 5 5 5 5 3 5 5 5 5 5 5 5 5 3 5 5 3 5 5 5 5 5 5 5 5 5 5 5 5 5 5 5 3 5 5 3 5 5 3 5 5 3 5 3 5 5 5 5 5 5 5 5 5 5 5 3 5 5 3 5 5 5 5 3 5 5 3 5 5 5 3 5 5 5 3 5 3 3 5 5 5 3 5 5 5 5 3 5 5 5 5 5 3 5 5 3 3 3 5 5 5 5 5 5 5 3 5 3 5 5 3 5 5 5 5 5 3 5 5 3 5 3 3 5 5 5 5 5 3 5 5 5 5 5 5 5 3 5 5 3 5 5 3 5 3 5 5 5 5 5 5 3 5 3 5 5 5 5 5 5 5 5 5 5 5 5 5 5 3 3 5 5 3 5 5 5 3 5 5 5 5 5 5 5 5 5 5 3 5 5 3 5 5 5 5 5 5 5 5 3 5 5 5 5 5 5 5 5 5 5 5 5 5 5 5 5 5 5 5 5 5 5 5 5 3 5 3 5 5 5 5 5 5 3 5 5 3 5 5 5 5 5 3 5 5 5 5 3 3 5 3 5 5 5 5 5 5 3 3 5 5 5 5 5 5 3 5 5 5 3 5 5 5 5 5 5 5 3 5 5 5 5 5 3 5 5 5 5 5 5 3 5 5 5 5 3 3 5 5 5 5 5 5 5 5 3 5 3 5 5 3 5 3 5 3 5 3 5 5 5 3 5 5 5 5 5 5 3 5 5 5 5 3 5 3 5 5 3 5 5 5 5 5 5 5 5 5 5 3 5 5 5 5 5 3 5 5 3 5 5 5 5 5 5 3 5 5 5 5 5 5 5 5 5 5 5 5 5 5 3 5 5 5 5 5 5 3 5 5 5 5 3 5 5 5 5 5 5 5 3 5 5 5 5 3 5 5 5 5 5 5 5 5 5 5 5 5 5 5 5 5 5 5 5 5 5 3 5 5 5 5 5 3 5 5 5 5 5 5 5 5 5 5 5 5 5 5 5 5 5 5 5 5 5 5 5 5 5 5 5 5 3 3 5 5 5 5 3 5 3 5 5 5 5 5 5 5 5 5 5 5 5 5 5 5 5 5 5 5 5 5 5 5 5 5 5 5 5 5 3 5 5 5 3 5 5 5 5 5 5 5 5 5 5 5 5 5 5 5 5 5 5 5 3 5 5 5 5 5 5 5 5 5 5 5 5 5 5 5 5 5 5 5 5 5 5 5 5 5 5 5 5 5 5 5 5 5 5 5 5 5 3 5 5 5 5 5 5 5 5 3 5 5 5 5 5 5 5 5 5 3 3 5 5 5 5 5 5 5 5 5 5 5 3 5 5 5 5 5 5 3 5 5 5 5 5 5 5 5 5 5 5 5 5 5 5 3 5 3 5 3 3 5 3 5 5 5 5 3 5 5 5 5 5 5 5 5 5 5 5 5 5 3 5 5 5 5 3 5 5 5 5 5 5 5 5 5 5 5 5 5 5 5 5 5 5 5 5 5 5 5 3 5 5 3 5 5 5 5 5 5 5 5 5 5 5 5 5 5 5 5 5 5 5 5 5 5 3 5 3 3 5 5 5 5 5 5 5 5 3 5 3 5 5 5 5 5 5 3 5 5 5 3 5 5 5 5 3 3 5 5 5 5 5 5 5 5 5 5 5 5 5 3 5 5 5 5 5 3 5 5 3 5 5 5 5 5 5 3 5 5 5 5 5 5 5 5 5 5 5 5 3 5 5 5 5 5 5 5 3 5 5 5 5 5 5 5 5 5 5 3 5 3 5 5 5 3 3 5 5 3 5 3 3 5 5 5 5 5 3 5 3 5 5 5 5 5 5 5 5 5 5 5 5 5 5 5 3 5 5 5 3 5 5 3 5 3 5 3 5 5 3 3 5 5 5 5 5 5 3 5 5 3 5 5 5 5 5 3 5 5 3 5 3 5 3 5 5 5 3 5 3 3 5 5 3 5 5 3 5 5 5 3 5 5 5 5 5 5 3 5 5 3 3 5 3 5 5 3 5 5 5 5 5 3 5 5 5 5 5 5 3 5 5 3 5 3 3 5 5 5 5 5 3 5 5 5 5 5 5 5 5 3 5 3 5 5 5 3 5 5 3 5 5 5 5 3 5 5 5 5 5 5 5 5 5 3 5 5 5 5 5 3 5 5 5 5 3 5 5 5 5 5 3 5 5 5 5 3 5 5 5 5 5 5 5 5 5 5 5 5 5 3 5 5 5 3 5 3 5 5 3 5 5 5 3 5 5 5 5 5 3 5 5 5 5 5 5 5 5 5 5 5 5 5 3 3 5 5 5 5 5 3 5 3 5 5 3 5 3 5 5 3 5 5 5 5 3 3 3 5 5 5 3 5 3 5 5 5 5 3 3 5 5 5 3 5 5 5 5 5 5 5 5 5 5 3 5 3 5 5 5 5 5 5 5 5 5 5 5 5 5 5 5 5 3 5 5 5 5 5 5 3 3 5 5 3 5 5 5 5 5 5 3 5 5 5 5 5 5 5 5 5 5 5 5 3 5 5 5 5 5 5 5 5 5 5 5 3 5 5 5 5 5 5 5 5 5 5 3 5 5 5 3 5 5 5 5 5 5 5 5 3 5 5 3 5 5 5 5 5 3 5 5 5 5 5 3 5 3 5 5 5 5 5 5 5 5 5 5 5 5 5 5 5 5 5 5 5 5 5 5 5 5 5 5 5 5 5 5 5 5 5 5 5 5 5 5 5 5 5 5 5 5 5 5 5 3 5 5 5 5 5 5 3 5 5 5 5 5 5 5 5 5 5 5 5 5 5 5 3 5 3 5 5 5 5 5 5 5 5 5 5 5 5 5 3 5 5 5 5 3 5 5 5 5 5 5 5 5 5 5 5 5 3 3 5 5 5 5 5 5 5 5 5 5 5 5 5 5 5 5 5 5 5 5 5 5 5 5 5 5 5 5 5 5 5 5 5 5 5 5 5 3 5 5 5 5 5 5 5 5 5 5 5 5 5 5 5 5 5 5 3 5 3 3 3 5 5 5 3 5 5 3 3 5 5 5 3 5 5 5 5 5 5 3 5 5 5 5 5 5 5 5 5 3 3 5 5 5 3 5 5 3 5 5 3 5 5 3 5 5 5 3 5 3 5 3 5 5 3 5 5 5 3 5 5 5 3 3 5 5 5 5 5 5 5 5 5 3 5 3 5 5 5 3 5 3 5 5 5 3 5 3 3 5 5 5 5 5 5 3 3 5 5 3 3 5 5 5 3 5 5 3 5 5 3 5 5 5 5 3 5 3 5 3 5 5 5 3 5 3 5 5 5 5 3 3 5 3 5 5 5 5 3 5 5 5 3 3 3 3 3 5 5 3 5 5 3 3 3 5 5 3 3 3 5 5 3 5 5 3 3 5 3 5 3 3 5 5 5 5 3 3 5 5 5 3 5 3 5 5 5 5 5 5 3 5 5 5 5 3 5 5 3 5 3 5 3 5 3 5 5 3 5 5 5 5 5 5 5 5 5 5 5 3 5 5 5 3 3 5 3 5 5 5 5 3 5 5 5 3 5 3 5 5 5 5 3 3 5 5 5 5 3 5 5 3 3 5 5 3 3 5 5 3 5 5 5 3 3 5 5 5 5 3 5 3 5 3 5 3 5 3 5 5 3 3 5 5 3 5 5 3 5 3 3 5 5 3 5 5 3 5 3 5 3 5 3 5 5 3 5 5 5 5 5 3 3 5 5 5 5 5 5 5 5 5 5 5 5 5 5 3 5 3 5 5 3 5 5 5 5 3 5 5 3 5 3 5 5 5 5 5 5 5 5 5 5 3 5 5 5 5 5 5 5 5 5 5 5 5 5 5 5 3 3 5 5 5 3 3 5 5 5 5 3 5 5 5 5 5 3 5 5 5 5 5 3 5 5 5 5 5 5 5 5 5 5 5 5 5 5 3 5 5 3 3 5 3 5 5 3 5 5 3 5 5 5 5 5 5 3 5 5 3 5 3 5 5 5 5 5 5 5 5 5 5 5 5 5 3 5 5 5 3 5 5 3 5 5 3 5 5 5 3 5 3 5 5 3 5 5 3 5 3 5 5 3 5 5 5 5 3 5 5 5 5 3 5 5 5 3 5 5 5 5 5 3 5 5 5 5 5 5 5 5 3 5 5 5 5 5 5 5 5 5 5 3 5 3 5 5 5 3 5 5 5 5 5 5 5 5 5 5 5 5 5 5 5 5 5 5 5 5 5 5 5 5 5 5 5 5 5 5 5 5 5 5 5 5 5 3 5 5 5 3 5 5 5 5 5 5 5 5 5 5 5 5 5 5 5 5 3 5 5 5 5 3 5 5 5 5 5 5 5 5 5 5 5 5 5 5 5 5 3 5 5 5 5 5 5 5 5 5 5 5 5 5 5 5 5 5 5 5 5 5 5 5 5 5 5 5 5 5 5 3 5 3 5 5 5 3 5 5 5 5 5 5 5 5 5 5 5 5 5 5 5 5 5 5 5 5 5 5 3 5 5 5 3 5 5 5 5 3 5 5 5 5 5 5 3 5 5 5 5 5 5 5 5 3 5 5 5 5 5 5 3 5 5 3 3 5 5 5 3 3 5 5 3 5 3 5 3 3 5 5 5 5 3 5 3 5 5 5 5 3 5 5 3 5 3 5 5 5 3 3 3 5 3 5 3 5 3 5 3 3 5 3 3 5 5 5 3 5 3 5 5 5 5 5 3 5 3 5 5 5 5 5 3 5 3 5 3 5 5 5 5 5 3 5 5 3 5 5 5 5 3 5 5 5 5 3 5 3 5 5 3 5 5 5 3 5 5 5 5 5 5 5 5 5 5 5 5 5 5 5 5 5 5 5 3 5 5 5 3 5 5 5 3 5 5 5 5 3 5 5 5 5 5 5 5 5 5 5 5 5 5 5 5 5 5 5 5 5 5 5 5 5 5 5 5 5 3 5 5 5 5 5 5 5 5 5 5 5 5 5 3 5 5 5 5 5 5 5 5 5 3 5 3 5 5 5 5 3 5 5 5 5 5 5 3 5 5 5 5 3 3 5 3 5 3 5 5 5 5 3 5 5 3 3 5 5 5 5 5 3 3 5 5 3 5 3 5 3 3 5 5 5 5 5 3 5 3 5 3 3 5 5 3 3 5 3 5 3 5 5 5 3 5 5 5 3 5 5 3 3 3 3 5 3 5 5 5 5 3 3 5 5 3 5 5 3 5 5 3 5 5 5 5 5 5 5 3 5 5 5 5 3 3 5 3 3 5 5 5 5 3 5 5 3 5 3 5 5 5 3 3 3 3 5 5 3 5 5 5 5 3 5 5 5 5 3 3 5 5 3 5 5 5 5 5 5 5 5 3 5 3 5 3 5 5 5 5 5 5 5 5 5 5 5 3 5 5 5 5 3 5 5 3 5 5 5 5 3 5 5 5 3 5 3 5 5 3 5 5 5 5 5 5 5 5 5 5 5 5 5 3 5 3 5 5 5 5 5 5 5 5 5 5 5 5 5 5 5 5 5 5 5 5 5 3 3 5 5 5 5 3 5 5 5 5 5 5 5 3 5 5 5 5 3 5 5 5 5 5 3 5 5 5 5 5 5 5 5 5 5 5 5 5 5 5 5 5 3 5 5 5 5 5 5 5 5 5 5 5 5 5 5 5 3 5 5 5 5 5 5 5 3 5 3 5 5 5 5 5 5 3 5 5 3 5 3 5 5 5 5 5 5 5 5 5 3 5 5 5 5 5 3 5 5 5 5 5 5 5 5 5 5 5 3 5 5 5 3 5 5 3 5 5 5 3 5 3 5 5 3 5 3 5 5 5 5 3 5 5 5 5 5 3 5 5 3 3 5 5 5 3 5 3 3 5 5 5 3 5 5 5 5 5 5 5 5 5 5 5 3 5 5 5 5 5 5 5 5 5 5 5 5 5 5 5 5 5 5 5 5 5 5 5 3 5 5 3 5 3 5 5 3 3 5 3 5 5 5 3 5 5 5 5 3 5 5 5 5 5 3 3 3 5 5 3 5 5 5 5 5 5 5 5 3 5 5 5 5 5 5 3 5 3 5 5 5 5 3 3 5 5 5 5 5 5 3 5 3 5 5 5 3 5 5 5 3 5 5 3 5 5 3 5 5 5 3 5 5 3 5 5 5 3 5 5 5 5 5 5 5 5 5 5 5 5 3 5 5 5 5 5 5 3 5 5 5 5 3 5 5 5 5 3 5 3 5 5 3 5 5 5 5 5 5 5 5 5 5 5 3 5 5 5 5 5 5 5 5 5 5 5 5 5 5 5 5 5 5 5 5 5 5 5 5 3 5 5 5 5 5 5 5 5 5 5 5 5 3 5 5 5 5 5 5 5 5 5 5 5 5 5 5 5 5 5 5 5 5 5 5 5 5 5 5 5 5 5 5 5 5 5 5 5 5 5 5 5 5 3 5 5 5 5 5 3 5 5 5 5 5 5 5 5 5 5 5 5 5 5 5 5 5 5 5 5 5 5 5 5 5 5 5 5 5 5 5 5 5 5 3 5 5 5 5 5 3 3 5 5 5 5 5 3 5 5 5 5 3 5 5 5 5 5 5 5 5 5 3 5 5 5 5 5 5 5 5 5 5 5 5 5 5 5 5 5 5 5 5 3 5 3 5 5 3 3 5 3 3 5 5 5 5 3 3 5 3 5 3 5 5 5 3 3 5 3 5 5 5 5 3 5 3 5 5 5 5 3 5 5 5 5 5 3 5 5 3 5 5 5 5 5 5 5 5 5 5 3 5 5 5 5 5 5 5 5 5 5 5 5 3 5 5 5 5 5 3 5 5 5 5 5 5 5 5 5 5 5 5 5 5 5 5 5 5 5 5 5 5 5 3 5 5 5 5 5 5 5 3 5 5 3 5 5 5 5 5 5 5 5 5 5 5 3 5 3 5 5 5 5 5 3 5 3 3 5 5 5 3 5 5 5 3 3 5 5 5 5 5 5 5 5 5 5 5 5 5 5 5 5 5 5 5 5 5 5 5 5 5 5 5 5 5 5 5 5 3 5 5 5 5 5 5 5 5 5 5 5 5 3 5 5 5 3 5 5 5 5 5 5 5 5 5 5 5 5 5 5 5 5 5 5 5 5 5 5 5 5 5 5 5 5 3 5 5 5 5 3 3 3 5 3 3 5 5 5 3 5 5 5 5 5 5 3 5 5 5 5 5 5 5 5 5 5 5 5 5 5 5 5 5 5 5 5 5 5 5 5 5 5 5 5 5 3 5 5 5 3 5 5 5 5 5 5 5 5 5 5 5 5 3 5 5 5 5 3 5 5 5 3 5 5 5 5 3 5 3 5 5 5 5 5 5 3 5 3 5 5 5 5 5 3 5 5 5 5 3 5 5 5 3 5 5 5 5 5 5 5 3 5 5 3 5 5 3 5 5 5 5 5 5 5 5 5 5 5 5 5 5 5 5 5 5 5 5 5 5 5 3 5 3 5 5 5 3 5 3 5 3 3 5 5 5 5 5 5 5 5 3 5 5 5 5 5 5 5 5 5 5 5 5 5 5 5 5 5 5 5 3 5 5 5 5 5 5 5 5 3 5 5 5 5 5 5 5 5 5 5 5 5 5 5 5 5 5 5 5 5 5 5 5 5 5 5 5 5 5 5 5 5 5 5 5 5 5 5 5 5 5 5 5 5 5 5 5 5 5 5 5 5 5 5 5 5 5 5 5 5 5 5 5 3 5 5 5 5 3 5 5 5 5 3 5 5 5 5 5 5 5 5 5 5 5 3 5 5 3 3 5 5 5 5 5 3 5 5 5 5 5 5 5 5 5 5 5 5 5 3 5 5 3 5 5 5 5 5 5 5 5 5 5 5 5 3 5 5 3 5 5 5 5 5 5 5 5 5 5 5 5 5 5 5 5 5 5 5 5 5 5 3 5 5 5 3 3 5 5 5 5 3 5 5 3 5 3 5 5 5 5 3 5 5 3 5 5 5 5 3 5 5 5 3 5 3 3 5 5 5 5 5 3 5 5 5 5 5 5 5 3 5 5 3 5 5 3 5 3 5 5 5 5 5 5 5 5 5 5 5 5 5 3 5 5 5 5 5 5 5 5 5 5 5 5 5 5 5 3 3 5 5 5 5 3 5 5 5 5 5 5 5 5 5 3 5 5 5 5 3 5 5 5 5 5 5 5 3 5 5 5 5 5 5 5 3 5 5 5 5 5 5 5 5 5 5 5 5 5 5 5 5 5 5 5 5 5 5 5 5 5 5 5 5 5 5 5 5 5 5 5 5 5 5 5 5 5 5 5 3 5 5 5 5 5 5 5 5 5 5 5 5 5 5 5 5 5 5 5 5 5 5 5 5 5 5 5 5 3 5 5 3 5 5 5 5 5 5 5 5 3 5 5 5 5 5 5 5 5 5 5 5 5 5 5 5 5 5 5 5 5 5 5 5 5 5 5 5 3 5 5 5 5 5 5 5 5 5 5 5 5 5 5 5 3 5 5 5 5 3 5 5 5 5 5 5 3 5 5 5 5 3 5 5 5 5 5 5 3 5 5 5 5 5 5 5 5 5 5 5 5 3 5 5 5 5 5 5 5 3 3 5 3 3 5 5 3 5 5 3 3 5 5 3 5 3 5 5 5 5 3 5 3 5 3 5 5 3 5 3 3 5 5 5 3 5 5 5 5 5 5 5 5 5 5 5 3 5 5 3 5 5 5 3 5 3 3 5 5 3 5 3 5 3 5 3 5 5 5 3 5 5 5 3 5 3 3 5 5 3 5 5 5 3 5 5 5 5 3 5 3 5 5 5 5 5 5 5 5 5 5 3 5 5 5 3 5 5 5 5 5 5 5 5 5 5 5 5 5 3 5 5 5 5 5 5 5 5 5 5 5 5 3 3 5 5 5 5 5 5 5 5 5 5 5 5 5 5 5 5 5 5 5 5 5 5 5 3 5 5 5 3 5 5 3 5 3 5 3 5 5 5 5 5 5 5 3 3 5 5 5 5 5 3 3 5 5 5 5 5 3 5 5 5 3 5 5 3 3 5 5 5 5 3 3 5 5 3 5 5 5 3 3 3 5 5 3 5 5 5 5 5 5 5 5 5 5 5 3 5 5 5 5 5 5 3 5 5 5 3 5 3 5 5 5 5 5 3 5 5 5 5 5 5 5 5 5 5 5 3 3 5 5 5 5 5 3 5 5 5 5 5 5 5 3 5 5 3 5 5 5 3 5 5 5 5 5 5 5 5 3 5 5 3 5 3 3 5 5 5 3 5 5 5 5 5 5 3 5 5 5 5 5 5 5 5 3 5 5 5 5 5 3 5 5 5 5 5 5 5 5 5 5 5 3 5 5 5 3 5 5 5 5 5 5 5 5 3 5 3 5 5 5 3 5 5 5 5 5 5 5 5 5 5 5 5 5 5 5 5 5 5 5 5 5 5 5 5 5 5 5 5 5 5 5 5 5 5 5 5 5 5 5 5 5 5 5 5 5 5 3 5 5 5 5 5 5 5 5 5 5 3 5 5 3 5 5 5 5 5 5 5 5 5 5 3 5 5 5 5 5 5 5 3 5 5 5 5 3 3 5 5 3 5 5 3 5 5 3 5 3 5 5 5 5 5 3 5 5 5 3 5 3 5 3 5 5 5 3 5 3 5 5 5 5 5 5 5 5 5 5 5 3 5 5 3 5 5 3 5 5 5 3 5 5 3 5 5 3 3 5 5 5 5 3 3 3 5 5 5 5 5 5 5 3 5 3 5 5 5 3 3 5 5 5 3 5 5 5 5 3 5 5 5 5 5 5 5 5 5 5 3 5 5 3 5 3 5 5 5 5 5 5 5 5 3 5 5 5 5 5 5 5 5 5 5 5 5 5 5 5 5 3 5 5 5 3 5 5 3 5 5 5 5 5 5 5 5 5 3 5 5 5 3 5 5 5 5 5 5 3 5 5 5 5 5 5 5 5 5 5 5 5 5 5 5 3 5 5 5 5 5 3 5 5 5 5 5 5 5 5 5 3 5 5 3 5 3 5 5 3 5 5 5 3 5 5 3 5 5 5 5 5 5 5 5 5 5 3 5 5 5 5 5 3 5 5 5 5 5 5 5 5 5 5 3 3 5 5 5 3 5 5 3 3 3 3 5 5 5 5 5 3 5 3 5 5 3 5 3 5 5 3 5 5 3 5 3 5 5 3 5 5 5 5 5 5 5 5 5 3 5 5 5 5 3 5 5 5 5 3 3 3 5 5 5 3 5 5 5 5 5 5 3 5 5 5 5 5 5 5 5 5 5 5 5 5 5 5 5 3 5 5 5 3 5 5 3 5 3 5 3 3 5 5 5 5 3 5 5 5 5 5 5 5 5 5 5 5 5 5 5 5 5 5 5 5 5 5 5 5 5 5 5 5 5 5 5 5 5 5 5 5 5 5 5 5 5 5 5 5 5 5 5 5 5 5 5 5 5 3 5 3 5 5 5 3 5 5 5 3 5 5 5 5 5 5 5 5 5 5 5 5 5 5 5 5 5 5 5 5 5 5 3 5 5 5 5 5 5 5 5 5 3 5 5 5 5 3 5 5 5 5 5 5 5 5 5 5 5 5 5 5 3 3 5 5 3 5 3 5 5 3 5 5 5 5 5 5 5 5 5 5 5 5 3 5 5 5 3 5 5 5 5 5 5 5 5 5 3 3 5 5 5 5 3 3 5 5 5 5 5 5 5 3 5 5 3 5 5 5 5 3 5 5 5 3 5 5 5 3 5 5 3 5 5 5 5 3 5 5 5 5 5 3 5 5 5 5 5 5 5 5 5 5 5 3 3 5 5 5 5 3 5 5 5 5 3 3 5 5 5 5 3 5 5 5 5 3 5 5 5 5 5 3 5 5 5 5 5 3 5 5 3 3 5 5 5 5 5 5 3 5 3 5 5 3 5 5 3 3 5 5 5 5 5 3 5 5 5 5 5 3 5 5 5 5 5 5 5 5 5 5 5 5 5 5 5 5 5 5 5 5 5 5 5 5 5 5 5 5 5 3 5 5 5 5 5 5 3 5 5 5 3 5 5 5 5 5 5 3 5 5 3 5 3 3 5 5 3 5 3 5 5 5 5 5 5 5 5 5 5 5 5 5 5 
</DataArray>
</Cells>
<PointData Scalars="" Vectors="displacement," Tensors="">
<DataArray type="Float64" Name="displacement" NumberOfComponents="3" format="ascii">
0.0049997027673834103 0.0049996699820484252 0 0.0047701537577616131 0.0047737332505567946 0 0.0043613674152603024 0.0049994775328988184 0 0.0049997027673834103 0.0049996699820484252 0 0.0049996254222558602 0.0043954377650146838 0 0.0047701537577616131 0.0047737332505567946 0 0.0049996254222558602 0.0043954377650146838 0 0.0047701537577616131 0.0047737332505567946 0 0.0048599127189404004 0.0045692161935606919 0 0.0047701537577616131 0.0047737332505567946 0 0.0044572846630351924 0.0048879128037868152 0 0.0046642694184455451 0.0047585433401176307 0 0.0047701537577616131 0.0047737332505567946 0 0.0048599127189404004 0.0045692161935606919 0 0.0046642694184455451 0.0047585433401176307 0 0.0047701537577616131 0.0047737332505567946 0 0.0043613674152603024 0.0049994775328988184 0 0.0044572846630351924 0.0048879128037868152 0 0.0043613674152603024 0.0049994775328988184 0 0.0041602432128218462 0.0049771986646421195 0 0.0035641072356028861 0.0049997471618284002 0 0.0043613674152603024 0.0049994775328988184 0 0.0041602432128218462 0.0049771986646421195 0 0.0044572846630351924 0.0048879128037868152 0 0.0041602432128218462 0.0049771986646421195 0 0.0039159275968208918 0.0050005538418668094 0 0.0035641072356028861 0.0049997471618284002 0 0.0039159275968208918 0.0050005538418668094 0 0.0041326130949732006 0.0049938006797645039 0 0.0039785542714020853 0.0050490521266414699 0 0.0041602432128218462 0.0049771986646421195 0 0.0039159275968208918 0.0050005538418668094 0 0.0041326130949732006 0.0049938006797645039 0 0.0041602432128218462 0.0049771986646421195 0 0.0041326130949732006 0.0049938006797645039 0 0.0042974864173146252 0.0049422213585972935 0 0.0041326130949732006 0.0049938006797645039 0 0.0042334822379467936 0.0050048439868001149 0 0.0042974864173146252 0.0049422213585972935 0 0.0041326130949732006 0.0049938006797645039 0 0.0042334822379467936 0.0050048439868001149 0 0.0041333564691174978 0.0050226347614347128 0 0.0030117302930311091 0.0039239607604187841 0 0.0035253683316700765 0.004146297604816199 0 0.0033168393308080002 0.004481681157649694 0 0.0035988493515832732 0.004471107603101797 0 0.0036463397226505906 0.0047586484971777112 0 0.0041326130949732006 0.0049938006797645039 0 0.0041333564691174978 0.0050226347614347128 0 0.0039785542714020853 0.0050490521266414699 0 0.0041333564691174978 0.0050226347614347128 0 0.0041791656793941593 0.0050345071426329477 0 0.0039785542714020853 0.0050490521266414699 0 0.0041602432128218462 0.0049771986646421195 0 0.0044572846630351924 0.0048879128037868152 0 0.0042974864173146252 0.0049422213585972935 0 0.0042334822379467936 0.0050048439868001149 0 0.0044403517744125683 0.004897092335640574 0 0.0042974864173146252 0.0049422213585972935 0 0.0044572846630351924 0.0048879128037868152 0 0.0044403517744125683 0.004897092335640574 0 0.0042974864173146252 0.0049422213585972935 0 0.0044572846630351924 0.0048879128037868152 0 0.0044403517744125683 0.004897092335640574 0 0.0046642694184455451 0.0047585433401176307 0 0.004513079935797748 0.0048841834373844571 0 0.0046642694184455451 0.0047585433401176307 0 0.0046937715902132483 0.0047089828697350058 0 0.0044403517744125683 0.004897092335640574 0 0.004513079935797748 0.0048841834373844571 0 0.0046642694184455451 0.0047585433401176307 0 0.0042377864577723785 0.0049759230470849004 0 0.0043412190152165454 0.0049281992504297449 0 0.0042334822379467936 0.0050048439868001149 0 0.0044403517744125683 0.004897092335640574 0 0.004513079935797748 0.0048841834373844571 0 0.0042334822379467936 0.0050048439868001149 0 0.0041807470946766349 0.0049911065150447772 0 0.0042105806492083418 0.0049952660245114024 0 0.0041807470946766349 0.0049911065150447772 0 0.0041810480304532664 0.0049439823986062448 0 0.0042105806492083418 0.0049952660245114024 0 0.0041810480304532664 0.0049439823986062448 0 0.0042105806492083418 0.0049952660245114024 0 0.0042203389092600125 0.0049503171061541403 0 0.0043412190152165454 0.0049281992504297449 0 0.0043441730075678931 0.0048460358353605813 0 0.0041807470946766349 0.0049911065150447772 0 0.0041810480304532664 0.0049439823986062448 0 0.0041346775601170428 0.0049393231035231161 0 0.0030117302930311091 0.0039239607604187841 0 0.0031687413265627145 0.0036564686992816573 0 0.0035253683316700765 0.004146297604816199 0 0.0042334822379467936 0.0050048439868001149 0 0.0041791656793941593 0.0050345071426329477 0 0.0042105806492083418 0.0049952660245114024 0 0.0042334822379467936 0.0050048439868001149 0 0.0041333564691174978 0.0050226347614347128 0 0.0041791656793941593 0.0050345071426329477 0 0.0041791656793941593 0.0050345071426329477 0 0.0042105806492083418 0.0049952660245114024 0 0.0042203389092600125 0.0049503171061541403 0 0.0035988493515832732 0.004471107603101797 0 0.0035310303473092353 0.00435495270830782 0 0.0030117302930311091 0.0039239607604187841 0 0.0029425658966379131 0.003632670049485527 0 0.0031687413265627145 0.0036564686992816573 0 0.0029425658966379131 0.003632670049485527 0 0.0031687413265627145 0.0036564686992816573 0 0.0030775888292946959 0.0035650560522082404 0 0.0031687413265627145 0.0036564686992816573 0 0.0030775888292946959 0.0035650560522082404 0 0.0031530173038633444 0.0035322302555836848 0 0.0029425658966379131 0.003632670049485527 0 0.0030775888292946959 0.0035650560522082404 0 0.0029933778651688599 0.0035355469469192696 0 0.0030775888292946959 0.0035650560522082404 0 0.0029933778651688599 0.0035355469469192696 0 0.0030571492245219374 0.003459377889426594 0 0.0029933778651688599 0.0035355469469192696 0 0.0030571492245219374 0.003459377889426594 0 0.0028991161717717355 0.0034973007392698186 0 0.0036849710720936674 0.0031395254088462214 0 0.0039653226810809038 0.0037838505716066327 0 0.0030775888292946959 0.0035650560522082404 0 0.0030571492245219374 0.003459377889426594 0 0.0031530173038633444 0.0035322302555836848 0 0.0041501940851477442 0.0049092966292596379 0 0.0041848135457732841 0.0048685317332017334 0 0.0041239667216405882 0.0048904352843578891 0 0.0041810480304532664 0.0049439823986062448 0 0.0041501940851477442 0.0049092966292596379 0 0.0041848135457732841 0.0048685317332017334 0 0.0041810480304532664 0.0049439823986062448 0 0.0041501940851477442 0.0049092966292596379 0 0.0041346775601170428 0.0049393231035231161 0 0.0041810480304532664 0.0049439823986062448 0 0.0042203389092600125 0.0049503171061541403 0 0.0041848135457732841 0.0048685317332017334 0 0.0035310303473092353 0.00435495270830782 0 0.0039653226810809038 0.0037838505716066327 0 0.0029425658966379131 0.003632670049485527 0 0.0029933778651688599 0.0035355469469192696 0 0.0028991161717717355 0.0034973007392698186 0 0.0044474152800764591 0.0029602060947071553 0 0.0044074218957150038 0.0029860773146820185 0 0.0044163066376402436 0.0029622114053652754 0 0.0044074218957150038 0.0029860773146820185 0 0.0044082274031508866 0.0029711588280314661 0 0.0044163066376402436 0.0029622114053652754 0 0.0044074218957150038 0.0029860773146820185 0 0.0044082274031508866 0.0029711588280314661 0 0.0043998651573082855 0.0029776057640386751 0 0.0044082274031508866 0.0029711588280314661 0 0.0043998651573082855 0.0029776057640386751 0 0.0043985578766404781 0.0029652121790962934 0 0.0044074218957150038 0.0029860773146820185 0 0.0043909847682454999 0.0029858959610958254 0 0.0043655385907297494 0.0030085512452205881 0 0.0043998651573082855 0.0029776057640386751 0 0.0043909847682454999 0.0029858959610958254 0 0.0043985578766404781 0.0029652121790962934 0 0.0044074218957150038 0.0029860773146820185 0 0.0043998651573082855 0.0029776057640386751 0 0.0043909847682454999 0.0029858959610958254 0 0.0039653226810809038 0.0037838505716066327 0 0.0044752295744856681 0.0039733123509217688 0 0.0043909847682454999 0.0029858959610958254 0 0.0043816549474687523 0.0029717093903740069 0 0.0043985578766404781 0.0029652121790962934 0 0.0043909847682454999 0.0029858959610958254 0 0.0043751815039204129 0.0029886413755251867 0 0.0043816549474687523 0.0029717093903740069 0 0.0044752295744856681 0.0039733123509217688 0 0.004884837699405755 0.0032194230962230021 0 0.0043751815039204129 0.0029886413755251867 0 0.0043531368049757203 0.002962367830355615 0 0.0043816549474687523 0.0029717093903740069 0 0.0054235197587692695 0.0038329559049973486 0 0.0053304750669301414 0.0038602836701950244 0 0.0053700143774593747 0.0036606613527218894 0 0.0043751815039204129 0.0029886413755251867 0 0.0043655385907297494 0.0030085512452205881 0 0.0043531368049757203 0.002962367830355615 0 0.0043909847682454999 0.0029858959610958254 0 0.0043751815039204129 0.0029886413755251867 0 0.0043655385907297494 0.0030085512452205881 0 0.0041277188999979666 0.0048995438508199233 0 0.0041045099610360859 0.0048943587625442037 0 0.0041346775601170428 0.0049393231035231161 0 0.0049593758914456988 0.0043440173958484976 0 0.0043441730075678931 0.0048460358353605813 0 0.0041501940851477442 0.0049092966292596379 0 0.0041277188999979666 0.0048995438508199233 0 0.0041239667216405882 0.0048904352843578891 0 0.0041277188999979666 0.0048995438508199233 0 0.0041262362064507663 0.004891339862320313 0 0.0041045099610360859 0.0048943587625442037 0 0.0044752295744856681 0.0039733123509217688 0 0.0049593758914456988 0.0043440173958484976 0 0.0045039855368226699 0.004282302791062279 0 0.0044752295744856681 0.0039733123509217688 0 0.0041501940851477442 0.0049092966292596379 0 0.0041277188999979666 0.0048995438508199233 0 0.0041346775601170428 0.0049393231035231161 0 0.0048200388116929616 0.004596835981102455 0 0.0049114239042294229 0.0044740704039677717 0 0.0048121983125336909 0.0045742580105046287 0 0.0049593758914456988 0.0043440173958484976 0 0.0051160643024556803 0.0042654150861372612 0 0.0053304750669301414 0.0038602836701950244 0 0.0051764457861562998 0.0037399160533358134 0 0.0053700143774593747 0.0036606613527218894 0 0.0049593758914456988 0.0043440173958484976 0 0.0052531512596669314 0.0037296546864631344 0 0.0050929309316800125 0.0038999873899175836 0 0.0049998944996454036 0.0039529095476385232 0 0.0050000197214575244 0.0036290407756565273 0 0.0052061187542601717 0.0037948624851481981 0 0.0050929309316800125 0.0038999873899175836 0 0.0052969636210256467 0.0040874272980776123 0 0.0052061187542601717 0.0037948624851481981 0 0.0050929309316800125 0.0038999873899175836 0 0.0050000197214575244 0.0036290407756565273 0 0.0050929309316800125 0.0038999873899175836 0 0.0049998944996454036 0.0039529095476385232 0 0.0050331997203260518 0.0041840484131890898 0 0.0055080813815490109 0.0040309424080147253 0 0.0052061187542601717 0.0037948624851481981 0 0.0052969636210256467 0.0040874272980776123 0 0.0050929309316800125 0.0038999873899175836 0 0.0050331997203260518 0.0041840484131890898 0 0.0052969636210256467 0.0040874272980776123 0 0.0050178527218964876 0.0042320926751104829 0 0.0051160643024556803 0.0042654150861372612 0 0.0049996254222558602 0.0043954377650146838 0 0.0049998944996454036 0.0039529095476385232 0 0.0050331997203260518 0.0041840484131890898 0 0.0050331997203260518 0.0041840484131890898 0 0.0049114239042294229 0.0044740704039677717 0 0.0049476668249413096 0.0044073025914151799 0 0.0049114239042294229 0.0044740704039677717 0 0.0049476668249413096 0.0044073025914151799 0 0.0048121983125336909 0.0045742580105046287 0 0.0049996254222558602 0.0043954377650146838 0 0.0050331997203260518 0.0041840484131890898 0 0.0049476668249413096 0.0044073025914151799 0 0.0049996254222558602 0.0043954377650146838 0 0.0049476668249413096 0.0044073025914151799 0 0.0048599127189404004 0.0045692161935606919 0 0.0049476668249413096 0.0044073025914151799 0 0.0048599127189404004 0.0045692161935606919 0 0.0048121983125336909 0.0045742580105046287 0 0.0048599127189404004 0.0045692161935606919 0 0.0046642694184455451 0.0047585433401176307 0 0.0048121983125336909 0.0045742580105046287 0 0.0046642694184455451 0.0047585433401176307 0 0.0046937715902132483 0.0047089828697350058 0 0.0048121983125336909 0.0045742580105046287 0 0.0048200388116929616 0.004596835981102455 0 0.0046937715902132483 0.0047089828697350058 0 0.0048121983125336909 0.0045742580105046287 0 0.0029420978629329728 0.0043151655708659978 0 0.0030128068509420224 0.0044517656008782247 0 0.0034329578678125245 0.0036704535375753204 0 0.0034223008111608257 0.0037429404909822472 0 0.0034213094596075122 0.0036712040139169426 0 0.0024350235230471895 0.0049851265600642748 0 0.0026034457844134637 0.0051608373415345009 0 0.0024962878485006207 0.0051221162603761134 0 0.0026034457844134637 0.0051608373415345009 0 0.0024962878485006207 0.0051221162603761134 0 0.002649250027576453 0.0051004998409394531 0 0.0024962878485006207 0.0051221162603761134 0 0.002649250027576453 0.0051004998409394531 0 0.002471345244215703 0.0051076667389819462 0 0.0025354426493773502 0.0049999876273790454 0 0.002649250027576453 0.0051004998409394531 0 0.002471345244215703 0.0051076667389819462 0 0.0025354426493773502 0.0049999876273790454 0 0.0027935658147356336 0.0049999415437465521 0 0.002649250027576453 0.0051004998409394531 0 0.0027935658147356336 0.0049999415437465521 0 0.002649250027576453 0.0051004998409394531 0 0.0028958442106070824 0.0050622438689139843 0 0.0026034457844134637 0.0051608373415345009 0 0.002649250027576453 0.0051004998409394531 0 0.0028714069322528109 0.0051562492385989478 0 0.002649250027576453 0.0051004998409394531 0 0.0028714069322528109 0.0051562492385989478 0 0.0028958442106070824 0.0050622438689139843 0 0.0027935658147356336 0.0049999415437465521 0 0.0028958442106070824 0.0050622438689139843 0 0.0030517166171613714 0.0049999545752414673 0 0.0031401824256924865 0.0044299543727253973 0 0.0032118142063206089 0.0047700330442513967 0 0.0028958442106070824 0.0050622438689139843 0 0.0030517166171613714 0.0049999545752414673 0 0.0031168129318038399 0.0050509869923120688 0 0.0028714069322528109 0.0051562492385989478 0 0.0028958442106070824 0.0050622438689139843 0 0.0031168129318038399 0.0050509869923120688 0 0.003052001120501171 0.0049999125402757777 0 0.0032118142063206089 0.0047700330442513967 0 0.0033734108293051075 0.0038165544366286891 0 0.0033115619627431081 0.0037942329842412742 0 0.0033128630214051217 0.0038840969714588015 0 0.0033734108293051075 0.0038165544366286891 0 0.003365124116150578 0.003718672348607717 0 0.0033115619627431081 0.0037942329842412742 0 0.003365124116150578 0.003718672348607717 0 0.0033041930551778145 0.003729936448399192 0 0.0033115619627431081 0.0037942329842412742 0 0.0030128068509420224 0.0044517656008782247 0 0.0031401824256924865 0.0044299543727253973 0 0.0034223008111608257 0.0037429404909822472 0 0.0033734108293051075 0.0038165544366286891 0 0.003365124116150578 0.003718672348607717 0 0.0034223008111608257 0.0037429404909822472 0 0.003365124116150578 0.003718672348607717 0 0.0034213094596075122 0.0036712040139169426 0 0.003365124116150578 0.003718672348607717 0 0.0033041930551778145 0.003729936448399192 0 0.003319855102625743 0.0036773229745424613 0 0.0033041930551778145 0.003729936448399192 0 0.0032636170042912574 0.0036853566001664147 0 0.003319855102625743 0.0036773229745424613 0 0.0033041930551778145 0.003729936448399192 0 0.0032469176125659634 0.0037535855802352126 0 0.0032636170042912574 0.0036853566001664147 0 0.0032469176125659634 0.0037535855802352126 0 0.0032042595767768204 0.0037096185417681412 0 0.0032636170042912574 0.0036853566001664147 0 0.0032469176125659634 0.0037535855802352126 0 0.0032538159408793763 0.0038343265845846158 0 0.0031919547470751395 0.0037867233248897957 0 0.0033041930551778145 0.003729936448399192 0 0.0032469176125659634 0.0037535855802352126 0 0.0033115619627431081 0.0037942329842412742 0 0.0032469176125659634 0.0037535855802352126 0 0.0033115619627431081 0.0037942329842412742 0 0.0032538159408793763 0.0038343265845846158 0 0.0033115619627431081 0.0037942329842412742 0 0.0033128630214051217 0.0038840969714588015 0 0.0032538159408793763 0.0038343265845846158 0 0.0030518489646493671 0.0049999992897089614 0 0.0032109682746635638 0.0049999992804625817 0 0.0031370646489422595 0.0050636791566018007 0 0.0032118142063206089 0.0047700330442513967 0 0.0032469734045405779 0.0044328227807534518 0 0.0031624029812042987 0.0050500739811096783 0 0.0032899734092561627 0.0050653805099193181 0 0.0033200981355634286 0.0051404683169439178 0 0.0032110804928518668 0.0049999869548697255 0 0.0031624029812042987 0.0050500739811096783 0 0.0032899734092561627 0.0050653805099193181 0 0.0032108344266054069 0.0049999599626237585 0 0.0032118142063206089 0.0047700330442513967 0 0.0033478646572937497 0.0049999929343805295 0 0.0032899734092561627 0.0050653805099193181 0 0.0033791684653831748 0.0051192504593949818 0 0.0033479400996769826 0.0049999150114526615 0 0.0034507811570999771 0.0052470209317146558 0 0.0033480210659832554 0.0049999962125849935 0 0.0034444321543966902 0.0051494973551275873 0 0.003479533013362391 0.0050736005496530489 0 0.0032110804928518668 0.0049999869548697255 0 0.0033478646572937497 0.0049999929343805295 0 0.0032899734092561627 0.0050653805099193181 0 0.0033791684653831748 0.0051192504593949818 0 0.0033200981355634286 0.0051404683169439178 0 0.0034235035646956809 0.0051950333808735392 0 0.0032469734045405779 0.0044328227807534518 0 0.0034454152759525918 0.0045439320257980855 0 0.0032899734092561627 0.0050653805099193181 0 0.0033791684653831748 0.0051192504593949818 0 0.0033200981355634286 0.0051404683169439178 0 0.0034444321543966902 0.0051494973551275873 0 0.0035250712850359248 0.0051479125981138112 0 0.0035121065224706983 0.005264522594385335 0 0.0036138603061111854 0.0051466514814036092 0 0.0034454152759525918 0.0045439320257980855 0 0.0036989188760451438 0.0050155036169901527 0 0.0037298214745553693 0.0049976488203419258 0 0.003843052650405666 0.004801431620236404 0 0.0034507811570999771 0.0052470209317146558 0 0.0034454152759525918 0.0045439320257980855 0 0.0034444321543966902 0.0051494973551275873 0 0.0035250712850359248 0.0051479125981138112 0 0.003479533013362391 0.0050736005496530489 0 0.0035250712850359248 0.0051479125981138112 0 0.0035634167903330054 0.0049999946541544986 0 0.003479533013362391 0.0050736005496530489 0 0.0033480210659832554 0.0049999962125849935 0 0.0035634167903330054 0.0049999946541544986 0 0.003479533013362391 0.0050736005496530489 0 0.0036138603061111854 0.0051466514814036092 0 0.0035634992174673878 0.0049999305187998092 0 0.0036989188760451438 0.0050155036169901527 0 0.0035641072356028861 0.0049997471618284002 0 0.0037298214745553693 0.0049976488203419258 0 0.0039159275968208918 0.0050005538418668094 0 0.0035641072356028861 0.0049997471618284002 0 0.0037298214745553693 0.0049976488203419258 0 0.0037298214745553693 0.0049976488203419258 0 0.0037809998526842966 0.0047257666049218498 0 0.0033168393308080002 0.004481681157649694 0 0.0037240573911963204 0.0049718801489020241 0 0.0036463397226505906 0.0047586484971777112 0 0.0039159275968208918 0.0050005538418668094 0 0.0037298214745553693 0.0049976488203419258 0 0.0039785542714020853 0.0050490521266414699 0 0.0037298214745553693 0.0049976488203419258 0 0.003843052650405666 0.004801431620236404 0 0.0037809998526842966 0.0047257666049218498 0 0.0032469176125659634 0.0037535855802352126 0 0.0031919547470751395 0.0037867233248897957 0 0.0032042595767768204 0.0037096185417681412 0 0.0034454152759525918 0.0045439320257980855 0 0.0032152110223708126 0.0035614723774446025 0 0.0038638081976281949 0.0047861954178864928 0 0.0037809998526842966 0.0047257666049218498 0 0.0035253683316700765 0.004146297604816199 0 0.0034454152759525918 0.0045439320257980855 0 0.0035924896064753048 0.0046457103701447273 0 0.0034454152759525918 0.0045439320257980855 0 0.0033517384503427838 0.0038742789957095279 0 0.0032177458287018972 0.003809223516835979 0 0.0032290948143202276 0.0037101912176838079 0 0.0031741654956230943 0.003693248401997808 0 0.0037809998526842966 0.0047257666049218498 0 0.0035253683316700765 0.004146297604816199 0 0.0033168393308080002 0.004481681157649694 0 0.0031687413265627145 0.0036564686992816573 0 0.0031741654956230943 0.003693248401997808 0 0.0031896827083586349 0.00365614805069001 0 0.0031872267108047467 0.0036905187230076852 0 0.0033517384503427838 0.0038742789957095279 0 0.0032152110223708126 0.0035614723774446025 0 0.0032157226292116739 0.0037021193026695164 0 0.0032290948143202276 0.0037101912176838079 0 0.0031741654956230943 0.003693248401997808 0 0.0031896827083586349 0.00365614805069001 0 0.0032290948143202276 0.0037101912176838079 0 0.0031896827083586349 0.00365614805069001 0 0.003219330591135923 0.0036369152497646943 0 0.003219330591135923 0.0036369152497646943 0 0.0031914373021968952 0.0035967877090705993 0 0.0032271937711684539 0.003564409921477035 0 0.0031896827083586349 0.00365614805069001 0 0.003219330591135923 0.0036369152497646943 0 0.0031914373021968952 0.0035967877090705993 0 0.0031687413265627145 0.0036564686992816573 0 0.0031896827083586349 0.00365614805069001 0 0.0031914373021968952 0.0035967877090705993 0 0.0031687413265627145 0.0036564686992816573 0 0.0031914373021968952 0.0035967877090705993 0 0.0031530173038633444 0.0035322302555836848 0 0.0031530173038633444 0.0035322302555836848 0 0.0032062058269498933 0.0034996756794342769 0 0.0031764397154018524 0.0034437254725050714 0 0.0030571492245219374 0.003459377889426594 0 0.0031530173038633444 0.0035322302555836848 0 0.0031764397154018524 0.0034437254725050714 0 0.0031914373021968952 0.0035967877090705993 0 0.0032062058269498933 0.0034996756794342769 0 0.0032271937711684539 0.003564409921477035 0 0.0031914373021968952 0.0035967877090705993 0 0.0031530173038633444 0.0035322302555836848 0 0.0032062058269498933 0.0034996756794342769 0 0.0032062058269498933 0.0034996756794342769 0 0.0032271937711684539 0.003564409921477035 0 0.003250364345374253 0.0034856099764579204 0 0.0032271937711684539 0.003564409921477035 0 0.003250364345374253 0.0034856099764579204 0 0.0032874503433895663 0.0036016289567334455 0 0.0032062058269498933 0.0034996756794342769 0 0.003250364345374253 0.0034856099764579204 0 0.0032069661033035952 0.0033245132605230214 0 0.003250364345374253 0.0034856099764579204 0 0.003307235565682977 0.0034927543888956737 0 0.0032740811704710751 0.0033813559040910147 0 0.003307235565682977 0.0034927543888956737 0 0.0033456765867237405 0.0033488190859918289 0 0.0032740811704710751 0.0033813559040910147 0 0.003307235565682977 0.0034927543888956737 0 0.0032874503433895663 0.0036016289567334455 0 0.0033484580543486865 0.0035709506172219383 0 0.003250364345374253 0.0034856099764579204 0 0.003307235565682977 0.0034927543888956737 0 0.0032874503433895663 0.0036016289567334455 0 0.003219330591135923 0.0036369152497646943 0 0.0032271937711684539 0.003564409921477035 0 0.0032874503433895663 0.0036016289567334455 0 0.0032042595767768204 0.0037096185417681412 0 0.003219330591135923 0.0036369152497646943 0 0.0032636170042912574 0.0036853566001664147 0 0.003219330591135923 0.0036369152497646943 0 0.0032874503433895663 0.0036016289567334455 0 0.0032636170042912574 0.0036853566001664147 0 0.0032874503433895663 0.0036016289567334455 0 0.0032636170042912574 0.0036853566001664147 0 0.003319855102625743 0.0036773229745424613 0 0.003365124116150578 0.003718672348607717 0 0.003319855102625743 0.0036773229745424613 0 0.0033713110584040937 0.0036410776848202495 0 0.003365124116150578 0.003718672348607717 0 0.0033713110584040937 0.0036410776848202495 0 0.0034213094596075122 0.0036712040139169426 0 0.0033713110584040937 0.0036410776848202495 0 0.0034266869314527638 0.0036327642116363227 0 0.0034213094596075122 0.0036712040139169426 0 0.0033713110584040937 0.0036410776848202495 0 0.0034244852667929893 0.0035738049082091332 0 0.0034266869314527638 0.0036327642116363227 0 0.0032874503433895663 0.0036016289567334455 0 0.0033713110584040937 0.0036410776848202495 0 0.0033484580543486865 0.0035709506172219383 0 0.0032874503433895663 0.0036016289567334455 0 0.003319855102625743 0.0036773229745424613 0 0.0033713110584040937 0.0036410776848202495 0 0.0033713110584040937 0.0036410776848202495 0 0.0033484580543486865 0.0035709506172219383 0 0.0034244852667929893 0.0035738049082091332 0 0.0033484580543486865 0.0035709506172219383 0 0.0033811106518383685 0.0034914013513878879 0 0.0034244852667929893 0.0035738049082091332 0 0.003307235565682977 0.0034927543888956737 0 0.0033484580543486865 0.0035709506172219383 0 0.0033811106518383685 0.0034914013513878879 0 0.003307235565682977 0.0034927543888956737 0 0.0033811106518383685 0.0034914013513878879 0 0.0033456765867237405 0.0033488190859918289 0 0.0033811106518383685 0.0034914013513878879 0 0.0034818030748940908 0.0034470577568952174 0 0.0034244852667929893 0.0035738049082091332 0 0.0033811106518383685 0.0034914013513878879 0 0.0034818030748940908 0.0034470577568952174 0 0.0033456765867237405 0.0033488190859918289 0 0.0034244852667929893 0.0035738049082091332 0 0.003439633614247511 0.0036194469894567315 0 0.0034533199064526957 0.0035551532429270831 0 0.0034244852667929893 0.0035738049082091332 0 0.003439633614247511 0.0036194469894567315 0 0.0034266869314527638 0.0036327642116363227 0 0.0034818030748940908 0.0034470577568952174 0 0.0034244852667929893 0.0035738049082091332 0 0.0034533199064526957 0.0035551532429270831 0 0.0034818030748940908 0.0034470577568952174 0 0.0034533199064526957 0.0035551532429270831 0 0.0034247270442587818 0.0036056751659269059 0 0.0034729073418605515 0.0034398534991895691 0 0.0036296932903190191 0.0033277572682339999 0 0.0034198967654236992 0.003617275118788228 0 0.0034247270442587818 0.0036056751659269059 0 0.003429719135758263 0.0036068326333917396 0 0.0034198967654236992 0.003617275118788228 0 0.0034245422742003409 0.0036091143135069809 0 0.0034247270442587818 0.0036056751659269059 0 0.0034533199064526957 0.0035551532429270831 0 0.0034245422742003409 0.0036091143135069809 0 0.0034247270442587818 0.0036056751659269059 0 0.0034198967654236992 0.003617275118788228 0 0.0034245422742003409 0.0036091143135069809 0 0.0034134563976453997 0.0036418419891052415 0 0.0034245422742003409 0.0036091143135069809 0 0.0034159412230985267 0.0036672907168390457 0 0.0034134563976453997 0.0036418419891052415 0 0.003439633614247511 0.0036194469894567315 0 0.0034159412230985267 0.0036672907168390457 0 0.003435236832205894 0.0036614255043459797 0 0.003439633614247511 0.0036194469894567315 0 0.0034245422742003409 0.0036091143135069809 0 0.0034159412230985267 0.0036672907168390457 0 0.003439633614247511 0.0036194469894567315 0 0.0034533199064526957 0.0035551532429270831 0 0.0034245422742003409 0.0036091143135069809 0 0.003439633614247511 0.0036194469894567315 0 0.003435236832205894 0.0036614255043459797 0 0.0034266869314527638 0.0036327642116363227 0 0.003435236832205894 0.0036614255043459797 0 0.0034266869314527638 0.0036327642116363227 0 0.0034213094596075122 0.0036712040139169426 0 0.0034329578678125245 0.0036704535375753204 0 0.003435236832205894 0.0036614255043459797 0 0.0034213094596075122 0.0036712040139169426 0 0.0039174996726587903 0.0029771272021592819 0 0.0038419563641142935 0.0030134819385197521 0 0.0039071755941987186 0.0030541820850759683 0 0.0038419563641142935 0.0030134819385197521 0 0.0038287522276695134 0.0030940617192072623 0 0.0039071755941987186 0.0030541820850759683 0 0.0039174996726587903 0.0029771272021592819 0 0.0039071755941987186 0.0030541820850759683 0 0.0040126541697275957 0.0030530878317617141 0 0.0040891363483671599 0.0029866665301200137 0 0.0041845678152950955 0.0030141678073056918 0 0.0040126541697275957 0.0030530878317617141 0 0.0040042525627378266 0.0029404356650453954 0 0.0040891363483671599 0.0029866665301200137 0 0.0040126541697275957 0.0030530878317617141 0 0.0039174996726587903 0.0029771272021592819 0 0.0040042525627378266 0.0029404356650453954 0 0.0040126541697275957 0.0030530878317617141 0 0.0039174996726587903 0.0029771272021592819 0 0.0040042525627378266 0.0029404356650453954 0 0.0039085453862183536 0.0029136288073444267 0 0.0040042525627378266 0.0029404356650453954 0 0.0039232531942422696 0.0028682093590708486 0 0.0041086740780236176 0.0028811262767244952 0 0.0040042525627378266 0.0029404356650453954 0 0.0039085453862183536 0.0029136288073444267 0 0.0039232531942422696 0.0028682093590708486 0 0.0039085453862183536 0.0029136288073444267 0 0.0038449979407621806 0.002931033358201746 0 0.0038745438499333362 0.002901573671358057 0 0.0039174996726587903 0.0029771272021592819 0 0.0039085453862183536 0.0029136288073444267 0 0.0038449979407621806 0.002931033358201746 0 0.0038419563641142935 0.0030134819385197521 0 0.0038449979407621806 0.002931033358201746 0 0.0037774176780045569 0.0029828681157150717 0 0.0039174996726587903 0.0029771272021592819 0 0.0038419563641142935 0.0030134819385197521 0 0.0038449979407621806 0.002931033358201746 0 0.0038449979407621806 0.002931033358201746 0 0.0038745438499333362 0.002901573671358057 0 0.0038229133550629272 0.0028934040543211505 0 0.0038745438499333362 0.002901573671358057 0 0.0038577483159312272 0.0029330876288770967 0 0.0038238700019762664 0.0029868031092984975 0 0.0038577483159312272 0.0029330876288770967 0 0.003825727547550901 0.0029020101380310332 0 0.0038229133550629272 0.0028934040543211505 0 0.0038745438499333362 0.002901573671358057 0 0.0038577483159312272 0.0029330876288770967 0 0.0038229133550629272 0.0028934040543211505 0 0.0038577483159312272 0.0029330876288770967 0 0.0038901225794265972 0.003058905012264356 0 0.003825727547550901 0.0029020101380310332 0 0.0038577483159312272 0.0029330876288770967 0 0.0038901225794265972 0.003058905012264356 0 0.0038238700019762664 0.0029868031092984975 0 0.0038353448115346993 0.0030114844901463216 0 0.0036739432139953833 0.0030039150356030025 0 0.0034818030748940908 0.0034470577568952174 0 0.0038901225794265972 0.003058905012264356 0 0.0038238700019762664 0.0029868031092984975 0 0.0034818030748940908 0.0034470577568952174 0 0.0038238700019762664 0.0029868031092984975 0 0.0035487515460560426 0.0030823391347083806 0 0.0038745438499333362 0.002901573671358057 0 0.0038238700019762664 0.0029868031092984975 0 0.0039232531942422696 0.0028682093590708486 0 0.0038238700019762664 0.0029868031092984975 0 0.0039232531942422696 0.0028682093590708486 0 0.0038497228835468094 0.0029406250510219446 0 0.0039085453862183536 0.0029136288073444267 0 0.0038745438499333362 0.002901573671358057 0 0.0039232531942422696 0.0028682093590708486 0 0.0035487515460560426 0.0030823391347083806 0 0.0034195889689458319 0.0032334159879666867 0 0.0033791087406765158 0.0031554893817765752 0 0.0039232531942422696 0.0028682093590708486 0 0.0038497228835468094 0.0029406250510219446 0 0.0037377521795456631 0.0029035893411051526 0 0.0039232531942422696 0.0028682093590708486 0 0.0042218816785210287 0.0027430879470290788 0 0.0041086740780236176 0.0028811262767244952 0 0.0036739432139953833 0.0030039150356030025 0 0.0038244249658190739 0.0029535414612420121 0 0.0039973772723603139 0.0028213894449200202 0 0.0038244249658190739 0.0029535414612420121 0 0.0034818030748940908 0.0034470577568952174 0 0.0035487515460560426 0.0030823391347083806 0 0.0034195889689458319 0.0032334159879666867 0 0.0034818030748940908 0.0034470577568952174 0 0.0034195889689458319 0.0032334159879666867 0 0.0033456765867237405 0.0033488190859918289 0 0.0033456765867237405 0.0033488190859918289 0 0.0033791087406765158 0.0031554893817765752 0 0.003280170513337081 0.0032575792609488064 0 0.0034195889689458319 0.0032334159879666867 0 0.0033456765867237405 0.0033488190859918289 0 0.0033791087406765158 0.0031554893817765752 0 0.0042218816785210287 0.0027430879470290788 0 0.0042506595894007352 0.0028739468408771969 0 0.0043972396873884888 0.0028135416978784136 0 0.0038244249658190739 0.0029535414612420121 0 0.0035079451374932925 0.0031621959590026178 0 0.0042218816785210287 0.0027430879470290788 0 0.0042506595894007352 0.0028739468408771969 0 0.0041086740780236176 0.0028811262767244952 0 0.0042506595894007352 0.0028739468408771969 0 0.0042596633092112498 0.0029372320217085934 0 0.004333620357426877 0.0029163078701234992 0 0.0042506595894007352 0.0028739468408771969 0 0.0041492772009947779 0.0029348666055149029 0 0.0042596633092112498 0.0029372320217085934 0 0.0040042525627378266 0.0029404356650453954 0 0.0041086740780236176 0.0028811262767244952 0 0.0041492772009947779 0.0029348666055149029 0 0.0042506595894007352 0.0028739468408771969 0 0.0041086740780236176 0.0028811262767244952 0 0.0041492772009947779 0.0029348666055149029 0 0.0041492772009947779 0.0029348666055149029 0 0.0042596633092112498 0.0029372320217085934 0 0.0041845678152950955 0.0030141678073056918 0 0.0041492772009947779 0.0029348666055149029 0 0.0040891363483671599 0.0029866665301200137 0 0.0041845678152950955 0.0030141678073056918 0 0.0040042525627378266 0.0029404356650453954 0 0.0041492772009947779 0.0029348666055149029 0 0.0040891363483671599 0.0029866665301200137 0 0.0042596633092112498 0.0029372320217085934 0 0.0043321130891053865 0.002952302494479175 0 0.0041845678152950955 0.0030141678073056918 0 0.0042596633092112498 0.0029372320217085934 0 0.004333620357426877 0.0029163078701234992 0 0.0043321130891053865 0.002952302494479175 0 0.0044039964567312252 0.0028561647493327092 0 0.0044406100870801289 0.0029187748209236566 0 0.0043321130891053865 0.002952302494479175 0 0.0044039964567312252 0.0028561647493327092 0 0.0044596121657941258 0.0028641192974091273 0 0.0044406100870801289 0.0029187748209236566 0 0.0043792753649445036 0.0028719363279204064 0 0.0043317494128832738 0.0029539611228035652 0 0.0044836087720736646 0.0028827241590787299 0 0.0044596121657941258 0.0028641192974091273 0 0.0044406100870801289 0.0029187748209236566 0 0.0044836087720736646 0.0028827241590787299 0 0.0044596121657941258 0.0028641192974091273 0 0.004487557455009417 0.002867728670633785 0 0.0044596121657941258 0.0028641192974091273 0 0.0044788178882215575 0.0028417044392068051 0 0.004437686330377914 0.0028185199708617645 0 0.0044596121657941258 0.0028641192974091273 0 0.0044788178882215575 0.0028417044392068051 0 0.004487557455009417 0.002867728670633785 0 0.0045171862345628633 0.0028772292566008628 0 0.0043028240581963056 0.0028759779789396672 0 0.0042506595894007352 0.0028739468408771969 0 0.004333620357426877 0.0029163078701234992 0 0.0043972396873884888 0.0028135416978784136 0 0.0044039964567312252 0.0028561647493327092 0 0.0044596121657941258 0.0028641192974091273 0 0.004437686330377914 0.0028185199708617645 0 0.0043792753649445036 0.0028719363279204064 0 0.0043028240581963056 0.0028759779789396672 0 0.0035079451374932925 0.0031621959590026178 0 0.0037203064598979852 0.0031734600803359396 0 0.0038615044975279463 0.0030366249093845442 0 0.003853299622287999 0.0030205120221965562 0 0.0038395194759115016 0.0030440182018391269 0 0.0038244249658190739 0.0029535414612420121 0 0.0043028240581963056 0.0028759779789396672 0 0.0038819862438255531 0.0030298969166086074 0 0.0038615044975279463 0.0030366249093845442 0 0.003853299622287999 0.0030205120221965562 0 0.0033456765867237405 0.0033488190859918289 0 0.003280170513337081 0.0032575792609488064 0 0.0032740811704710751 0.0033813559040910147 0 0.003280170513337081 0.0032575792609488064 0 0.0032740811704710751 0.0033813559040910147 0 0.0032069661033035952 0.0033245132605230214 0 0.0030472666712947883 0.0035988165221361368 0 0.0037203064598979852 0.0031734600803359396 0 0.003250364345374253 0.0034856099764579204 0 0.0032740811704710751 0.0033813559040910147 0 0.0032069661033035952 0.0033245132605230214 0 0.0043028240581963056 0.0028759779789396672 0 0.0037203064598979852 0.0031734600803359396 0 0.0045120862508635012 0.0028926227958874537 0 0.004514450282217238 0.0029228080140068359 0 0.0044975208302163198 0.0029092575349967133 0 0.0045120862508635012 0.0028926227958874537 0 0.0045257680913696188 0.0029002550653789844 0 0.004514450282217238 0.0029228080140068359 0 0.0032062058269498933 0.0034996756794342769 0 0.0032630279806824176 0.0034163070804718635 0 0.0031764397154018524 0.0034437254725050714 0 0.004514450282217238 0.0029228080140068359 0 0.0044975208302163198 0.0029092575349967133 0 0.0044834549979470137 0.002938063881644512 0 0.0037203064598979852 0.0031734600803359396 0 0.0038774327366749035 0.0031954836620525016 0 0.0044975208302163198 0.0029092575349967133 0 0.0044834549979470137 0.002938063881644512 0 0.0044797629308164369 0.0029023386555497703 0 0.0044797629308164369 0.0029023386555497703 0 0.0044965537399717335 0.0028766890792144987 0 0.004488243271349595 0.0028743100929335724 0 0.0044975208302163198 0.0029092575349967133 0 0.0044797629308164369 0.0029023386555497703 0 0.0044965537399717335 0.0028766890792144987 0 0.0045120862508635012 0.0028926227958874537 0 0.0044975208302163198 0.0029092575349967133 0 0.0044965537399717335 0.0028766890792144987 0 0.0045171862345628633 0.0028772292566008628 0 0.0044863130502317437 0.0028701895045488471 0 0.0044788178882215575 0.0028417044392068051 0 0.0044965537399717335 0.0028766890792144987 0 0.004487557455009417 0.002867728670633785 0 0.0044965537399717335 0.0028766890792144987 0 0.004487557455009417 0.002867728670633785 0 0.0044969264701325415 0.0028696717923375288 0 0.0044836087720736646 0.0028827241590787299 0 0.004487557455009417 0.002867728670633785 0 0.0044969264701325415 0.0028696717923375288 0 0.004488243271349595 0.0028743100929335724 0 0.0044967687303696874 0.0028571921311815649 0 0.0044803338112485852 0.0028598444010704289 0 0.0044969264701325415 0.0028696717923375288 0 0.004488243271349595 0.0028743100929335724 0 0.0044967687303696874 0.0028571921311815649 0 0.0044965537399717335 0.0028766890792144987 0 0.0044969264701325415 0.0028696717923375288 0 0.004488243271349595 0.0028743100929335724 0 0.0044967687303696874 0.0028571921311815649 0 0.0044987542485671406 0.0028655485515929092 0 0.0045066575974558182 0.0028320546428115415 0 0.0044967687303696874 0.0028571921311815649 0 0.0045066575974558182 0.0028320546428115415 0 0.0044939349138085451 0.0028319394480074813 0 0.0044969264701325415 0.0028696717923375288 0 0.0044967687303696874 0.0028571921311815649 0 0.0044987542485671406 0.0028655485515929092 0 0.0044836087720736646 0.0028827241590787299 0 0.0044969264701325415 0.0028696717923375288 0 0.0044987542485671406 0.0028655485515929092 0 0.0044836087720736646 0.0028827241590787299 0 0.0044987542485671406 0.0028655485515929092 0 0.0044810081723866239 0.0028921088966804825 0 0.0044987542485671406 0.0028655485515929092 0 0.0045016771377088772 0.0028466497868028713 0 0.0044810081723866239 0.0028921088966804825 0 0.0044987542485671406 0.0028655485515929092 0 0.0045016771377088772 0.0028466497868028713 0 0.0045066575974558182 0.0028320546428115415 0 0.0045016771377088772 0.0028466497868028713 0 0.0045066575974558182 0.0028320546428115415 0 0.0045171178982754091 0.0027943335571241883 0 0.0045066575974558182 0.0028320546428115415 0 0.0044939349138085451 0.0028319394480074813 0 0.0045135577440993235 0.002782800458058037 0 0.0045066575974558182 0.0028320546428115415 0 0.0045171178982754091 0.0027943335571241883 0 0.0045135577440993235 0.002782800458058037 0 0.0045171178982754091 0.0027943335571241883 0 0.0045386444494318248 0.0027206686428911495 0 0.0045135577440993235 0.002782800458058037 0 0.0045171178982754091 0.0027943335571241883 0 0.0045386444494318248 0.0027206686428911495 0 0.0045106130010784265 0.0027955128383276521 0 0.0045386444494318248 0.0027206686428911495 0 0.0045267484141494705 0.0027174222651277892 0 0.0045665328054045641 0.0026307609593850317 0 0.0045267484141494705 0.0027174222651277892 0 0.0045106130010784265 0.0027955128383276521 0 0.004510066170149968 0.0027764741987048192 0 0.0045267484141494705 0.0027174222651277892 0 0.004510066170149968 0.0027764741987048192 0 0.0045119002476590548 0.0027559298377898595 0 0.0045386444494318248 0.0027206686428911495 0 0.0045267484141494705 0.0027174222651277892 0 0.0045106130010784265 0.0027955128383276521 0 0.0045016771377088772 0.0028466497868028713 0 0.0045171178982754091 0.0027943335571241883 0 0.0045106130010784265 0.0027955128383276521 0 0.0045016771377088772 0.0028466497868028713 0 0.0045106130010784265 0.0027955128383276521 0 0.0044824402995625595 0.0028766329236595127 0 0.0045106130010784265 0.0027955128383276521 0 0.0044940441334338525 0.0028302721338918451 0 0.004510066170149968 0.0027764741987048192 0 0.0045106130010784265 0.0027955128383276521 0 0.0044940441334338525 0.0028302721338918451 0 0.0044824402995625595 0.0028766329236595127 0 0.0044940441334338525 0.0028302721338918451 0 0.0044641592651750968 0.0029053537511692117 0 0.0044824402995625595 0.0028766329236595127 0 0.0044940441334338525 0.0028302721338918451 0 0.004510066170149968 0.0027764741987048192 0 0.0045119002476590548 0.0027559298377898595 0 0.0044940441334338525 0.0028302721338918451 0 0.0045119002476590548 0.0027559298377898595 0 0.0045107754181876753 0.002810869253397272 0 0.0045119002476590548 0.0027559298377898595 0 0.0045107754181876753 0.002810869253397272 0 0.004525294204664322 0.0027237831750334309 0 0.0045107754181876753 0.002810869253397272 0 0.0045090112185296322 0.002880564600506719 0 0.0045532164419437001 0.0027298028424300957 0 0.0043859710545332501 0.003043113654163169 0 0.0044401274284273581 0.0029830979945019718 0 0.0044940441334338525 0.0028302721338918451 0 0.0045107754181876753 0.002810869253397272 0 0.0044904770866769387 0.0028567811188225894 0 0.0044641592651750968 0.0029053537511692117 0 0.0044187813193704512 0.0029719191785319956 0 0.0045090112185296322 0.002880564600506719 0 0.0045107754181876753 0.002810869253397272 0 0.0044904770866769387 0.0028567811188225894 0 0.0045090112185296322 0.002880564600506719 0 0.0044904770866769387 0.0028567811188225894 0 0.0044641592651750968 0.0029053537511692117 0 0.0045090112185296322 0.002880564600506719 0 0.0044940441334338525 0.0028302721338918451 0 0.0044904770866769387 0.0028567811188225894 0 0.0044641592651750968 0.0029053537511692117 0 0.0044641592651750968 0.0029053537511692117 0 0.0044187813193704512 0.0029719191785319956 0 0.0044472145792681904 0.0029358777166223174 0 0.0044187813193704512 0.0029719191785319956 0 0.0044472145792681904 0.0029358777166223174 0 0.0043940854878299664 0.0029755736838496592 0 0.0044641592651750968 0.0029053537511692117 0 0.0044472145792681904 0.0029358777166223174 0 0.0044824402995625595 0.0028766329236595127 0 0.0045016771377088772 0.0028466497868028713 0 0.0044824402995625595 0.0028766329236595127 0 0.0044810081723866239 0.0028921088966804825 0 0.0044472145792681904 0.0029358777166223174 0 0.0044824402995625595 0.0028766329236595127 0 0.0044810081723866239 0.0028921088966804825 0 0.0044836087720736646 0.0028827241590787299 0 0.0044810081723866239 0.0028921088966804825 0 0.0044406100870801289 0.0029187748209236566 0 0.0044472145792681904 0.0029358777166223174 0 0.0044810081723866239 0.0028921088966804825 0 0.0044406100870801289 0.0029187748209236566 0 0.0044472145792681904 0.0029358777166223174 0 0.0044406100870801289 0.0029187748209236566 0 0.0043940854878299664 0.0029755736838496592 0 0.0044406100870801289 0.0029187748209236566 0 0.0043940854878299664 0.0029755736838496592 0 0.0043321130891053865 0.002952302494479175 0 0.0043940854878299664 0.0029755736838496592 0 0.0043321130891053865 0.002952302494479175 0 0.0042982459297116306 0.0030740456554540917 0 0.0043321130891053865 0.002952302494479175 0 0.0041845678152950955 0.0030141678073056918 0 0.0042982459297116306 0.0030740456554540917 0 0.0041845678152950955 0.0030141678073056918 0 0.0042982459297116306 0.0030740456554540917 0 0.0041184011836889215 0.0031518072508916468 0 0.0042982459297116306 0.0030740456554540917 0 0.0041984508212275246 0.0032350273625327435 0 0.0041184011836889215 0.0031518072508916468 0 0.0044187813193704512 0.0029719191785319956 0 0.0042982459297116306 0.0030740456554540917 0 0.0045090112185296322 0.002880564600506719 0 0.0044187813193704512 0.0029719191785319956 0 0.0043940854878299664 0.0029755736838496592 0 0.0042982459297116306 0.0030740456554540917 0 0.0043084672170081752 0.0030507583610182901 0 0.0043859710545332501 0.003043113654163169 0 0.0042780472639389151 0.0032229888351475717 0 0.0041984508212275246 0.0032350273625327435 0 0.004231361479225584 0.0032494799326195914 0 0.0042982459297116306 0.0030740456554540917 0 0.0042780472639389151 0.0032229888351475717 0 0.0041984508212275246 0.0032350273625327435 0 0.0042780472639389151 0.0032229888351475717 0 0.0042749673019850205 0.003211599197724018 0 0.0043349790011274238 0.0032349532243644754 0 0.0042780472639389151 0.0032229888351475717 0 0.0042749673019850205 0.003211599197724018 0 0.004231361479225584 0.0032494799326195914 0 0.0042749673019850205 0.003211599197724018 0 0.0041640924026872641 0.0031740523888299232 0 0.0042583648518449363 0.0032147253117591253 0 0.0042749673019850205 0.003211599197724018 0 0.004231361479225584 0.0032494799326195914 0 0.0041317689506824252 0.0033529605007439648 0 0.0042749673019850205 0.003211599197724018 0 0.0040290632982998226 0.0030234270082915684 0 0.0041640924026872641 0.0031740523888299232 0 0.0042453347204514371 0.00320678078037811 0 0.0040664410286994114 0.0031897018150909787 0 0.0041984508212275246 0.0032350273625327435 0 0.004231361479225584 0.0032494799326195914 0 0.0041317689506824252 0.0033529605007439648 0 0.0041984508212275246 0.0032350273625327435 0 0.004040596634881234 0.0033317420548828088 0 0.0041317689506824252 0.0033529605007439648 0 0.0040664410286994114 0.0031897018150909787 0 0.0038584539696534482 0.0031609565302128523 0 0.0040290632982998226 0.0030234270082915684 0 0.0038038999228765719 0.0030779823327576864 0 0.0038120920974270803 0.0032154679177178944 0 0.004040596634881234 0.0033317420548828088 0 0.0041317689506824252 0.0033529605007439648 0 0.0039968454446323836 0.0033865470440875181 0 0.0040290632982998226 0.0030234270082915684 0 0.0038038999228765719 0.0030779823327576864 0 0.0036870307665847336 0.0029533963882965217 0 0.0036870307665847336 0.0029533963882965217 0 0.0036824859764181899 0.0031155367770470226 0 0.0035073425765754359 0.0030795373725788729 0 0.0038038999228765719 0.0030779823327576864 0 0.0036870307665847336 0.0029533963882965217 0 0.0036824859764181899 0.0031155367770470226 0 0.004040596634881234 0.0033317420548828088 0 0.0039968454446323836 0.0033865470440875181 0 0.0039649315940758724 0.0033503939463152502 0 0.0040156385491361326 0.003361846480369815 0 0.003920693722789464 0.0034572694965265445 0 0.004040596634881234 0.0033317420548828088 0 0.0038461757233229192 0.0035636881295655867 0 0.0038915361983586968 0.0033495723012512807 0 0.0038461757233229192 0.0035636881295655867 0 0.0038915361983586968 0.0033495723012512807 0 0.0037849248955515264 0.0034528310238542796 0 0.0038915361983586968 0.0033495723012512807 0 0.0038661900070326325 0.003257970812767152 0 0.0037626997166955072 0.0033465319122336422 0 0.004040596634881234 0.0033317420548828088 0 0.0038915361983586968 0.0033495723012512807 0 0.0039722850442045505 0.0032152761227000753 0 0.0038915361983586968 0.0033495723012512807 0 0.0038661900070326325 0.003257970812767152 0 0.0039722850442045505 0.0032152761227000753 0 0.004040596634881234 0.0033317420548828088 0 0.0039722850442045505 0.0032152761227000753 0 0.0041184011836889215 0.0031518072508916468 0 0.0041984508212275246 0.0032350273625327435 0 0.004040596634881234 0.0033317420548828088 0 0.0041184011836889215 0.0031518072508916468 0 0.0039722850442045505 0.0032152761227000753 0 0.0041184011836889215 0.0031518072508916468 0 0.0040126541697275957 0.0030530878317617141 0 0.0041845678152950955 0.0030141678073056918 0 0.0041184011836889215 0.0031518072508916468 0 0.0040126541697275957 0.0030530878317617141 0 0.0039722850442045505 0.0032152761227000753 0 0.0040126541697275957 0.0030530878317617141 0 0.003882612553651678 0.003150630359317091 0 0.0039071755941987186 0.0030541820850759683 0 0.0040126541697275957 0.0030530878317617141 0 0.003882612553651678 0.003150630359317091 0 0.0038287522276695134 0.0030940617192072623 0 0.0039071755941987186 0.0030541820850759683 0 0.003882612553651678 0.003150630359317091 0 0.0038661900070326325 0.003257970812767152 0 0.0039722850442045505 0.0032152761227000753 0 0.003882612553651678 0.003150630359317091 0 0.0038661900070326325 0.003257970812767152 0 0.003882612553651678 0.003150630359317091 0 0.0037758770172821245 0.0032379193779869279 0 0.0043668109639011443 0.0028828607161444971 0 0.004334908906433628 0.0028853426481662819 0 0.0043426716379048247 0.002919846826406182 0 0.004843857803421313 0.0030713512563036532 0 0.0048255015152630512 0.0032113716710206828 0 0.0043668109639011443 0.0028828607161444971 0 0.0043426716379048247 0.002919846826406182 0 0.0043763108733785704 0.002929792259259878 0 0.0043668109639011443 0.0028828607161444971 0 0.0043763108733785704 0.002929792259259878 0 0.0043988766342392786 0.0029004976168032913 0 0.0043668109639011443 0.0028828607161444971 0 0.004391379634837914 0.0028640659519383179 0 0.0043541568204879385 0.0028369317591179139 0 0.0043245977741980862 0.0028737497357788381 0 0.0043541568204879385 0.0028369317591179139 0 0.0043147094375831467 0.0028425796521626035 0 0.0041497573154344047 0.002831102081230585 0 0.004843857803421313 0.0030713512563036532 0 0.0043668109639011443 0.0028828607161444971 0 0.0043245977741980862 0.0028737497357788381 0 0.0043541568204879385 0.0028369317591179139 0 0.0052786919000343052 0.0032446079490175729 0 0.00508467395491311 0.0030858770006637845 0 0.0052232793528210536 0.0030903182039149152 0 0.004843857803421313 0.0030713512563036532 0 0.0047658698248455927 0.0029520642295407119 0 0.0052786919000343052 0.0032446079490175729 0 0.0050000073349833847 0.0032208912749926823 0 0.00508467395491311 0.0030858770006637845 0 0.004843857803421313 0.0030713512563036532 0 0.0050007973336649103 0.0032210735953378047 0 0.0049999933427339223 0.0032209242145623666 0 0.0049999861493113624 0.003425064170277525 0 0.005146879852090779 0.0033884442957356248 0 0.0052526480009406056 0.003269907054415805 0 0.0049999933427339223 0.0032209242145623666 0 0.005146879852090779 0.0033884442957356248 0 0.0052526480009406056 0.003269907054415805 0 0.005146879852090779 0.0033884442957356248 0 0.0053176484039073463 0.0034726476692965584 0 0.005146879852090779 0.0033884442957356248 0 0.0051512437631577052 0.0035443021274627704 0 0.0053176484039073463 0.0034726476692965584 0 0.0051512437631577052 0.0035443021274627704 0 0.0052548272570592091 0.00360537990352147 0 0.0053176484039073463 0.0034726476692965584 0 0.0049999861493113624 0.003425064170277525 0 0.005146879852090779 0.0033884442957356248 0 0.0051512437631577052 0.0035443021274627704 0 0.0049999861493113624 0.003425064170277525 0 0.0051512437631577052 0.0035443021274627704 0 0.0050000012757516936 0.003629141624022589 0 0.0052531512596669314 0.0037296546864631344 0 0.0049999804800334932 0.0036292317232221438 0 0.0051764457861562998 0.0037399160533358134 0 0.0051512437631577052 0.0035443021274627704 0 0.0050000012757516936 0.003629141624022589 0 0.0051764457861562998 0.0037399160533358134 0 0.0051512437631577052 0.0035443021274627704 0 0.0052548272570592091 0.00360537990352147 0 0.0051764457861562998 0.0037399160533358134 0 0.0052548272570592091 0.00360537990352147 0 0.0053700143774593747 0.0036606613527218894 0 0.0052548272570592091 0.00360537990352147 0 0.0053700143774593747 0.0036606613527218894 0 0.0053176484039073463 0.0034726476692965584 0 0.004884837699405755 0.0032194230962230021 0 0.0048255015152630512 0.0032113716710206828 0 0.0043531368049757203 0.002962367830355615 0 0.0043426716379048247 0.002919846826406182 0 0.0043763108733785704 0.002929792259259878 0 0.0043531368049757203 0.002962367830355615 0 0.0043816549474687523 0.0029717093903740069 0 0.0043880605708479826 0.0029507472502691167 0 0.0043531368049757203 0.002962367830355615 0 0.0043763108733785704 0.002929792259259878 0 0.0043880605708479826 0.0029507472502691167 0 0.0043816549474687523 0.0029717093903740069 0 0.0043880605708479826 0.0029507472502691167 0 0.0043985578766404781 0.0029652121790962934 0 0.0043880605708479826 0.0029507472502691167 0 0.0043985578766404781 0.0029652121790962934 0 0.0044046601926845874 0.0029377511823389523 0 0.0044296508258812638 0.0029359954695732417 0 0.0044163066376402436 0.0029622114053652754 0 0.0044046601926845874 0.0029377511823389523 0 0.0043985578766404781 0.0029652121790962934 0 0.0044163066376402436 0.0029622114053652754 0 0.0044046601926845874 0.0029377511823389523 0 0.0044082274031508866 0.0029711588280314661 0 0.0043985578766404781 0.0029652121790962934 0 0.0044163066376402436 0.0029622114053652754 0 0.0044256365299089251 0.0029122857929477185 0 0.0044046601926845874 0.0029377511823389523 0 0.0043988766342392786 0.0029004976168032913 0 0.0044296508258812638 0.0029359954695732417 0 0.0044256365299089251 0.0029122857929477185 0 0.0044046601926845874 0.0029377511823389523 0 0.0043763108733785704 0.002929792259259878 0 0.0044046601926845874 0.0029377511823389523 0 0.0043988766342392786 0.0029004976168032913 0 0.0043763108733785704 0.002929792259259878 0 0.0043880605708479826 0.0029507472502691167 0 0.0044046601926845874 0.0029377511823389523 0 0.0036849710720936674 0.0031395254088462214 0 0.0038774327366749035 0.0031954836620525016 0 0.0044474152800764591 0.0029602060947071553 0 0.0044834549979470137 0.002938063881644512 0 0.0044526179143072652 0.002923696988909446 0 0.0044474152800764591 0.0029602060947071553 0 0.0044296508258812638 0.0029359954695732417 0 0.0044526179143072652 0.002923696988909446 0 0.0044474152800764591 0.0029602060947071553 0 0.0044296508258812638 0.0029359954695732417 0 0.0044163066376402436 0.0029622114053652754 0 0.0044296508258812638 0.0029359954695732417 0 0.0044256365299089251 0.0029122857929477185 0 0.0044526179143072652 0.002923696988909446 0 0.0044256365299089251 0.0029122857929477185 0 0.0044526179143072652 0.002923696988909446 0 0.0044609962287094516 0.0028917873946926417 0 0.0044797629308164369 0.0029023386555497703 0 0.0044526179143072652 0.002923696988909446 0 0.0044609962287094516 0.0028917873946926417 0 0.0044834549979470137 0.002938063881644512 0 0.0044797629308164369 0.0029023386555497703 0 0.0044526179143072652 0.002923696988909446 0 0.0044797629308164369 0.0029023386555497703 0 0.004488243271349595 0.0028743100929335724 0 0.0044609962287094516 0.0028917873946926417 0 0.0044256365299089251 0.0029122857929477185 0 0.0044609962287094516 0.0028917873946926417 0 0.0044340005088436612 0.0028674269537416496 0 0.0044803338112485852 0.0028598444010704289 0 0.0044340005088436612 0.0028674269537416496 0 0.0044656132755941103 0.0028354821688125129 0 0.0044609962287094516 0.0028917873946926417 0 0.0044803338112485852 0.0028598444010704289 0 0.0044340005088436612 0.0028674269537416496 0 0.004488243271349595 0.0028743100929335724 0 0.0044609962287094516 0.0028917873946926417 0 0.0044803338112485852 0.0028598444010704289 0 0.0043668109639011443 0.0028828607161444971 0 0.0043988766342392786 0.0029004976168032913 0 0.004391379634837914 0.0028640659519383179 0 0.0044256365299089251 0.0029122857929477185 0 0.0043988766342392786 0.0029004976168032913 0 0.0044340005088436612 0.0028674269537416496 0 0.0044340005088436612 0.0028674269537416496 0 0.004391379634837914 0.0028640659519383179 0 0.004402995897736346 0.0028298348584882521 0 0.0043988766342392786 0.0029004976168032913 0 0.0044340005088436612 0.0028674269537416496 0 0.004391379634837914 0.0028640659519383179 0 0.004391379634837914 0.0028640659519383179 0 0.004402995897736346 0.0028298348584882521 0 0.0043541568204879385 0.0028369317591179139 0 0.0044340005088436612 0.0028674269537416496 0 0.004402995897736346 0.0028298348584882521 0 0.0044380048959163582 0.0028235438840533236 0 0.004402995897736346 0.0028298348584882521 0 0.0044380048959163582 0.0028235438840533236 0 0.0044130173294522727 0.0027813213655826989 0 0.0044380048959163582 0.0028235438840533236 0 0.0044130173294522727 0.0027813213655826989 0 0.0044756954439819224 0.0027895871363489344 0 0.0044130173294522727 0.0027813213655826989 0 0.0043774296865080886 0.0027552077277610497 0 0.0043722937549465404 0.0028022740608982842 0 0.004402995897736346 0.0028298348584882521 0 0.0044130173294522727 0.0027813213655826989 0 0.0043722937549465404 0.0028022740608982842 0 0.0044967687303696874 0.0028571921311815649 0 0.0044803338112485852 0.0028598444010704289 0 0.0044939349138085451 0.0028319394480074813 0 0.0044803338112485852 0.0028598444010704289 0 0.0044939349138085451 0.0028319394480074813 0 0.0044656132755941103 0.0028354821688125129 0 0.0044340005088436612 0.0028674269537416496 0 0.0044380048959163582 0.0028235438840533236 0 0.0044656132755941103 0.0028354821688125129 0 0.0044380048959163582 0.0028235438840533236 0 0.0044656132755941103 0.0028354821688125129 0 0.0044756954439819224 0.0027895871363489344 0 0.0044939349138085451 0.0028319394480074813 0 0.0044756954439819224 0.0027895871363489344 0 0.0045135577440993235 0.002782800458058037 0 0.0044939349138085451 0.0028319394480074813 0 0.0044656132755941103 0.0028354821688125129 0 0.0044756954439819224 0.0027895871363489344 0 0.0045386444494318248 0.0027206686428911495 0 0.0045223201922808239 0.0027226050800722699 0 0.0045135577440993235 0.002782800458058037 0 0.0044756954439819224 0.0027895871363489344 0 0.0045223201922808239 0.0027226050800722699 0 0.0045135577440993235 0.002782800458058037 0 0.0044756954439819224 0.0027895871363489344 0 0.0045223201922808239 0.0027226050800722699 0 0.0044252368000254859 0.0027011253306749657 0 0.0045223201922808239 0.0027226050800722699 0 0.0045787932039878781 0.0025974464081521646 0 0.0044252368000254859 0.0027011253306749657 0 0.0045838043174636026 0.0025942395499387485 0 0.004607144161508943 0.0025901708325842248 0 0.0045386444494318248 0.0027206686428911495 0 0.0045223201922808239 0.0027226050800722699 0 0.0045787932039878781 0.0025974464081521646 0 0.0045386444494318248 0.0027206686428911495 0 0.0045787932039878781 0.0025974464081521646 0 0.0045665328054045641 0.0026307609593850317 0 0.0046667681482653869 0.0026204630018343278 0 0.004607144161508943 0.0025901708325842248 0 0.0044130173294522727 0.0027813213655826989 0 0.0043774296865080886 0.0027552077277610497 0 0.0044252368000254859 0.0027011253306749657 0 0.0044130173294522727 0.0027813213655826989 0 0.0044756954439819224 0.0027895871363489344 0 0.0044252368000254859 0.0027011253306749657 0 0.0049503439317873221 0.0024787031676304096 0 0.0047869650091878022 0.0024704931003030747 0 0.0049432943516084481 0.0025268520098841404 0 0.0049503439317873221 0.0024787031676304096 0 0.0050385189574772655 0.0025383798824074248 0 0.0049432943516084481 0.0025268520098841404 0 0.0050385189574772655 0.0025383798824074248 0 0.0050728390272628092 0.0026359068161174253 0 0.0050654808745162778 0.0025484279342288772 0 0.0050385189574772655 0.0025383798824074248 0 0.0050654808745162778 0.0025484279342288772 0 0.0050430601235549582 0.002510624217067302 0 0.0050385189574772655 0.0025383798824074248 0 0.005054507453131768 0.0025863146388213545 0 0.0050728390272628092 0.0026359068161174253 0 0.0049503439317873221 0.0024787031676304096 0 0.0050385189574772655 0.0025383798824074248 0 0.005054507453131768 0.0025863146388213545 0 0.0046667681482653869 0.0026204630018343278 0 0.004654419214736796 0.0026838302904676806 0 0.0043774296865080886 0.0027552077277610497 0 0.0043722937549465404 0.0028022740608982842 0 0.0043417896474849836 0.0027895068147401865 0 0.0043722937549465404 0.0028022740608982842 0 0.0043417896474849836 0.0027895068147401865 0 0.0043541568204879385 0.0028369317591179139 0 0.0043417896474849836 0.0027895068147401865 0 0.0043293704202144647 0.0028199001919706106 0 0.0043541568204879385 0.0028369317591179139 0 0.0043293704202144647 0.0028199001919706106 0 0.0043541568204879385 0.0028369317591179139 0 0.0043147094375831467 0.0028425796521626035 0 0.004402995897736346 0.0028298348584882521 0 0.0043722937549465404 0.0028022740608982842 0 0.0043541568204879385 0.0028369317591179139 0 0.0050000073349833847 0.0032208912749926823 0 0.0049999576895847376 0.002980898987030892 0 0.00508467395491311 0.0030858770006637845 0 0.0049999576895847376 0.002980898987030892 0 0.00508467395491311 0.0030858770006637845 0 0.0051260394746966958 0.0029369542713526902 0 0.00508467395491311 0.0030858770006637845 0 0.0052232793528210536 0.0030903182039149152 0 0.0051260394746966958 0.0029369542713526902 0 0.0052232793528210536 0.0030903182039149152 0 0.0051637504577527506 0.0029191132815840912 0 0.0051260394746966958 0.0029369542713526902 0 0.0043293704202144647 0.0028199001919706106 0 0.0043147094375831467 0.0028425796521626035 0 0.0043071939178287982 0.0028141935203780601 0 0.0047658698248455927 0.0029520642295407119 0 0.0048924421334834807 0.002871091435691735 0 0.0050770910390236113 0.0027095616304292748 0 0.0050846376260349829 0.0027442891288744459 0 0.0050728390272628092 0.0026359068161174253 0 0.0043417896474849836 0.0027895068147401865 0 0.0043293704202144647 0.0028199001919706106 0 0.0043071939178287982 0.0028141935203780601 0 0.005054507453131768 0.0025863146388213545 0 0.0050770910390236113 0.0027095616304292748 0 0.0050728390272628092 0.0026359068161174253 0 0.004654419214736796 0.0026838302904676806 0 0.0048924421334834807 0.002871091435691735 0 0.0048924421334834807 0.002871091435691735 0 0.0050341588333340436 0.0027895437074926957 0 0.0049999576895847376 0.002980898987030892 0 0.0050846376260349829 0.0027442891288744459 0 0.0049999737627087057 0.0027408268101456498 0 0.0049999576895847376 0.002980898987030892 0 0.0050846376260349829 0.0027442891288744459 0 0.0051260394746966958 0.0029369542713526902 0 0.0051776529289330169 0.0029109396765885157 0 0.0050846376260349829 0.0027442891288744459 0 0.0051260394746966958 0.0029369542713526902 0 0.0048924421334834807 0.002871091435691735 0 0.0049824212751833847 0.0028540692957721697 0 0.0050846376260349829 0.0027442891288744459 0 0.0049999737627087057 0.0027408268101456498 0 0.0050639327259397625 0.00260688831780384 0 0.0050728390272628092 0.0026359068161174253 0 0.0050654808745162778 0.0025484279342288772 0 0.0050639327259397625 0.00260688831780384 0 0.0050846376260349829 0.0027442891288744459 0 0.0050728390272628092 0.0026359068161174253 0 0.0050639327259397625 0.00260688831780384 0 0.0050654808745162778 0.0025484279342288772 0 0.0050639327259397625 0.00260688831780384 0 0.0050658744446581251 0.0024752449050019108 0 0.0049999737627087057 0.0027408268101456498 0 0.0050639327259397625 0.00260688831780384 0 0.0049999299713911274 0.0025010037945508842 0 0.0050639327259397625 0.00260688831780384 0 0.0049999299713911274 0.0025010037945508842 0 0.0050658744446581251 0.0024752449050019108 0 0.0049999299713911274 0.0025010037945508842 0 0.0050658744446581251 0.0024752449050019108 0 0.0049999976713797512 0.0022614675521859572 0 0.0050658744446581251 0.0024752449050019108 0 0.0050630006994578664 0.0024489706935690342 0 0.0050430601235549582 0.002510624217067302 0 0.0050654808745162778 0.0025484279342288772 0 0.0050658744446581251 0.0024752449050019108 0 0.0050430601235549582 0.002510624217067302 0 0.0050658744446581251 0.0024752449050019108 0 0.0050630006994578664 0.0024489706935690342 0 0.0049999976713797512 0.0022614675521859572 0 0.0050779899723793834 0.0023168335869313702 0 0.0049999837156613249 0.0022611120894515308 0 0.0049432943516084481 0.0025268520098841404 0 0.0050430601235549582 0.002510624217067302 0 0.005000614389887803 0.002555522972456245 0 0.0050385189574772655 0.0025383798824074248 0 0.0049432943516084481 0.0025268520098841404 0 0.0050430601235549582 0.002510624217067302 0 0.0050779899723793834 0.0023168335869313702 0 0.0050511454136895582 0.0023612864661683606 0 0.0050630006994578664 0.0024489706935690342 0 0.0050430601235549582 0.002510624217067302 0 0.005000614389887803 0.002555522972456245 0 0.0049432943516084481 0.0025268520098841404 0 0.005000614389887803 0.002555522972456245 0 0.004864421906100193 0.0025833120343488223 0 0.0050511454136895582 0.0023612864661683606 0 0.0049178047830954457 0.0024139452528081874 0 0.0051118772822516699 0.0021686180099612907 0 0.005066552350003993 0.0022329686432681936 0 0.004952712249713373 0.0022362273244595807 0 0.0051289142778569875 0.0021864517547285907 0 0.0051118772822516699 0.0021686180099612907 0 0.0051431588782117075 0.0021015568152188083 0 0.0051118772822516699 0.0021686180099612907 0 0.005066552350003993 0.0022329686432681936 0 0.0051431588782117075 0.0021015568152188083 0 0.005066552350003993 0.0022329686432681936 0 0.0051431588782117075 0.0021015568152188083 0 0.0051774930481200809 0.0021575827728219235 0 0.005066552350003993 0.0022329686432681936 0 0.0051774930481200809 0.0021575827728219235 0 0.0049473133739332074 0.002360832119899499 0 0.0051289142778569875 0.0021864517547285907 0 0.0049999301067675094 0.0022608738478673584 0 0.0050000149078979084 0.0020339996123915224 0 0.0051289142778569875 0.0021864517547285907 0 0.0050000149078979084 0.0020339996123915224 0 0.0051431588782117075 0.0021015568152188083 0 0.0050000149078979084 0.0020339996123915224 0 0.0051431588782117075 0.0021015568152188083 0 0.0049999354112804746 0.0018066341066028978 0 0.0049999354112804746 0.0018066341066028978 0 0.0049999222945929771 0.0015798472622398352 0 0.0051042112422342578 0.0018152477533905065 0 0.0049999222945929771 0.0015798472622398352 0 0.0051042112422342578 0.0018152477533905065 0 0.0051591805702726236 0.0016207316488453761 0 0.0051431588782117075 0.0021015568152188083 0 0.0051042112422342578 0.0018152477533905065 0 0.0051774930481200809 0.0021575827728219235 0 0.0051431588782117075 0.0021015568152188083 0 0.0049999354112804746 0.0018066341066028978 0 0.0051042112422342578 0.0018152477533905065 0 0.0051845022630451348 0.0021551499766265846 0 0.005194060003674201 0.0021511745175688368 0 0.0051774930481200809 0.0021575827728219235 0 0.004989062658893594 0.0024380722918080785 0 0.0049473133739332074 0.002360832119899499 0 0.004989062658893594 0.0024380722918080785 0 0.0051235108843832875 0.0025708227949222139 0 0.0048492269006283149 0.0025472352898294913 0 0.0051774930481200809 0.0021575827728219235 0 0.004989062658893594 0.0024380722918080785 0 0.0051235108843832875 0.0025708227949222139 0 0.0051042112422342578 0.0018152477533905065 0 0.0051774930481200809 0.0021575827728219235 0 0.0052822453376925845 0.0017480819556174737 0 0.0051042112422342578 0.0018152477533905065 0 0.0052822453376925845 0.0017480819556174737 0 0.0051591805702726236 0.0016207316488453761 0 0.0052822453376925845 0.0017480819556174737 0 0.0052754580571300258 0.0015464578003222002 0 0.0051591805702726236 0.0016207316488453761 0 0.005194060003674201 0.0021511745175688368 0 0.0052000308129081284 0.002171932133245554 0 0.0051235108843832875 0.0025708227949222139 0 0.005067315471839454 0.0027518537461814398 0 0.0049449861959946382 0.0027052506195865346 0 0.0051235108843832875 0.0025708227949222139 0 0.0049449861959946382 0.0027052506195865346 0 0.0048492269006283149 0.0025472352898294913 0 0.0048394507353385473 0.0025903377488043075 0 0.0048433203232476204 0.0025749226640915815 0 0.005067315471839454 0.0027518537461814398 0 0.0049449861959946382 0.0027052506195865346 0 0.0050122283657203061 0.0027987947912247665 0 0.0052754580571300258 0.0015464578003222002 0 0.0051813017749204587 0.0015306527042901041 0 0.0051591805702726236 0.0016207316488453761 0 0.0052754580571300258 0.0015464578003222002 0 0.0051813017749204587 0.0015306527042901041 0 0.005225257909770179 0.0014710016556706881 0 0.0051813017749204587 0.0015306527042901041 0 0.0050745858782031269 0.0015534886422021127 0 0.0051466444052833274 0.0014378183676050664 0 0.0051813017749204587 0.0015306527042901041 0 0.0050745858782031269 0.0015534886422021127 0 0.0051591805702726236 0.0016207316488453761 0 0.0049999988418914501 0.0013529642151949132 0 0.0051254473452691136 0.0013583022367518727 0 0.0049999993095936456 0.0011265449113777998 0 0.0050000253685620263 0.0015793637105508318 0 0.0050923509245216509 0.0014621047020932797 0 0.0050000001367288376 0.0015793840185032598 0 0.0049999988418914501 0.0013529642151949132 0 0.0051254473452691136 0.0013583022367518727 0 0.0049999222945929771 0.0015798472622398352 0 0.0050745858782031269 0.0015534886422021127 0 0.0051591805702726236 0.0016207316488453761 0 0.0050414380789650477 0.0025444886915339908 0 0.0049655306183570436 0.0024677469919560306 0 0.0048435463333680586 0.0025526653095848165 0 0.0050414380789650477 0.0025444886915339908 0 0.0048435463333680586 0.0025526653095848165 0 0.005008295190286084 0.0026191406192372394 0 0.0048216970905123778 0.0025528949684010221 0 0.0049112056712672918 0.0026107872496797793 0 0.0048280257014573849 0.0024704009871083839 0 0.0046714076164443372 0.0023077999601883222 0 0.0042372781978693179 0.0025607159687673245 0 0.004265081415544306 0.0026298064147173977 0 0.004273150080969566 0.0025821016130559292 0 0.0050414380789650477 0.0025444886915339908 0 0.0050784738665810864 0.0025307065492472776 0 0.0049655306183570436 0.0024677469919560306 0 0.0050414380789650477 0.0025444886915339908 0 0.0050729023941976014 0.0025322094882903462 0 0.005008295190286084 0.0026191406192372394 0 0.0049518518058459171 0.0024602915861348411 0 0.0048280257014573849 0.0024704009871083839 0 0.0049773019600672088 0.0021067241741888169 0 0.004989628491553654 0.0020362086275787258 0 0.0049280822548100605 0.0019993971258081686 0 0.0048280257014573849 0.0024704009871083839 0 0.0049900530688144146 0.0021331187687822798 0 0.0049773019600672088 0.0021067241741888169 0 0.004989628491553654 0.0020362086275787258 0 0.005038989915909199 0.0020814684201369477 0 0.0050784738665810864 0.0025307065492472776 0 0.0049655306183570436 0.0024677469919560306 0 0.0049974369360066325 0.0023212339215342732 0 0.0049655306183570436 0.0024677469919560306 0 0.0048786849862506023 0.0024027753021735854 0 0.0049974369360066325 0.0023212339215342732 0 0.0048786849862506023 0.0024027753021735854 0 0.0047632002346102431 0.002398806537772016 0 0.0048435463333680586 0.0025526653095848165 0 0.0049655306183570436 0.0024677469919560306 0 0.0048786849862506023 0.0024027753021735854 0 0.0048435463333680586 0.0025526653095848165 0 0.0047632002346102431 0.002398806537772016 0 0.0047405716993376762 0.0025001064757734178 0 0.0046312501031935275 0.0023509961700073755 0 0.0047632002346102431 0.002398806537772016 0 0.0047405716993376762 0.0025001064757734178 0 0.0048435463333680586 0.0025526653095848165 0 0.0048394507353385473 0.0025903377488043075 0 0.0048425544656245509 0.0025487133351349647 0 0.0047405716993376762 0.0025001064757734178 0 0.0048435463333680586 0.0025526653095848165 0 0.0048492269006283149 0.0025472352898294913 0 0.0047936875409826905 0.0025461665945089819 0 0.0048492269006283149 0.0025472352898294913 0 0.0048386892877765337 0.0024763444660139918 0 0.0048435463333680586 0.0025526653095848165 0 0.0047936875409826905 0.0025461665945089819 0 0.0048492269006283149 0.0025472352898294913 0 0.004989062658893594 0.0024380722918080785 0 0.0048492269006283149 0.0025472352898294913 0 0.0048386892877765337 0.0024763444660139918 0 0.0048386892877765337 0.0024763444660139918 0 0.0049473133739332074 0.002360832119899499 0 0.0048315020843776955 0.002416196091156324 0 0.004989062658893594 0.0024380722918080785 0 0.0048386892877765337 0.0024763444660139918 0 0.0049473133739332074 0.002360832119899499 0 0.0047936875409826905 0.0025461665945089819 0 0.0048386892877765337 0.0024763444660139918 0 0.0047653759009138102 0.0025199132502860952 0 0.0048386892877765337 0.0024763444660139918 0 0.0047653759009138102 0.0025199132502860952 0 0.0048315020843776955 0.002416196091156324 0 0.0047653759009138102 0.0025199132502860952 0 0.0047052052263983424 0.0025686647628314681 0 0.0047244634566984923 0.0025270267803074046 0 0.0047653759009138102 0.0025199132502860952 0 0.0047479479550098644 0.0025564050135100272 0 0.0047052052263983424 0.0025686647628314681 0 0.0047936875409826905 0.0025461665945089819 0 0.0047653759009138102 0.0025199132502860952 0 0.0047479479550098644 0.0025564050135100272 0 0.0047479479550098644 0.0025564050135100272 0 0.0047328211325589828 0.0025882653224803508 0 0.0047052052263983424 0.0025686647628314681 0 0.0047936875409826905 0.0025461665945089819 0 0.0047479479550098644 0.0025564050135100272 0 0.0047328211325589828 0.0025882653224803508 0 0.0048435463333680586 0.0025526653095848165 0 0.0047936875409826905 0.0025461665945089819 0 0.0047328211325589828 0.0025882653224803508 0 0.0050729023941976014 0.0025322094882903462 0 0.005008295190286084 0.0026191406192372394 0 0.0051385319355752024 0.0026803725977918029 0 0.0049112056712672918 0.0026107872496797793 0 0.0046670681824066392 0.0026549782017509546 0 0.0048280257014573849 0.0024704009871083839 0 0.0046670681824066392 0.0026549782017509546 0 0.0047328211325589828 0.0025882653224803508 0 0.0047052052263983424 0.0025686647628314681 0 0.0046622912294994948 0.0026084547057413096 0 0.0047052052263983424 0.0025686647628314681 0 0.0046593876487713293 0.0025948287760456752 0 0.0046622912294994948 0.0026084547057413096 0 0.0046593876487713293 0.0025948287760456752 0 0.0047244634566984923 0.0025270267803074046 0 0.0046667870586377296 0.0025653946856924476 0 0.0046593876487713293 0.0025948287760456752 0 0.0046667870586377296 0.0025653946856924476 0 0.0046082861566443612 0.0026120928060043868 0 0.0047052052263983424 0.0025686647628314681 0 0.0046593876487713293 0.0025948287760456752 0 0.0047244634566984923 0.0025270267803074046 0 0.0046667870586377296 0.0025653946856924476 0 0.0047636350452912373 0.0024936032058147156 0 0.0046548100082715108 0.0025774605065158347 0 0.0047244634566984923 0.0025270267803074046 0 0.0046667870586377296 0.0025653946856924476 0 0.0047636350452912373 0.0024936032058147156 0 0.005066552350003993 0.0022329686432681936 0 0.0049473133739332074 0.002360832119899499 0 0.0048315020843776955 0.002416196091156324 0 0.0047653759009138102 0.0025199132502860952 0 0.0047244634566984923 0.0025270267803074046 0 0.0048315020843776955 0.002416196091156324 0 0.0047244634566984923 0.0025270267803074046 0 0.0048315020843776955 0.002416196091156324 0 0.0047636350452912373 0.0024936032058147156 0 0.0048315020843776955 0.002416196091156324 0 0.0047636350452912373 0.0024936032058147156 0 0.004952712249713373 0.0022362273244595807 0 0.004793893918272586 0.0024741406359111598 0 0.0049178047830954457 0.0024139452528081874 0 0.005066552350003993 0.0022329686432681936 0 0.0048315020843776955 0.002416196091156324 0 0.004952712249713373 0.0022362273244595807 0 0.0049432943516084481 0.0025268520098841404 0 0.004864421906100193 0.0025833120343488223 0 0.0047611520940310809 0.0025608906888617863 0 0.0047636350452912373 0.0024936032058147156 0 0.004864421906100193 0.0025833120343488223 0 0.0047611520940310809 0.0025608906888617863 0 0.0047869650091878022 0.0024704931003030747 0 0.0049432943516084481 0.0025268520098841404 0 0.0047611520940310809 0.0025608906888617863 0 0.0046548100082715108 0.0025774605065158347 0 0.0045665328054045641 0.0026307609593850317 0 0.0045981046843968443 0.0026059323709661298 0 0.0046667870586377296 0.0025653946856924476 0 0.0046548100082715108 0.0025774605065158347 0 0.0045981046843968443 0.0026059323709661298 0 0.0047636350452912373 0.0024936032058147156 0 0.0047611520940310809 0.0025608906888617863 0 0.0046548100082715108 0.0025774605065158347 0 0.0045787932039878781 0.0025974464081521646 0 0.0047611520940310809 0.0025608906888617863 0 0.0046548100082715108 0.0025774605065158347 0 0.0045787932039878781 0.0025974464081521646 0 0.0047869650091878022 0.0024704931003030747 0 0.0047611520940310809 0.0025608906888617863 0 0.0045787932039878781 0.0025974464081521646 0 0.0046548100082715108 0.0025774605065158347 0 0.0045665328054045641 0.0026307609593850317 0 0.0045267484141494705 0.0027174222651277892 0 0.0045665328054045641 0.0026307609593850317 0 0.0045437756309814935 0.0026447742135492316 0 0.0045665328054045641 0.0026307609593850317 0 0.0045981046843968443 0.0026059323709661298 0 0.0045437756309814935 0.0026447742135492316 0 0.0045981046843968443 0.0026059323709661298 0 0.0045437756309814935 0.0026447742135492316 0 0.0045532169423133442 0.002628171305699715 0 0.0045437756309814935 0.0026447742135492316 0 0.0045240046010077018 0.0026459757263803938 0 0.0045532169423133442 0.002628171305699715 0 0.0045437756309814935 0.0026447742135492316 0 0.0045240046010077018 0.0026459757263803938 0 0.0045217077353382372 0.002688167885608851 0 0.0045267484141494705 0.0027174222651277892 0 0.0045437756309814935 0.0026447742135492316 0 0.0045217077353382372 0.002688167885608851 0 0.0045267484141494705 0.0027174222651277892 0 0.0045119002476590548 0.0027559298377898595 0 0.0045217077353382372 0.002688167885608851 0 0.0045119002476590548 0.0027559298377898595 0 0.0045217077353382372 0.002688167885608851 0 0.004525294204664322 0.0027237831750334309 0 0.004525294204664322 0.0027237831750334309 0 0.0045532164419437001 0.0027298028424300957 0 0.0045202269673432112 0.0026416694467663055 0 0.0045107754181876753 0.002810869253397272 0 0.004525294204664322 0.0027237831750334309 0 0.0045532164419437001 0.0027298028424300957 0 0.0043349790011274238 0.0032349532243644754 0 0.0043811671438236059 0.0032112986350776251 0 0.0042849315680140356 0.0032426265948181546 0 0.0043375437140200698 0.0030845718826050233 0 0.0043811671438236059 0.0032112986350776251 0 0.0045314049714087435 0.0029432020351047618 0 0.0044401274284273581 0.0029830979945019718 0 0.0044363608658286877 0.0028679164279599152 0 0.0043349790011274238 0.0032349532243644754 0 0.0043375437140200698 0.0030845718826050233 0 0.0043811671438236059 0.0032112986350776251 0 0.0044027974865726432 0.0031984769628405369 0 0.0044540422532431973 0.0032731693354120326 0 0.0045240046010077018 0.0026459757263803938 0 0.0045217077353382372 0.002688167885608851 0 0.0045202269673432112 0.0026416694467663055 0 0.0045217077353382372 0.002688167885608851 0 0.004525294204664322 0.0027237831750334309 0 0.0045202269673432112 0.0026416694467663055 0 0.0043375437140200698 0.0030845718826050233 0 0.0044351769085875636 0.0028224006569405619 0 0.0044390824264521249 0.0027114296931563071 0 0.0044363608658286877 0.0028679164279599152 0 0.0044369670484799449 0.002741011666162186 0 0.0045202269673432112 0.0026416694467663055 0 0.0045126175788436848 0.0026458392215167482 0 0.0044390824264521249 0.0027114296931563071 0 0.0045240046010077018 0.0026459757263803938 0 0.0045202269673432112 0.0026416694467663055 0 0.0045126175788436848 0.0026458392215167482 0 0.0043375437140200698 0.0030845718826050233 0 0.0044351769085875636 0.0028224006569405619 0 0.0045314049714087435 0.0029432020351047618 0 0.0044724330444063792 0.0027459040574192638 0 0.0045314049714087435 0.0029432020351047618 0 0.0045639165320195581 0.0027278953870261123 0 0.0044351769085875636 0.0028224006569405619 0 0.0044724330444063792 0.0027459040574192638 0 0.0045314049714087435 0.0029432020351047618 0 0.0044351769085875636 0.0028224006569405619 0 0.0044180241660767335 0.0027330182685975923 0 0.0044724330444063792 0.0027459040574192638 0 0.0045229160380486711 0.0028464042828359602 0 0.0041376936013420313 0.0030498417194279076 0 0.0044180241660767335 0.0027330182685975923 0 0.0044390824264521249 0.0027114296931563071 0 0.0045014908804463993 0.0026995456864590743 0 0.0044351769085875636 0.0028224006569405619 0 0.0044180241660767335 0.0027330182685975923 0 0.0044390824264521249 0.0027114296931563071 0 0.0045126175788436848 0.0026458392215167482 0 0.0044390824264521249 0.0027114296931563071 0 0.0045435327391479237 0.0026487051968180357 0 0.0044390824264521249 0.0027114296931563071 0 0.0045014908804463993 0.0026995456864590743 0 0.0045435327391479237 0.0026487051968180357 0 0.0045014908804463993 0.0026995456864590743 0 0.0045435327391479237 0.0026487051968180357 0 0.0046032053093573635 0.0026545541078384621 0 0.0045435327391479237 0.0026487051968180357 0 0.0046032053093573635 0.0026545541078384621 0 0.0046082861566443612 0.0026120928060043868 0 0.0046593876487713293 0.0025948287760456752 0 0.0046032053093573635 0.0026545541078384621 0 0.0046082861566443612 0.0026120928060043868 0 0.0045981046843968443 0.0026059323709661298 0 0.0046082861566443612 0.0026120928060043868 0 0.0045532169423133442 0.002628171305699715 0 0.0046667870586377296 0.0025653946856924476 0 0.0045981046843968443 0.0026059323709661298 0 0.0046082861566443612 0.0026120928060043868 0 0.0045240046010077018 0.0026459757263803938 0 0.0045126175788436848 0.0026458392215167482 0 0.0045532169423133442 0.002628171305699715 0 0.0045126175788436848 0.0026458392215167482 0 0.0045435327391479237 0.0026487051968180357 0 0.0045532169423133442 0.002628171305699715 0 0.0045435327391479237 0.0026487051968180357 0 0.0046082861566443612 0.0026120928060043868 0 0.0045532169423133442 0.002628171305699715 0 0.0037122787061342529 0.0033923995384030105 0 0.0038120920974270803 0.0032154679177178944 0 0.0035785618620972261 0.0032595812436433925 0 0.0037122787061342529 0.0033923995384030105 0 0.0035389420603755576 0.0034859477740565472 0 0.0035785618620972261 0.0032595812436433925 0 0.0036824859764181899 0.0031155367770470226 0 0.0038120920974270803 0.0032154679177178944 0 0.0035785618620972261 0.0032595812436433925 0 0.0038038999228765719 0.0030779823327576864 0 0.0036824859764181899 0.0031155367770470226 0 0.0038120920974270803 0.0032154679177178944 0 0.0040290632982998226 0.0030234270082915684 0 0.0038120920974270803 0.0032154679177178944 0 0.004028273753068053 0.0032360896366297855 0 0.0038120920974270803 0.0032154679177178944 0 0.003884088287835655 0.0034128661863024709 0 0.004028273753068053 0.0032360896366297855 0 0.003884088287835655 0.0034128661863024709 0 0.0040696825727354969 0.0033649151990409716 0 0.004028273753068053 0.0032360896366297855 0 0.0037122787061342529 0.0033923995384030105 0 0.0038120920974270803 0.0032154679177178944 0 0.003884088287835655 0.0034128661863024709 0 0.003884088287835655 0.0034128661863024709 0 0.0040696825727354969 0.0033649151990409716 0 0.0040711656859741818 0.0035384478124002531 0 0.0040696825727354969 0.0033649151990409716 0 0.0042206996836294357 0.0033626438637768606 0 0.0040711656859741818 0.0035384478124002531 0 0.0040696825727354969 0.0033649151990409716 0 0.0041709354422919207 0.0032588293816715238 0 0.0042206996836294357 0.0033626438637768606 0 0.0040696825727354969 0.0033649151990409716 0 0.004028273753068053 0.0032360896366297855 0 0.0041709354422919207 0.0032588293816715238 0 0.0040290632982998226 0.0030234270082915684 0 0.004028273753068053 0.0032360896366297855 0 0.0041640924026872641 0.0031740523888299232 0 0.0041640924026872641 0.0031740523888299232 0 0.0041709354422919207 0.0032588293816715238 0 0.0042583648518449363 0.0032147253117591253 0 0.004028273753068053 0.0032360896366297855 0 0.0041640924026872641 0.0031740523888299232 0 0.0041709354422919207 0.0032588293816715238 0 0.0041709354422919207 0.0032588293816715238 0 0.0042583648518449363 0.0032147253117591253 0 0.0042849315680140356 0.0032426265948181546 0 0.0042749673019850205 0.003211599197724018 0 0.0043349790011274238 0.0032349532243644754 0 0.0042583648518449363 0.0032147253117591253 0 0.0043349790011274238 0.0032349532243644754 0 0.0042583648518449363 0.0032147253117591253 0 0.0042849315680140356 0.0032426265948181546 0 0.0043811671438236059 0.0032112986350776251 0 0.0042849315680140356 0.0032426265948181546 0 0.0042206996836294357 0.0033626438637768606 0 0.0043811671438236059 0.0032112986350776251 0 0.0042206996836294357 0.0033626438637768606 0 0.004374213920820603 0.0035385129601524295 0 0.0041709354422919207 0.0032588293816715238 0 0.0042849315680140356 0.0032426265948181546 0 0.0042206996836294357 0.0033626438637768606 0 0.0042206996836294357 0.0033626438637768606 0 0.0042300778473084296 0.0035187867897116731 0 0.004374213920820603 0.0035385129601524295 0 0.0042300778473084296 0.0035187867897116731 0 0.0042427964022945693 0.0036572102933104069 0 0.0040711656859741818 0.0035384478124002531 0 0.0042300778473084296 0.0035187867897116731 0 0.004374213920820603 0.0035385129601524295 0 0.0042427964022945693 0.0036572102933104069 0 0.0044540422532431973 0.0032731693354120326 0 0.0041376936013420313 0.0030498417194279076 0 0.0043345082103268869 0.0038035864048361133 0 0.0041514867119976668 0.0038078486250413411 0 0.0041270290553764412 0.0038510115333677706 0 0.004374213920820603 0.0035385129601524295 0 0.0043345082103268869 0.0038035864048361133 0 0.0042427964022945693 0.0036572102933104069 0 0.0041376936013420313 0.0030498417194279076 0 0.0036564458425348261 0.003566276068658824 0 0.0043345082103268869 0.0038035864048361133 0 0.0042241810500605412 0.0037482467117820502 0 0.0041514867119976668 0.0038078486250413411 0 0.0043345082103268869 0.0038035864048361133 0 0.0042241810500605412 0.0037482467117820502 0 0.0042427964022945693 0.0036572102933104069 0 0.0042241810500605412 0.0037482467117820502 0 0.0041684467218428885 0.0037244846418321791 0 0.0041514867119976668 0.0038078486250413411 0 0.0042241810500605412 0.0037482467117820502 0 0.0042427964022945693 0.0036572102933104069 0 0.0041684467218428885 0.0037244846418321791 0 0.0041031948075816796 0.0036763132090120725 0 0.0041684467218428885 0.0037244846418321791 0 0.0040408133865129916 0.0037788318634208976 0 0.0042427964022945693 0.0036572102933104069 0 0.0041031948075816796 0.0036763132090120725 0 0.0041684467218428885 0.0037244846418321791 0 0.0041514867119976668 0.0038078486250413411 0 0.0040408133865129916 0.0037788318634208976 0 0.0041277739304549557 0.0038532542201226219 0 0.0041684467218428885 0.0037244846418321791 0 0.0041514867119976668 0.0038078486250413411 0 0.0040408133865129916 0.0037788318634208976 0 0.0037229147211676858 0.0035986294513624091 0 0.0036564458425348261 0.003566276068658824 0 0.0041031948075816796 0.0036763132090120725 0 0.0040711656859741818 0.0035384478124002531 0 0.0039395057233911328 0.0037271488059737561 0 0.0041031948075816796 0.0036763132090120725 0 0.0040408133865129916 0.0037788318634208976 0 0.0039395057233911328 0.0037271488059737561 0 0.0042427964022945693 0.0036572102933104069 0 0.0041031948075816796 0.0036763132090120725 0 0.0040711656859741818 0.0035384478124002531 0 0.0042206996836294357 0.0033626438637768606 0 0.0042300778473084296 0.0035187867897116731 0 0.0040711656859741818 0.0035384478124002531 0 0.0040711656859741818 0.0035384478124002531 0 0.0039395057233911328 0.0037271488059737561 0 0.0037732328965546878 0.0036242609099501823 0 0.003884088287835655 0.0034128661863024709 0 0.0040711656859741818 0.0035384478124002531 0 0.0037732328965546878 0.0036242609099501823 0 0.0037122787061342529 0.0033923995384030105 0 0.003884088287835655 0.0034128661863024709 0 0.0037732328965546878 0.0036242609099501823 0 0.0039395057233911328 0.0037271488059737561 0 0.0037732328965546878 0.0036242609099501823 0 0.0038136416964032849 0.0039307461910459878 0 0.0040408133865129916 0.0037788318634208976 0 0.0039395057233911328 0.0037271488059737561 0 0.0038136416964032849 0.0039307461910459878 0 0.0036202832357497324 0.0038355987195152338 0 0.0035821825865148256 0.0036661274933333394 0 0.0037732328965546878 0.0036242609099501823 0 0.0036202832357497324 0.0038355987195152338 0 0.0037732328965546878 0.0036242609099501823 0 0.0038136416964032849 0.0039307461910459878 0 0.0035821825865148256 0.0036661274933333394 0 0.0037732328965546878 0.0036242609099501823 0 0.0035389420603755576 0.0034859477740565472 0 0.0037122787061342529 0.0033923995384030105 0 0.0037732328965546878 0.0036242609099501823 0 0.0035389420603755576 0.0034859477740565472 0 0.0029243478346437321 0.003881404409276023 0 0.0028307466177467291 0.0038557379205364315 0 0.0029574296101373184 0.0037307152604248816 0 0.0028149641905809032 0.003950366017245111 0 0.0028642193470843143 0.0039029592671687647 0 0.0028307466177467291 0.0038557379205364315 0 0.0028149641905809032 0.003950366017245111 0 0.0028307466177467291 0.0038557379205364315 0 0.0027208397879640456 0.0039106171250256287 0 0.0028149641905809032 0.003950366017245111 0 0.0028754353714817165 0.0039482299918004284 0 0.0028642193470843143 0.0039029592671687647 0 0.0028754353714817165 0.0039482299918004284 0 0.0029243478346437321 0.003881404409276023 0 0.0029338682997183656 0.0039884503425466874 0 0.0028754353714817165 0.0039482299918004284 0 0.0028642193470843143 0.0039029592671687647 0 0.0029243478346437321 0.003881404409276023 0 0.0028642193470843143 0.0039029592671687647 0 0.0029243478346437321 0.003881404409276023 0 0.0028307466177467291 0.0038557379205364315 0 0.0036202832357497324 0.0038355987195152338 0 0.0038136416964032849 0.0039307461910459878 0 0.0034865245281132801 0.0040020306008378718 0 0.0033807803689553917 0.0038522457427530481 0 0.0031152777540139238 0.0038919176811135435 0 0.0028307466177467291 0.0038557379205364315 0 0.0029574296101373184 0.0037307152604248816 0 0.0027390517194595221 0.0037869645156561145 0 0.0029574296101373184 0.0037307152604248816 0 0.0030673333277741028 0.003875500294336079 0 0.0031854126956842518 0.0036781941570301611 0 0.0033807803689553917 0.0038522457427530481 0 0.0036564458425348261 0.003566276068658824 0 0.0029243478346437321 0.003881404409276023 0 0.0030673333277741028 0.003875500294336079 0 0.0029338682997183656 0.0039884503425466874 0 0.0029243478346437321 0.003881404409276023 0 0.0029574296101373184 0.0037307152604248816 0 0.0030673333277741028 0.003875500294336079 0 0.0034861099901724599 0.0030373816908313622 0 0.0034517089819068548 0.0030375180591155704 0 0.0034504510354044387 0.0029953369197645093 0 0.0032309969136750044 0.0034463323746361765 0 0.0036564458425348261 0.003566276068658824 0 0.0040408133865129916 0.0037788318634208976 0 0.0038136416964032849 0.0039307461910459878 0 0.0041277739304549557 0.0038532542201226219 0 0.0034861099901724599 0.0030373816908313622 0 0.0034731013875517317 0.0030699709743396341 0 0.0034517089819068548 0.0030375180591155704 0 0.0041376936013420313 0.0030498417194279076 0 0.0039599539735531691 0.002812322632837734 0 0.0044992477233804914 0.0027362333500743183 0 0.0044926229064915979 0.0026364733588827151 0 0.0044485296917331409 0.0026760586976662059 0 0.0034537663088666315 0.0030733006402555284 0 0.0034731013875517317 0.0030699709743396341 0 0.0034517089819068548 0.0030375180591155704 0 0.0044926229064915979 0.0026364733588827151 0 0.004488454427701025 0.0025483414805488858 0 0.0044412430816954908 0.0026070410015889469 0 0.0034861099901724599 0.0030373816908313622 0 0.0034504510354044387 0.0029953369197645093 0 0.0034768113451632086 0.0029754998070623223 0 0.0039599539735531691 0.002812322632837734 0 0.0039732552614627969 0.0027702262913954188 0 0.004488454427701025 0.0025483414805488858 0 0.0044512330288339619 0.0024931942896211159 0 0.0044100718840209266 0.0025399078456801267 0 0.0039732552614627969 0.0027702262913954188 0 0.0039447038771383879 0.0027281040261082708 0 0.004488454427701025 0.0025483414805488858 0 0.0044512330288339619 0.0024931942896211159 0 0.0044914555406552368 0.0024464962830070187 0 0.0034504510354044387 0.0029953369197645093 0 0.0034768113451632086 0.0029754998070623223 0 0.0034505021751676202 0.0029478612015725976 0 0.0034861099901724599 0.0030373816908313622 0 0.0034768113451632086 0.0029754998070623223 0 0.0035024762993838593 0.00299854689714079 0 0.0030673333277741028 0.003875500294336079 0 0.0029338682997183656 0.0039884503425466874 0 0.002951333683966972 0.0040246851353637064 0 0.0032309969136750044 0.0034463323746361765 0 0.0033333343128497867 0.0034734025597803492 0 0.0029338682997183656 0.0039884503425466874 0 0.002951333683966972 0.0040246851353637064 0 0.0029128762582303321 0.0040250249907856969 0 0.0034768113451632086 0.0029754998070623223 0 0.0035024762993838593 0.00299854689714079 0 0.0035211722252805481 0.0029570414732197942 0 0.0015932633825385578 0.0039049656590904491 0 0.0015520417708001302 0.0036117153485784492 0 0.0017086160735833491 0.003742206190606993 0 0.0029128762582303321 0.0040250249907856969 0 0.0028835084737090272 0.0039935297473838926 0 0.0028955128761479795 0.0040901957718036501 0 0.002431999457471805 0.0039508036016376409 0 0.00238751171175472 0.0035137796184504444 0 0.0033333343128497867 0.0034734025597803492 0 0.00238751171175472 0.0035137796184504444 0 0.002951333683966972 0.0040246851353637064 0 0.0029128762582303321 0.0040250249907856969 0 0.0028955128761479795 0.0040901957718036501 0 0.0029338682997183656 0.0039884503425466874 0 0.0029128762582303321 0.0040250249907856969 0 0.0028835084737090272 0.0039935297473838926 0 0.0028754353714817165 0.0039482299918004284 0 0.0029338682997183656 0.0039884503425466874 0 0.0028253179931752642 0.0039980885027299188 0 0.0030080998647471851 0.0039872668924139784 0 0.002431999457471805 0.0039508036016376409 0 0.0028149641905809032 0.003950366017245111 0 0.0028754353714817165 0.0039482299918004284 0 0.0028253179931752642 0.0039980885027299188 0 0.0025607523065589105 0.0039894906013527801 0 0.002431999457471805 0.0039508036016376409 0 0.004349029011879728 0.0026370768319681132 0 0.0043034669025665516 0.0026163391604343308 0 0.0043280167036090743 0.0026742822346150796 0 0.004349029011879728 0.0026370768319681132 0 0.0043292853347041103 0.0026047450965969946 0 0.0043034669025665516 0.0026163391604343308 0 0.0043292853347041103 0.0026047450965969946 0 0.0043566682877721882 0.002601329966426803 0 0.0043288068309473206 0.0025733795728576751 0 0.004349029011879728 0.0026370768319681132 0 0.0043292853347041103 0.0026047450965969946 0 0.0043566682877721882 0.002601329966426803 0 0.0043292853347041103 0.0026047450965969946 0 0.0043034669025665516 0.0026163391604343308 0 0.0043016921467024169 0.0025760541716988998 0 0.0043034669025665516 0.0026163391604343308 0 0.004265081415544306 0.0026298064147173977 0 0.0043280167036090743 0.0026742822346150796 0 0.0043034669025665516 0.0026163391604343308 0 0.004265081415544306 0.0026298064147173977 0 0.004273150080969566 0.0025821016130559292 0 0.0046032053093573635 0.0026545541078384621 0 0.0046879269203988954 0.0028187526880718598 0 0.0045123307427224922 0.0027428597086321706 0 0.0046593876487713293 0.0025948287760456752 0 0.0046032053093573635 0.0026545541078384621 0 0.0046622912294994948 0.0026084547057413096 0 0.0046670681824066392 0.0026549782017509546 0 0.0043857481730283339 0.0027108922845635076 0 0.0046179257724624457 0.0026721547990160846 0 0.0046670681824066392 0.0026549782017509546 0 0.0045014908804463993 0.0026995456864590743 0 0.0046032053093573635 0.0026545541078384621 0 0.0045123307427224922 0.0027428597086321706 0 0.0044311592256820109 0.0027304078584724132 0 0.0043857481730283339 0.0027108922845635076 0 0.0044180241660767335 0.0027330182685975923 0 0.0043280167036090743 0.0026742822346150796 0 0.0043889779467727987 0.0026629026440709905 0 0.004349029011879728 0.0026370768319681132 0 0.0043280167036090743 0.0026742822346150796 0 0.0043889779467727987 0.0026629026440709905 0 0.0044180241660767335 0.0027330182685975923 0 0.0045014908804463993 0.0026995456864590743 0 0.0045123307427224922 0.0027428597086321706 0 0.0044724330444063792 0.0027459040574192638 0 0.0044992477233804914 0.0027362333500743183 0 0.0044485296917331409 0.0026760586976662059 0 0.0044180241660767335 0.0027330182685975923 0 0.0044724330444063792 0.0027459040574192638 0 0.0044485296917331409 0.0026760586976662059 0 0.0044180241660767335 0.0027330182685975923 0 0.0043889779467727987 0.0026629026440709905 0 0.0044485296917331409 0.0026760586976662059 0 0.0043889779467727987 0.0026629026440709905 0 0.0044485296917331409 0.0026760586976662059 0 0.0044173208300026775 0.0026377651739192742 0 0.0044485296917331409 0.0026760586976662059 0 0.0044173208300026775 0.0026377651739192742 0 0.0044412430816954908 0.0026070410015889469 0 0.0044926229064915979 0.0026364733588827151 0 0.0044485296917331409 0.0026760586976662059 0 0.0044412430816954908 0.0026070410015889469 0 0.0044173208300026775 0.0026377651739192742 0 0.0044412430816954908 0.0026070410015889469 0 0.0043906557515375642 0.0026069828042131031 0 0.004349029011879728 0.0026370768319681132 0 0.0043889779467727987 0.0026629026440709905 0 0.0043906557515375642 0.0026069828042131031 0 0.0043889779467727987 0.0026629026440709905 0 0.0044173208300026775 0.0026377651739192742 0 0.0043906557515375642 0.0026069828042131031 0 0.004349029011879728 0.0026370768319681132 0 0.0043906557515375642 0.0026069828042131031 0 0.0043566682877721882 0.002601329966426803 0 0.0043906557515375642 0.0026069828042131031 0 0.0043566682877721882 0.002601329966426803 0 0.0043572742650534631 0.0025694331182163762 0 0.0043572742650534631 0.0025694331182163762 0 0.0044100718840209266 0.0025399078456801267 0 0.004357763713793263 0.0025281277527864649 0 0.0043906557515375642 0.0026069828042131031 0 0.0043572742650534631 0.0025694331182163762 0 0.0044100718840209266 0.0025399078456801267 0 0.0044412430816954908 0.0026070410015889469 0 0.0043906557515375642 0.0026069828042131031 0 0.0044100718840209266 0.0025399078456801267 0 0.004488454427701025 0.0025483414805488858 0 0.0044412430816954908 0.0026070410015889469 0 0.0044100718840209266 0.0025399078456801267 0 0.0044106805628938914 0.0024934341191284863 0 0.0043766549651598667 0.002488358820461565 0 0.0044153497881965764 0.002443949755807777 0 0.0044512330288339619 0.0024931942896211159 0 0.0044100718840209266 0.0025399078456801267 0 0.0044106805628938914 0.0024934341191284863 0 0.0044100718840209266 0.0025399078456801267 0 0.0044106805628938914 0.0024934341191284863 0 0.0043766549651598667 0.002488358820461565 0 0.0044512330288339619 0.0024931942896211159 0 0.0044106805628938914 0.0024934341191284863 0 0.0044153497881965764 0.002443949755807777 0 0.0044100718840209266 0.0025399078456801267 0 0.004357763713793263 0.0025281277527864649 0 0.0043766549651598667 0.002488358820461565 0 0.0042633638976066661 0.0025123638098104163 0 0.0044835069125538658 0.0023291572141136197 0 0.004357763713793263 0.0025281277527864649 0 0.0043766549651598667 0.002488358820461565 0 0.0043244833139097928 0.0025171445774019863 0 0.0043262457049284371 0.0025208729969099421 0 0.004324822675118598 0.0025425573851187129 0 0.0042813159748222238 0.0025417429038891255 0 0.0044835069125538658 0.0023291572141136197 0 0.0044169750122319464 0.0025140797724921941 0 0.004357763713793263 0.0025281277527864649 0 0.0043244833139097928 0.0025171445774019863 0 0.004324822675118598 0.0025425573851187129 0 0.0043572742650534631 0.0025694331182163762 0 0.004357763713793263 0.0025281277527864649 0 0.004324822675118598 0.0025425573851187129 0 0.0043572742650534631 0.0025694331182163762 0 0.004324822675118598 0.0025425573851187129 0 0.0043288068309473206 0.0025733795728576751 0 0.004324822675118598 0.0025425573851187129 0 0.0043288068309473206 0.0025733795728576751 0 0.0043016921467024169 0.0025760541716988998 0 0.0043292853347041103 0.0026047450965969946 0 0.0043288068309473206 0.0025733795728576751 0 0.0043016921467024169 0.0025760541716988998 0 0.0043566682877721882 0.002601329966426803 0 0.0043572742650534631 0.0025694331182163762 0 0.0043288068309473206 0.0025733795728576751 0 0.0042372781978693179 0.0025607159687673245 0 0.004273150080969566 0.0025821016130559292 0 0.0042813159748222238 0.0025417429038891255 0 0.004324822675118598 0.0025425573851187129 0 0.0043016921467024169 0.0025760541716988998 0 0.0042813159748222238 0.0025417429038891255 0 0.0043034669025665516 0.0026163391604343308 0 0.004273150080969566 0.0025821016130559292 0 0.0043016921467024169 0.0025760541716988998 0 0.004273150080969566 0.0025821016130559292 0 0.0043016921467024169 0.0025760541716988998 0 0.0042813159748222238 0.0025417429038891255 0 0.0044835069125538658 0.0023291572141136197 0 0.0046714076164443372 0.0023077999601883222 0 0.0051001817664361902 0.0020580573321864332 0 0.005038989915909199 0.0020814684201369477 0 0.0050437814294032523 0.0020431094841229991 0 0.004989628491553654 0.0020362086275787258 0 0.005038989915909199 0.0020814684201369477 0 0.0050437814294032523 0.0020431094841229991 0 0.0051001817664361902 0.0020580573321864332 0 0.0050437814294032523 0.0020431094841229991 0 0.0050464098612154366 0.0019967536959998003 0 0.004989628491553654 0.0020362086275787258 0 0.0050437814294032523 0.0020431094841229991 0 0.0050464098612154366 0.0019967536959998003 0 0.0050464098612154366 0.0019967536959998003 0 0.0050445578427093544 0.0019030846872973677 0 0.0049839590737874619 0.0019244667002527259 0 0.0050464098612154366 0.0019967536959998003 0 0.0050445578427093544 0.0019030846872973677 0 0.0051054301144757347 0.0019399082015721073 0 0.0044835069125538658 0.0023291572141136197 0 0.0046309907108597215 0.0021195799938931218 0 0.0051001817664361902 0.0020580573321864332 0 0.0050464098612154366 0.0019967536959998003 0 0.0051054301144757347 0.0019399082015721073 0 0.0042572414956976784 0.002488840265530637 0 0.0041191721599834396 0.0025384536203449195 0 0.0041215388775386235 0.0023164423687547166 0 0.0042572414956976784 0.002488840265530637 0 0.0041215388775386235 0.0023164423687547166 0 0.0042813577116586846 0.0023201001645535083 0 0.0042633638976066661 0.0025123638098104163 0 0.0044307044461730566 0.0024399619666414874 0 0.0042572414956976784 0.002488840265530637 0 0.0044153497881965764 0.002443949755807777 0 0.0043573627901761294 0.0023792671406145448 0 0.0042572414956976784 0.002488840265530637 0 0.0043573627901761294 0.0023792671406145448 0 0.0042813577116586846 0.0023201001645535083 0 0.0044153497881965764 0.002443949755807777 0 0.0043573627901761294 0.0023792671406145448 0 0.004433584579601163 0.0023653079592203885 0 0.0043573627901761294 0.0023792671406145448 0 0.0043983390713543853 0.0022969999234255601 0 0.0042813577116586846 0.0023201001645535083 0 0.0043983390713543853 0.0022969999234255601 0 0.0042813577116586846 0.0023201001645535083 0 0.0043324080456994341 0.0022018946474576685 0 0.0043573627901761294 0.0023792671406145448 0 0.0043983390713543853 0.0022969999234255601 0 0.004433584579601163 0.0023653079592203885 0 0.0043983390713543853 0.0022969999234255601 0 0.0043324080456994341 0.0022018946474576685 0 0.0044458571974315903 0.0022102364974015869 0 0.0041215388775386235 0.0023164423687547166 0 0.0042813577116586846 0.0023201001645535083 0 0.0042252093051367585 0.0022041644798170821 0 0.0042813577116586846 0.0023201001645535083 0 0.0042252093051367585 0.0022041644798170821 0 0.0043324080456994341 0.0022018946474576685 0 0.0042252093051367585 0.0022041644798170821 0 0.0042626516156833959 0.0020916895011204371 0 0.0041274836329710102 0.0020946001388213774 0 0.0042252093051367585 0.0022041644798170821 0 0.0043324080456994341 0.0022018946474576685 0 0.0042626516156833959 0.0020916895011204371 0 0.0043324080456994341 0.0022018946474576685 0 0.0042626516156833959 0.0020916895011204371 0 0.004420869424854197 0.0020994358487802451 0 0.0042626516156833959 0.0020916895011204371 0 0.004420869424854197 0.0020994358487802451 0 0.004320368691176614 0.0019892894465523936 0 0.004420869424854197 0.0020994358487802451 0 0.0044110382282957633 0.0019960957727789982 0 0.004320368691176614 0.0019892894465523936 0 0.0042626516156833959 0.0020916895011204371 0 0.0041274836329710102 0.0020946001388213774 0 0.0042340629489820833 0.001959149380368216 0 0.0042626516156833959 0.0020916895011204371 0 0.0042340629489820833 0.001959149380368216 0 0.004320368691176614 0.0019892894465523936 0 0.0050216679138816783 0.0018468087395150075 0 0.0050082115225851005 0.0016960207620238888 0 0.0051006194844798597 0.0018277518105740251 0 0.0050256912208260585 0.0018292287871089997 0 0.0050331384875121803 0.0017822216607225746 0 0.0050445578427093544 0.0019030846872973677 0 0.0051006194844798597 0.0018277518105740251 0 0.0050256912208260585 0.0018292287871089997 0 0.0046309907108597215 0.0021195799938931218 0 0.0046094466147725581 0.0019689522407215702 0 0.0050445578427093544 0.0019030846872973677 0 0.0051054301144757347 0.0019399082015721073 0 0.0051006194844798597 0.0018277518105740251 0 0.0041215388775386235 0.0023164423687547166 0 0.0042252093051367585 0.0022041644798170821 0 0.0041274836329710102 0.0020946001388213774 0 0.0016741671095727184 0.0033405805661181499 0 0.0017055387825580704 0.0033782909522726691 0 0.0017135329595934644 0.0033829075075229942 0 0.0026203950553252298 0.0031258421141749869 0 0.0021991582700791909 0.0029643909409879199 0 0.0016852991924352389 0.0033825596003817454 0 0.0016741671095727184 0.0033405805661181499 0 0.0017055387825580704 0.0033782909522726691 0 0.0016852991924352389 0.0033825596003817454 0 0.0016962826076242891 0.0034080794202138182 0 0.0017055387825580704 0.0033782909522726691 0 0.00238751171175472 0.0035137796184504444 0 0.0014731664678159875 0.0034397152126576201 0 0.0026203950553252298 0.0031258421141749869 0 0.00238751171175472 0.0035137796184504444 0 0.0035165271085060125 0.0029127387339820173 0 0.0035211722252805481 0.0029570414732197942 0 0.0034846083381691196 0.0029309300922459825 0 0.0034768113451632086 0.0029754998070623223 0 0.0035211722252805481 0.0029570414732197942 0 0.0034846083381691196 0.0029309300922459825 0 0.0035165271085060125 0.0029127387339820173 0 0.0034846083381691196 0.0029309300922459825 0 0.0034887076198932515 0.0028891850071593381 0 0.0035165271085060125 0.0029127387339820173 0 0.0034887076198932515 0.0028891850071593381 0 0.0035096534339453564 0.0028682476196247786 0 0.0034846083381691196 0.0029309300922459825 0 0.0034887076198932515 0.0028891850071593381 0 0.0034546055994458115 0.0028957150219659782 0 0.0042410932915388708 0.002514054536972257 0 0.0039447038771383879 0.0027281040261082708 0 0.0034846083381691196 0.0029309300922459825 0 0.0034546055994458115 0.0028957150219659782 0 0.0034505021751676202 0.0029478612015725976 0 0.0034768113451632086 0.0029754998070623223 0 0.0034846083381691196 0.0029309300922459825 0 0.0034505021751676202 0.0029478612015725976 0 0.0044912092325036157 0.0023836955820130947 0 0.0044914555406552368 0.0024464962830070187 0 0.00446738222555235 0.0024372331129451446 0 0.0044512330288339619 0.0024931942896211159 0 0.0044914555406552368 0.0024464962830070187 0 0.00446738222555235 0.0024372331129451446 0 0.0044512330288339619 0.0024931942896211159 0 0.0044153497881965764 0.002443949755807777 0 0.00446738222555235 0.0024372331129451446 0 0.0044153497881965764 0.002443949755807777 0 0.00446738222555235 0.0024372331129451446 0 0.004433584579601163 0.0023653079592203885 0 0.0045328213629820899 0.0022638536928967284 0 0.00446738222555235 0.0024372331129451446 0 0.004433584579601163 0.0023653079592203885 0 0.0043983390713543853 0.0022969999234255601 0 0.0045328213629820899 0.0022638536928967284 0 0.0044458571974315903 0.0022102364974015869 0 0.0042410932915388708 0.002514054536972257 0 0.0045466805378345 0.0023375484064616231 0 0.0043983390713543853 0.0022969999234255601 0 0.0045328213629820899 0.0022638536928967284 0 0.004433584579601163 0.0023653079592203885 0 0.0043324080456994341 0.0022018946474576685 0 0.0044458571974315903 0.0022102364974015869 0 0.004420869424854197 0.0020994358487802451 0 0.0045328213629820899 0.0022638536928967284 0 0.0044458571974315903 0.0022102364974015869 0 0.0045340178431455816 0.0021886745025047126 0 0.0044458571974315903 0.0022102364974015869 0 0.004420869424854197 0.0020994358487802451 0 0.0045340178431455816 0.0021886745025047126 0 0.004420869424854197 0.0020994358487802451 0 0.0045193513767015558 0.0020894944236729443 0 0.0045340178431455816 0.0021886745025047126 0 0.004420869424854197 0.0020994358487802451 0 0.0044110382282957633 0.0019960957727789982 0 0.0044987023100414572 0.0019927277894567115 0 0.004420869424854197 0.0020994358487802451 0 0.0045193513767015558 0.0020894944236729443 0 0.0044987023100414572 0.0019927277894567115 0 0.0045193513767015558 0.0020894944236729443 0 0.0044987023100414572 0.0019927277894567115 0 0.0046147424382459879 0.002068891347801111 0 0.0046228601401006909 0.0020916628430860925 0 0.00385627968553469 0.0023453987534120327 0 0.0044987023100414572 0.0019927277894567115 0 0.0045479266320397581 0.0019855150514736502 0 0.004562624960771566 0.0020368665400642715 0 0.0042410932915388708 0.002514054536972257 0 0.00385627968553469 0.0023453987534120327 0 0.0034887076198932515 0.0028891850071593381 0 0.0034546055994458115 0.0028957150219659782 0 0.0034781719190385601 0.0028394072654988399 0 0.0045239979658459953 0.0022660717538827168 0 0.0046147424382459879 0.002068891347801111 0 0.0045340178431455816 0.0021886745025047126 0 0.0045193513767015558 0.0020894944236729443 0 0.0046147424382459879 0.002068891347801111 0 0.0045340178431455816 0.0021886745025047126 0 0.0042410932915388708 0.002514054536972257 0 0.0044417637418653162 0.0021691442348582405 0 0.0034887076198932515 0.0028891850071593381 0 0.0034781719190385601 0.0028394072654988399 0 0.0035096534339453564 0.0028682476196247786 0 0.00385627968553469 0.0023453987534120327 0 0.0021991582700791909 0.0029643909409879199 0 0.0026835919698853252 0.0024417713314228394 0 0.002643622371587512 0.0024703878845936493 0 0.0026993171568701268 0.0025653018931154933 0 0.0025880031046425305 0.0024825333866357116 0 0.002643622371587512 0.0024703878845936493 0 0.0026993171568701268 0.0025653018931154933 0 0.0025880031046425305 0.0024825333866357116 0 0.002643622371587512 0.0024703878845936493 0 0.0026320477946678326 0.0024091443351096386 0 0.0025880031046425305 0.0024825333866357116 0 0.0026320477946678326 0.0024091443351096386 0 0.0026257953836718887 0.0023968601765271659 0 0.0045479266320397581 0.0019855150514736502 0 0.004562624960771566 0.0020368665400642715 0 0.0046010856502703935 0.0019692271050398432 0 0.00385627968553469 0.0023453987534120327 0 0.0029764892518016083 0.0020560272017447296 0 0.0026835919698853252 0.0024417713314228394 0 0.002643622371587512 0.0024703878845936493 0 0.0026320477946678326 0.0024091443351096386 0 0.0019566980918924361 0.00262210712229222 0 0.0021991582700791909 0.0029643909409879199 0 0.0014453097316266532 0.0028684196597166208 0 0.0013708251594149062 0.0026321507528859847 0 0.0015356468420660459 0.0026968210584758985 0 0.001245784538010167 0.0027798215736244067 0 0.0014453097316266532 0.0028684196597166208 0 0.0013708251594149062 0.0026321507528859847 0 0.001245784538010167 0.0027798215736244067 0 0.0014453097316266532 0.0028684196597166208 0 0.0012816558892230101 0.003042934407819465 0 0.0014453097316266532 0.0028684196597166208 0 0.0012816558892230101 0.003042934407819465 0 0.0015028907845037766 0.0030694936580942561 0 0.0012816558892230101 0.003042934407819465 0 0.0015028907845037766 0.0030694936580942561 0 0.0015857691007183147 0.0032658969372010922 0 0.0021991582700791909 0.0029643909409879199 0 0.0015247226766882916 0.0033259124469318087 0 0.0014008569941325428 0.0024508695897863093 0 0.0013656060113712539 0.0022033373427426399 0 0.0015363531802513608 0.0023701497072275693 0 0.0014008569941325428 0.0024508695897863093 0 0.0012112031249574158 0.0025187399888298039 0 0.0013656060113712539 0.0022033373427426399 0 0.0021490880333945141 0.002137011073090226 0 0.001855494046828566 0.0017744791862950666 0 0.0014008569941325428 0.0024508695897863093 0 0.0013708251594149062 0.0026321507528859847 0 0.0015273612325527946 0.002529839541742684 0 0.001245784538010167 0.0027798215736244067 0 0.0013708251594149062 0.0026321507528859847 0 0.0012112031249574158 0.0025187399888298039 0 0.0013708251594149062 0.0026321507528859847 0 0.0015356468420660459 0.0026968210584758985 0 0.0015273612325527946 0.002529839541742684 0 0.0014008569941325428 0.0024508695897863093 0 0.0013708251594149062 0.0026321507528859847 0 0.0012112031249574158 0.0025187399888298039 0 0.0019566980918924361 0.00262210712229222 0 0.0021490880333945141 0.002137011073090226 0 0.0021490880333945141 0.002137011073090226 0 0.0029764892518016083 0.0020560272017447296 0 0.0026835919698853252 0.0024417713314228394 0 0.0026613109950078869 0.0023143762751448574 0 0.0026320477946678326 0.0024091443351096386 0 0.0023150946501462898 0.0016183157703824368 0 0.0022459330923567354 0.0017671670073698001 0 0.0020963415375543607 0.0014842830708562246 0 0.0026613109950078869 0.0023143762751448574 0 0.0026320477946678326 0.0024091443351096386 0 0.0026247879018408602 0.0023962515186810966 0 0.0029694777935956305 0.0020848663449366442 0 0.0029764892518016083 0.0020560272017447296 0 0.0023049790089792839 0.0015619999443503372 0 0.002248949604451531 0.0013639559572485133 0 0.0024377983308514328 0.0013395116145864363 0 0.0023150946501462898 0.0016183157703824368 0 0.0023049790089792839 0.0015619999443503372 0 0.0020963415375543607 0.0014842830708562246 0 0.0023049790089792839 0.0015619999443503372 0 0.0020963415375543607 0.0014842830708562246 0 0.002248949604451531 0.0013639559572485133 0 0.002314706451759665 0.0016180808352004171 0 0.0023049790089792839 0.0015619999443503372 0 0.0024377983308514328 0.0013395116145864363 0 0.0021490880333945141 0.002137011073090226 0 0.0021502648903621072 0.0018548806977411144 0 0.0046010856502703935 0.0019692271050398432 0 0.0045348574021662142 0.0018219992281680081 0 0.0045286923896031344 0.0019355165240107174 0 0.0045348574021662142 0.0018219992281680081 0 0.0045286923896031344 0.0019355165240107174 0 0.0044583928288485951 0.001903353580086198 0 0.0029764892518016083 0.0020560272017447296 0 0.0034029966632006573 0.0016735760324077809 0 0.0045479266320397581 0.0019855150514736502 0 0.0046010856502703935 0.0019692271050398432 0 0.0045286923896031344 0.0019355165240107174 0 0.0044987023100414572 0.0019927277894567115 0 0.0045286923896031344 0.0019355165240107174 0 0.0044583928288485951 0.001903353580086198 0 0.0044987023100414572 0.0019927277894567115 0 0.0045479266320397581 0.0019855150514736502 0 0.0045286923896031344 0.0019355165240107174 0 0.0044110382282957633 0.0019960957727789982 0 0.0044583928288485951 0.001903353580086198 0 0.0043419217876779605 0.0018801159170248613 0 0.0044110382282957633 0.0019960957727789982 0 0.0044987023100414572 0.0019927277894567115 0 0.0044583928288485951 0.001903353580086198 0 0.0045348574021662142 0.0018219992281680081 0 0.0044173939920093309 0.0018142872385343656 0 0.0044261615444995094 0.0017522377002336489 0 0.0044583928288485951 0.001903353580086198 0 0.0044173939920093309 0.0018142872385343656 0 0.0043419217876779605 0.0018801159170248613 0 0.0045348574021662142 0.0018219992281680081 0 0.0044583928288485951 0.001903353580086198 0 0.0044173939920093309 0.0018142872385343656 0 0.0044173939920093309 0.0018142872385343656 0 0.0043853202869468619 0.0017700584088587077 0 0.0044261615444995094 0.0017522377002336489 0 0.0044173939920093309 0.0018142872385343656 0 0.0043853202869468619 0.0017700584088587077 0 0.0043596317141457817 0.0018129355379791483 0 0.0045348574021662142 0.0018219992281680081 0 0.0044261615444995094 0.0017522377002336489 0 0.0044501949343897507 0.0016718649028082421 0 0.0043841105346254412 0.001736141582110165 0 0.0044261615444995094 0.0017522377002336489 0 0.0043988821632730728 0.0017115109259487195 0 0.0043841105346254412 0.001736141582110165 0 0.0043853202869468619 0.0017700584088587077 0 0.0044261615444995094 0.0017522377002336489 0 0.0044261615444995094 0.0017522377002336489 0 0.0043988821632730728 0.0017115109259487195 0 0.0044501949343897507 0.0016718649028082421 0 0.0029676891464070036 0.0013038279142204726 0 0.0040603869883403853 0.00091428663076674954 0 0.0043988821632730728 0.0017115109259487195 0 0.0044501949343897507 0.0016718649028082421 0 0.0043726457727777911 0.0016925011999171272 0 0.0043988821632730728 0.0017115109259487195 0 0.0043726457727777911 0.0016925011999171272 0 0.0043668200795629556 0.0017083793273100774 0 0.0043841105346254412 0.001736141582110165 0 0.0043988821632730728 0.0017115109259487195 0 0.0043668200795629556 0.0017083793273100774 0 0.003405763762799387 0.001190598940811116 0 0.0032810125596817929 0.00096196256828655021 0 0.0036104858037687019 0.00089441998611959487 0 0.0032239398080179818 0.00075226066016222776 0 0.0040603869883403853 0.00091428663076674954 0 0.0019128378594158917 0.0010875573246426266 0 0.001966113810465311 0.0011883175907665337 0 0.0020831076612087022 0.0010364569424507059 0 0.0036641353475479 0.00039847785275824466 0 0.0036459454175138697 0.00042731857843025518 0 0.0036459056414124848 0.00039749762287559536 0 0.0036641353475479 0.00039847785275824466 0 0.0036459056414124848 0.00039749762287559536 0 0.0036372360926788068 0.00036559368065252999 0 0.0032239398080179818 0.00075226066016222776 0 0.0029676891464070036 0.0013038279142204726 0 0.001966113810465311 0.0011883175907665337 0 0.0020831076612087022 0.0010364569424507059 0 0.0022452444339200596 0.0011441331416437708 0 0.0029676891464070036 0.0013038279142204726 0 0.0018212693621634333 0.0011613654536533023 0 0.0034029966632006573 0.0016735760324077809 0 0.0029676891464070036 0.0013038279142204726 0 0.0020963415375543607 0.0014842830708562246 0 0.0019608408983374133 0.0012167218126247212 0 0.0021373086026039946 0.0013022745907051005 0 0.0019608408983374133 0.0012167218126247212 0 0.0021373086026039946 0.0013022745907051005 0 0.0022452444339200596 0.0011441331416437708 0 0.0020963415375543607 0.0014842830708562246 0 0.0021373086026039946 0.0013022745907051005 0 0.002248949604451531 0.0013639559572485133 0 0.0021373086026039946 0.0013022745907051005 0 0.002248949604451531 0.0013639559572485133 0 0.0022452444339200596 0.0011441331416437708 0 0.002248949604451531 0.0013639559572485133 0 0.0022452444339200596 0.0011441331416437708 0 0.0024377983308514328 0.0013395116145864363 0 0.0022452444339200596 0.0011441331416437708 0 0.0024377983308514328 0.0013395116145864363 0 0.0025584149298109619 0.0010661265936007078 0 0.0022452444339200596 0.0011441331416437708 0 0.0025584149298109619 0.0010661265936007078 0 0.0023226678547275227 0.00087169999366179486 0 0.001855494046828566 0.0017744791862950666 0 0.0020503403226157426 0.001458140524316873 0 0.0046317391443416464 0.0017912372537729148 0 0.0045659616224385646 0.0013037295087020659 0 0.0048027794755717383 0.0015512064533789935 0 0.0048303542566255232 0.0015869014717635572 0 0.0048316393024415583 0.0015135581432020877 0 0.0048027794755717383 0.0015512064533789935 0 0.0047707156035446075 0.0015792328605772055 0 0.0048303542566255232 0.0015869014717635572 0 0.0042668055637028147 0.0017879088337328375 0 0.0042896855775851521 0.0017729283327502187 0 0.0042656635732595581 0.0017405034606622666 0 0.0050887408075931872 0.001646928357372752 0 0.0051019353047739432 0.001559890217915607 0 0.0049791325276522759 0.0015866683695996296 0 0.0049255980640770768 0.0016449852369563223 0 0.0049765374606775756 0.0013483815404190251 0 0.0048027794755717383 0.0015512064533789935 0 0.0047707156035446075 0.0015792328605772055 0 0.0047784259229341538 0.0015251359332139082 0 0.0049255980640770768 0.0016449852369563223 0 0.0050082115225851005 0.0016960207620238888 0 0.0047707156035446075 0.0015792328605772055 0 0.0047637521164798722 0.0016321157201139506 0 0.0048303542566255232 0.0015869014717635572 0 0.0050887408075931872 0.001646928357372752 0 0.0050761381148862091 0.0017335443215092535 0 0.0050125515210300165 0.0016738133538301699 0 0.0050082115225851005 0.0016960207620238888 0 0.0046317391443416464 0.0017912372537729148 0 0.0041274836329710102 0.0020946001388213774 0 0.0041354315892369519 0.0018851608981852058 0 0.0042340629489820833 0.001959149380368216 0 0.0051006194844798597 0.0018277518105740251 0 0.0050331384875121803 0.0017822216607225746 0 0.0050950235443179533 0.0017419665154398709 0 0.0046094466147725581 0.0019689522407215702 0 0.0046317391443416464 0.0017912372537729148 0 0.0041354315892369519 0.0018851608981852058 0 0.0042340629489820833 0.001959149380368216 0 0.0042266642795649473 0.0018259856746865261 0 0.0042340629489820833 0.001959149380368216 0 0.0043419217876779605 0.0018801159170248613 0 0.0042266642795649473 0.0018259856746865261 0 0.0042340629489820833 0.001959149380368216 0 0.004320368691176614 0.0019892894465523936 0 0.0043419217876779605 0.0018801159170248613 0 0.0044110382282957633 0.0019960957727789982 0 0.004320368691176614 0.0019892894465523936 0 0.0043419217876779605 0.0018801159170248613 0 0.0043419217876779605 0.0018801159170248613 0 0.0042266642795649473 0.0018259856746865261 0 0.0043206314892065773 0.0017640157011562423 0 0.0043419217876779605 0.0018801159170248613 0 0.0043596317141457817 0.0018129355379791483 0 0.0043206314892065773 0.0017640157011562423 0 0.0044173939920093309 0.0018142872385343656 0 0.0043419217876779605 0.0018801159170248613 0 0.0043596317141457817 0.0018129355379791483 0 0.0043596317141457817 0.0018129355379791483 0 0.0043466330686919808 0.0017392481918637017 0 0.0043206314892065773 0.0017640157011562423 0 0.0043853202869468619 0.0017700584088587077 0 0.0043596317141457817 0.0018129355379791483 0 0.0043466330686919808 0.0017392481918637017 0 0.0046317391443416464 0.0017912372537729148 0 0.0042131994684010765 0.0018377182999654374 0 0.0042131994684010765 0.0018377182999654374 0 0.0043277222660528924 0.0017582439810926111 0 0.0042896855775851521 0.0017729283327502187 0 0.0042965209073182091 0.0017319066119214532 0 0.0043206314892065773 0.0017640157011562423 0 0.0045880729823123759 0.00080642476624994222 0 0.0044116723690714775 0.00061257584349066303 0 0.0044041348177315982 0.00084658641865898397 0 0.0042896855775851521 0.0017729283327502187 0 0.0042965209073182091 0.0017319066119214532 0 0.0042656635732595581 0.0017405034606622666 0 0.0044546940092251765 0.0012667451583395284 0 0.0045659616224385646 0.0013037295087020659 0 0.0044546940092251765 0.0012667451583395284 0 0.0041998799357809008 0.00088215183759328343 0 0.0042965209073182091 0.0017319066119214532 0 0.0043466330686919808 0.0017392481918637017 0 0.0043635310004142211 0.0017001259425960236 0 0.0043841105346254412 0.001736141582110165 0 0.0043853202869468619 0.0017700584088587077 0 0.0043466330686919808 0.0017392481918637017 0 0.0043841105346254412 0.001736141582110165 0 0.0043466330686919808 0.0017392481918637017 0 0.0043668200795629556 0.0017083793273100774 0 0.0042965209073182091 0.0017319066119214532 0 0.0043466330686919808 0.0017392481918637017 0 0.0043206314892065773 0.0017640157011562423 0 0.0040603869883403853 0.00091428663076674954 0 0.0041998799357809008 0.00088215183759328343 0 0.0043726457727777911 0.0016925011999171272 0 0.0043620605659900127 0.0016940060445597921 0 0.0043668200795629556 0.0017083793273100774 0 0.0041998799357809008 0.00088215183759328343 0 0.0042273823787440318 0.0009908496836949362 0 0.0043466330686919808 0.0017392481918637017 0 0.0043635310004142211 0.0017001259425960236 0 0.0043668200795629556 0.0017083793273100774 0 0.0045880729823123759 0.00080642476624994222 0 0.0047690481978791268 0.00076774587068102642 0 0.0045867763129793628 0.0006338961211708765 0 0.0041998799357809008 0.00088215183759328343 0 0.0041699790846145878 0.00039197079461750586 0 0.0047690481978791268 0.00076774587068102642 0 0.0045867763129793628 0.0006338961211708765 0 0.0047071326152931135 0.00052318892224686628 0 0.0036420421598907242 0.00042783395570762683 0 0.0036459056414124848 0.00039749762287559536 0 0.0036364790208446031 0.00037199706665380899 0 0.0036459454175138697 0.00042731857843025518 0 0.0036420421598907242 0.00042783395570762683 0 0.0036459056414124848 0.00039749762287559536 0 0.0045880729823123759 0.00080642476624994222 0 0.0045867763129793628 0.0006338961211708765 0 0.0044116723690714775 0.00061257584349066303 0 0.0047125926035270138 0.00061890686320870603 0 0.0045659616224385646 0.0013037295087020659 0 0.0050053173847594374 0.00072283834516088149 0 0.0049929979332264353 0.0011261926058362933 0 0.0047265933487728486 0.00082120577355622253 0 0.0050053173847594374 0.00072283834516088149 0 0.0047265933487728486 0.00082120577355622253 0 0.0047862062319078916 0.00044889071918548489 0 0.0048027794755717383 0.0015512064533789935 0 0.0048316393024415583 0.0015135581432020877 0 0.0047784259229341538 0.0015251359332139082 0 0.0049929979332264353 0.0011261926058362933 0 0.0046679144073508228 0.0011929036551270725 0 0.0047265933487728486 0.00082120577355622253 0 0.0045659616224385646 0.0013037295087020659 0 0.0049765374606775756 0.0013483815404190251 0 0.0049765374606775756 0.0013483815404190251 0 0.005016508981113491 0.0008200179582503837 0 0.0052492515089688895 0.0012374307918672181 0 0.005154479988212086 0.00094564728610723218 0 0.0053173790507885406 0.00082424166824862416 0 0.0052492515089688895 0.0012374307918672181 0 0.005154479988212086 0.00094564728610723218 0 0.0049529615448032759 0.00093947687023393034 0 0.0051921390582201502 0.00074472713893643954 0 0.0049529615448032759 0.00093947687023393034 0 0.0051595897156638485 0.00053208468172704379 0 0.005154479988212086 0.00094564728610723218 0 0.0053173790507885406 0.00082424166824862416 0 0.0051921390582201502 0.00074472713893643954 0 0.005154479988212086 0.00094564728610723218 0 0.0051921390582201502 0.00074472713893643954 0 0.0049529615448032759 0.00093947687023393034 0 0.0053173790507885406 0.00082424166824862416 0 0.0051921390582201502 0.00074472713893643954 0 0.0052546650344722882 0.00047729373016757191 0 0.0052848571557611631 0.0011665431837779526 0 0.0051115421457279282 0.0010840240009784298 0 0.0054198441767267496 0.00089902892238584572 0 0.005089423379909838 0.0011016651005485423 0 0.0054180083739451919 0.00043593266570703159 0 0.0053067912792713404 0.00058184323167375274 0 0.0054180083739451919 0.00043593266570703159 0 0.0052848571557611631 0.0011665431837779526 0 0.0051115421457279282 0.0010840240009784298 0 0.0050884143943573127 0.0012549137674698321 0 0.0053878817401548105 5.9723749598680359e-05 0 0.0054720856148615851 8.1302969727111018e-05 0 0.0053227390555362986 0.00019727974161540566 0 0.0053067912792713404 0.00058184323167375274 0 0.0050819524299500147 0.00073042395938119657 0 0.0053878817401548105 5.9723749598680359e-05 0 0.0054720856148615851 8.1302969727111018e-05 0 0.0054501148824740945 -3.2277560443089197e-05 0 0.0050884143943573127 0.0012549137674698321 0 0.0049664619690111622 0.0013409569207345476 0 0.0048456923464500999 0.0012629829733767886 0 0.0051115421457279282 0.0010840240009784298 0 0.0050884143943573127 0.0012549137674698321 0 0.0048456923464500999 0.0012629829733767886 0 0.0050884143943573127 0.0012549137674698321 0 0.0050526178066028554 0.0013623202940272457 0 0.0051497812428680165 0.0014081098864732165 0 0.0050884143943573127 0.0012549137674698321 0 0.0050526178066028554 0.0013623202940272457 0 0.0049664619690111622 0.0013409569207345476 0 0.0052492515089688895 0.0012374307918672181 0 0.0049529615448032759 0.00093947687023393034 0 0.0047496269785813252 0.0013393305642985871 0 0.0052848571557611631 0.0011665431837779526 0 0.0050884143943573127 0.0012549137674698321 0 0.0051497812428680165 0.0014081098864732165 0 0.005089423379909838 0.0011016651005485423 0 0.0050006808527135529 0.0014099387508609326 0 0.0050887408075931872 0.001646928357372752 0 0.0049791325276522759 0.0015866683695996296 0 0.0050125515210300165 0.0016738133538301699 0 0.0049791325276522759 0.0015866683695996296 0 0.0049378539301276553 0.0016742724979657956 0 0.0050125515210300165 0.0016738133538301699 0 0.0049765374606775756 0.0013483815404190251 0 0.0050006808527135529 0.0014099387508609326 0 0.0051412267151525939 0.001407295353931834 0 0.005082497099820631 0.0014185593427812994 0 0.0050317890378727848 0.0015872164433916058 0 0.0050526178066028554 0.0013623202940272457 0 0.0051497812428680165 0.0014081098864732165 0 0.005082497099820631 0.0014185593427812994 0 0.0050006808527135529 0.0014099387508609326 0 0.0050650403861968703 0.0014029993920703487 0 0.0050006808527135529 0.0014099387508609326 0 0.004980861403251202 0.0016391717942429856 0 0.0050526178066028554 0.0013623202940272457 0 0.0049664619690111622 0.0013409569207345476 0 0.0049903229792762878 0.0014351269981687669 0 0.0050526178066028554 0.0013623202940272457 0 0.005082497099820631 0.0014185593427812994 0 0.0049903229792762878 0.0014351269981687669 0 0.005082497099820631 0.0014185593427812994 0 0.0049903229792762878 0.0014351269981687669 0 0.0050317890378727848 0.0015872164433916058 0 0.0049903229792762878 0.0014351269981687669 0 0.0050317890378727848 0.0015872164433916058 0 0.0049268550273096918 0.001502335255234718 0 0.004980861403251202 0.0016391717942429856 0 0.0049182406405740373 0.0017335557863093281 0 0.0049378539301276553 0.0016742724979657956 0 0.0049840822004978465 0.0017281843507307676 0 0.004903896044960201 0.0017500161643570274 0 0.0050317890378727848 0.0015872164433916058 0 0.0049050703152048996 0.0016055996048426416 0 0.004903896044960201 0.0017500161643570274 0 0.0050317890378727848 0.0015872164433916058 0 0.0049050703152048996 0.0016055996048426416 0 0.0049268550273096918 0.001502335255234718 0 0.0050761381148862091 0.0017335443215092535 0 0.0049840822004978465 0.0017281843507307676 0 0.0050125515210300165 0.0016738133538301699 0 0.0049378539301276553 0.0016742724979657956 0 0.0049840822004978465 0.0017281843507307676 0 0.0050125515210300165 0.0016738133538301699 0 0.004643924341208536 0.0014892207685160521 0 0.0047820001166347459 0.0017477715250684102 0 0.004765222401404522 0.0015667509807538358 0 0.004636189676027286 0.0014757668493182601 0 0.0047746936489131333 0.0017392919113262044 0 0.004636189676027286 0.0014757668493182601 0 0.0047945783709134673 0.0017667192041828392 0 0.0046615192083643555 0.0017360333511582337 0 0.004765222401404522 0.0015667509807538358 0 0.0048284448329597631 0.0016584500427586852 0 0.0047746936489131333 0.0017392919113262044 0 0.0048284448329597631 0.0016584500427586852 0 0.0049050703152048996 0.0016055996048426416 0 0.004903896044960201 0.0017500161643570274 0 0.0048284448329597631 0.0016584500427586852 0 0.0049050703152048996 0.0016055996048426416 0 0.0048362207473587179 0.001515839335027904 0 0.004765222401404522 0.0015667509807538358 0 0.0048284448329597631 0.0016584500427586852 0 0.0048362207473587179 0.001515839335027904 0 0.0048362207473587179 0.001515839335027904 0 0.0049268550273096918 0.001502335255234718 0 0.0048859828762681792 0.0014135400868503501 0 0.0049050703152048996 0.0016055996048426416 0 0.0048362207473587179 0.001515839335027904 0 0.0049268550273096918 0.001502335255234718 0 0.0049664619690111622 0.0013409569207345476 0 0.0049903229792762878 0.0014351269981687669 0 0.0048859828762681792 0.0014135400868503501 0 0.0049903229792762878 0.0014351269981687669 0 0.0049268550273096918 0.001502335255234718 0 0.0048859828762681792 0.0014135400868503501 0 0.0048362207473587179 0.001515839335027904 0 0.0048859828762681792 0.0014135400868503501 0 0.004753399652492999 0.0014349113272654809 0 0.004765222401404522 0.0015667509807538358 0 0.0048362207473587179 0.001515839335027904 0 0.004753399652492999 0.0014349113272654809 0 0.004765222401404522 0.0015667509807538358 0 0.004753399652492999 0.0014349113272654809 0 0.004636189676027286 0.0014757668493182601 0 0.004753399652492999 0.0014349113272654809 0 0.004636189676027286 0.0014757668493182601 0 0.0046282367225346024 0.0014152683932709079 0 0.005214646084722988 0.00019375790089753896 0 0.0053227390555362986 0.00019727974161540566 0 0.0051795993380534186 0.00029755569522520983 0 0.004753399652492999 0.0014349113272654809 0 0.0048456923464500999 0.0012629829733767886 0 0.0046282367225346024 0.0014152683932709079 0 0.0050819524299500147 0.00073042395938119657 0 0.00490403870948747 0.00085247635782748055 0 0.0049664619690111622 0.0013409569207345476 0 0.0048859828762681792 0.0014135400868503501 0 0.0048456923464500999 0.0012629829733767886 0 0.0048859828762681792 0.0014135400868503501 0 0.004753399652492999 0.0014349113272654809 0 0.0048456923464500999 0.0012629829733767886 0 0.0053878817401548105 5.9723749598680359e-05 0 0.0053227390555362986 0.00019727974161540566 0 0.0052986150004296047 4.7984216725250031e-05 0 0.005214646084722988 0.00019375790089753896 0 0.0052986150004296047 4.7984216725250031e-05 0 0.0051531400042405633 0.00012079674592692019 0 0.0053239452882658132 1.5649341404935412e-05 0 0.0052688443571164353 9.3379149134595218e-05 0 0.005214646084722988 0.00019375790089753896 0 0.0053227390555362986 0.00019727974161540566 0 0.0052986150004296047 4.7984216725250031e-05 0 0.0052688443571164353 9.3379149134595218e-05 0 0.0051386191786861411 0.00028079176702533671 0 0.0054433721829132056 2.5033907714405653e-05 0 0.0052572383796574548 0.00013275351843389685 0 0.0053101927984699178 -2.6173279979003999e-05 0 0.0052688443571164353 9.3379149134595218e-05 0 0.0051826442134625117 0.00021493068982827312 0 0.0051273980504114311 0.00030865718009826236 0 0.0051530657880095232 0.00029564333253915008 0 0.0051061851399152262 0.00028140049523796458 0 0.0051273980504114311 0.00030865718009826236 0 0.0051061851399152262 0.00028140049523796458 0 0.0051104548812806903 0.00032774416762182515 0 0.005165839348918168 0.00026167326344624179 0 0.0051530657880095232 0.00029564333253915008 0 0.0051061851399152262 0.00028140049523796458 0 0.0051273980504114311 0.00030865718009826236 0 0.0051530657880095232 0.00029564333253915008 0 0.0051355283632600257 0.00032491778381062879 0 0.0051288544129121328 0.00022908104864506637 0 0.0051795993380534186 0.00029755569522520983 0 0.0051355283632600257 0.00032491778381062879 0 0.0051386191786861411 0.00028079176702533671 0 0.0051362154113266459 0.00030571295722912808 0 0.005214646084722988 0.00019375790089753896 0 0.0051288544129121328 0.00022908104864506637 0 0.0051795993380534186 0.00029755569522520983 0 0.005214646084722988 0.00019375790089753896 0 0.0051531400042405633 0.00012079674592692019 0 0.0051288544129121328 0.00022908104864506637 0 0.0049999761244391479 0.00010741651042611822 0 0.0051122161977091678 0.00012272974384047408 0 0.0051661956760941678 -1.6352076425479625e-05 0 0.0051122161977091678 0.00012272974384047408 0 0.0052572383796574548 0.00013275351843389685 0 0.0051661956760941678 -1.6352076425479625e-05 0 0.0052572383796574548 0.00013275351843389685 0 0.0053101927984699178 -2.6173279979003999e-05 0 0.0051661956760941678 -1.6352076425479625e-05 0 0.0051061851399152262 0.00028140049523796458 0 0.0050783711038428474 0.00034184069466995843 0 0.0051104548812806903 0.00032774416762182515 0 0.0051061851399152262 0.00028140049523796458 0 0.0050513101574038667 0.00033743815572674114 0 0.0050783711038428474 0.00034184069466995843 0 0.0051826442134625117 0.00021493068982827312 0 0.0050215414815995996 0.00026914716139944119 0 0.0049999761244391479 0.00010741651042611822 0 0.0051122161977091678 0.00012272974384047408 0 0.0050203293597970355 0.0002734300085738489 0 0.0049999761244391479 0.00010741651042611822 0 0.0050203293597970355 0.0002734300085738489 0 0.0049999837246667645 0.00038147112452654232 0 0.0051061851399152262 0.00028140049523796458 0 0.0050203293597970355 0.0002734300085738489 0 0.0050513101574038667 0.00033743815572674114 0 0.0051122161977091678 0.00012272974384047408 0 0.0052572383796574548 0.00013275351843389685 0 0.0050203293597970355 0.0002734300085738489 0 0.0050513101574038667 0.00033743815572674114 0 0.0050783711038428474 0.00034184069466995843 0 0.0050586447691056422 0.00042293447245108821 0 0.0049999837246667645 0.00038147112452654232 0 0.0050513101574038667 0.00033743815572674114 0 0.0050586447691056422 0.00042293447245108821 0 0.0050203293597970355 0.0002734300085738489 0 0.0049999837246667645 0.00038147112452654232 0 0.0050513101574038667 0.00033743815572674114 0 0.0050783711038428474 0.00034184069466995843 0 0.0050927734088181782 0.00036407110323085327 0 0.0050586447691056422 0.00042293447245108821 0 0.0050783711038428474 0.00034184069466995843 0 0.0050927734088181782 0.00036407110323085327 0 0.0051104548812806903 0.00032774416762182515 0 0.0049523050542960552 0.0010199535977591786 0 0.0049970352822373103 0.0011361239151024263 0 0.0049318140801632767 0.001103242740435812 0 0.0050927734088181782 0.00036407110323085327 0 0.0050994663616407872 0.00038600960573213381 0 0.0050586447691056422 0.00042293447245108821 0 0.0049523050542960552 0.0010199535977591786 0 0.0048523844264637328 0.0010740838713274386 0 0.0049318140801632767 0.001103242740435812 0 0.0048489835773387422 0.0010928528051951613 0 0.0050675398493756465 0.00068376015427080127 0 0.0049999996802658521 0.00038158354605908999 0 0.0051479337501232347 0.00059173399046299449 0 0.0049999988573831058 0.00067370312944637603 0 0.0049999602196107605 0.00038141190748401768 0 0.0050675398493756465 0.00068376015427080127 0 0.0046282367225346024 0.0014152683932709079 0 0.0044197478249527553 0.001549778383028872 0 0.0045336967480289541 0.0015578568678377852 0 0.0051795993380534186 0.00029755569522520983 0 0.0051355283632600257 0.00032491778381062879 0 0.0051143038572424139 0.00036650278358531078 0 0.00490403870948747 0.00085247635782748055 0 0.0047798822983470182 0.00098490640316595355 0 0.004636189676027286 0.0014757668493182601 0 0.0046282367225346024 0.0014152683932709079 0 0.0045336967480289541 0.0015578568678377852 0 0.0051273980504114311 0.00030865718009826236 0 0.0051355283632600257 0.00032491778381062879 0 0.0051104548812806903 0.00032774416762182515 0 0.0050927734088181782 0.00036407110323085327 0 0.0051104548812806903 0.00032774416762182515 0 0.0051143038572424139 0.00036650278358531078 0 0.0051355283632600257 0.00032491778381062879 0 0.0051104548812806903 0.00032774416762182515 0 0.0051143038572424139 0.00036650278358531078 0 0.0043484235133520151 0.0015923678593333292 0 0.0044542182958897236 0.0016539275790421512 0 0.0044107910519062543 0.001743383818729667 0 0.0044197478249527553 0.001549778383028872 0 0.0044542182958897236 0.0016539275790421512 0 0.0045336967480289541 0.0015578568678377852 0 0.0048489835773387422 0.0010928528051951613 0 0.0047083949063528845 0.0014608637816000245 0 0.0043484235133520151 0.0015923678593333292 0 0.0044197478249527553 0.001549778383028872 0 0.0044542182958897236 0.0016539275790421512 0 0.0048489835773387422 0.0010928528051951613 0 0.0047798822983470182 0.00098490640316595355 0 0.0050927734088181782 0.00036407110323085327 0 0.0050994663616407872 0.00038600960573213381 0 0.0051143038572424139 0.00036650278358531078 0 0.004636189676027286 0.0014757668493182601 0 0.0045554821804464733 0.0016924410600928832 0 0.0045336967480289541 0.0015578568678377852 0 0.004636189676027286 0.0014757668493182601 0 0.0045554821804464733 0.0016924410600928832 0 0.0046615192083643555 0.0017360333511582337 0 0.0044542182958897236 0.0016539275790421512 0 0.0045554821804464733 0.0016924410600928832 0 0.0045336967480289541 0.0015578568678377852 0 0.0045554821804464733 0.0016924410600928832 0 0.0046180333782529512 0.0018553856538355525 0 0.0045370705678309487 0.0019416626628792669 0 0.0045554821804464733 0.0016924410600928832 0 0.0045065845316391781 0.001769340988566378 0 0.0045367099391816863 0.0018560160010851017 0 0.0045556410287976848 0.0017027126732275773 0 0.0045251028370104536 0.0019109153867620625 0 0.0045554821804464733 0.0016924410600928832 0 0.0046180333782529512 0.0018553856538355525 0 0.0046615192083643555 0.0017360333511582337 0 0.0045065845316391781 0.001769340988566378 0 0.0044970953618303422 0.0018119835218096904 0 0.0045367099391816863 0.0018560160010851017 0 0.0044542182958897236 0.0016539275790421512 0 0.0045554821804464733 0.0016924410600928832 0 0.0045065845316391781 0.001769340988566378 0 0.0047083949063528845 0.0014608637816000245 0 0.0047255915768683121 0.0015705491368994968 0 0.0044542182958897236 0.0016539275790421512 0 0.0045065845316391781 0.001769340988566378 0 0.0044107910519062543 0.001743383818729667 0 0.0049970352822373103 0.0011361239151024263 0 0.0050401198968369572 0.0012496932509318374 0 0.0049303527409850978 0.0011880602111932342 0 0.0044107910519062543 0.001743383818729667 0 0.004479185090071368 0.0018541760475173162 0 0.0044692486962406739 0.0018725685006718508 0 0.0045065845316391781 0.001769340988566378 0 0.0044107910519062543 0.001743383818729667 0 0.0044970953618303422 0.0018119835218096904 0 0.0044107910519062543 0.001743383818729667 0 0.0044970953618303422 0.0018119835218096904 0 0.004479185090071368 0.0018541760475173162 0 0.0051066261045701394 0.00121917474314481 0 0.005099694661802808 0.00097967596560339016 0 0.0048208647286041694 0.0014321082427909571 0 0.0047345365794599029 0.0015839803329685822 0 0.0049661302842308654 0.0018136534259421578 0 0.0050401198968369572 0.0012496932509318374 0 0.0050101733582472666 0.0013026687740672618 0 0.0049303527409850978 0.0011880602111932342 0 0.0044707625865333164 0.0018704515910319423 0 0.0045067697405923686 0.0018849325369280493 0 0.0045271565586146442 0.0020089939381592102 0 0.0047255915768683121 0.0015705491368994968 0 0.0047309946861643793 0.0020163894344205177 0 0.004479185090071368 0.0018541760475173162 0 0.0044707625865333164 0.0018704515910319423 0 0.0045067697405923686 0.0018849325369280493 0 0.0046766449452690434 0.001646158672228146 0 0.0047255915768683121 0.0015705491368994968 0 0.0047255915768683121 0.0015705491368994968 0 0.0051066261045701394 0.00121917474314481 0 0.0045367099391816863 0.0018560160010851017 0 0.0045067697405923686 0.0018849325369280493 0 0.0045271565586146442 0.0020089939381592102 0 0.00460965180994077 0.0020609165066971676 0 0.0045370705678309487 0.0019416626628792669 0 0.0045370713904016591 0.0021642436663305113 0 0.0045251028370104536 0.0019109153867620625 0 0.0047309946861643793 0.0020163894344205177 0 0.00460965180994077 0.0020609165066971676 0 0.0046296475367959252 0.0019731849614544549 0 0.0045370705678309487 0.0019416626628792669 0 0.00460965180994077 0.0020609165066971676 0 0.0046296475367959252 0.0019731849614544549 0 0.0047174756156008373 0.0020731080148022594 0 0.0046180333782529512 0.0018553856538355525 0 0.0046296475367959252 0.0019731849614544549 0 0.0046982044141863494 0.0019070289324575767 0 0.0046180333782529512 0.0018553856538355525 0 0.0046296475367959252 0.0019731849614544549 0 0.0045370705678309487 0.0019416626628792669 0 0.0044970953618303422 0.0018119835218096904 0 0.004479185090071368 0.0018541760475173162 0 0.0045367099391816863 0.0018560160010851017 0 0.004479185090071368 0.0018541760475173162 0 0.0045367099391816863 0.0018560160010851017 0 0.0045067697405923686 0.0018849325369280493 0 0.0051463792186776172 0.0005951414777945281 0 0.0049999985652842754 0.00067371299030819019 0 0.0051084476203208957 0.00078825417855979754 0 0.0050675398493756465 0.00068376015427080127 0 0.0050001263549237923 0.00067363534463275626 0 0.0051463792186776172 0.0005951414777945281 0 0.0052601380748058526 0.00075713965227962136 0 0.0051084476203208957 0.00078825417855979754 0 0.0050675398493756465 0.00068376015427080127 0 0.005099694661802808 0.00097967596560339016 0 0.0048523844264637328 0.0010740838713274386 0 0.0049318140801632767 0.001103242740435812 0 0.0049303527409850978 0.0011880602111932342 0 0.0049970352822373103 0.0011361239151024263 0 0.0049318140801632767 0.001103242740435812 0 0.0049303527409850978 0.0011880602111932342 0 0.0052601380748058526 0.00075713965227962136 0 0.005186346045723841 0.00093076003077597258 0 0.0051084476203208957 0.00078825417855979754 0 0.0053731810761368341 0.00091965279674667978 0 0.0052601380748058526 0.00075713965227962136 0 0.005186346045723841 0.00093076003077597258 0 0.005186346045723841 0.00093076003077597258 0 0.0051084476203208957 0.00078825417855979754 0 0.0049999985260950315 0.00090012464525086042 0 0.0049999985652842754 0.00067371299030819019 0 0.0051084476203208957 0.00078825417855979754 0 0.0049999985260950315 0.00090012464525086042 0 0.005186346045723841 0.00093076003077597258 0 0.0052497906637247165 0.0011379614736693813 0 0.0049999993095936456 0.0011265449113777998 0 0.005186346045723841 0.00093076003077597258 0 0.0049999985260950315 0.00090012464525086042 0 0.0049999993095936456 0.0011265449113777998 0 0.0053731810761368341 0.00091965279674667978 0 0.005186346045723841 0.00093076003077597258 0 0.0052497906637247165 0.0011379614736693813 0 0.0050923509245216509 0.0014621047020932797 0 0.0052283442562492477 0.0012604120551172498 0 0.0051254473452691136 0.0013583022367518727 0 0.0052497906637247165 0.0011379614736693813 0 0.0049999993095936456 0.0011265449113777998 0 0.004773647341766829 0.0020117092563032585 0 0.0047630225973286817 0.0021440558721169665 0 0.0048707897518355248 0.0022651964056691802 0 0.0047309946861643793 0.0020163894344205177 0 0.0048928727224694336 0.0023420943399625801 0 0.0047309946861643793 0.0020163894344205177 0 0.0049198371642775809 0.0020153584700021332 0 0.0045370713904016591 0.0021642436663305113 0 0.004630807824261546 0.0021393089079011561 0 0.0046823959174215959 0.0022207576390424004 0 0.0045370713904016591 0.0021642436663305113 0 0.0045766459381009292 0.0022474706572719258 0 0.0046823959174215959 0.0022207576390424004 0 0.00460965180994077 0.0020609165066971676 0 0.0045370713904016591 0.0021642436663305113 0 0.004630807824261546 0.0021393089079011561 0 0.00460965180994077 0.0020609165066971676 0 0.004630807824261546 0.0021393089079011561 0 0.0047174756156008373 0.0020731080148022594 0 0.0052132645095704592 0.0013217507372194964 0 0.0051466444052833274 0.0014378183676050664 0 0.0052744754925756095 0.0014076098116707809 0 0.0051066261045701394 0.00121917474314481 0 0.0049198371642775809 0.0020153584700021332 0 0.0047345365794599029 0.0015839803329685822 0 0.0049661302842308654 0.0018136534259421578 0 0.0049588592312982327 0.0019022624361981367 0 0.0051066261045701394 0.00121917474314481 0 0.0052283442562492477 0.0012604120551172498 0 0.0052754580571300258 0.0015464578003222002 0 0.0052744754925756095 0.0014076098116707809 0 0.005225257909770179 0.0014710016556706881 0 0.0051813017749204587 0.0015306527042901041 0 0.0051466444052833274 0.0014378183676050664 0 0.005225257909770179 0.0014710016556706881 0 0.0051466444052833274 0.0014378183676050664 0 0.0052744754925756095 0.0014076098116707809 0 0.005225257909770179 0.0014710016556706881 0 0.005067315471839454 0.0027518537461814398 0 0.0050393509790147622 0.0028519102327133022 0 0.0050272265052164139 0.0028376185209164984 0 0.0052000308129081284 0.002171932133245554 0 0.0049198371642775809 0.0020153584700021332 0 0.005067315471839454 0.0027518537461814398 0 0.0050272265052164139 0.0028376185209164984 0 0.0050122283657203061 0.0027987947912247665 0 0.0049198371642775809 0.0020153584700021332 0 0.0048928727224694336 0.0023420943399625801 0 0.0045766459381009292 0.0022474706572719258 0 0.0046312501031935275 0.0023509961700073755 0 0.0046823959174215959 0.0022207576390424004 0 0.0048928727224694336 0.0023420943399625801 0 0.0048433203232476204 0.0025749226640915815 0 0.0047632002346102431 0.002398806537772016 0 0.0046823959174215959 0.0022207576390424004 0 0.0048260273771826801 0.0022601345122993739 0 0.0047632002346102431 0.002398806537772016 0 0.0046312501031935275 0.0023509961700073755 0 0.0046823959174215959 0.0022207576390424004 0 0.0046823959174215959 0.0022207576390424004 0 0.0047174756156008373 0.0020731080148022594 0 0.0048260273771826801 0.0022601345122993739 0 0.004630807824261546 0.0021393089079011561 0 0.0046823959174215959 0.0022207576390424004 0 0.0047174756156008373 0.0020731080148022594 0 0.0047174756156008373 0.0020731080148022594 0 0.0048260273771826801 0.0022601345122993739 0 0.0049176802066740917 0.0020709818688086383 0 0.0048260273771826801 0.0022601345122993739 0 0.0049974369360066325 0.0023212339215342732 0 0.0049176802066740917 0.0020709818688086383 0 0.0048786849862506023 0.0024027753021735854 0 0.0047632002346102431 0.002398806537772016 0 0.0048260273771826801 0.0022601345122993739 0 0.0048786849862506023 0.0024027753021735854 0 0.0048260273771826801 0.0022601345122993739 0 0.0049974369360066325 0.0023212339215342732 0 0.004989628491553654 0.0020362086275787258 0 0.0050464098612154366 0.0019967536959998003 0 0.0049839590737874619 0.0019244667002527259 0 0.004989628491553654 0.0020362086275787258 0 0.0049280822548100605 0.0019993971258081686 0 0.0049839590737874619 0.0019244667002527259 0 0.0049280822548100605 0.0019993971258081686 0 0.0049839590737874619 0.0019244667002527259 0 0.0048750470806495647 0.001893521660120498 0 0.0049900530688144146 0.0021331187687822798 0 0.0048905386740844764 0.0019850303066553648 0 0.0049670351859928633 0.0018061591793566061 0 0.004903896044960201 0.0017500161643570274 0 0.0048750470806495647 0.001893521660120498 0 0.0049839590737874619 0.0019244667002527259 0 0.0049670351859928633 0.0018061591793566061 0 0.0048750470806495647 0.001893521660120498 0 0.0050256912208260585 0.0018292287871089997 0 0.0049839590737874619 0.0019244667002527259 0 0.0049670351859928633 0.0018061591793566061 0 0.0050445578427093544 0.0019030846872973677 0 0.0050256912208260585 0.0018292287871089997 0 0.0049839590737874619 0.0019244667002527259 0 0.0050761381148862091 0.0017335443215092535 0 0.0049840822004978465 0.0017281843507307676 0 0.0049670351859928633 0.0018061591793566061 0 0.0050256912208260585 0.0018292287871089997 0 0.005034670916761453 0.0017720851343594837 0 0.0049670351859928633 0.0018061591793566061 0 0.0050082115225851005 0.0016960207620238888 0 0.0049827877212864921 0.0018138077857598289 0 0.0049840822004978465 0.0017281843507307676 0 0.0049670351859928633 0.0018061591793566061 0 0.004903896044960201 0.0017500161643570274 0 0.004903896044960201 0.0017500161643570274 0 0.0047746936489131333 0.0017392919113262044 0 0.0048750470806495647 0.001893521660120498 0 0.0048284448329597631 0.0016584500427586852 0 0.004903896044960201 0.0017500161643570274 0 0.0047746936489131333 0.0017392919113262044 0 0.0047945783709134673 0.0017667192041828392 0 0.0046615192083643555 0.0017360333511582337 0 0.0046982044141863494 0.0019070289324575767 0 0.0046180333782529512 0.0018553856538355525 0 0.0046615192083643555 0.0017360333511582337 0 0.0046982044141863494 0.0019070289324575767 0 0.0047945783709134673 0.0017667192041828392 0 0.0046982044141863494 0.0019070289324575767 0 0.0049176802066740917 0.0020709818688086383 0 0.0047174756156008373 0.0020731080148022594 0 0.0046982044141863494 0.0019070289324575767 0 0.0049176802066740917 0.0020709818688086383 0 0.0046296475367959252 0.0019731849614544549 0 0.0047174756156008373 0.0020731080148022594 0 0.0046982044141863494 0.0019070289324575767 0 0.0047820001166347459 0.0017477715250684102 0 0.0048905386740844764 0.0019850303066553648 0 0.0019321748058347406 0.004465939887257039 0 0.0019135495868832998 0.004428354125965925 0 0.0018953427627334159 0.0045240169138413711 0 0.0019135495868832998 0.004428354125965925 0 0.0018953427627334159 0.0045240169138413711 0 0.001873650812753195 0.0044047512734143573 0 0.0018544742980057662 0.0040793416817524551 0 0.0017370908380001423 0.0044447765714470729 0 0.0019522333175186852 0.0044828527557168561 0 0.0019321748058347406 0.004465939887257039 0 0.0018953427627334159 0.0045240169138413711 0 0.0026628952832098559 0.003606429907716121 0 0.0025121560309305496 0.0038527169105709684 0 0.0019321748058347406 0.004465939887257039 0 0.0019135495868832998 0.004428354125965925 0 0.0019532185115821812 0.0044086499624921196 0 0.0019559110935654365 0.0044881220692148229 0 0.0019321748058347406 0.004465939887257039 0 0.0019532185115821812 0.0044086499624921196 0 0.0016018568212688739 0.004344203153373298 0 0.0016140574157361138 0.004357819364833755 0 0.0016135299137021854 0.0043384292553186633 0 0.001526236560449121 0.0042838481460842444 0 0.0015206098607943148 0.0042596518241975563 0 0.0015282006435464073 0.0042614766917272052 0 0.0015594471679213956 0.0043778747189264404 0 0.0017789203324439812 0.003932531441816817 0 0.001526236560449121 0.0042838481460842444 0 0.0015206098607943148 0.0042596518241975563 0 0.0015099750820502628 0.0042506541159628517 0 0.001526236560449121 0.0042838481460842444 0 0.00154592660653584 0.0042909269866277886 0 0.0015372174183245952 0.0042761580117697635 0 0.001526236560449121 0.0042838481460842444 0 0.0015282006435464073 0.0042614766917272052 0 0.0015372174183245952 0.0042761580117697635 0 0.0016018568212688739 0.004344203153373298 0 0.0016127059442757952 0.0043589454598381323 0 0.0016140574157361138 0.004357819364833755 0 0.0015206098607943148 0.0042596518241975563 0 0.0015175949512000755 0.004250534541907304 0 0.0015099750820502628 0.0042506541159628517 0 0.0015206098607943148 0.0042596518241975563 0 0.0015221662801634703 0.004251302717261287 0 0.0015175949512000755 0.004250534541907304 0 0.0015282006435464073 0.0042614766917272052 0 0.0015221662801634703 0.004251302717261287 0 0.0015263025045465146 0.0042460759129330297 0 0.0015206098607943148 0.0042596518241975563 0 0.0015282006435464073 0.0042614766917272052 0 0.0015221662801634703 0.004251302717261287 0 0.0015221662801634703 0.004251302717261287 0 0.0015263025045465146 0.0042460759129330297 0 0.0015204840004691771 0.0042395452971738939 0 0.0015221662801634703 0.004251302717261287 0 0.0015175949512000755 0.004250534541907304 0 0.0015204840004691771 0.0042395452971738939 0 0.0015175949512000755 0.004250534541907304 0 0.0015099750820502628 0.0042506541159628517 0 0.0015204840004691771 0.0042395452971738939 0 0.0016271023621764399 0.0032799212571143965 0 0.001553362598936505 0.003206994466494762 0 0.0012086472900623116 0.003519723997378156 0 0.0017789203324439812 0.003932531441816817 0 0.0014275038673010922 0.0038058753507246666 0 0.0019482317627310475 0.0033418929839168425 0 0.0025149488416128254 0.0027875957884594856 0 0.00329329985301541 0.0028867075607775759 0 0.003163685494465386 0.0028200784302446725 0 0.0032894763388433015 0.0028027592396125669 0 0.0031686855112085274 0.0030277469033268131 0 0.00329329985301541 0.0028867075607775759 0 0.003163685494465386 0.0028200784302446725 0 0.0019816106026059629 0.0037586565079994597 0 0.0020187216306696647 0.0037964788009849076 0 0.0019866710649891332 0.0038267712449195201 0 0.0019482317627310475 0.0033418929839168425 0 0.0018544742980057662 0.0040793416817524551 0 0.0019482317627310475 0.0033418929839168425 0 0.0017789203324439812 0.003932531441816817 0 0.0024360242943320624 0.0034706313087892343 0 0.0020363293917053018 0.0039084723788206923 0 0.0020256411193212802 0.0037544829276145472 0 0.0017789203324439812 0.003932531441816817 0 0.0018544742980057662 0.0040793416817524551 0 0.0026628952832098559 0.003606429907716121 0 0.0019482317627310475 0.0033418929839168425 0 0.0026628952832098559 0.003606429907716121 0 0.0018544742980057662 0.0040793416817524551 0 0.0026628952832098559 0.003606429907716121 0 0.0031034178728144225 0.0027663218557778578 0 0.0033749378226197993 0.0031574754909858933 0 0.0030726353911867256 0.0031242786320889735 0 0.0030835079567002261 0.0028531865528495372 0 0.0031686855112085274 0.0030277469033268131 0 0.003163685494465386 0.0028200784302446725 0 0.0029565190828366771 0.0027981298872772863 0 0.0030726353911867256 0.0031242786320889735 0 0.0030835079567002261 0.0028531865528495372 0 0.0028553497840954436 0.0029747803995318909 0 0.0030726353911867256 0.0031242786320889735 0 0.003179834347736788 0.003382839312026144 0 0.0028679735251908351 0.0032563685739199297 0 0.0030726353911867256 0.0031242786320889735 0 0.0028679735251908351 0.0032563685739199297 0 0.0028553497840954436 0.0029747803995318909 0 0.0033749378226197993 0.0031574754909858933 0 0.0030726353911867256 0.0031242786320889735 0 0.003179834347736788 0.003382839312026144 0 0.0026628952832098559 0.003606429907716121 0 0.0024445746228021295 0.0040771158796528793 0 0.0019559110935654365 0.0044881220692148229 0 0.0020434223009218456 0.0044177302810500252 0 0.0019532185115821812 0.0044086499624921196 0 0.0020434223009218456 0.0044177302810500252 0 0.0020390446999401816 0.0043362096837342139 0 0.0021077558168709973 0.0042843304308118266 0 0.0020434223009218456 0.0044177302810500252 0 0.0019926720299429297 0.0043484261753965895 0 0.0019532185115821812 0.0044086499624921196 0 0.0020434223009218456 0.0044177302810500252 0 0.0020390446999401816 0.0043362096837342139 0 0.0019926720299429297 0.0043484261753965895 0 0.0020390446999401816 0.0043362096837342139 0 0.0019926720299429297 0.0043484261753965895 0 0.0020146086508658649 0.0042936252262753879 0 0.0019926720299429297 0.0043484261753965895 0 0.0020146086508658649 0.0042936252262753879 0 0.0019377335740106906 0.004322499905968182 0 0.003179834347736788 0.003382839312026144 0 0.0029446488653830176 0.0036094150546546124 0 0.0028379578765884831 0.003454668474331467 0 0.0021117338178155104 0.004398839545389022 0 0.0021965427198370885 0.0043082697472693237 0 0.0022020875909739362 0.0042793900649190841 0 0.0020434223009218456 0.0044177302810500252 0 0.0022020875909739362 0.0042793900649190841 0 0.0021077558168709973 0.0042843304308118266 0 0.003179834347736788 0.003382839312026144 0 0.0028679735251908351 0.0032563685739199297 0 0.0028379578765884831 0.003454668474331467 0 0.0024445746228021295 0.0040771158796528793 0 0.0026116713450772223 0.0039205490688939944 0 0.0024445746228021295 0.0040771158796528793 0 0.0020521597934147601 0.0044287382751231792 0 0.0022020875909739362 0.0042793900649190841 0 0.0020634197838395028 0.0042247720043822956 0 0.0022134927671602963 0.0041619278016794756 0 0.0022020875909739362 0.0042793900649190841 0 0.0021077558168709973 0.0042843304308118266 0 0.0020634197838395028 0.0042247720043822956 0 0.0020634197838395028 0.0042247720043822956 0 0.0019414030170281438 0.0042616660367730975 0 0.0018823747501470305 0.0042037848607228605 0 0.0020146086508658649 0.0042936252262753879 0 0.0019414030170281438 0.0042616660367730975 0 0.0019377335740106906 0.004322499905968182 0 0.0020390446999401816 0.0043362096837342139 0 0.0021077558168709973 0.0042843304308118266 0 0.0020146086508658649 0.0042936252262753879 0 0.0021077558168709973 0.0042843304308118266 0 0.0020146086508658649 0.0042936252262753879 0 0.0020634197838395028 0.0042247720043822956 0 0.0020146086508658649 0.0042936252262753879 0 0.0020634197838395028 0.0042247720043822956 0 0.0019414030170281438 0.0042616660367730975 0 0.0019377335740106906 0.004322499905968182 0 0.0019046873605764994 0.0043651774714076434 0 0.0018413624583212516 0.0042544165058170024 0 0.0019414030170281438 0.0042616660367730975 0 0.0018413624583212516 0.0042544165058170024 0 0.0018823747501470305 0.0042037848607228605 0 0.0019414030170281438 0.0042616660367730975 0 0.0019377335740106906 0.004322499905968182 0 0.0018413624583212516 0.0042544165058170024 0 0.0019046873605764994 0.0043651774714076434 0 0.001873650812753195 0.0044047512734143573 0 0.0018413624583212516 0.0042544165058170024 0 0.0019377335740106906 0.004322499905968182 0 0.0019046873605764994 0.0043651774714076434 0 0.0019532185115821812 0.0044086499624921196 0 0.0019926720299429297 0.0043484261753965895 0 0.0019377335740106906 0.004322499905968182 0 0.0019532185115821812 0.0044086499624921196 0 0.0019135495868832998 0.004428354125965925 0 0.0019046873605764994 0.0043651774714076434 0 0.001873650812753195 0.0044047512734143573 0 0.0019135495868832998 0.004428354125965925 0 0.0019046873605764994 0.0043651774714076434 0 0.0019532185115821812 0.0044086499624921196 0 0.001526236560449121 0.0042838481460842444 0 0.0015727052148592148 0.0042949106228381013 0 0.00154592660653584 0.0042909269866277886 0 0.0017370908380001423 0.0044447765714470729 0 0.001731212023135206 0.0042489539751891922 0 0.0016018568212688739 0.004344203153373298 0 0.0016135299137021854 0.0043384292553186633 0 0.0015727052148592148 0.0042949106228381013 0 0.0015594471679213956 0.0043778747189264404 0 0.0015652479607260205 0.0042691654031049298 0 0.0016135299137021854 0.0043384292553186633 0 0.0015727052148592148 0.0042949106228381013 0 0.0016182268361338711 0.0042780070751844293 0 0.0015727052148592148 0.0042949106228381013 0 0.0015531582707695839 0.0042630849560526991 0 0.0015936071798623565 0.0042528664898263419 0 0.0015727052148592148 0.0042949106228381013 0 0.0016182268361338711 0.0042780070751844293 0 0.0015936071798623565 0.0042528664898263419 0 0.0015727052148592148 0.0042949106228381013 0 0.0015425853269320506 0.0042937858479666531 0 0.0015487621632249086 0.004293665525307579 0 0.0015727052148592148 0.0042949106228381013 0 0.0015531582707695839 0.0042630849560526991 0 0.0015425853269320506 0.0042937858479666531 0 0.0012885072750947147 0.0043722314753916035 0 0.00084229646154825066 0.0041498310595612098 0 0.0015531582707695839 0.0042630849560526991 0 0.0015425853269320506 0.0042937858479666531 0 0.0015257822681745482 0.0042875658464337826 0 0.00084229646154825066 0.0041498310595612098 0 5.7879715519488039e-05 0.0041198325060773401 0 -0.00097804284648660427 0.0040042617639701244 0 -0.0010260040256160829 0.004011127125631642 0 -0.0010257818858363317 0.0039710985961102794 0 -0.00097804284648660427 0.0040042617639701244 0 -0.0010260040256160829 0.004011127125631642 0 -0.001002765816324226 0.0040323492941756987 0 -0.00097804284648660427 0.0040042617639701244 0 -0.001002765816324226 0.0040323492941756987 0 -0.00097929250460326639 0.0040586124227412488 0 -0.0010260040256160829 0.004011127125631642 0 -0.001002765816324226 0.0040323492941756987 0 -0.001028628432733688 0.0040512686782498012 0 -0.001002765816324226 0.0040323492941756987 0 -0.001028628432733688 0.0040512686782498012 0 -0.00097929250460326639 0.0040586124227412488 0 0.0015425853269320506 0.0042937858479666531 0 0.0015406172694777528 0.0042945637523022955 0 0.0015471325009794254 0.0042866978479889723 0 0.00084229646154825066 0.0041498310595612098 0 0.00023826946717158285 0.0041586422081591537 0 0.0015425853269320506 0.0042937858479666531 0 0.0015471325009794254 0.0042866978479889723 0 0.0015487621632249086 0.004293665525307579 0 0.0015471325009794254 0.0042866978479889723 0 0.00154592660653584 0.0042909269866277886 0 0.0015487621632249086 0.004293665525307579 0 0.0015727052148592148 0.0042949106228381013 0 0.00154592660653584 0.0042909269866277886 0 0.0015487621632249086 0.004293665525307579 0 -0.0010827553177585681 0.0039955736992769086 0 -0.0011460472773946789 0.003975320370915943 0 -0.0011309303991261575 0.004017993445934352 0 -0.0010827553177585681 0.0039955736992769086 0 -0.0010946844896078788 0.0040300145401866386 0 -0.0011309303991261575 0.004017993445934352 0 -0.0010260040256160829 0.004011127125631642 0 -0.0010827553177585681 0.0039955736992769086 0 -0.0010564964391614313 0.0040387264166806157 0 -0.0010260040256160829 0.004011127125631642 0 -0.0010827553177585681 0.0039955736992769086 0 -0.0010257818858363317 0.0039710985961102794 0 -0.001028628432733688 0.0040512686782498012 0 -0.0010564964391614313 0.0040387264166806157 0 -0.0010791790297734014 0.0040657548264008206 0 -0.0010827553177585681 0.0039955736992769086 0 -0.0010564964391614313 0.0040387264166806157 0 -0.0010946844896078788 0.0040300145401866386 0 -0.0010260040256160829 0.004011127125631642 0 -0.001028628432733688 0.0040512686782498012 0 -0.0010564964391614313 0.0040387264166806157 0 -0.0010564964391614313 0.0040387264166806157 0 -0.0010946844896078788 0.0040300145401866386 0 -0.0010791790297734014 0.0040657548264008206 0 -0.0010946844896078788 0.0040300145401866386 0 -0.0011254453119978974 0.0040592751170739861 0 -0.0010791790297734014 0.0040657548264008206 0 -0.0010946844896078788 0.0040300145401866386 0 -0.0011254453119978974 0.0040592751170739861 0 -0.0011309303991261575 0.004017993445934352 0 -0.001130217440288378 0.0040982410589854518 0 -0.0010791790297734014 0.0040657548264008206 0 -0.0010870885319082316 0.0041039057721318373 0 -0.0011254453119978974 0.0040592751170739861 0 -0.001130217440288378 0.0040982410589854518 0 -0.0010791790297734014 0.0040657548264008206 0 -0.0010791790297734014 0.0040657548264008206 0 -0.0010870885319082316 0.0041039057721318373 0 -0.0010341644098415383 0.0040815806484431148 0 -0.001028628432733688 0.0040512686782498012 0 -0.0010791790297734014 0.0040657548264008206 0 -0.0010341644098415383 0.0040815806484431148 0 -0.0010446228771757281 0.0041128324334492698 0 -0.0010870885319082316 0.0041039057721318373 0 -0.0010814911939196145 0.004141635602119065 0 -0.0010446228771757281 0.0041128324334492698 0 -0.0010870885319082316 0.0041039057721318373 0 -0.0010341644098415383 0.0040815806484431148 0 -0.0010870885319082316 0.0041039057721318373 0 -0.0011309635142610329 0.0041289291234004261 0 -0.0010814911939196145 0.004141635602119065 0 -0.001130217440288378 0.0040982410589854518 0 -0.0010870885319082316 0.0041039057721318373 0 -0.0011309635142610329 0.0041289291234004261 0 0.00023826946717158285 0.0041586422081591537 0 0.0002846257921839719 0.0042029098004052329 0 0.0015471325009794254 0.0042866978479889723 0 0.0015372174183245952 0.0042761580117697635 0 0.0015367000565522052 0.0042535591871285215 0 0.0015282006435464073 0.0042614766917272052 0 0.0015372174183245952 0.0042761580117697635 0 0.0015367000565522052 0.0042535591871285215 0 0.0015471325009794254 0.0042866978479889723 0 0.00154592660653584 0.0042909269866277886 0 0.0015372174183245952 0.0042761580117697635 0 -0.001028628432733688 0.0040512686782498012 0 -0.00097929250460326639 0.0040586124227412488 0 -0.0010341644098415383 0.0040815806484431148 0 -0.00097929250460326639 0.0040586124227412488 0 -0.0010341644098415383 0.0040815806484431148 0 -0.00097565658404382522 0.0041076235791045364 0 -0.0010446228771757281 0.0041128324334492698 0 -0.00097565658404382522 0.0041076235791045364 0 -0.0010275789893275911 0.0041357891128585714 0 -0.0010446228771757281 0.0041128324334492698 0 -0.0010341644098415383 0.0040815806484431148 0 -0.00097565658404382522 0.0041076235791045364 0 0.0015282006435464073 0.0042614766917272052 0 0.0015367000565522052 0.0042535591871285215 0 0.0015263025045465146 0.0042460759129330297 0 -0.00097565658404382522 0.0041076235791045364 0 -0.00096544930920596211 0.0041551619011295296 0 -0.00099663207738998039 0.0041494780229486151 0 0.0015263025045465146 0.0042460759129330297 0 0.0015216454793428036 0.0042285353075411716 0 0.0015204840004691771 0.0042395452971738939 0 0.0002846257921839719 0.0042029098004052329 0 0.00029471523836860423 0.0040985164116822265 0 0.0015367000565522052 0.0042535591871285215 0 0.0015263025045465146 0.0042460759129330297 0 0.0015216454793428036 0.0042285353075411716 0 0.00086366403461241275 0.0038333809352247106 0 0.0008995932221946949 0.0040759395072880022 0 0.001165404291082547 0.0037845849757034995 0 0.00029471523836860423 0.0040985164116822265 0 0.0014275038673010922 0.0038058753507246666 0 -0.00096544930920596211 0.0041551619011295296 0 -0.00099663207738998039 0.0041494780229486151 0 -0.00098294129779949793 0.00417342040919299 0 -0.00097565658404382522 0.0041076235791045364 0 -0.0010275789893275911 0.0041357891128585714 0 -0.00099663207738998039 0.0041494780229486151 0 -0.0010275789893275911 0.0041357891128585714 0 -0.00099663207738998039 0.0041494780229486151 0 -0.0010535767899542974 0.0041786076448208634 0 -0.00095189132045860275 0.004198010302538668 0 -0.00098294129779949793 0.00417342040919299 0 -0.0010121873143195171 0.0042550649331170075 0 -0.00098294129779949793 0.00417342040919299 0 -0.0010535767899542974 0.0041786076448208634 0 -0.0010121873143195171 0.0042550649331170075 0 -0.00099663207738998039 0.0041494780229486151 0 -0.00098294129779949793 0.00417342040919299 0 -0.0010535767899542974 0.0041786076448208634 0 0.0011408269737977264 0.0028706997469861509 0 0.0011655604607906922 0.0028540734383240016 0 0.0012064547443265876 0.0028846828429606227 0 0.00026092223222931674 0.0035807655556362376 0 0.00058540258767912656 0.0037253392717689206 0 0.00029471523836860423 0.0040985164116822265 0 0.00058540258767912656 0.0037253392717689206 0 0.00058540258767912656 0.0037253392717689206 0 0.0011504675339866575 0.0032444710277139211 0 -0.00095189132045860275 0.004198010302538668 0 -0.00090856654398811028 0.0041657611324088153 0 -0.00098294129779949793 0.00417342040919299 0 -0.00091274301063395816 0.0041068920003013857 0 -0.00090856654398811028 0.0041657611324088153 0 -0.00098294129779949793 0.00417342040919299 0 0.00029471523836860423 0.0040985164116822265 0 -0.00096032497981510614 0.0044420789681032663 0 -0.0011301571012639284 0.0041520088195069575 0 -0.0010814911939196145 0.004141635602119065 0 -0.0011023410945833663 0.0041789586015274138 0 -0.0011309635142610329 0.0041289291234004261 0 -0.0011301571012639284 0.0041520088195069575 0 -0.0011715782740564346 0.0041357142301423353 0 -0.0011309635142610329 0.0041289291234004261 0 -0.0011301571012639284 0.0041520088195069575 0 -0.0010814911939196145 0.004141635602119065 0 -0.0010446228771757281 0.0041128324334492698 0 -0.0010275789893275911 0.0041357891128585714 0 -0.0010814911939196145 0.004141635602119065 0 -0.0010275789893275911 0.0041357891128585714 0 -0.0010814911939196145 0.004141635602119065 0 -0.0010535767899542974 0.0041786076448208634 0 -0.0010814911939196145 0.004141635602119065 0 -0.0010535767899542974 0.0041786076448208634 0 -0.0011023410945833663 0.0041789586015274138 0 -0.0010535767899542974 0.0041786076448208634 0 -0.0011023410945833663 0.0041789586015274138 0 -0.0010793448501371556 0.0042052636307465356 0 -0.0011023410945833663 0.0041789586015274138 0 -0.0011137593316517722 0.004205069001229059 0 -0.0011543127129810169 0.0041828462819346922 0 -0.0011301571012639284 0.0041520088195069575 0 -0.0011023410945833663 0.0041789586015274138 0 -0.0011543127129810169 0.0041828462819346922 0 -0.0011137593316517722 0.004205069001229059 0 -0.001137327771635988 0.0042320507939751584 0 -0.0011543127129810169 0.0041828462819346922 0 -0.0010535767899542974 0.0041786076448208634 0 -0.0010793448501371556 0.0042052636307465356 0 -0.0010471193595177929 0.0042096597796601699 0 -0.0010793448501371556 0.0042052636307465356 0 -0.0010734793456831039 0.0042328861975153625 0 -0.0010471193595177929 0.0042096597796601699 0 -0.0011137593316517722 0.004205069001229059 0 -0.0010793448501371556 0.0042052636307465356 0 -0.0011022907122711632 0.0042278318043947275 0 -0.0011023410945833663 0.0041789586015274138 0 -0.0011137593316517722 0.004205069001229059 0 -0.0010793448501371556 0.0042052636307465356 0 -0.0010734793456831039 0.0042328861975153625 0 -0.0011022907122711632 0.0042278318043947275 0 -0.0011012907342123875 0.0042529935243304081 0 -0.0010793448501371556 0.0042052636307465356 0 -0.0010734793456831039 0.0042328861975153625 0 -0.0011022907122711632 0.0042278318043947275 0 -0.0004763440293680796 0.0034071719553574525 0 -0.0004455858019386191 0.0034800738957928169 0 -0.00066213608167257432 0.0036062615299959928 0 -0.00084828034508647294 0.0039004858069434114 0 -0.00076173376318012609 0.0034516495106942631 0 -0.0011022907122711632 0.0042278318043947275 0 -0.001137327771635988 0.0042320507939751584 0 -0.0011012907342123875 0.0042529935243304081 0 -0.0011137593316517722 0.004205069001229059 0 -0.0011022907122711632 0.0042278318043947275 0 -0.001137327771635988 0.0042320507939751584 0 0.0013805312933605032 0.002841889662047235 0 0.0003836590169186831 0.0029762628121164955 0 0.0011408269737977264 0.0028706997469861509 0 0.0011793724451913531 0.0029306593982264084 0 0.0010478877106436099 0.0029494210080833693 0 0.0011793724451913531 0.0029306593982264084 0 0.0011801938512282868 0.0029522497050690484 0 0.0012170899386785838 0.0029297693281668158 0 0.0011408269737977264 0.0028706997469861509 0 0.0011793724451913531 0.0029306593982264084 0 0.0012064547443265876 0.0028846828429606227 0 0.0011793724451913531 0.0029306593982264084 0 0.0010478877106436099 0.0029494210080833693 0 0.0010696941343556064 0.0030059288149169015 0 0.00026092223222931674 0.0035807655556362376 0 -0.00038296398935286797 0.0036404973741957516 0 -0.0011037657777594138 0.0043275145995699182 0 -0.00038296398935286797 0.0036404973741957516 0 -0.00038296398935286797 0.0036404973741957516 0 0.0003836590169186831 0.0029762628121164955 0 0.0003836590169186831 0.0029762628121164955 0 0.0006047294043965008 0.00286617865856819 0 -0.0004763440293680796 0.0034071719553574525 0 -0.00029250892242150092 0.0032061858940561237 0 -0.00023060404340911357 0.0033513489846914188 0 -0.00084828034508647294 0.0039004858069434114 0 -0.00038296398935286797 0.0036404973741957516 0 -0.0002148856267305249 0.0025476186347071208 0 -4.586729892317579e-05 0.0024523618706163478 0 -0.00010960852610432643 0.0026430193738940086 0 -0.00032425659606446708 0.0030356074000776096 0 0.0003836590169186831 0.0029762628121164955 0 -0.0004763440293680796 0.0034071719553574525 0 -0.0004455858019386191 0.0034800738957928169 0 -0.00023060404340911357 0.0033513489846914188 0 0.001149563064002824 0.0029465890235339407 0 0.0011801938512282868 0.0029522497050690484 0 0.001168379537390179 0.0029834092048919695 0 0.0011793724451913531 0.0029306593982264084 0 0.001149563064002824 0.0029465890235339407 0 0.0011801938512282868 0.0029522497050690484 0 0.0011801938512282868 0.0029522497050690484 0 0.0012172219868070463 0.002964607519990128 0 0.001168379537390179 0.0029834092048919695 0 0.0011801938512282868 0.0029522497050690484 0 0.0012172219868070463 0.002964607519990128 0 0.0012170899386785838 0.0029297693281668158 0 0.0012172219868070463 0.002964607519990128 0 0.0012606059949248189 0.0029329576390661428 0 0.0012170899386785838 0.0029297693281668158 0 0.0032254653880271688 0.0023026039078027538 0 0.0031463759891358647 0.0022639155476515773 0 0.0032039544832017409 0.0021261705185260031 0 0.0012172219868070463 0.002964607519990128 0 0.0012606059949248189 0.0029329576390661428 0 0.0012620769759505517 0.0029777113333933269 0 0.0022299813428272391 0.0026774668282747165 0 0.0024476630875949453 0.0022633618806812963 0 0.0012606059949248189 0.0029329576390661428 0 0.0012170899386785838 0.0029297693281668158 0 0.0012663331013963491 0.0028668626378281119 0 0.0031606445077630063 0.0023623457099192476 0 0.0032254653880271688 0.0023026039078027538 0 0.0032229951319154488 0.0024934105542450667 0 0.0022299813428272391 0.0026774668282747165 0 0.0022224026675795516 0.0026523586165709636 0 0.0031606445077630063 0.0023623457099192476 0 0.0032254653880271688 0.0023026039078027538 0 0.0031463759891358647 0.0022639155476515773 0 0.0012170899386785838 0.0029297693281668158 0 0.0012064547443265876 0.0028846828429606227 0 0.0012663331013963491 0.0028668626378281119 0 0.0011793724451913531 0.0029306593982264084 0 0.0012170899386785838 0.0029297693281668158 0 0.0012064547443265876 0.0028846828429606227 0 0.0012064547443265876 0.0028846828429606227 0 0.0012663331013963491 0.0028668626378281119 0 0.001205477548726815 0.0028226359242265269 0 0.0011655604607906922 0.0028540734383240016 0 0.0012064547443265876 0.0028846828429606227 0 0.001205477548726815 0.0028226359242265269 0 0.0031606445077630063 0.0023623457099192476 0 0.0032324348897351967 0.0025846028264704976 0 0.0031242576525385419 0.0024987923874776933 0 0.0031606445077630063 0.0023623457099192476 0 0.0032229951319154488 0.0024934105542450667 0 0.0031882228529565735 0.0025197352339072871 0 0.0031582165210722528 0.0023710312734971676 0 0.0032483691358576828 0.0025727848066839577 0 0.0032229951319154488 0.0024934105542450667 0 0.0031882228529565735 0.0025197352339072871 0 0.0032106264847869795 0.002672369774218409 0 0.0032324348897351967 0.0025846028264704976 0 0.0031393168632963741 0.0025923314736108825 0 0.0031242576525385419 0.0024987923874776933 0 0.0032324348897351967 0.0025846028264704976 0 0.0031816453756386854 0.0027058559038769803 0 0.0031393168632963741 0.0025923314736108825 0 0.0022224026675795516 0.0026523586165709636 0 0.0025149488416128254 0.0027875957884594856 0 0.0032324348897351967 0.0025846028264704976 0 0.0031816453756386854 0.0027058559038769803 0 0.0032894763388433015 0.0028027592396125669 0 0.0032483691358576828 0.0025727848066839577 0 0.0025149488416128254 0.0027875957884594856 0 0.0031816453756386854 0.0027058559038769803 0 0.003163685494465386 0.0028200784302446725 0 0.0032894763388433015 0.0028027592396125669 0 0.0012690676220105323 0.0027675188994578598 0 0.001268170105974341 0.0027913443098728928 0 0.001205477548726815 0.0028226359242265269 0 0.0016271023621764399 0.0032799212571143965 0 0.0012086472900623116 0.003519723997378156 0 0.001165404291082547 0.0037845849757034995 0 0.0012663331013963491 0.0028668626378281119 0 0.001268170105974341 0.0027913443098728928 0 0.001205477548726815 0.0028226359242265269 0 0.0019482317627310475 0.0033418929839168425 0 0.0011504675339866575 0.0032444710277139211 0 0.00086366403461241275 0.0038333809352247106 0 0.0012086472900623116 0.003519723997378156 0 0.001165404291082547 0.0037845849757034995 0 0.0029565190828366771 0.0027981298872772863 0 0.0028951337518200379 0.0025862455108667829 0 0.0027439433647662458 0.0025754654018258537 0 0.0031034178728144225 0.0027663218557778578 0 0.0027718298770220782 0.0025549052056348153 0 0.0030835079567002261 0.0028531865528495372 0 0.0027964370734191225 0.0025642584618005807 0 0.0028553497840954436 0.0029747803995318909 0 0.0029565190828366771 0.0027981298872772863 0 0.0030930477657120856 0.0026991757204337052 0 0.0030124458792012599 0.0025456456697121473 0 0.003163685494465386 0.0028200784302446725 0 0.0029565190828366771 0.0027981298872772863 0 0.0030930477657120856 0.0026991757204337052 0 0.0031816453756386854 0.0027058559038769803 0 0.003163685494465386 0.0028200784302446725 0 0.0030930477657120856 0.0026991757204337052 0 0.0031816453756386854 0.0027058559038769803 0 0.0030930477657120856 0.0026991757204337052 0 0.0031393168632963741 0.0025923314736108825 0 0.0030930477657120856 0.0026991757204337052 0 0.0031393168632963741 0.0025923314736108825 0 0.0030124458792012599 0.0025456456697121473 0 0.0031242576525385419 0.0024987923874776933 0 0.0030124458792012599 0.0025456456697121473 0 0.0030944255682533684 0.0024184657891500286 0 0.0031393168632963741 0.0025923314736108825 0 0.0031242576525385419 0.0024987923874776933 0 0.0030124458792012599 0.0025456456697121473 0 0.0029565190828366771 0.0027981298872772863 0 0.0030124458792012599 0.0025456456697121473 0 0.0028951337518200379 0.0025862455108667829 0 0.0030124458792012599 0.0025456456697121473 0 0.0028951337518200379 0.0025862455108667829 0 0.0029144566920813824 0.0024563822185152176 0 0.0028951337518200379 0.0025862455108667829 0 0.0029144566920813824 0.0024563822185152176 0 0.0027439433647662458 0.0025754654018258537 0 0.0029144566920813824 0.0024563822185152176 0 0.0028795334880438975 0.0022940074356565475 0 0.0027439433647662458 0.0025754654018258537 0 0.0029144566920813824 0.0024563822185152176 0 0.0029796836433995059 0.002335895600114748 0 0.0030152916236635794 0.0024092566278811861 0 0.0030124458792012599 0.0025456456697121473 0 0.0029144566920813824 0.0024563822185152176 0 0.0030152916236635794 0.0024092566278811861 0 0.0029144566920813824 0.0024563822185152176 0 0.0029796836433995059 0.002335895600114748 0 0.0028795334880438975 0.0022940074356565475 0 0.0031606445077630063 0.0023623457099192476 0 0.0031242576525385419 0.0024987923874776933 0 0.0030944255682533684 0.0024184657891500286 0 0.0030124458792012599 0.0025456456697121473 0 0.0030944255682533684 0.0024184657891500286 0 0.0030152916236635794 0.0024092566278811861 0 0.0030944255682533684 0.0024184657891500286 0 0.0030152916236635794 0.0024092566278811861 0 0.0030777165949735863 0.0023323228067487992 0 0.0029796836433995059 0.002335895600114748 0 0.0030152916236635794 0.0024092566278811861 0 0.0030777165949735863 0.0023323228067487992 0 0.0029796836433995059 0.002335895600114748 0 0.0030777165949735863 0.0023323228067487992 0 0.003039616919769048 0.0022321204087322106 0 0.0031606445077630063 0.0023623457099192476 0 0.0030944255682533684 0.0024184657891500286 0 0.0030777165949735863 0.0023323228067487992 0 0.0031606445077630063 0.0023623457099192476 0 0.0030777165949735863 0.0023323228067487992 0 0.0031463759891358647 0.0022639155476515773 0 0.0033883760520276502 0.0020785128732274151 0 0.0024476630875949453 0.0022633618806812963 0 0.0031463759891358647 0.0022639155476515773 0 0.003039616919769048 0.0022321204087322106 0 0.0032039544832017409 0.0021261705185260031 0 0.0030777165949735863 0.0023323228067487992 0 0.0031463759891358647 0.0022639155476515773 0 0.003039616919769048 0.0022321204087322106 0 0.003039616919769048 0.0022321204087322106 0 0.0028795334880438975 0.0022940074356565475 0 0.0031133760943651279 0.0018688052994521914 0 0.0029153784156321283 0.002242418940756026 0 0.0031019992669981274 0.0018881813926846036 0 0.0029459069145488488 0.0022018651362135516 0 0.0028638871861925092 0.0020726528877318432 0 0.0031133760943651279 0.0018688052994521914 0 0.0029796836433995059 0.002335895600114748 0 0.003039616919769048 0.0022321204087322106 0 0.0028795334880438975 0.0022940074356565475 0 0.0028638871861925092 0.0020726528877318432 0 0.0026774261260206862 0.0021384779590813883 0 0.0028092158597611142 0.0018868355561603284 0 0.0028638871861925092 0.0020726528877318432 0 0.0026774261260206862 0.0021384779590813883 0 0.0027744002504580803 0.0022654918181231713 0 0.0029459069145488488 0.0022018651362135516 0 0.0028638871861925092 0.0020726528877318432 0 0.0027744002504580803 0.0022654918181231713 0 0.0029459069145488488 0.0022018651362135516 0 0.0027744002504580803 0.0022654918181231713 0 0.0027822845319484162 0.0025285875360427363 0 0.0026774261260206862 0.0021384779590813883 0 0.0027744002504580803 0.0022654918181231713 0 0.0026196836456266188 0.0023630407150589724 0 0.0029153784156321283 0.002242418940756026 0 0.0027718298770220782 0.0025549052056348153 0 0.0027744002504580803 0.0022654918181231713 0 0.0026196836456266188 0.0023630407150589724 0 0.0027822845319484162 0.0025285875360427363 0 0.0026774261260206862 0.0021384779590813883 0 0.0026196836456266188 0.0023630407150589724 0 0.0024408884690940232 0.0022435295816025558 0 0.0026196836456266188 0.0023630407150589724 0 0.0024408884690940232 0.0022435295816025558 0 0.0024991608202015068 0.0024774363680669211 0 0.0024752237966021409 0.0022234465114561492 0 0.0025933036331478036 0.0018898808240478773 0 0.0026774261260206862 0.0021384779590813883 0 0.0024408884690940232 0.0022435295816025558 0 0.0025546246677195456 0.0019120653430976728 0 0.00238292124374055 0.0020794932056896189 0 0.0022431507217664996 0.0021846812031380601 0 0.0025118134947849386 0.00219862176882063 0 0.0025118134947849386 0.00219862176882063 0 0.0024548533593880461 0.001963917775859188 0 0.0026318448973569647 0.0018688414277199727 0 0.00238292124374055 0.0020794932056896189 0 0.0025118134947849386 0.00219862176882063 0 0.0024548533593880461 0.001963917775859188 0 0.00238292124374055 0.0020794932056896189 0 0.0024548533593880461 0.001963917775859188 0 0.0023184200514479339 0.0019204717661852743 0 0.0022431507217664996 0.0021846812031380601 0 0.0023184200514479339 0.0019204717661852743 0 0.0021615932875609545 0.0019441108939825581 0 0.00238292124374055 0.0020794932056896189 0 0.0022431507217664996 0.0021846812031380601 0 0.0023184200514479339 0.0019204717661852743 0 0.0022431507217664996 0.0021846812031380601 0 0.002358121067473999 0.0025412520525140243 0 0.0021595456463457891 0.0024438134924046027 0 0.0022431507217664996 0.0021846812031380601 0 0.0025118134947849386 0.00219862176882063 0 0.002358121067473999 0.0025412520525140243 0 0.0024752237966021409 0.0022234465114561492 0 0.0023639107904801192 0.0025204689813768757 0 0.0024408884690940232 0.0022435295816025558 0 0.002358121067473999 0.0025412520525140243 0 0.0024991608202015068 0.0024774363680669211 0 0.002358121067473999 0.0025412520525140243 0 0.0025280331403385002 0.0026584856367818572 0 0.0024991608202015068 0.0024774363680669211 0 0.002358121067473999 0.0025412520525140243 0 0.0021595456463457891 0.0024438134924046027 0 0.0022586701530019739 0.002709413689383231 0 0.0021595456463457891 0.0024438134924046027 0 0.0022586701530019739 0.002709413689383231 0 0.0021011438477108743 0.0026963377292485513 0 0.0022586701530019739 0.002709413689383231 0 0.0025280331403385002 0.0026584856367818572 0 0.0023774227705483206 0.0028664986679800579 0 0.0025204870765625337 0.0026717309665977487 0 0.0022934904539018328 0.0029393505308423118 0 0.002358121067473999 0.0025412520525140243 0 0.0022586701530019739 0.002709413689383231 0 0.0025280331403385002 0.0026584856367818572 0 0.0025280331403385002 0.0026584856367818572 0 0.0028007564374647517 0.0025225411452778159 0 0.0026154560304481231 0.0029225853110307408 0 0.0027964370734191225 0.0025642584618005807 0 0.0028553497840954436 0.0029747803995318909 0 0.0026154560304481231 0.0029225853110307408 0 0.0027718298770220782 0.0025549052056348153 0 0.0026313214042272058 0.0029001367920098199 0 0.0026380182175945403 0.0023762831115920701 0 0.0027718298770220782 0.0025549052056348153 0 0.0025280331403385002 0.0026584856367818572 0 0.0028007564374647517 0.0025225411452778159 0 0.0024991608202015068 0.0024774363680669211 0 0.0026196836456266188 0.0023630407150589724 0 0.0028007564374647517 0.0025225411452778159 0 0.0024991608202015068 0.0024774363680669211 0 0.0013656060113712539 0.0022033373427426399 0 0.0016163097375003358 0.0022247634966708579 0 0.0015363531802513608 0.0023701497072275693 0 0.0013656060113712539 0.0022033373427426399 0 0.0016163097375003358 0.0022247634966708579 0 0.0015368361807508823 0.0018464138458932629 0 0.0016163097375003358 0.0022247634966708579 0 0.0015368361807508823 0.0018464138458932629 0 0.0019200611568419585 0.0019069109085164916 0 0.0015368361807508823 0.0018464138458932629 0 0.0019200611568419585 0.0019069109085164916 0 0.0019043245540296665 0.0016554264057024094 0 0.0016163097375003358 0.0022247634966708579 0 0.0018391215350162338 0.0020122827403374491 0 0.0018656984736223649 0.0022830633613391267 0 0.0016328083005970313 0.0022100396649510391 0 0.0018700202734128896 0.001965293615357782 0 0.0018391215350162338 0.0020122827403374491 0 0.0018656984736223649 0.0022830633613391267 0 0.0020857646639485731 0.0021044257132422379 0 0.0018656984736223649 0.0022830633613391267 0 0.0020857646639485731 0.0021044257132422379 0 0.0021023235994630648 0.0024529622578539786 0 0.0018391215350162338 0.0020122827403374491 0 0.00199189030237846 0.0019452902500741974 0 0.0020857646639485731 0.0021044257132422379 0 0.0019856852781556565 0.0021816195706369744 0 0.0020563439488251269 0.001813468585033967 0 0.0021615932875609545 0.0019441108939825581 0 0.0020375797161859815 0.0021428028652543435 0 0.0020556854161558548 0.0018346088599585442 0 0.0022431507217664996 0.0021846812031380601 0 0.0019856852781556565 0.0021816195706369744 0 0.0021615932875609545 0.0019441108939825581 0 0.00199189030237846 0.0019452902500741974 0 0.0020857646639485731 0.0021044257132422379 0 0.0020563439488251269 0.001813468585033967 0 0.0020375797161859815 0.0021428028652543435 0 0.0020366366978819832 0.0025027573363704675 0 0.0022431507217664996 0.0021846812031380601 0 0.0021595456463457891 0.0024438134924046027 0 0.0019856852781556565 0.0021816195706369744 0 0.0021595456463457891 0.0024438134924046027 0 0.0019856852781556565 0.0021816195706369744 0 0.0019717084732436031 0.0025498291957183755 0 0.0021595456463457891 0.0024438134924046027 0 0.0019717084732436031 0.0025498291957183755 0 0.0021011438477108743 0.0026963377292485513 0 0.0022586701530019739 0.002709413689383231 0 0.0021011438477108743 0.0026963377292485513 0 0.0021422878225677098 0.0028845386649635507 0 0.0019717084732436031 0.0025498291957183755 0 0.0021011438477108743 0.0026963377292485513 0 0.0019704337152983034 0.0028849768381256136 0 0.0021023235994630648 0.0024529622578539786 0 0.001980049985299838 0.0026708216542619908 0 0.0018441273500035111 0.0025467976912585642 0 0.0020366366978819832 0.0025027573363704675 0 0.0020367398616945426 0.0028683241387252537 0 0.0021023235994630648 0.0024529622578539786 0 0.001980049985299838 0.0026708216542619908 0 0.0021035874957492599 0.0028510622343569485 0 0.0018656984736223649 0.0022830633613391267 0 0.0021023235994630648 0.0024529622578539786 0 0.0018441273500035111 0.0025467976912585642 0 0.0018656984736223649 0.0022830633613391267 0 0.0018441273500035111 0.0025467976912585642 0 0.0016795005517897348 0.0024279104781440844 0 0.0016163097375003358 0.0022247634966708579 0 0.0018656984736223649 0.0022830633613391267 0 0.0016795005517897348 0.0024279104781440844 0 0.0018441273500035111 0.0025467976912585642 0 0.0016849683001525114 0.0026437199505512819 0 0.0018662652125196681 0.0028399633760373298 0 0.001980049985299838 0.0026708216542619908 0 0.0018441273500035111 0.0025467976912585642 0 0.0018662652125196681 0.0028399633760373298 0 0.0018441273500035111 0.0025467976912585642 0 0.0016849683001525114 0.0026437199505512819 0 0.0016795005517897348 0.0024279104781440844 0 0.0016849683001525114 0.0026437199505512819 0 0.0015273612325527946 0.002529839541742684 0 0.0016795005517897348 0.0024279104781440844 0 0.0016849683001525114 0.0026437199505512819 0 0.0015356468420660459 0.0026968210584758985 0 0.0015273612325527946 0.002529839541742684 0 0.0014008569941325428 0.0024508695897863093 0 0.0015273612325527946 0.002529839541742684 0 0.0015363531802513608 0.0023701497072275693 0 0.0015273612325527946 0.002529839541742684 0 0.0016795005517897348 0.0024279104781440844 0 0.0015363531802513608 0.0023701497072275693 0 0.0016163097375003358 0.0022247634966708579 0 0.0016795005517897348 0.0024279104781440844 0 0.0015363531802513608 0.0023701497072275693 0 0.0015028907845037766 0.0030694936580942561 0 0.0015958325580124118 0.0031450947750525358 0 0.0015857691007183147 0.0032658969372010922 0 0.0015028907845037766 0.0030694936580942561 0 0.0015958325580124118 0.0031450947750525358 0 0.0016067591344556119 0.0030275511912851976 0 0.0015958325580124118 0.0031450947750525358 0 0.0016067591344556119 0.0030275511912851976 0 0.0017024078628467881 0.0031579112551520486 0 0.0015958325580124118 0.0031450947750525358 0 0.0017024078628467881 0.0031579112551520486 0 0.0016539117255506698 0.003211010259268243 0 0.0016067591344556119 0.0030275511912851976 0 0.0017376636327759167 0.0029573456069013878 0 0.0017024078628467881 0.0031579112551520486 0 0.0014453097316266532 0.0028684196597166208 0 0.0015028907845037766 0.0030694936580942561 0 0.0016067591344556119 0.0030275511912851976 0 0.0014453097316266532 0.0028684196597166208 0 0.0016067591344556119 0.0030275511912851976 0 0.0016601354667257449 0.0028301026058253761 0 0.0014453097316266532 0.0028684196597166208 0 0.0015356468420660459 0.0026968210584758985 0 0.0016601354667257449 0.0028301026058253761 0 0.0016849683001525114 0.0026437199505512819 0 0.0015356468420660459 0.0026968210584758985 0 0.0016601354667257449 0.0028301026058253761 0 0.0016067591344556119 0.0030275511912851976 0 0.0016601354667257449 0.0028301026058253761 0 0.0017376636327759167 0.0029573456069013878 0 0.0016601354667257449 0.0028301026058253761 0 0.0018662652125196681 0.0028399633760373298 0 0.0017376636327759167 0.0029573456069013878 0 0.0016849683001525114 0.0026437199505512819 0 0.0016601354667257449 0.0028301026058253761 0 0.0018662652125196681 0.0028399633760373298 0 0.0018662652125196681 0.0028399633760373298 0 0.0018361273988222848 0.003084707981833822 0 0.0019624245898952767 0.0030540284636286327 0 0.0018662652125196681 0.0028399633760373298 0 0.0017376636327759167 0.0029573456069013878 0 0.0018361273988222848 0.003084707981833822 0 0.0017024078628467881 0.0031579112551520486 0 0.0018361273988222848 0.003084707981833822 0 0.0018169853689917505 0.003248734984623523 0 0.0017376636327759167 0.0029573456069013878 0 0.0017024078628467881 0.0031579112551520486 0 0.0018361273988222848 0.003084707981833822 0 0.0018361273988222848 0.003084707981833822 0 0.0019309570998335404 0.003215094109853346 0 0.0018169853689917505 0.003248734984623523 0 0.0018361273988222848 0.003084707981833822 0 0.0019624245898952767 0.0030540284636286327 0 0.0019309570998335404 0.003215094109853346 0 0.0019624245898952767 0.0030540284636286327 0 0.0021035874957492599 0.0028510622343569485 0 0.0020804684132564202 0.003284946953175159 0 0.0020367398616945426 0.0028683241387252537 0 0.0020286837340340739 0.0032887712495855131 0 0.0019704337152983034 0.0028849768381256136 0 0.0020986188925164041 0.0030604245828000183 0 0.0019766307876399889 0.0032921792042528231 0 0.0019624245898952767 0.0030540284636286327 0 0.0020804684132564202 0.003284946953175159 0 0.0019309570998335404 0.003215094109853346 0 0.0018662652125196681 0.0028399633760373298 0 0.0019624245898952767 0.0030540284636286327 0 0.0021035874957492599 0.0028510622343569485 0 0.001980049985299838 0.0026708216542619908 0 0.0018662652125196681 0.0028399633760373298 0 0.0021035874957492599 0.0028510622343569485 0 0.0019704337152983034 0.0028849768381256136 0 0.0021422878225677098 0.0028845386649635507 0 0.0020986188925164041 0.0030604245828000183 0 0.0021011438477108743 0.0026963377292485513 0 0.0019704337152983034 0.0028849768381256136 0 0.0021422878225677098 0.0028845386649635507 0 0.0020986188925164041 0.0030604245828000183 0 0.0019766307876399889 0.0032921792042528231 0 0.0023079246048788504 0.0031860110782672745 0 0.0021552513995990313 0.0028737233434044445 0 0.0022208352872446348 0.0032256649005443483 0 0.0021422878225677098 0.0028845386649635507 0 0.0020986188925164041 0.0030604245828000183 0 0.0023079246048788504 0.0031860110782672745 0 0.0021640681298398532 0.0034686545337854796 0 0.0022208352872446348 0.0032256649005443483 0 0.0021235906880097658 0.003498178604859941 0 0.0019766307876399889 0.0032921792042528231 0 0.0023079246048788504 0.0031860110782672745 0 0.0021235906880097658 0.003498178604859941 0 0.0023429738909465534 0.0032244819348399871 0 0.0022952135849779449 0.0035659337289058119 0 0.0021235906880097658 0.003498178604859941 0 0.0022952135849779449 0.0035659337289058119 0 0.0021611751173108667 0.0036606314145690606 0 0.0020286837340340739 0.0032887712495855131 0 0.0020160176124455554 0.0036484879383719571 0 0.0021235906880097658 0.003498178604859941 0 0.0019766307876399889 0.0032921792042528231 0 0.0020180366726145751 0.0036729374258055825 0 0.0020804684132564202 0.003284946953175159 0 0.0019212191263911001 0.003503756991215416 0 0.0020180366726145751 0.0036729374258055825 0 0.0021235906880097658 0.003498178604859941 0 0.0020180366726145751 0.0036729374258055825 0 0.0021611751173108667 0.0036606314145690606 0 0.0020804684132564202 0.003284946953175159 0 0.0019309570998335404 0.003215094109853346 0 0.0019212191263911001 0.003503756991215416 0 0.0018169853689917505 0.003248734984623523 0 0.0017330957603027032 0.0032769171192761236 0 0.0019212191263911001 0.003503756991215416 0 0.0019547205942888465 0.0035061122666460156 0 0.0015247226766882916 0.0033259124469318087 0 0.0019309570998335404 0.003215094109853346 0 0.0018169853689917505 0.003248734984623523 0 0.0019212191263911001 0.003503756991215416 0 0.0017330957603027032 0.0032769171192761236 0 0.0019212191263911001 0.003503756991215416 0 0.0015857691007183147 0.0032658969372010922 0 0.0017024078628467881 0.0031579112551520486 0 0.0018169853689917505 0.003248734984623523 0 0.0017330957603027032 0.0032769171192761236 0 0.0019212191263911001 0.003503756991215416 0 0.0018529568755228736 0.003713113182145423 0 0.0020180366726145751 0.0036729374258055825 0 0.0019212191263911001 0.003503756991215416 0 0.001731959934705786 0.0035502163101963241 0 0.0018529568755228736 0.003713113182145423 0 0.0019212191263911001 0.003503756991215416 0 0.001731959934705786 0.0035502163101963241 0 0.0017135329595934644 0.0033829075075229942 0 0.0015520417708001302 0.0036117153485784492 0 0.001731959934705786 0.0035502163101963241 0 0.0017055387825580704 0.0033782909522726691 0 0.001731959934705786 0.0035502163101963241 0 0.0017055387825580704 0.0033782909522726691 0 0.0017135329595934644 0.0033829075075229942 0 0.0017330957603027032 0.0032769171192761236 0 0.0015857691007183147 0.0032658969372010922 0 0.0016539117255506698 0.003211010259268243 0 0.0015958325580124118 0.0031450947750525358 0 0.0015857691007183147 0.0032658969372010922 0 0.0016539117255506698 0.003211010259268243 0 0.0017024078628467881 0.0031579112551520486 0 0.0017330957603027032 0.0032769171192761236 0 0.0016539117255506698 0.003211010259268243 0 0.0024368323156466511 0.0031936489130989618 0 0.0022685122554244163 0.0034135074645215723 0 0.0025891370480805205 0.0034035452359347184 0 0.0026490301897781447 0.0031687963782703822 0 0.0024368323156466511 0.0031936489130989618 0 0.0025891370480805205 0.0034035452359347184 0 0.0026490301897781447 0.0031687963782703822 0 0.0028679735251908351 0.0032563685739199297 0 0.0025891370480805205 0.0034035452359347184 0 0.0026490301897781447 0.0031687963782703822 0 0.0028679735251908351 0.0032563685739199297 0 0.0028553497840954436 0.0029747803995318909 0 0.0026490301897781447 0.0031687963782703822 0 0.0028553497840954436 0.0029747803995318909 0 0.0026154560304481231 0.0029225853110307408 0 0.0026490301897781447 0.0031687963782703822 0 0.0024368323156466511 0.0031936489130989618 0 0.0026154560304481231 0.0029225853110307408 0 0.0024368323156466511 0.0031936489130989618 0 0.0026154560304481231 0.0029225853110307408 0 0.002239733549880983 0.0030101786716951536 0 0.0025280331403385002 0.0026584856367818572 0 0.0026154560304481231 0.0029225853110307408 0 0.002239733549880983 0.0030101786716951536 0 0.0022586701530019739 0.002709413689383231 0 0.0021422878225677098 0.0028845386649635507 0 0.0023774227705483206 0.0028664986679800579 0 0.0021422878225677098 0.0028845386649635507 0 0.0023774227705483206 0.0028664986679800579 0 0.0022233770880183716 0.0030785587985737383 0 0.002239733549880983 0.0030101786716951536 0 0.0019865929845004505 0.003346023924595801 0 0.0022685122554244163 0.0034135074645215723 0 0.0022934904539018328 0.0029393505308423118 0 0.0022208352872446348 0.0032256649005443483 0 0.0024368323156466511 0.0031936489130989618 0 0.002239733549880983 0.0030101786716951536 0 0.0022685122554244163 0.0034135074645215723 0 0.0022685122554244163 0.0034135074645215723 0 0.0021239490135748118 0.003666018138394764 0 0.0024320830493257135 0.0037144453338197885 0 0.0023429738909465534 0.0032244819348399871 0 0.0024536410984758068 0.0034973697726671379 0 0.0022952135849779449 0.0035659337289058119 0 0.0022208352872446348 0.0032256649005443483 0 0.002285461036580829 0.0035908776252530691 0 0.0019865929845004505 0.003346023924595801 0 0.0022685122554244163 0.0034135074645215723 0 0.0021239490135748118 0.003666018138394764 0 0.0024536410984758068 0.0034973697726671379 0 0.0022952135849779449 0.0035659337289058119 0 0.0024041649771977965 0.0037403537670393991 0 0.0021239490135748118 0.003666018138394764 0 0.0024320830493257135 0.0037144453338197885 0 0.0022724984617795724 0.0039761469273471859 0 0.002285461036580829 0.0035908776252530691 0 0.0024019958917112279 0.0038613018709630327 0 0.0024320830493257135 0.0037144453338197885 0 0.002672128728179853 0.0036002154871236942 0 0.0026936189517264395 0.0038335884328407179 0 0.0024320830493257135 0.0037144453338197885 0 0.0025891370480805205 0.0034035452359347184 0 0.002672128728179853 0.0036002154871236942 0 0.0022685122554244163 0.0034135074645215723 0 0.0024320830493257135 0.0037144453338197885 0 0.0025891370480805205 0.0034035452359347184 0 0.0025891370480805205 0.0034035452359347184 0 0.0028379578765884831 0.003454668474331467 0 0.002672128728179853 0.0036002154871236942 0 0.0028679735251908351 0.0032563685739199297 0 0.0025891370480805205 0.0034035452359347184 0 0.0028379578765884831 0.003454668474331467 0 0.0028379578765884831 0.003454668474331467 0 0.002672128728179853 0.0036002154871236942 0 0.0027870819506820911 0.0036249336018302617 0 0.0029446488653830176 0.0036094150546546124 0 0.0028379578765884831 0.003454668474331467 0 0.0027870819506820911 0.0036249336018302617 0 0.0021965427198370885 0.0043082697472693237 0 0.0022020875909739362 0.0042793900649190841 0 0.0023306391719315521 0.0041801982437757708 0 0.0029446488653830176 0.0036094150546546124 0 0.0027870819506820911 0.0036249336018302617 0 0.0026936189517264395 0.0038335884328407179 0 0.0026116713450772223 0.0039205490688939944 0 0.0024988861201904015 0.0040127364160963668 0 0.002672128728179853 0.0036002154871236942 0 0.0027870819506820911 0.0036249336018302617 0 0.0026936189517264395 0.0038335884328407179 0 0.0022020875909739362 0.0042793900649190841 0 0.0023306391719315521 0.0041801982437757708 0 0.0022134927671602963 0.0041619278016794756 0 0.0023306391719315521 0.0041801982437757708 0 0.0023307545081460374 0.0040143499901571095 0 0.0022134927671602963 0.0041619278016794756 0 0.002199727707135495 0.0041689382938864495 0 0.0022451396453260163 0.0040440017691805961 0 0.0021383028951284994 0.0040773964725263163 0 0.0023307545081460374 0.0040143499901571095 0 0.0024208498424819801 0.0040401549571806158 0 0.0024090023963095086 0.0040694299704925217 0 0.002199727707135495 0.0041689382938864495 0 0.0023900869898887886 0.0041108041862437982 0 0.0022451396453260163 0.0040440017691805961 0 0.0022570868610347363 0.0041000004198310938 0 0.0024133875550553185 0.0040539097266835099 0 0.0023306391719315521 0.0041801982437757708 0 0.0023307545081460374 0.0040143499901571095 0 0.0024208498424819801 0.0040401549571806158 0 0.0024320830493257135 0.0037144453338197885 0 0.0026936189517264395 0.0038335884328407179 0 0.0024208498424819801 0.0040401549571806158 0 0.0024988861201904015 0.0040127364160963668 0 0.0024361073782661674 0.0040395839333016003 0 0.0024320830493257135 0.0037144453338197885 0 0.0024208498424819801 0.0040401549571806158 0 0.0022724984617795724 0.0039761469273471859 0 0.0024536410984758068 0.0034973697726671379 0 0.0025364732468372356 0.0037771159424886576 0 0.0024041649771977965 0.0037403537670393991 0 0.0024041649771977965 0.0037403537670393991 0 0.0023701620340512378 0.0038592156950311794 0 0.0024771168207112686 0.0039348171017392249 0 0.0025364732468372356 0.0037771159424886576 0 0.0024041649771977965 0.0037403537670393991 0 0.0024771168207112686 0.0039348171017392249 0 0.0022952135849779449 0.0035659337289058119 0 0.0024041649771977965 0.0037403537670393991 0 0.0022750466511398423 0.0037545325468664684 0 0.0024041649771977965 0.0037403537670393991 0 0.0023701620340512378 0.0038592156950311794 0 0.0022750466511398423 0.0037545325468664684 0 0.0023701620340512378 0.0038592156950311794 0 0.0023857997645505714 0.003970889963801039 0 0.0022480289751267298 0.0038633625970767691 0 0.0023701620340512378 0.0038592156950311794 0 0.0023857997645505714 0.003970889963801039 0 0.0024771168207112686 0.0039348171017392249 0 0.0023857997645505714 0.003970889963801039 0 0.0024771168207112686 0.0039348171017392249 0 0.0024859242639692302 0.0040290736598834233 0 0.0024019958917112279 0.0038613018709630327 0 0.0024133875550553185 0.0040539097266835099 0 0.0025364732468372356 0.0037771159424886576 0 0.0024771168207112686 0.0039348171017392249 0 0.0025133842004866698 0.004012933038567962 0 0.0024208498424819801 0.0040401549571806158 0 0.0022724984617795724 0.0039761469273471859 0 0.0024090023963095086 0.0040694299704925217 0 0.0024771168207112686 0.0039348171017392249 0 0.0024919050157176693 0.0039930532242203809 0 0.0025133842004866698 0.004012933038567962 0 0.0024771168207112686 0.0039348171017392249 0 0.0024919050157176693 0.0039930532242203809 0 0.0024859242639692302 0.0040290736598834233 0 0.0025133842004866698 0.004012933038567962 0 0.0024847236664232893 0.004003467387950042 0 0.0024473021449939636 0.0039690753722408057 0 0.0024919050157176693 0.0039930532242203809 0 0.0025133842004866698 0.004012933038567962 0 0.0024847236664232893 0.004003467387950042 0 0.0024919050157176693 0.0039930532242203809 0 0.0024847236664232893 0.004003467387950042 0 0.0024859242639692302 0.0040290736598834233 0 0.0024847236664232893 0.004003467387950042 0 0.0024859242639692302 0.0040290736598834233 0 0.0025051993325117222 0.0039644453582681006 0 0.0024847236664232893 0.004003467387950042 0 0.0024473021449939636 0.0039690753722408057 0 0.0025051993325117222 0.0039644453582681006 0 0.0023857997645505714 0.003970889963801039 0 0.0024859242639692302 0.0040290736598834233 0 0.0023807481710874916 0.0039562924077124846 0 0.0025032906903994269 0.0040285993288811141 0 0.0026087462251728564 0.0040141582194667645 0 0.0024859242639692302 0.0040290736598834233 0 0.0026328274979452262 0.0039600177976275115 0 0.0028163425559395963 0.0040814496466999297 0 0.0024859242639692302 0.0040290736598834233 0 0.0026328274979452262 0.0039600177976275115 0 0.0025051993325117222 0.0039644453582681006 0 0.0026328274979452262 0.0039600177976275115 0 0.0025950880974276737 0.0038603884170905411 0 0.0027899352897309123 0.003848188116179384 0 0.0026328274979452262 0.0039600177976275115 0 0.0025950880974276737 0.0038603884170905411 0 0.0025051993325117222 0.0039644453582681006 0 0.0024473021449939636 0.0039690753722408057 0 0.0025051993325117222 0.0039644453582681006 0 0.002455764956553919 0.0038804899035347401 0 0.0024473021449939636 0.0039690753722408057 0 0.002455764956553919 0.0038804899035347401 0 0.0023221283234801278 0.0039182615677147052 0 0.0025950880974276737 0.0038603884170905411 0 0.0025051993325117222 0.0039644453582681006 0 0.002455764956553919 0.0038804899035347401 0 0.0025950880974276737 0.0038603884170905411 0 0.002455764956553919 0.0038804899035347401 0 0.0025238394540997551 0.003768231119693685 0 0.002455764956553919 0.0038804899035347401 0 0.0023221283234801278 0.0039182615677147052 0 0.002357277347448109 0.0037745746008863057 0 0.0023221283234801278 0.0039182615677147052 0 0.0021701223096804593 0.0039598903357504879 0 0.0022010165357853407 0.0038243480204748076 0 0.0021701223096804593 0.0039598903357504879 0 0.0022010165357853407 0.0038243480204748076 0 0.0020666159416317599 0.0038884554885433922 0 0.0021701223096804593 0.0039598903357504879 0 0.0022451396453260163 0.0040440017691805961 0 0.0021383028951284994 0.0040773964725263163 0 0.0023221283234801278 0.0039182615677147052 0 0.0021701223096804593 0.0039598903357504879 0 0.0022451396453260163 0.0040440017691805961 0 0.0025133842004866698 0.004012933038567962 0 0.0024473021449939636 0.0039690753722408057 0 0.0023221283234801278 0.0039182615677147052 0 0.0024133875550553185 0.0040539097266835099 0 0.0023427500619115464 0.0039186833724747594 0 0.0023900869898887886 0.0041108041862437982 0 0.0023221283234801278 0.0039182615677147052 0 0.0022451396453260163 0.0040440017691805961 0 0.0028208945458723217 0.0040087174265977079 0 0.0026092744707770423 0.0040096579931463948 0 0.0027208397879640456 0.0039106171250256287 0 0.002431999457471805 0.0039508036016376409 0 0.0021694267038141653 0.0039656170204158429 0 0.0015932633825385578 0.0039049656590904491 0 0.0017086160735833491 0.003742206190606993 0 0.0018234188292840189 0.0039203177153596634 0 0.001731959934705786 0.0035502163101963241 0 0.0017086160735833491 0.003742206190606993 0 0.0018529568755228736 0.003713113182145423 0 0.0015520417708001302 0.0036117153485784492 0 0.001731959934705786 0.0035502163101963241 0 0.0017086160735833491 0.003742206190606993 0 0.0017086160735833491 0.003742206190606993 0 0.0018529568755228736 0.003713113182145423 0 0.0018234188292840189 0.0039203177153596634 0 0.0018529568755228736 0.003713113182145423 0 0.0018234188292840189 0.0039203177153596634 0 0.0019754217220625588 0.0038098001190432643 0 0.0021694267038141653 0.0039656170204158429 0 0.0022683636454151924 0.003976246812935286 0 0.0018234188292840189 0.0039203177153596634 0 0.0020709850779851349 0.0039551455927712715 0 0.0019754217220625588 0.0038098001190432643 0 0.0020709850779851349 0.0039551455927712715 0 0.0019754217220625588 0.0038098001190432643 0 0.0021242084614160185 0.0037880348303920603 0 0.0018529568755228736 0.003713113182145423 0 0.0019754217220625588 0.0038098001190432643 0 0.0020180366726145751 0.0036729374258055825 0 0.0020180366726145751 0.0036729374258055825 0 0.0021242084614160185 0.0037880348303920603 0 0.0021611751173108667 0.0036606314145690606 0 0.0019754217220625588 0.0038098001190432643 0 0.0020180366726145751 0.0036729374258055825 0 0.0021242084614160185 0.0037880348303920603 0 0.0021242084614160185 0.0037880348303920603 0 0.0022750466511398423 0.0037545325468664684 0 0.0022480289751267298 0.0038633625970767691 0 0.0021242084614160185 0.0037880348303920603 0 0.0021611751173108667 0.0036606314145690606 0 0.0022750466511398423 0.0037545325468664684 0 0.0022952135849779449 0.0035659337289058119 0 0.0021611751173108667 0.0036606314145690606 0 0.0022750466511398423 0.0037545325468664684 0 0.0023701620340512378 0.0038592156950311794 0 0.0022750466511398423 0.0037545325468664684 0 0.0022480289751267298 0.0038633625970767691 0 0.0023726420464440135 0.0039735762214679329 0 0.0022683636454151924 0.003976246812935286 0 0.0023857997645505714 0.003970889963801039 0 0.0020709850779851349 0.0039551455927712715 0 0.0022480289751267298 0.0038633625970767691 0 0.0020709850779851349 0.0039551455927712715 0 0.0021242084614160185 0.0037880348303920603 0 0.0022480289751267298 0.0038633625970767691 0 0.0023857997645505714 0.003970889963801039 0 0.0024297682181164213 0.0040025468974478791 0 0.0023807481710874916 0.0039562924077124846 0 0.0026328274979452262 0.0039600177976275115 0 0.0028163425559395963 0.0040814496466999297 0 0.0027899352897309123 0.003848188116179384 0 0.0028163425559395963 0.0040814496466999297 0 0.0027899352897309123 0.003848188116179384 0 0.0030144131809061369 0.0039130970853888322 0 0.0028163425559395963 0.0040814496466999297 0 0.0030144131809061369 0.0039130970853888322 0 0.0031514304173733362 0.0040566450708727437 0 0.0024297682181164213 0.0040025468974478791 0 0.0023807481710874916 0.0039562924077124846 0 0.00252403807173365 0.0038630769456883536 0 0.0026087462251728564 0.0040141582194667645 0 0.0028413799857098993 0.003959684929005401 0 0.0026092744707770423 0.0040096579931463948 0 0.0024297682181164213 0.0040025468974478791 0 0.00252403807173365 0.0038630769456883536 0 0.0026092744707770423 0.0040096579931463948 0 0.00252403807173365 0.0038630769456883536 0 0.0027208397879640456 0.0039106171250256287 0 0.0030144131809061369 0.0039130970853888322 0 0.0031514304173733362 0.0040566450708727437 0 0.0032393767912185598 0.0038873783203686087 0 0.0028413799857098993 0.003959684929005401 0 0.0031152777540139238 0.0038919176811135435 0 0.0031514304173733362 0.0040566450708727437 0 0.0032393767912185598 0.0038873783203686087 0 0.0034865245281132801 0.0040020306008378718 0 0.0032393767912185598 0.0038873783203686087 0 0.0034865245281132801 0.0040020306008378718 0 0.0033543865431297651 0.0037331328025950569 0 0.0028307466177467291 0.0038557379205364315 0 0.0027390517194595221 0.0037869645156561145 0 0.0027208397879640456 0.0039106171250256287 0 0.00252403807173365 0.0038630769456883536 0 0.0027390517194595221 0.0037869645156561145 0 0.0027208397879640456 0.0039106171250256287 0 0.0028149641905809032 0.003950366017245111 0 0.0028208945458723217 0.0040087174265977079 0 0.0027208397879640456 0.0039106171250256287 0 0.0034365035313797059 0.0035999582386885276 0 0.0033543865431297651 0.0037331328025950569 0 0.0032979537994470907 0.0035140251780334799 0 0.0035389420603755576 0.0034859477740565472 0 0.0034365035313797059 0.0035999582386885276 0 0.0032979537994470907 0.0035140251780334799 0 0.0035821825865148256 0.0036661274933333394 0 0.0035389420603755576 0.0034859477740565472 0 0.0034365035313797059 0.0035999582386885276 0 0.0036202832357497324 0.0038355987195152338 0 0.0035821825865148256 0.0036661274933333394 0 0.0033543865431297651 0.0037331328025950569 0 0.0035821825865148256 0.0036661274933333394 0 0.0034365035313797059 0.0035999582386885276 0 0.0033543865431297651 0.0037331328025950569 0 0.0036202832357497324 0.0038355987195152338 0 0.0034865245281132801 0.0040020306008378718 0 0.0033543865431297651 0.0037331328025950569 0 0.0033543865431297651 0.0037331328025950569 0 0.0031121068673061925 0.0035643269799177542 0 0.0030396203960630992 0.0037385573915485501 0 0.0032393767912185598 0.0038873783203686087 0 0.0033543865431297651 0.0037331328025950569 0 0.0030396203960630992 0.0037385573915485501 0 0.0033543865431297651 0.0037331328025950569 0 0.0032979537994470907 0.0035140251780334799 0 0.0031121068673061925 0.0035643269799177542 0 0.0032979537994470907 0.0035140251780334799 0 0.0031121068673061925 0.0035643269799177542 0 0.0031783988086001285 0.0033976186467670711 0 0.0029456475505202843 0.0035662304091681344 0 0.0031121068673061925 0.0035643269799177542 0 0.0029877941285494378 0.0034187446029552908 0 0.0029456475505202843 0.0035662304091681344 0 0.0031121068673061925 0.0035643269799177542 0 0.0030396203960630992 0.0037385573915485501 0 0.0030144131809061369 0.0039130970853888322 0 0.0032393767912185598 0.0038873783203686087 0 0.0030396203960630992 0.0037385573915485501 0 0.0027899352897309123 0.003848188116179384 0 0.0030144131809061369 0.0039130970853888322 0 0.0030396203960630992 0.0037385573915485501 0 0.0027899352897309123 0.003848188116179384 0 0.0028030900459548101 0.0036477341857945344 0 0.0026514777134822795 0.0037443173829770108 0 0.0027899352897309123 0.003848188116179384 0 0.0030396203960630992 0.0037385573915485501 0 0.0028030900459548101 0.0036477341857945344 0 0.0029456475505202843 0.0035662304091681344 0 0.0028030900459548101 0.0036477341857945344 0 0.0027517428939812789 0.0034492059716357821 0 0.0029456475505202843 0.0035662304091681344 0 0.0030396203960630992 0.0037385573915485501 0 0.0028030900459548101 0.0036477341857945344 0 0.0029456475505202843 0.0035662304091681344 0 0.0027517428939812789 0.0034492059716357821 0 0.0029877941285494378 0.0034187446029552908 0 0.0027517428939812789 0.0034492059716357821 0 0.0028442056661469764 0.003303115108222079 0 0.0029877941285494378 0.0034187446029552908 0 0.0028442056661469764 0.003303115108222079 0 0.0028391144187442621 0.0031456416778045211 0 0.0030510158754549471 0.0032365276178101163 0 0.0028442056661469764 0.003303115108222079 0 0.0028391144187442621 0.0031456416778045211 0 0.0026066364623662471 0.0032666866796997249 0 0.0028314132819371716 0.0031705785103528792 0 0.0030489907147014288 0.0030611478433970074 0 0.0028391144187442621 0.0031456416778045211 0 0.0030510158754549471 0.0032365276178101163 0 0.0030892819613603179 0.0030341086645001656 0 0.0030510158754549471 0.0032365276178101163 0 0.0031595009221623183 0.0031505159705370067 0 0.0030892819613603179 0.0030341086645001656 0 0.0030510158754549471 0.0032365276178101163 0 0.0032405065862265285 0.0032389243692974969 0 0.0031595009221623183 0.0031505159705370067 0 0.0030510158754549471 0.0032365276178101163 0 0.0029877941285494378 0.0034187446029552908 0 0.0031783988086001285 0.0033976186467670711 0 0.0028442056661469764 0.003303115108222079 0 0.0030510158754549471 0.0032365276178101163 0 0.0029877941285494378 0.0034187446029552908 0 0.0031121068673061925 0.0035643269799177542 0 0.0029877941285494378 0.0034187446029552908 0 0.0031783988086001285 0.0033976186467670711 0 0.0032979537994470907 0.0035140251780334799 0 0.0031783988086001285 0.0033976186467670711 0 0.003391005090410063 0.0033612457315769662 0 0.0031783988086001285 0.0033976186467670711 0 0.0032405065862265285 0.0032389243692974969 0 0.003391005090410063 0.0033612457315769662 0 0.0030510158754549471 0.0032365276178101163 0 0.0031783988086001285 0.0033976186467670711 0 0.0032405065862265285 0.0032389243692974969 0 0.0031595009221623183 0.0031505159705370067 0 0.0032760718519512675 0.0030945516526343585 0 0.0030892819613603179 0.0030341086645001656 0 0.0032405065862265285 0.0032389243692974969 0 0.0031595009221623183 0.0031505159705370067 0 0.0032760718519512675 0.0030945516526343585 0 0.0032405065862265285 0.0032389243692974969 0 0.0033986667625227076 0.003207197724943271 0 0.003391005090410063 0.0033612457315769662 0 0.0032405065862265285 0.0032389243692974969 0 0.0032760718519512675 0.0030945516526343585 0 0.0033986667625227076 0.003207197724943271 0 0.0032760718519512675 0.0030945516526343585 0 0.0033986667625227076 0.003207197724943271 0 0.0035073425765754359 0.0030795373725788729 0 0.0036824859764181899 0.0031155367770470226 0 0.0035073425765754359 0.0030795373725788729 0 0.0035785618620972261 0.0032595812436433925 0 0.0033986667625227076 0.003207197724943271 0 0.0035073425765754359 0.0030795373725788729 0 0.0035785618620972261 0.0032595812436433925 0 0.0035389420603755576 0.0034859477740565472 0 0.0032979537994470907 0.0035140251780334799 0 0.003391005090410063 0.0033612457315769662 0 0.0035389420603755576 0.0034859477740565472 0 0.0035785618620972261 0.0032595812436433925 0 0.003391005090410063 0.0033612457315769662 0 0.0033986667625227076 0.003207197724943271 0 0.0035785618620972261 0.0032595812436433925 0 0.003391005090410063 0.0033612457315769662 0 0.0022855485679796009 0.0035859449511011334 0 0.0023481802884297836 0.0037605921071102609 0 0.0022694862349756221 0.003648513849454681 0 0.0022046765385891711 0.0037123641283131601 0 0.002357277347448109 0.0037745746008863057 0 0.0022046765385891711 0.0037123641283131601 0 0.0021181231745780738 0.0036668299862137261 0 0.0020880558242271246 0.0037570131334485383 0 0.0022694862349756221 0.003648513849454681 0 0.0022046765385891711 0.0037123641283131601 0 0.0021913401227334323 0.0036389903973164787 0 0.0022046765385891711 0.0037123641283131601 0 0.0021913401227334323 0.0036389903973164787 0 0.0021181231745780738 0.0036668299862137261 0 0.0022046765385891711 0.0037123641283131601 0 0.0022010165357853407 0.0038243480204748076 0 0.0020880558242271246 0.0037570131334485383 0 0.0022046765385891711 0.0037123641283131601 0 0.0022010165357853407 0.0038243480204748076 0 0.002357277347448109 0.0037745746008863057 0 0.0023221283234801278 0.0039182615677147052 0 0.0022010165357853407 0.0038243480204748076 0 0.002357277347448109 0.0037745746008863057 0 0.002455764956553919 0.0038804899035347401 0 0.002357277347448109 0.0037745746008863057 0 0.0025238394540997551 0.003768231119693685 0 0.002357277347448109 0.0037745746008863057 0 0.0025238394540997551 0.003768231119693685 0 0.0025518853366786856 0.0035904390137097551 0 0.0025950880974276737 0.0038603884170905411 0 0.0027899352897309123 0.003848188116179384 0 0.0026514777134822795 0.0037443173829770108 0 0.0028030900459548101 0.0036477341857945344 0 0.0026514777134822795 0.0037443173829770108 0 0.0025518853366786856 0.0035904390137097551 0 0.0025950880974276737 0.0038603884170905411 0 0.0025238394540997551 0.003768231119693685 0 0.0026514777134822795 0.0037443173829770108 0 0.0025238394540997551 0.003768231119693685 0 0.0026514777134822795 0.0037443173829770108 0 0.0025518853366786856 0.0035904390137097551 0 0.0028030900459548101 0.0036477341857945344 0 0.0027517428939812789 0.0034492059716357821 0 0.0025518853366786856 0.0035904390137097551 0 0.0027517428939812789 0.0034492059716357821 0 0.0025518853366786856 0.0035904390137097551 0 0.0024903096373108885 0.0033991585150337845 0 0.0022900881622608333 0.0034924061457993053 0 0.0025518853366786856 0.0035904390137097551 0 0.0024903096373108885 0.0033991585150337845 0 0.0022900881622608333 0.0034924061457993053 0 0.002357277347448109 0.0037745746008863057 0 0.0025518853366786856 0.0035904390137097551 0 0.0024903096373108885 0.0033991585150337845 0 0.0024573952524727027 0.0032154076157851529 0 0.0023597775898369115 0.0033042365455726863 0 0.0027517428939812789 0.0034492059716357821 0 0.0024903096373108885 0.0033991585150337845 0 0.0026066364623662471 0.0032666866796997249 0 0.0027517428939812789 0.0034492059716357821 0 0.0028442056661469764 0.003303115108222079 0 0.0026066364623662471 0.0032666866796997249 0 0.0028314132819371716 0.0031705785103528792 0 0.0026268878578039031 0.0032567182548025922 0 0.0028198564980819285 0.00319316380880574 0 0.0026066364623662471 0.0032666866796997249 0 0.0025659492996369547 0.0031181919000160293 0 0.0024903096373108885 0.0033991585150337845 0 0.0026066364623662471 0.0032666866796997249 0 0.0024573952524727027 0.0032154076157851529 0 0.0026066364623662471 0.0032666866796997249 0 0.0024573952524727027 0.0032154076157851529 0 0.0025659492996369547 0.0031181919000160293 0 0.0023390098729058418 0.0031633453511573434 0 0.0022353790558128929 0.0032343067024364941 0 0.0022617070006546616 0.0031174990697923608 0 0.0024573952524727027 0.0032154076157851529 0 0.0023390098729058418 0.0031633453511573434 0 0.0023597775898369115 0.0033042365455726863 0 0.0023390098729058418 0.0031633453511573434 0 0.0022353790558128929 0.0032343067024364941 0 0.0023597775898369115 0.0033042365455726863 0 0.0022900881622608333 0.0034924061457993053 0 0.0022353790558128929 0.0032343067024364941 0 0.0023597775898369115 0.0033042365455726863 0 0.0022694862349756221 0.003648513849454681 0 0.0022136008161198245 0.0036123793060491554 0 0.0022162734325349882 0.0036072050558807532 0 0.0022855485679796009 0.0035859449511011334 0 0.0022111451748934303 0.0033910526899297981 0 0.0022900881622608333 0.0034924061457993053 0 0.0024903096373108885 0.0033991585150337845 0 0.0023597775898369115 0.0033042365455726863 0 0.0022694862349756221 0.003648513849454681 0 0.0021913401227334323 0.0036389903973164787 0 0.0022162734325349882 0.0036072050558807532 0 0.0021913401227334323 0.0036389903973164787 0 0.0022162734325349882 0.0036072050558807532 0 0.002116871027279219 0.0035908234007726719 0 0.0021913401227334323 0.0036389903973164787 0 0.002116871027279219 0.0035908234007726719 0 0.0021181231745780738 0.0036668299862137261 0 0.0022162734325349882 0.0036072050558807532 0 0.0022173951851193197 0.0036458868793224266 0 0.0021874263913211857 0.003722361994440709 0 0.0022136008161198245 0.0036123793060491554 0 0.0022162734325349882 0.0036072050558807532 0 0.0022173951851193197 0.0036458868793224266 0 0.0022136008161198245 0.0036123793060491554 0 0.0022173951851193197 0.0036458868793224266 0 0.0022225565325337889 0.0036436935768939522 0 0.0022173951851193197 0.0036458868793224266 0 0.0022220491928795017 0.0036624235480053982 0 0.0022225565325337889 0.0036436935768939522 0 0.0022162734325349882 0.0036072050558807532 0 0.0020318810352061294 0.0034919140812643334 0 0.002116871027279219 0.0035908234007726719 0 0.0021874263913211857 0.003722361994440709 0 0.0022032308938032589 0.003672560019028073 0 0.0022220491928795017 0.0036624235480053982 0 0.0021980540439052979 0.003607373392392357 0 0.002108578146357089 0.003605987968382773 0 0.0022173951851193197 0.0036458868793224266 0 0.0021874263913211857 0.003722361994440709 0 0.0022220491928795017 0.0036624235480053982 0 0.002108578146357089 0.003605987968382773 0 0.0018875987883874993 0.0036024790030320594 0 0.0021874263913211857 0.003722361994440709 0 0.0020366353969071436 0.0037633232127786435 0 0.0021309339666379908 0.0036762521437087217 0 0.0020318810352061294 0.0034919140812643334 0 0.0018008015776709027 0.0034348640691632799 0 0.0019470210227408712 0.0036447798273888709 0 0.0020318810352061294 0.0034919140812643334 0 0.002116871027279219 0.0035908234007726719 0 0.0019470210227408712 0.0036447798273888709 0 0.002116871027279219 0.0035908234007726719 0 0.0021181231745780738 0.0036668299862137261 0 0.0019470210227408712 0.0036447798273888709 0 0.0018875987883874993 0.0036024790030320594 0 0.0018454076162800032 0.0035346439118252911 0 0.0018008015776709027 0.0034348640691632799 0 0.0017212794438537804 0.0035635604909118792 0 0.0015584097462028217 0.0033932285581413368 0 0.0018008015776709027 0.0034348640691632799 0 0.0017212794438537804 0.0035635604909118792 0 0.0019470210227408712 0.0036447798273888709 0 0.0017212794438537804 0.0035635604909118792 0 0.0017376664929785598 0.0037114279269529911 0 0.0015540868777813618 0.00362714301242348 0 0.0017376664929785598 0.0037114279269529911 0 0.0015899191873082338 0.003748194917949246 0 0.0015540868777813618 0.00362714301242348 0 0.0017212794438537804 0.0035635604909118792 0 0.0017376664929785598 0.0037114279269529911 0 0.0019470210227408712 0.0036447798273888709 0 0.0017376664929785598 0.0037114279269529911 0 0.0018689159271461978 0.0037609440022034432 0 0.0019470210227408712 0.0036447798273888709 0 0.0018125632489300798 0.0038570485232562544 0 0.0018689159271461978 0.0037609440022034432 0 0.0019764094570951908 0.0038088634354646834 0 0.0017376664929785598 0.0037114279269529911 0 0.0018125632489300798 0.0038570485232562544 0 0.0018689159271461978 0.0037609440022034432 0 0.0017376664929785598 0.0037114279269529911 0 0.0018125632489300798 0.0038570485232562544 0 0.0016282068948663998 0.0038614707491024134 0 0.0017376664929785598 0.0037114279269529911 0 0.0016282068948663998 0.0038614707491024134 0 0.0015899191873082338 0.003748194917949246 0 0.0021181231745780738 0.0036668299862137261 0 0.0019470210227408712 0.0036447798273888709 0 0.0020880558242271246 0.0037570131334485383 0 0.0018689159271461978 0.0037609440022034432 0 0.0019470210227408712 0.0036447798273888709 0 0.0019764094570951908 0.0038088634354646834 0 0.0019470210227408712 0.0036447798273888709 0 0.0019764094570951908 0.0038088634354646834 0 0.0020880558242271246 0.0037570131334485383 0 0.0022010165357853407 0.0038243480204748076 0 0.0020880558242271246 0.0037570131334485383 0 0.0020666159416317599 0.0038884554885433922 0 0.0019764094570951908 0.0038088634354646834 0 0.0020880558242271246 0.0037570131334485383 0 0.0020666159416317599 0.0038884554885433922 0 0.0021701223096804593 0.0039598903357504879 0 0.0020666159416317599 0.0038884554885433922 0 0.0020364517869829782 0.0040293943429116222 0 0.0021701223096804593 0.0039598903357504879 0 0.0021383028951284994 0.0040773964725263163 0 0.0020364517869829782 0.0040293943429116222 0 0.0020364517869829782 0.0040293943429116222 0 0.0019254376538446396 0.0039542855317267894 0 0.001894275981713315 0.0040871790326397683 0 0.0020666159416317599 0.0038884554885433922 0 0.0020364517869829782 0.0040293943429116222 0 0.0019254376538446396 0.0039542855317267894 0 0.0019764094570951908 0.0038088634354646834 0 0.0020666159416317599 0.0038884554885433922 0 0.0019254376538446396 0.0039542855317267894 0 0.0018125632489300798 0.0038570485232562544 0 0.0019764094570951908 0.0038088634354646834 0 0.0019254376538446396 0.0039542855317267894 0 0.0018125632489300798 0.0038570485232562544 0 0.0019254376538446396 0.0039542855317267894 0 0.0017213265204945509 0.0040271257478223695 0 0.0018125632489300798 0.0038570485232562544 0 0.0016282068948663998 0.0038614707491024134 0 0.0017213265204945509 0.0040271257478223695 0 0.0016282068948663998 0.0038614707491024134 0 0.0017213265204945509 0.0040271257478223695 0 0.0015562566372765486 0.0039966653770845059 0 0.0019254376538446396 0.0039542855317267894 0 0.0017213265204945509 0.0040271257478223695 0 0.001894275981713315 0.0040871790326397683 0 0.001894275981713315 0.0040871790326397683 0 0.0018820305044713903 0.0041568080224795474 0 0.0018002686737968062 0.0041556371955059433 0 0.0017213265204945509 0.0040271257478223695 0 0.001894275981713315 0.0040871790326397683 0 0.0018002686737968062 0.0041556371955059433 0 0.0017214301809578595 0.0040287427820726845 0 0.0017298057948826654 0.004167521230434585 0 0.0016624189386690602 0.0041930153293375924 0 0.0015644574676535476 0.0042143054353882946 0 0.0015720521816815129 0.0041397957316836815 0 0.0017213265204945509 0.0040271257478223695 0 0.0016624189386690602 0.0041930153293375924 0 0.0015720521816815129 0.0041397957316836815 0 0.001731212023135206 0.0042489539751891922 0 0.0017298057948826654 0.004167521230434585 0 0.0016624189386690602 0.0041930153293375924 0 0.0015936071798623565 0.0042528664898263419 0 0.0015644574676535476 0.0042143054353882946 0 0.0016182268361338711 0.0042780070751844293 0 0.0016624189386690602 0.0041930153293375924 0 0.0015936071798623565 0.0042528664898263419 0 0.0018413624583212516 0.0042544165058170024 0 0.0018002686737968062 0.0041556371955059433 0 0.0018823747501470305 0.0042037848607228605 0 0.0018820305044713903 0.0041568080224795474 0 0.0018002686737968062 0.0041556371955059433 0 0.0018823747501470305 0.0042037848607228605 0 0.0018820305044713903 0.0041568080224795474 0 0.0018823747501470305 0.0042037848607228605 0 0.0020069958432638092 0.0042075123920167594 0 0.0020634197838395028 0.0042247720043822956 0 0.0018823747501470305 0.0042037848607228605 0 0.0021002373890438956 0.004081143619017717 0 0.0018962537142655359 0.0041985898821719839 0 0.0020575805986239111 0.0041443898544764358 0 0.0020634197838395028 0.0042247720043822956 0 0.0021002373890438956 0.004081143619017717 0 0.0022134927671602963 0.0041619278016794756 0 0.0023307545081460374 0.0040143499901571095 0 0.0021002373890438956 0.004081143619017717 0 0.0022134927671602963 0.0041619278016794756 0 0.002199727707135495 0.0041689382938864495 0 0.0021383028951284994 0.0040773964725263163 0 0.0020069958432638092 0.0042075123920167594 0 0.0022570868610347363 0.0041000004198310938 0 0.0020575805986239111 0.0041443898544764358 0 0.0021383028951284994 0.0040773964725263163 0 0.0020364517869829782 0.0040293943429116222 0 0.0020069958432638092 0.0042075123920167594 0 0.0020364517869829782 0.0040293943429116222 0 0.001894275981713315 0.0040871790326397683 0 0.0020069958432638092 0.0042075123920167594 0 0.001894275981713315 0.0040871790326397683 0 0.0018820305044713903 0.0041568080224795474 0 0.0020069958432638092 0.0042075123920167594 0 0.0013202140429871894 0.0042019174967401719 0 0.0011866428134936348 0.0042522495364209854 0 0.0012040844413365305 0.0041058056002707564 0 0.0013202140429871894 0.0042019174967401719 0 0.0014368294743640571 0.0040777281611255687 0 0.0012040844413365305 0.0041058056002707564 0 0.00011754641018184357 0.0040993426587695343 0 -0.00054026586216796165 0.0044106668839459223 0 -0.001071608072754829 0.0039417944642766729 0 -0.0011460472773946789 0.003975320370915943 0 -0.0011112297423455525 0.003915212221435105 0 0.0011866428134936348 0.0042522495364209854 0 0.0012040844413365305 0.0041058056002707564 0 0.0010405053003972888 0.0041504049465834695 0 -0.0010827553177585681 0.0039955736992769086 0 -0.001071608072754829 0.0039417944642766729 0 -0.0011460472773946789 0.003975320370915943 0 0.00011754641018184357 0.0040993426587695343 0 5.7879715519488039e-05 0.0041198325060773401 0 0.0013202140429871894 0.0042019174967401719 0 0.0011866428134936348 0.0042522495364209854 0 0.0013223306426316992 0.0043427359383798056 0 -0.0010827553177585681 0.0039955736992769086 0 -0.001071608072754829 0.0039417944642766729 0 -0.0010257818858363317 0.0039710985961102794 0 0.0013202140429871894 0.0042019174967401719 0 0.0013223306426316992 0.0043427359383798056 0 0.0014285662978294766 0.0042675036227543626 0 0.001434221247701958 0.0044267825408812961 0 0.0013223306426316992 0.0043427359383798056 0 0.0014285662978294766 0.0042675036227543626 0 0.00084229646154825066 0.0041498310595612098 0 0.0015207342303657349 0.0042897269103015865 0 0.0015531582707695839 0.0042630849560526991 0 0.0015257822681745482 0.0042875658464337826 0 0.0014942079357453579 0.0042157061186623027 0 0.0015531582707695839 0.0042630849560526991 0 0.0015936071798623565 0.0042528664898263419 0 0.0015644574676535476 0.0042143054353882946 0 0.0015531582707695839 0.0042630849560526991 0 0.0014942079357453579 0.0042157061186623027 0 0.0015644574676535476 0.0042143054353882946 0 0.0014942079357453579 0.0042157061186623027 0 0.0015720521816815129 0.0041397957316836815 0 0.0014368294743640571 0.0040777281611255687 0 0.0014942079357453579 0.0042157061186623027 0 0.0015644574676535476 0.0042143054353882946 0 0.0015720521816815129 0.0041397957316836815 0 0.0015207342303657349 0.0042897269103015865 0 0.0014264780678487686 0.0040621264830505632 0 0.0013202140429871894 0.0042019174967401719 0 0.0014285662978294766 0.0042675036227543626 0 0.0014368294743640571 0.0040777281611255687 0 0.0017213265204945509 0.0040271257478223695 0 0.0015720521816815129 0.0041397957316836815 0 0.0015562566372765486 0.0039966653770845059 0 0.0015720521816815129 0.0041397957316836815 0 0.0014368294743640571 0.0040777281611255687 0 0.0015562566372765486 0.0039966653770845059 0 0.0016282068948663998 0.0038614707491024134 0 0.0015562566372765486 0.0039966653770845059 0 0.0014340738369428409 0.0039096448261314283 0 0.0014368294743640571 0.0040777281611255687 0 0.0014340738369428409 0.0039096448261314283 0 0.0012671215981612739 0.0039581120785103377 0 0.0014368294743640571 0.0040777281611255687 0 0.0015562566372765486 0.0039966653770845059 0 0.0014340738369428409 0.0039096448261314283 0 0.0012671215981612739 0.0039581120785103377 0 0.0011455877829167642 0.003847727019072102 0 0.0013026687579536765 0.0038071860330018549 0 0.0014340738369428409 0.0039096448261314283 0 0.0012671215981612739 0.0039581120785103377 0 0.0013026687579536765 0.0038071860330018549 0 0.0014368294743640571 0.0040777281611255687 0 0.0012671215981612739 0.0039581120785103377 0 0.0012040844413365305 0.0041058056002707564 0 0.0012040844413365305 0.0041058056002707564 0 0.0010940294903318839 0.0039994104352055271 0 0.0010405053003972888 0.0041504049465834695 0 0.00045212461708172186 0.0040983768924837457 0 -0.00054026586216796165 0.0044106668839459223 0 0.0012671215981612739 0.0039581120785103377 0 0.0012040844413365305 0.0041058056002707564 0 0.0010940294903318839 0.0039994104352055271 0 0.00045212461708172186 0.0040983768924837457 0 0.00023507020028210748 0.0041572644979766121 0 -0.00028848529420484392 0.0043609097790281862 0 -0.00016670978664842261 0.0039752083004420506 0 -0.00061591539947891791 0.0041108746534746603 0 0.0012671215981612739 0.0039581120785103377 0 0.0010940294903318839 0.0039994104352055271 0 0.0011455877829167642 0.003847727019072102 0 0.00023507020028210748 0.0041572644979766121 0 0.0001551588944741402 0.0041944649336913007 0 -0.00088028713494468769 0.0047033001621858009 0 -0.00085615999189883596 0.0046218968086113007 0 -0.00095443085787199331 0.0046423298591971775 0 0.00023507020028210748 0.0041572644979766121 0 0.0014588937114283287 0.0037777381450766747 0 0.0011178796918539292 0.0039038844442040059 0 0.0012910681478461637 0.0038470664316702795 0 0.0011874928920089366 0.0037107197381917915 0 0.0011874928920089366 0.0037107197381917915 0 0.0013573970928709008 0.0036576598871239708 0 0.0012518252058482762 0.0035361308416191552 0 0.0012910681478461637 0.0038470664316702795 0 0.0011874928920089366 0.0037107197381917915 0 0.0013573970928709008 0.0036576598871239708 0 -0.00085615999189883596 0.0046218968086113007 0 -0.00090761375683672278 0.0045671186624587946 0 -0.00095443085787199331 0.0046423298591971775 0 0.0016282068948663998 0.0038614707491024134 0 0.0014340738369428409 0.0039096448261314283 0 0.0014516913477847955 0.0037814791733133337 0 0.0016282068948663998 0.0038614707491024134 0 0.0014516913477847955 0.0037814791733133337 0 0.0015899191873082338 0.003748194917949246 0 0.0014588937114283287 0.0037777381450766747 0 0.0013769357826254366 0.0038037536327522039 0 0.0014340738369428409 0.0039096448261314283 0 0.0013026687579536765 0.0038071860330018549 0 0.0014516913477847955 0.0037814791733133337 0 0.0012910681478461637 0.0038470664316702795 0 0.0014516913477847955 0.0037814791733133337 0 0.0013573970928709008 0.0036576598871239708 0 0.0014516913477847955 0.0037814791733133337 0 0.0013573970928709008 0.0036576598871239708 0 0.0015540868777813618 0.00362714301242348 0 0.0014516913477847955 0.0037814791733133337 0 0.0015899191873082338 0.003748194917949246 0 0.0015540868777813618 0.00362714301242348 0 0.0015540868777813618 0.00362714301242348 0 0.001407427815237693 0.0035159558022775264 0 0.0015584097462028217 0.0033932285581413368 0 0.0017212794438537804 0.0035635604909118792 0 0.0015540868777813618 0.00362714301242348 0 0.0015584097462028217 0.0033932285581413368 0 0.0013573970928709008 0.0036576598871239708 0 0.001407427815237693 0.0035159558022775264 0 0.0012518252058482762 0.0035361308416191552 0 0.0013573970928709008 0.0036576598871239708 0 0.0015540868777813618 0.00362714301242348 0 0.001407427815237693 0.0035159558022775264 0 0.0018454076162800032 0.0035346439118252911 0 0.0009021204609827258 0.0039700653496582451 0 0.001407427815237693 0.0035159558022775264 0 0.0015584097462028217 0.0033932285581413368 0 0.0013082522443097302 0.0033631493034313397 0 -0.00085615999189883596 0.0046218968086113007 0 -0.00090761375683672278 0.0045671186624587946 0 -0.000836065101547491 0.0045479273073572258 0 -0.00090761375683672278 0.0045671186624587946 0 -0.000836065101547491 0.0045479273073572258 0 -0.00084987580255961842 0.0045128968358620599 0 0.0001551588944741402 0.0041944649336913007 0 0.00016344033793564596 0.0040542244184413288 0 -0.000836065101547491 0.0045479273073572258 0 -0.00084987580255961842 0.0045128968358620599 0 -0.00083113749443526294 0.0044861404701027931 0 0.00016344033793564596 0.0040542244184413288 0 0.0009021204609827258 0.0039700653496582451 0 0.001407427815237693 0.0035159558022775264 0 0.0012518252058482762 0.0035361308416191552 0 0.0013082522443097302 0.0033631493034313397 0 -0.00084987580255961842 0.0045128968358620599 0 -0.00084870212520050448 0.0044949375078680342 0 -0.0008617723377808788 0.0044860426751563622 0 -0.00084987580255961842 0.0045128968358620599 0 -0.00083113749443526294 0.0044861404701027931 0 -0.00084870212520050448 0.0044949375078680342 0 -0.00090761375683672278 0.0045671186624587946 0 -0.00084987580255961842 0.0045128968358620599 0 -0.00089852334011930471 0.0045152928585390443 0 -0.00089852334011930471 0.0045152928585390443 0 -0.0008617723377808788 0.0044860426751563622 0 -0.00089586791391807702 0.0044806462750348877 0 -0.00084987580255961842 0.0045128968358620599 0 -0.00089852334011930471 0.0045152928585390443 0 -0.0008617723377808788 0.0044860426751563622 0 -0.0008617723377808788 0.0044860426751563622 0 -0.00086445230199008228 0.0044707005449100348 0 -0.00089586791391807702 0.0044806462750348877 0 -0.00086445230199008228 0.0044707005449100348 0 -0.00089586791391807702 0.0044806462750348877 0 -0.00087161025350633071 0.0044696006135000596 0 -0.0008617723377808788 0.0044860426751563622 0 -0.00085109845341764577 0.0044731140811786162 0 -0.00086445230199008228 0.0044707005449100348 0 -0.00083113749443526294 0.0044861404701027931 0 -0.00085109845341764577 0.0044731140811786162 0 -0.00084691492845942375 0.0044663500016428803 0 0.0009021204609827258 0.0039700653496582451 0 0.00039927774388802737 0.0041544241797624466 0 -0.00083113749443526294 0.0044861404701027931 0 -0.00084792488283893261 0.0044827752876913859 0 -0.00085109845341764577 0.0044731140811786162 0 -0.00083113749443526294 0.0044861404701027931 0 -0.00084870212520050448 0.0044949375078680342 0 -0.00084792488283893261 0.0044827752876913859 0 -0.0008617723377808788 0.0044860426751563622 0 -0.00084792488283893261 0.0044827752876913859 0 -0.00085109845341764577 0.0044731140811786162 0 -0.00084870212520050448 0.0044949375078680342 0 -0.0008617723377808788 0.0044860426751563622 0 -0.00084792488283893261 0.0044827752876913859 0 -0.00085109845341764577 0.0044731140811786162 0 -0.0008539131279722916 0.0044692660984934742 0 -0.00084691492845942375 0.0044663500016428803 0 -0.0008539131279722916 0.0044692660984934742 0 -0.00085939483096684653 0.0044721529267280147 0 -0.00084691492845942375 0.0044663500016428803 0 -0.0008539131279722916 0.0044692660984934742 0 -0.00085565566977640814 0.0044724564958333905 0 -0.00086445230199008228 0.0044707005449100348 0 -0.00085109845341764577 0.0044731140811786162 0 -0.0008539131279722916 0.0044692660984934742 0 -0.00086445230199008228 0.0044707005449100348 0 -0.0008539131279722916 0.0044692660984934742 0 -0.00085565566977640814 0.0044724564958333905 0 -0.00085871049446647639 0.0044768588085658126 0 -0.0008539131279722916 0.0044692660984934742 0 -0.00085871049446647639 0.0044768588085658126 0 -0.00085939483096684653 0.0044721529267280147 0 -0.00086445230199008228 0.0044707005449100348 0 -0.00085851477001598706 0.0044715890796843431 0 -0.00087161025350633071 0.0044696006135000596 0 -0.00085565566977640814 0.0044724564958333905 0 -0.00085851477001598706 0.0044715890796843431 0 -0.00085170178753523761 0.0044782518710245554 0 -0.00085565566977640814 0.0044724564958333905 0 -0.00086445230199008228 0.0044707005449100348 0 -0.00085851477001598706 0.0044715890796843431 0 -0.00085851477001598706 0.0044715890796843431 0 -0.00085325487795307093 0.0044747575304538417 0 -0.00087161025350633071 0.0044696006135000596 0 -0.00085851477001598706 0.0044715890796843431 0 -0.00085325487795307093 0.0044747575304538417 0 -0.00085170178753523761 0.0044782518710245554 0 -0.00085325487795307093 0.0044747575304538417 0 -0.00084386181782733071 0.0044850974855214897 0 -0.00085170178753523761 0.0044782518710245554 0 -0.00084386181782733071 0.0044850974855214897 0 -0.00084369235522971267 0.0044953969603638887 0 -0.00083250622033044573 0.0045037316011989365 0 -0.00084386181782733071 0.0044850974855214897 0 -0.00084369235522971267 0.0044953969603638887 0 -0.00085170178753523761 0.0044782518710245554 0 -0.00084369235522971267 0.0044953969603638887 0 -0.00085170178753523761 0.0044782518710245554 0 -0.00085373462064588688 0.0044844192709520194 0 -0.00084369235522971267 0.0044953969603638887 0 -0.00085373462064588688 0.0044844192709520194 0 -0.00085217884195367452 0.0045009652864258778 0 -0.00085565566977640814 0.0044724564958333905 0 -0.00085170178753523761 0.0044782518710245554 0 -0.00085373462064588688 0.0044844192709520194 0 -0.00085565566977640814 0.0044724564958333905 0 -0.00085373462064588688 0.0044844192709520194 0 -0.00085871049446647639 0.0044768588085658126 0 -0.00085373462064588688 0.0044844192709520194 0 -0.00085871049446647639 0.0044768588085658126 0 -0.0008603609604326631 0.0044912063444026585 0 -0.00085871049446647639 0.0044768588085658126 0 -0.0008603609604326631 0.0044912063444026585 0 -0.00086550062059618713 0.004483420636771469 0 -0.00085871049446647639 0.0044768588085658126 0 -0.00086550062059618713 0.004483420636771469 0 -0.00086343254871225404 0.0044767831200052174 0 -0.00085871049446647639 0.0044768588085658126 0 -0.00086343254871225404 0.0044767831200052174 0 -0.00085939483096684653 0.0044721529267280147 0 -0.0008603609604326631 0.0044912063444026585 0 -0.00087223768602425454 0.0045002577564165853 0 -0.00086550062059618713 0.004483420636771469 0 -0.0008603609604326631 0.0044912063444026585 0 -0.00086253553605474562 0.0045095569894429283 0 -0.00087223768602425454 0.0045002577564165853 0 -0.00085373462064588688 0.0044844192709520194 0 -0.0008603609604326631 0.0044912063444026585 0 -0.00085217884195367452 0.0045009652864258778 0 -0.0008603609604326631 0.0044912063444026585 0 -0.00085217884195367452 0.0045009652864258778 0 -0.00086253553605474562 0.0045095569894429283 0 -0.00085217884195367452 0.0045009652864258778 0 -0.00085304858042460044 0.0045194196468261866 0 -0.00084289701063621143 0.00451156358569139 0 -0.00085217884195367452 0.0045009652864258778 0 -0.00085304858042460044 0.0045194196468261866 0 -0.00086253553605474562 0.0045095569894429283 0 -0.00085304858042460044 0.0045194196468261866 0 -0.00084065388046041293 0.0045316987369208011 0 -0.00084289701063621143 0.00451156358569139 0 -0.00086253553605474562 0.0045095569894429283 0 -0.00087577403520126091 0.0045239166414659292 0 -0.00087223768602425454 0.0045002577564165853 0 -0.00085304858042460044 0.0045194196468261866 0 -0.00086253553605474562 0.0045095569894429283 0 -0.00086413877622173844 0.0045282872118811964 0 -0.00086253553605474562 0.0045095569894429283 0 -0.00086413877622173844 0.0045282872118811964 0 -0.00087577403520126091 0.0045239166414659292 0 -0.00086413877622173844 0.0045282872118811964 0 -0.00086942479217662447 0.0045460734619225431 0 -0.00087577403520126091 0.0045239166414659292 0 -0.00086413877622173844 0.0045282872118811964 0 -0.00086942479217662447 0.0045460734619225431 0 -0.00085637826547461384 0.0045493561770981357 0 -0.00086942479217662447 0.0045460734619225431 0 -0.00088338530728608318 0.0045462655589856996 0 -0.00087577403520126091 0.0045239166414659292 0 -0.00085304858042460044 0.0045194196468261866 0 -0.00085637826547461384 0.0045493561770981357 0 -0.00084065388046041293 0.0045316987369208011 0 -0.00085637826547461384 0.0045493561770981357 0 -0.00084065388046041293 0.0045316987369208011 0 -0.00083857036411685382 0.0045597943521568877 0 -0.00085304858042460044 0.0045194196468261866 0 -0.00086413877622173844 0.0045282872118811964 0 -0.00085637826547461384 0.0045493561770981357 0 -0.00084065388046041293 0.0045316987369208011 0 -0.00083009834653124893 0.004519946244182638 0 -0.00082415478591413792 0.004546801093069412 0 -0.00084065388046041293 0.0045316987369208011 0 -0.00083857036411685382 0.0045597943521568877 0 -0.00082415478591413792 0.004546801093069412 0 -0.00083250622033044573 0.0045037316011989365 0 -0.00083009834653124893 0.004519946244182638 0 -0.00080215491052479241 0.004557991002410929 0 -0.00083009834653124893 0.004519946244182638 0 -0.00082415478591413792 0.004546801093069412 0 -0.00080215491052479241 0.004557991002410929 0 -0.00084369235522971267 0.0044953969603638887 0 -0.00083250622033044573 0.0045037316011989365 0 -0.00083009834653124893 0.004519946244182638 0 -0.00084369235522971267 0.0044953969603638887 0 -0.00083009834653124893 0.004519946244182638 0 -0.00084289701063621143 0.00451156358569139 0 -0.00084065388046041293 0.0045316987369208011 0 -0.00083009834653124893 0.004519946244182638 0 -0.00084289701063621143 0.00451156358569139 0 -0.00084369235522971267 0.0044953969603638887 0 -0.00085217884195367452 0.0045009652864258778 0 -0.00084289701063621143 0.00451156358569139 0 0.0018799085582084847 0.0034708967728787972 0 0.0018533160302525392 0.0034624238796683599 0 0.0018702413117369148 0.0035144222020517739 0 0.0019054047159485993 0.0034752181836267262 0 0.0018702413117369148 0.0035144222020517739 0 0.0019384693387553054 0.0035113025545076312 0 0.0018799085582084847 0.0034708967728787972 0 0.0019054047159485993 0.0034752181836267262 0 0.0018702413117369148 0.0035144222020517739 0 0.0018799085582084847 0.0034708967728787972 0 0.0019054047159485993 0.0034752181836267262 0 0.0018897412978094133 0.0034378578314296221 0 0.0019054047159485993 0.0034752181836267262 0 0.0019239135760736913 0.0034382128235408605 0 0.0018897412978094133 0.0034378578314296221 0 0.0018799085582084847 0.0034708967728787972 0 0.0018533160302525392 0.0034624238796683599 0 0.0018897412978094133 0.0034378578314296221 0 -0.00089883681987795651 0.0045273145033116868 0 -0.00088338530728608318 0.0045462655589856996 0 -0.0008921585732743259 0.0045696594925965705 0 -0.00089883681987795651 0.0045273145033116868 0 -0.00088338530728608318 0.0045462655589856996 0 -0.00087577403520126091 0.0045239166414659292 0 -0.00089883681987795651 0.0045273145033116868 0 -0.00087577403520126091 0.0045239166414659292 0 -0.00087223768602425454 0.0045002577564165853 0 0.0017986171804332989 0.0037293077600065272 0 0.001728775089804553 0.0037132192714146471 0 0.0018020955093573262 0.0036270762636147896 0 0.00041646665738178778 0.0041735704549220806 0 0.00099440782894269606 0.0038981793523097793 0 0.001728775089804553 0.0037132192714146471 0 0.0018020955093573262 0.0036270762636147896 0 0.0017991706767656328 0.0036110929985149285 0 0.001728775089804553 0.0037132192714146471 0 0.0017991706767656328 0.0036110929985149285 0 0.0018126716799078348 0.0035763282331798445 0 -0.00089883681987795651 0.0045273145033116868 0 -0.00087223768602425454 0.0045002577564165853 0 -0.00087174533835135436 0.0044746323793427231 0 0.0017986171804332989 0.0037293077600065272 0 0.0018020955093573262 0.0036270762636147896 0 0.0018232110315696472 0.0035719786335375054 0 0.0018020955093573262 0.0036270762636147896 0 0.0017991706767656328 0.0036110929985149285 0 0.0017989937713740855 0.003591112726456618 0 -0.00087223768602425454 0.0045002577564165853 0 -0.00086550062059618713 0.004483420636771469 0 -0.00087174533835135436 0.0044746323793427231 0 -0.00086550062059618713 0.004483420636771469 0 -0.00087174533835135436 0.0044746323793427231 0 -0.00086343254871225404 0.0044767831200052174 0 0.00099440782894269606 0.0038981793523097793 0 0.0011353175895415803 0.003730640452116791 0 -0.00087174533835135436 0.0044746323793427231 0 -0.00086343254871225404 0.0044767831200052174 0 -0.00085939483096684653 0.0044721529267280147 0 0.0017989937713740855 0.003591112726456618 0 0.0018126716799078348 0.0035763282331798445 0 0.0017865962164890707 0.0035939899652970416 0 0.0017991706767656328 0.0036110929985149285 0 0.0017989937713740855 0.003591112726456618 0 0.0018126716799078348 0.0035763282331798445 0 0.0014291399922460944 0.0035303146042053235 0 0.00099440782894269606 0.0038981793523097793 0 0.0018533160302525392 0.0034624238796683599 0 0.0018126716799078348 0.0035763282331798445 0 0.0018702413117369148 0.0035144222020517739 0 0.0017924650428824754 0.003619692689571543 0 0.0018072882331082807 0.0035753665988915435 0 0.0018126716799078348 0.0035763282331798445 0 0.0018702413117369148 0.0035144222020517739 0 0.0019027230581455115 0.0035704147139910499 0 0.0018702413117369148 0.0035144222020517739 0 0.0019027230581455115 0.0035704147139910499 0 0.0019384693387553054 0.0035113025545076312 0 0.0019027230581455115 0.0035704147139910499 0 0.0018569837091944323 0.0036167821868331291 0 0.0019286075480136511 0.0036479817931877011 0 0.0018569837091944323 0.0036167821868331291 0 0.0018347608739229283 0.0036675131733811205 0 0.0019286075480136511 0.0036479817931877011 0 0.0018126716799078348 0.0035763282331798445 0 0.0018569837091944323 0.0036167821868331291 0 0.0018078919988415969 0.0036178128047541741 0 0.0018126716799078348 0.0035763282331798445 0 0.0019027230581455115 0.0035704147139910499 0 0.0018569837091944323 0.0036167821868331291 0 0.0018569837091944323 0.0036167821868331291 0 0.0018078919988415969 0.0036178128047541741 0 0.0018347608739229283 0.0036675131733811205 0 0.0017912191447916218 0.0035736801331772146 0 0.0017865962164890707 0.0035939899652970416 0 0.0017449077907794436 0.0036567173453199223 0 -0.00087174533835135436 0.0044746323793427231 0 -0.00085939483096684653 0.0044721529267280147 0 -0.00084691492845942375 0.0044663500016428803 0 0.00099440782894269606 0.0038981793523097793 0 0.00039927774388802737 0.0041544241797624466 0 0.0018078919988415969 0.0036178128047541741 0 0.0017449077907794436 0.0036567173453199223 0 0.0018347608739229283 0.0036675131733811205 0 0.0017865962164890707 0.0035939899652970416 0 0.0018078919988415969 0.0036178128047541741 0 0.0017449077907794436 0.0036567173453199223 0 0.0018126716799078348 0.0035763282331798445 0 0.0017865962164890707 0.0035939899652970416 0 0.0018078919988415969 0.0036178128047541741 0 0.0018732563919919498 0.0037680205585998105 0 0.0017052864738632649 0.0037597278284131831 0 0.0017897346997266805 0.0037125431295625096 0 0.0017449077907794436 0.0036567173453199223 0 0.0017897346997266805 0.0037125431295625096 0 0.0018347608739229283 0.0036675131733811205 0 0.0017052864738632649 0.0037597278284131831 0 0.0017449077907794436 0.0036567173453199223 0 0.0017897346997266805 0.0037125431295625096 0 0.0018732563919919498 0.0037680205585998105 0 0.0017897346997266805 0.0037125431295625096 0 0.0018347608739229283 0.0036675131733811205 0 0.0018732563919919498 0.0037680205585998105 0 0.0018347608739229283 0.0036675131733811205 0 0.0019286075480136511 0.0036479817931877011 0 0.0020366353969071436 0.0037633232127786435 0 0.0018732563919919498 0.0037680205585998105 0 0.0019286075480136511 0.0036479817931877011 0 0.0020366353969071436 0.0037633232127786435 0 0.0020354592899518489 0.0036340425456470858 0 0.0019286075480136511 0.0036479817931877011 0 0.0020366353969071436 0.0037633232127786435 0 0.0020354592899518489 0.0036340425456470858 0 0.0021309339666379908 0.0036762521437087217 0 0.0020354592899518489 0.0036340425456470858 0 0.0021097373645344005 0.0036044210640894018 0 0.0020349121993765529 0.0035559209964590725 0 0.0020354592899518489 0.0036340425456470858 0 0.0019722582076580732 0.0035718290077807911 0 0.0020349121993765529 0.0035559209964590725 0 0.0020354592899518489 0.0036340425456470858 0 0.0019286075480136511 0.0036479817931877011 0 0.0019722582076580732 0.0035718290077807911 0 0.0019027230581455115 0.0035704147139910499 0 0.0019286075480136511 0.0036479817931877011 0 0.0019722582076580732 0.0035718290077807911 0 0.0022032308938032589 0.003672560019028073 0 0.0021309339666379908 0.0036762521437087217 0 0.0021952465739736057 0.0036328927675460991 0 0.0022286577316967672 0.0036585664306516444 0 0.0022032308938032589 0.003672560019028073 0 0.0021952465739736057 0.0036328927675460991 0 0.0022286577316967672 0.0036585664306516444 0 0.0022032308938032589 0.003672560019028073 0 0.0022310268588541784 0.00366452178191832 0 0.0022032308938032589 0.003672560019028073 0 0.0022220491928795017 0.0036624235480053982 0 0.0022310268588541784 0.00366452178191832 0 0.0021874263913211857 0.003722361994440709 0 0.0022032308938032589 0.003672560019028073 0 0.0021309339666379908 0.0036762521437087217 0 0.0021097373645344005 0.0036044210640894018 0 0.0021952465739736057 0.0036328927675460991 0 0.0021696004877638274 0.0035668966339325505 0 0.0020354592899518489 0.0036340425456470858 0 0.0021309339666379908 0.0036762521437087217 0 0.0021097373645344005 0.0036044210640894018 0 0.0021309339666379908 0.0036762521437087217 0 0.0021097373645344005 0.0036044210640894018 0 0.0021952465739736057 0.0036328927675460991 0 0.0021952465739736057 0.0036328927675460991 0 0.00225011461808396 0.0035663288748482434 0 0.0021696004877638274 0.0035668966339325505 0 0.0021952465739736057 0.0036328927675460991 0 0.00225011461808396 0.0035663288748482434 0 0.0022501360162696356 0.0036423199120499236 0 0.0022286577316967672 0.0036585664306516444 0 0.0021952465739736057 0.0036328927675460991 0 0.0022501360162696356 0.0036423199120499236 0 0.00225011461808396 0.0035663288748482434 0 0.0021830339312518812 0.003496659193953984 0 0.0022502859129367491 0.0034414969325854087 0 0.00225011461808396 0.0035663288748482434 0 0.0021696004877638274 0.0035668966339325505 0 0.0021830339312518812 0.003496659193953984 0 0.0021097373645344005 0.0036044210640894018 0 0.0021696004877638274 0.0035668966339325505 0 0.0021091950211769911 0.0035216796871392992 0 0.0021097373645344005 0.0036044210640894018 0 0.0021091950211769911 0.0035216796871392992 0 0.0020349121993765529 0.0035559209964590725 0 0.0021696004877638274 0.0035668966339325505 0 0.0021830339312518812 0.003496659193953984 0 0.0021091950211769911 0.0035216796871392992 0 0.0021830339312518812 0.003496659193953984 0 0.0021091950211769911 0.0035216796871392992 0 0.0021225771064186448 0.0034134590546079637 0 0.0021091950211769911 0.0035216796871392992 0 0.0020404002565279035 0.0034850985924954518 0 0.0021225771064186448 0.0034134590546079637 0 0.0021830339312518812 0.003496659193953984 0 0.0022502859129367491 0.0034414969325854087 0 0.0021225771064186448 0.0034134590546079637 0 0.0022502859129367491 0.0034414969325854087 0 0.0021225771064186448 0.0034134590546079637 0 0.0023105436590968522 0.0033406224207197088 0 0.0019926193279420426 0.0035165032754143248 0 0.0019384693387553054 0.0035113025545076312 0 0.0019722582076580732 0.0035718290077807911 0 0.0019027230581455115 0.0035704147139910499 0 0.0019384693387553054 0.0035113025545076312 0 0.0019722582076580732 0.0035718290077807911 0 0.0019926193279420426 0.0035165032754143248 0 0.0019722582076580732 0.0035718290077807911 0 0.0020349121993765529 0.0035559209964590725 0 0.0021091950211769911 0.0035216796871392992 0 0.0020349121993765529 0.0035559209964590725 0 0.0020404002565279035 0.0034850985924954518 0 0.0019926193279420426 0.0035165032754143248 0 0.0020349121993765529 0.0035559209964590725 0 0.0020404002565279035 0.0034850985924954518 0 0.0020404002565279035 0.0034850985924954518 0 0.0020258026079075456 0.0034253290021929199 0 0.0021225771064186448 0.0034134590546079637 0 0.0019926193279420426 0.0035165032754143248 0 0.0020404002565279035 0.0034850985924954518 0 0.0019856793298497011 0.0034670139497422537 0 0.0020404002565279035 0.0034850985924954518 0 0.0019856793298497011 0.0034670139497422537 0 0.0020258026079075456 0.0034253290021929199 0 0.0019856793298497011 0.0034670139497422537 0 0.0019679005536318486 0.0034199116421594331 0 0.0020258026079075456 0.0034253290021929199 0 0.0019856793298497011 0.0034670139497422537 0 0.0019441274035337977 0.0034637633486893772 0 0.0019679005536318486 0.0034199116421594331 0 0.0019926193279420426 0.0035165032754143248 0 0.0019384693387553054 0.0035113025545076312 0 0.0019856793298497011 0.0034670139497422537 0 0.0019384693387553054 0.0035113025545076312 0 0.0019856793298497011 0.0034670139497422537 0 0.0019441274035337977 0.0034637633486893772 0 0.0019054047159485993 0.0034752181836267262 0 0.0019384693387553054 0.0035113025545076312 0 0.0019441274035337977 0.0034637633486893772 0 0.0019054047159485993 0.0034752181836267262 0 0.0019239135760736913 0.0034382128235408605 0 0.0019441274035337977 0.0034637633486893772 0 0.0019239135760736913 0.0034382128235408605 0 0.0019441274035337977 0.0034637633486893772 0 0.0019679005536318486 0.0034199116421594331 0 0.0019679005536318486 0.0034199116421594331 0 0.0020288434485169881 0.0033707710206760766 0 0.0019631038810080793 0.0033801192654664765 0 0.0019239135760736913 0.0034382128235408605 0 0.0019297318211777697 0.0034084305950245058 0 0.0019679005536318486 0.0034199116421594331 0 0.0019297318211777697 0.0034084305950245058 0 0.0019631038810080793 0.0033801192654664765 0 0.0019192299688636164 0.0033881689957974029 0 0.0019297318211777697 0.0034084305950245058 0 0.0019679005536318486 0.0034199116421594331 0 0.0019631038810080793 0.0033801192654664765 0 0.0020258026079075456 0.0034253290021929199 0 0.0020288434485169881 0.0033707710206760766 0 0.0021225771064186448 0.0034134590546079637 0 0.0019679005536318486 0.0034199116421594331 0 0.0020258026079075456 0.0034253290021929199 0 0.0020288434485169881 0.0033707710206760766 0 0.0020927915192032989 0.0033399079565087915 0 0.0019939029723718567 0.0033530396145375098 0 0.0020288434485169881 0.0033707710206760766 0 0.0019916483015311954 0.0033673276629944998 0 0.0019829567904379448 0.0033591723527346641 0 0.0020288434485169881 0.0033707710206760766 0 0.0019916483015311954 0.0033673276629944998 0 0.0019631038810080793 0.0033801192654664765 0 0.0020288434485169881 0.0033707710206760766 0 0.0021200512021481454 0.0033291116402148213 0 0.0019829567904379448 0.0033591723527346641 0 0.0019916483015311954 0.0033673276629944998 0 0.0019764552124228976 0.0033620455536715597 0 0.0019829567904379448 0.0033591723527346641 0 0.0019764552124228976 0.0033620455536715597 0 0.0019704492007128079 0.0033666581637119934 0 0.0019491259324306437 0.0033617131990146044 0 0.0019916483015311954 0.0033673276629944998 0 0.0019764552124228976 0.0033620455536715597 0 0.0019704492007128079 0.0033666581637119934 0 0.0019764552124228976 0.0033620455536715597 0 0.0019491259324306437 0.0033617131990146044 0 0.0019255404012238206 0.0033391220286518798 0 0.0019631038810080793 0.0033801192654664765 0 0.0019192299688636164 0.0033881689957974029 0 0.0019200943570898993 0.003367186594369239 0 0.0019491259324306437 0.0033617131990146044 0 0.0019631038810080793 0.0033801192654664765 0 0.0019200943570898993 0.003367186594369239 0 0.0019916483015311954 0.0033673276629944998 0 0.0019704492007128079 0.0033666581637119934 0 0.0019631038810080793 0.0033801192654664765 0 0.0019704492007128079 0.0033666581637119934 0 0.0019491259324306437 0.0033617131990146044 0 0.0019631038810080793 0.0033801192654664765 0 0.0021225771064186448 0.0034134590546079637 0 0.0021200512021481454 0.0033291116402148213 0 0.0023105436590968522 0.0033406224207197088 0 0.0020685210473446779 0.0033496686902126874 0 0.0021920877275551733 0.0033207940209507591 0 0.0021650919907610471 0.0032969844574002038 0 0.0020927915192032989 0.0033399079565087915 0 0.0022601280930691094 0.0033309839000279003 0 0.0020288434485169881 0.0033707710206760766 0 0.0021225771064186448 0.0034134590546079637 0 0.0021200512021481454 0.0033291116402148213 0 0.0020685210473446779 0.0033496686902126874 0 0.0020296288886392281 0.0033459896685141635 0 0.0019829567904379448 0.0033591723527346641 0 0.0020685210473446779 0.0033496686902126874 0 0.002078337833032367 0.0033243395962949751 0 0.0020296288886392281 0.0033459896685141635 0 0.0020685210473446779 0.0033496686902126874 0 0.0021225027897623515 0.0033140902844449828 0 0.002078337833032367 0.0033243395962949751 0 0.0020685210473446779 0.0033496686902126874 0 0.0021225027897623515 0.0033140902844449828 0 0.0021650919907610471 0.0032969844574002038 0 0.002078337833032367 0.0033243395962949751 0 0.0020370820563631567 0.0033364129356091093 0 0.0021254305744706063 0.0032846342986953369 0 0.002078337833032367 0.0033243395962949751 0 0.0021456432524702587 0.0033007915228296359 0 0.0021254305744706063 0.0032846342986953369 0 0.0021225027897623515 0.0033140902844449828 0 0.002078337833032367 0.0033243395962949751 0 0.0021456432524702587 0.0033007915228296359 0 0.002078337833032367 0.0033243395962949751 0 0.0020296288886392281 0.0033459896685141635 0 0.0020370820563631567 0.0033364129356091093 0 0.0020296288886392281 0.0033459896685141635 0 0.0020370820563631567 0.0033364129356091093 0 0.0020000482118745088 0.0033633445124532963 0 0.0020370820563631567 0.0033364129356091093 0 0.0020113161318001237 0.003364535812393832 0 0.0020176612617818566 0.0033715573040834805 0 0.0020370820563631567 0.0033364129356091093 0 0.0020113161318001237 0.003364535812393832 0 0.0020000482118745088 0.0033633445124532963 0 0.0020370820563631567 0.0033364129356091093 0 0.0020170476636768853 0.003354383998335451 0 0.0020176612617818566 0.0033715573040834805 0 0.0020170476636768853 0.003354383998335451 0 0.002017033714969882 0.003366908238620377 0 0.0020176612617818566 0.0033715573040834805 0 0.0020786501227897615 0.0033318468106271139 0 0.0019790986815705599 0.0033195094550145204 0 0.0019580254025492907 0.0033836120130682377 0 0.0019707939720650354 0.0033732673691021062 0 0.0019785808757024508 0.0033721141064387344 0 0.0019580254025492907 0.0033836120130682377 0 0.0019785808757024508 0.0033721141064387344 0 0.0019577644079616869 0.003388595812861623 0 0.0019580254025492907 0.0033836120130682377 0 0.0019453489688190874 0.0033903662935593588 0 0.0019484203650916377 0.0033947845035992704 0 0.0019580254025492907 0.0033836120130682377 0 0.0019390596370755149 0.003396519455284451 0 0.0019453489688190874 0.0033903662935593588 0 0.0019580254025492907 0.0033836120130682377 0 0.0019707939720650354 0.0033732673691021062 0 0.0019484203650916377 0.0033947845035992704 0 0.0019572876667895223 0.0033663828128660624 0 0.0019537051551207487 0.0034120709218593802 0 0.0019764552124228976 0.0033620455536715597 0 0.0019707939720650354 0.0033732673691021062 0 0.0019484203650916377 0.0033947845035992704 0 0.0019707939720650354 0.0033732673691021062 0 0.0019829567904379448 0.0033591723527346641 0 0.0019803213929822983 0.0033671252984205213 0 0.0019764552124228976 0.0033620455536715597 0 0.0019707939720650354 0.0033732673691021062 0 0.0019829567904379448 0.0033591723527346641 0 0.0020296288886392281 0.0033459896685141635 0 0.0019829567904379448 0.0033591723527346641 0 0.0019936323273101421 0.0033616946504465397 0 0.0019829567904379448 0.0033591723527346641 0 0.0019803213929822983 0.0033671252984205213 0 0.0019936323273101421 0.0033616946504465397 0 0.0020296288886392281 0.0033459896685141635 0 0.0019936323273101421 0.0033616946504465397 0 0.0020000482118745088 0.0033633445124532963 0 0.0019936323273101421 0.0033616946504465397 0 0.0019785808757024508 0.0033721141064387344 0 0.0020000482118745088 0.0033633445124532963 0 0.0019707939720650354 0.0033732673691021062 0 0.0019803213929822983 0.0033671252984205213 0 0.0019785808757024508 0.0033721141064387344 0 0.0019803213929822983 0.0033671252984205213 0 0.0019936323273101421 0.0033616946504465397 0 0.0019785808757024508 0.0033721141064387344 0 0.0019785808757024508 0.0033721141064387344 0 0.001969887178655187 0.0033858706470547232 0 0.0020000482118745088 0.0033633445124532963 0 0.0020113161318001237 0.003364535812393832 0 0.0020000482118745088 0.0033633445124532963 0 0.0019732151534517187 0.0033955430967886517 0 0.001969887178655187 0.0033858706470547232 0 0.001943444295871694 0.0034064903187456161 0 0.0019732151534517187 0.0033955430967886517 0 0.001969887178655187 0.0033858706470547232 0 0.0020000482118745088 0.0033633445124532963 0 0.0019732151534517187 0.0033955430967886517 0 0.0019785808757024508 0.0033721141064387344 0 0.001969887178655187 0.0033858706470547232 0 0.0019577644079616869 0.003388595812861623 0 0.001969887178655187 0.0033858706470547232 0 0.001943444295871694 0.0034064903187456161 0 0.0019577644079616869 0.003388595812861623 0 0.001943444295871694 0.0034064903187456161 0 0.0019577644079616869 0.003388595812861623 0 0.0019390596370755149 0.003396519455284451 0 0.0019580254025492907 0.0033836120130682377 0 0.0019577644079616869 0.003388595812861623 0 0.0019390596370755149 0.003396519455284451 0 0.001943444295871694 0.0034064903187456161 0 0.0019180294989564995 0.003419848658206822 0 0.0019277966168385569 0.0034365233543605747 0 0.001943444295871694 0.0034064903187456161 0 0.0019390596370755149 0.003396519455284451 0 0.0019180294989564995 0.003419848658206822 0 0.0019358857536226201 0.0033926928479413687 0 0.001929556253508865 0.0034025603701082607 0 0.0019629690694857164 0.0033761715151164875 0 0.0019180294989564995 0.003419848658206822 0 0.0019358857536226201 0.0033926928479413687 0 0.0019036092053852994 0.0034258767860101324 0 0.0019358857536226201 0.0033926928479413687 0 0.0019629690694857164 0.0033761715151164875 0 0.0019036092053852994 0.0034258767860101324 0 0.0019390596370755149 0.003396519455284451 0 0.0019180294989564995 0.003419848658206822 0 0.0019358857536226201 0.0033926928479413687 0 0.0019390596370755149 0.003396519455284451 0 0.0019358857536226201 0.0033926928479413687 0 0.0019453489688190874 0.0033903662935593588 0 0.0019453489688190874 0.0033903662935593588 0 0.0019399841853818078 0.0033948699537626561 0 0.0019484203650916377 0.0033947845035992704 0 0.0019358857536226201 0.0033926928479413687 0 0.0019453489688190874 0.0033903662935593588 0 0.0019399841853818078 0.0033948699537626561 0 0.0019358857536226201 0.0033926928479413687 0 0.0019399841853818078 0.0033948699537626561 0 0.001929556253508865 0.0034025603701082607 0 0.0019255404012238206 0.0033391220286518798 0 0.0018759207907951998 0.0033361689981883783 0 0.0018938739600929961 0.0033635299315301235 0 0.0019537051551207487 0.0034120709218593802 0 0.0015228356737258103 0.0043659004467606422 0 0.0019399841853818078 0.0033948699537626561 0 0.0019484203650916377 0.0033947845035992704 0 0.001929556253508865 0.0034025603701082607 0 0.00086985990566876888 0.0049006011359736161 0 0.0014054874985029607 0.0062114530865408626 0 -0.00088250531182193428 0.0046965523659625464 0 -0.00090197886783771196 0.0047104038129134277 0 -0.00084571828965950393 0.0047018073534076518 0 0.0014298604041573309 0.0062204334858960804 0 0.0011609097325756506 0.005908207729719458 0 0.0014578641513862303 0.0057757486145492013 0 0.0014775758090311744 0.0061129763019084097 0 0.0014088476864186391 0.0060968418128024247 0 0.0014578641513862303 0.0057757486145492013 0 -0.00088250531182193428 0.0046965523659625464 0 -0.00090197886783771196 0.0047104038129134277 0 -0.00089440826506366651 0.0046715348688417101 0 -0.00088250531182193428 0.0046965523659625464 0 -0.00086561931428836766 0.0046937345110040253 0 -0.00087374602759604839 0.0046742091419617032 0 0.0015228356737258103 0.0043659004467606422 0 0.00086985990566876888 0.0049006011359736161 0 0.0014298604041573309 0.0062204334858960804 0 0.0011609097325756506 0.005908207729719458 0 0.0010383268972874377 0.0059946785501247329 0 0.0011609097325756506 0.005908207729719458 0 0.0014578641513862303 0.0057757486145492013 0 0.0011743880443753417 0.0057033519828570012 0 0.0015228356737258103 0.0043659004467606422 0 0.0017629751074822756 0.004546981869750024 0 0.0014775758090311744 0.0061129763019084097 0 0.0014578641513862303 0.0057757486145492013 0 0.00153317518404835 0.0055291906385668268 0 0.0014578641513862303 0.0057757486145492013 0 0.001354512078949287 0.005616908357897449 0 0.00153317518404835 0.0055291906385668268 0 0.001354512078949287 0.005616908357897449 0 0.0011743880443753417 0.0057033519828570012 0 0.0012376060188469097 0.0054466495623815767 0 0.0014578641513862303 0.0057757486145492013 0 0.001354512078949287 0.005616908357897449 0 0.0011743880443753417 0.0057033519828570012 0 0.0011743880443753417 0.0057033519828570012 0 0.00087015845065263055 0.005791249902891888 0 0.00095255312498476502 0.0055488108251983085 0 0.00087015845065263055 0.005791249902891888 0 0.00064942743327696395 0.0055085573344728642 0 0.00095255312498476502 0.0055488108251983085 0 0.00087015845065263055 0.005791249902891888 0 0.00069388447478047554 0.0060641292504744447 0 0.0010383268972874377 0.0059946785501247329 0 0.0011609097325756506 0.005908207729719458 0 0.0011743880443753417 0.0057033519828570012 0 0.00087015845065263055 0.005791249902891888 0 0.0011609097325756506 0.005908207729719458 0 0.00087015845065263055 0.005791249902891888 0 0.0010383268972874377 0.0059946785501247329 0 0.00049890475727555194 0.0057652188537602993 0 0.00069388447478047554 0.0060641292504744447 0 3.8954486066135116e-05 0.0058547233390546924 0 0.00049890475727555194 0.0057652188537602993 0 0.00064942743327696395 0.0055085573344728642 0 0.00028564311069258994 0.0055904193144961003 0 0.00087015845065263055 0.005791249902891888 0 0.00049890475727555194 0.0057652188537602993 0 0.00064942743327696395 0.0055085573344728642 0 0.00087015845065263055 0.005791249902891888 0 0.00049890475727555194 0.0057652188537602993 0 0.00069388447478047554 0.0060641292504744447 0 -0.00018077223504349297 0.005450370910446008 0 -0.0004409220350460532 0.0052658124607861704 0 -0.0008064869287275155 0.0047163631561615744 0 -0.00084156015871663509 0.0047393943458682031 0 -0.00098543115036219616 0.004683121047923058 0 -0.00084156015871663509 0.0047393943458682031 0 -0.00082604164426170552 0.0047093204605793684 0 -0.00082818178113356657 0.0046882102993927449 0 -0.0008064869287275155 0.0047163631561615744 0 -0.00084156015871663509 0.0047393943458682031 0 -0.00082604164426170552 0.0047093204605793684 0 0.0014298604041573309 0.0062204334858960804 0 0.00069388447478047554 0.0060641292504744447 0 0.0010383268972874377 0.0059946785501247329 0 -0.00090197886783771196 0.0047104038129134277 0 -0.0008064869287275155 0.0047163631561615744 0 -0.00084571828965950393 0.0047018073534076518 0 0.00086985990566876888 0.0049006011359736161 0 -0.00018077223504349297 0.005450370910446008 0 -0.00082604164426170552 0.0047093204605793684 0 -0.00084571828965950393 0.0047018073534076518 0 -0.00084082443226185446 0.0046883348704577065 0 -0.0008064869287275155 0.0047163631561615744 0 -0.00082604164426170552 0.0047093204605793684 0 -0.00084571828965950393 0.0047018073534076518 0 -0.00088250531182193428 0.0046965523659625464 0 -0.00084571828965950393 0.0047018073534076518 0 -0.00086561931428836766 0.0046937345110040253 0 -0.00084571828965950393 0.0047018073534076518 0 -0.00085582665089717759 0.0046856216757740488 0 -0.00084082443226185446 0.0046883348704577065 0 -0.00084571828965950393 0.0047018073534076518 0 -0.00086561931428836766 0.0046937345110040253 0 -0.00085582665089717759 0.0046856216757740488 0 -0.00085683823095238911 0.0046673510838236912 0 -0.00085582665089717759 0.0046856216757740488 0 -0.00087374602759604839 0.0046742091419617032 0 -0.00086561931428836766 0.0046937345110040253 0 -0.00085582665089717759 0.0046856216757740488 0 -0.00087374602759604839 0.0046742091419617032 0 -0.00085683823095238911 0.0046673510838236912 0 -0.00087421425138004699 0.0046473149764836028 0 -0.00087374602759604839 0.0046742091419617032 0 -0.00085683823095238911 0.0046673510838236912 0 -0.00085582665089717759 0.0046856216757740488 0 -0.00084082443226185446 0.0046883348704577065 0 -0.00082604164426170552 0.0047093204605793684 0 -0.00084082443226185446 0.0046883348704577065 0 -0.00082818178113356657 0.0046882102993927449 0 -0.00084082443226185446 0.0046883348704577065 0 -0.00084070097263599735 0.0046586989738673507 0 -0.00082818178113356657 0.0046882102993927449 0 -0.00085683823095238911 0.0046673510838236912 0 -0.00084082443226185446 0.0046883348704577065 0 -0.00084070097263599735 0.0046586989738673507 0 -0.00085683823095238911 0.0046673510838236912 0 -0.00084070097263599735 0.0046586989738673507 0 -0.00085658337008576017 0.0046383314657707734 0 -0.00084070097263599735 0.0046586989738673507 0 -0.00085658337008576017 0.0046383314657707734 0 -0.00083880445258012872 0.0046206336507533946 0 -0.00085658337008576017 0.0046383314657707734 0 -0.00085976990151072797 0.0046055446061460193 0 -0.00083880445258012872 0.0046206336507533946 0 -0.00085658337008576017 0.0046383314657707734 0 -0.00087382588203758604 0.004621306870727343 0 -0.00085976990151072797 0.0046055446061460193 0 -0.00085658337008576017 0.0046383314657707734 0 -0.00087382588203758604 0.004621306870727343 0 -0.00087421425138004699 0.0046473149764836028 0 -0.00085683823095238911 0.0046673510838236912 0 -0.00085658337008576017 0.0046383314657707734 0 -0.00087421425138004699 0.0046473149764836028 0 -0.00084156015871663509 0.0047393943458682031 0 -0.00087043275550999319 0.0048924113920271331 0 -0.00094917243829173025 0.0048075814246334603 0 -0.00084156015871663509 0.0047393943458682031 0 -0.00082818178113356657 0.0046882102993927449 0 -0.00078192131454702632 0.0046542487827118308 0 -0.00083250900636309163 0.0047344612341112024 0 -0.00083787489419779085 0.0047933139618929034 0 -0.00084070097263599735 0.0046586989738673507 0 -0.00082818178113356657 0.0046882102993927449 0 -0.00082148204342253944 0.0046450979996286064 0 -0.00082148204342253944 0.0046450979996286064 0 -0.00081139093111939735 0.0046080206676792392 0 -0.00083880445258012872 0.0046206336507533946 0 -0.00082818178113356657 0.0046882102993927449 0 -0.00082148204342253944 0.0046450979996286064 0 -0.00078192131454702632 0.0046542487827118308 0 -0.00084070097263599735 0.0046586989738673507 0 -0.00082148204342253944 0.0046450979996286064 0 -0.00083880445258012872 0.0046206336507533946 0 -0.00082148204342253944 0.0046450979996286064 0 -0.00078192131454702632 0.0046542487827118308 0 -0.00081139093111939735 0.0046080206676792392 0 -0.00083787489419779085 0.0047933139618929034 0 -0.00093406497924012569 0.0046227589913086699 0 -0.00078192131454702632 0.0046542487827118308 0 -0.00081139093111939735 0.0046080206676792392 0 -0.00076451411288821071 0.004566708744588319 0 -0.00081139093111939735 0.0046080206676792392 0 -0.0008161862633097567 0.004566788460083961 0 -0.00076451411288821071 0.004566708744588319 0 -0.00081139093111939735 0.0046080206676792392 0 -0.00083100567803821163 0.0045874621045458776 0 -0.00083880445258012872 0.0046206336507533946 0 -0.00081139093111939735 0.0046080206676792392 0 -0.00083100567803821163 0.0045874621045458776 0 -0.0008161862633097567 0.004566788460083961 0 -0.00083100567803821163 0.0045874621045458776 0 -0.00083857036411685382 0.0045597943521568877 0 -0.0008161862633097567 0.004566788460083961 0 -0.00083857036411685382 0.0045597943521568877 0 -0.00082415478591413792 0.004546801093069412 0 -0.0008161862633097567 0.004566788460083961 0 -0.00080369425314548361 0.0045906005692484472 0 -0.00093406497924012569 0.0046227589913086699 0 -0.00082415478591413792 0.004546801093069412 0 -0.0008161862633097567 0.004566788460083961 0 -0.00080215491052479241 0.004557991002410929 0 -0.00087548018694568375 0.0045952303715337236 0 -0.00085976990151072797 0.0046055446061460193 0 -0.00086493097613063029 0.0045741113770208222 0 -0.00087382588203758604 0.004621306870727343 0 -0.00087548018694568375 0.0045952303715337236 0 -0.00085976990151072797 0.0046055446061460193 0 -0.00087382588203758604 0.004621306870727343 0 -0.00087548018694568375 0.0045952303715337236 0 -0.00088654979963835459 0.0046104252288935504 0 -0.00083100567803821163 0.0045874621045458776 0 -0.00083880445258012872 0.0046206336507533946 0 -0.00084869237322534609 0.0045815946449222896 0 -0.00085976990151072797 0.0046055446061460193 0 -0.00083880445258012872 0.0046206336507533946 0 -0.00084869237322534609 0.0045815946449222896 0 -0.00085976990151072797 0.0046055446061460193 0 -0.00084869237322534609 0.0045815946449222896 0 -0.00086493097613063029 0.0045741113770208222 0 -0.00085637826547461384 0.0045493561770981357 0 -0.00084869237322534609 0.0045815946449222896 0 -0.00086493097613063029 0.0045741113770208222 0 -0.00085637826547461384 0.0045493561770981357 0 -0.00083857036411685382 0.0045597943521568877 0 -0.00084869237322534609 0.0045815946449222896 0 -0.00083100567803821163 0.0045874621045458776 0 -0.00083857036411685382 0.0045597943521568877 0 -0.00084869237322534609 0.0045815946449222896 0 -0.00086942479217662447 0.0045460734619225431 0 -0.00085637826547461384 0.0045493561770981357 0 -0.00086493097613063029 0.0045741113770208222 0 -0.00087548018694568375 0.0045952303715337236 0 -0.00086493097613063029 0.0045741113770208222 0 -0.00087908143713357097 0.0045694456621739104 0 -0.00086942479217662447 0.0045460734619225431 0 -0.00086493097613063029 0.0045741113770208222 0 -0.00087908143713357097 0.0045694456621739104 0 -0.00086942479217662447 0.0045460734619225431 0 -0.00088338530728608318 0.0045462655589856996 0 -0.00087908143713357097 0.0045694456621739104 0 0.0017986171804332989 0.0037293077600065272 0 0.0016934674069047464 0.0039929291360920431 0 0.0017647463232803198 0.0040086214513465968 0 0.0017924650428824754 0.003619692689571543 0 0.001799996267957958 0.0035884794068688306 0 0.0017986171804332989 0.0037293077600065272 0 0.001728775089804553 0.0037132192714146471 0 0.0016934674069047464 0.0039929291360920431 0 -0.00088338530728608318 0.0045462655589856996 0 -0.0008921585732743259 0.0045696594925965705 0 -0.00087908143713357097 0.0045694456621739104 0 0.00041646665738178778 0.0041735704549220806 0 0.00040303285049359628 0.0042330319904370587 0 -0.00089883681987795651 0.0045273145033116868 0 -0.0008921585732743259 0.0045696594925965705 0 -0.00091165575203563584 0.0046166416720656066 0 -0.0008921585732743259 0.0045696594925965705 0 -0.00087908143713357097 0.0045694456621739104 0 -0.00088927531812424345 0.0045896185394011932 0 -0.00087548018694568375 0.0045952303715337236 0 -0.00088927531812424345 0.0045896185394011932 0 -0.00088654979963835459 0.0046104252288935504 0 -0.0008921585732743259 0.0045696594925965705 0 -0.00088927531812424345 0.0045896185394011932 0 -0.00091165575203563584 0.0046166416720656066 0 -0.00087548018694568375 0.0045952303715337236 0 -0.00087908143713357097 0.0045694456621739104 0 -0.00088927531812424345 0.0045896185394011932 0 -0.00088927531812424345 0.0045896185394011932 0 -0.00088654979963835459 0.0046104252288935504 0 -0.00091165575203563584 0.0046166416720656066 0 0.0018533160302525392 0.0034624238796683599 0 0.0018747385191425652 0.003393290348897167 0 0.0018897412978094133 0.0034378578314296221 0 0.0018897412978094133 0.0034378578314296221 0 0.0019072185744435268 0.0034241024520297778 0 0.0018982019066467605 0.0034057808189009095 0 0.0019297318211777697 0.0034084305950245058 0 0.0019072185744435268 0.0034241024520297778 0 0.0018982019066467605 0.0034057808189009095 0 0.0019239135760736913 0.0034382128235408605 0 0.0019297318211777697 0.0034084305950245058 0 0.0019072185744435268 0.0034241024520297778 0 0.0019239135760736913 0.0034382128235408605 0 0.0018897412978094133 0.0034378578314296221 0 0.0019072185744435268 0.0034241024520297778 0 0.0018982019066467605 0.0034057808189009095 0 0.0019009434026558767 0.0033834518866689292 0 0.0019192299688636164 0.0033881689957974029 0 0.0019297318211777697 0.0034084305950245058 0 0.0018982019066467605 0.0034057808189009095 0 0.0019192299688636164 0.0033881689957974029 0 0.0018747385191425652 0.003393290348897167 0 0.0018982019066467605 0.0034057808189009095 0 0.0019009434026558767 0.0033834518866689292 0 0.0018747385191425652 0.003393290348897167 0 0.0018897412978094133 0.0034378578314296221 0 0.0018982019066467605 0.0034057808189009095 0 0.0018759207907951998 0.0033361689981883783 0 0.0018747385191425652 0.003393290348897167 0 0.0018938739600929961 0.0033635299315301235 0 0.0018747385191425652 0.003393290348897167 0 0.0019009434026558767 0.0033834518866689292 0 0.0018938739600929961 0.0033635299315301235 0 0.0019009434026558767 0.0033834518866689292 0 0.0019192299688636164 0.0033881689957974029 0 0.0019200943570898993 0.003367186594369239 0 0.0019009434026558767 0.0033834518866689292 0 0.0019200943570898993 0.003367186594369239 0 0.0018938739600929961 0.0033635299315301235 0 0.0019255404012238206 0.0033391220286518798 0 0.0019200943570898993 0.003367186594369239 0 0.0018938739600929961 0.0033635299315301235 0 0.0019491259324306437 0.0033617131990146044 0 0.0019255404012238206 0.0033391220286518798 0 0.0019200943570898993 0.003367186594369239 0 0.0015228356737258103 0.0043659004467606422 0 0.001799996267957958 0.0035884794068688306 0 -0.00090197886783771196 0.0047104038129134277 0 -0.00091165575203563584 0.0046166416720656066 0 -0.00089440826506366651 0.0046715348688417101 0 0.0016818416363648251 0.004326192696627507 0 0.0017360786892281 0.0043384080301680505 0 0.0017647463232803198 0.0040086214513465968 0 0.0016818416363648251 0.004326192696627507 0 0.0016934674069047464 0.0039929291360920431 0 0.0017647463232803198 0.0040086214513465968 0 0.00086985990566876888 0.0049006011359736161 0 0.00040303285049359628 0.0042330319904370587 0 -0.00088250531182193428 0.0046965523659625464 0 -0.00089440826506366651 0.0046715348688417101 0 -0.00087374602759604839 0.0046742091419617032 0 -0.00087421425138004699 0.0046473149764836028 0 -0.00087374602759604839 0.0046742091419617032 0 -0.00089049008650951892 0.0046507228199667962 0 -0.00089440826506366651 0.0046715348688417101 0 -0.00087374602759604839 0.0046742091419617032 0 -0.00089049008650951892 0.0046507228199667962 0 -0.00091165575203563584 0.0046166416720656066 0 -0.00089440826506366651 0.0046715348688417101 0 -0.00089049008650951892 0.0046507228199667962 0 -0.00087421425138004699 0.0046473149764836028 0 -0.00089049008650951892 0.0046507228199667962 0 -0.00088863406096650736 0.0046287474170685636 0 -0.00087382588203758604 0.004621306870727343 0 -0.00087421425138004699 0.0046473149764836028 0 -0.00088863406096650736 0.0046287474170685636 0 -0.00087382588203758604 0.004621306870727343 0 -0.00088654979963835459 0.0046104252288935504 0 -0.00088863406096650736 0.0046287474170685636 0 -0.00088654979963835459 0.0046104252288935504 0 -0.00091165575203563584 0.0046166416720656066 0 -0.00088863406096650736 0.0046287474170685636 0 -0.00091165575203563584 0.0046166416720656066 0 -0.00089049008650951892 0.0046507228199667962 0 -0.00088863406096650736 0.0046287474170685636 0 0.0036754564149522281 0.0032147297742357458 0 0.0037758770172821245 0.0032379193779869279 0 0.003684917118789887 0.0032940453732725888 0 0.0036754564149522281 0.0032147297742357458 0 0.0037758770172821245 0.0032379193779869279 0 0.003764160427746752 0.0031557527849990332 0 0.003882612553651678 0.003150630359317091 0 0.0037758770172821245 0.0032379193779869279 0 0.003764160427746752 0.0031557527849990332 0 0.0038287522276695134 0.0030940617192072623 0 0.003882612553651678 0.003150630359317091 0 0.003764160427746752 0.0031557527849990332 0 0.0036754564149522281 0.0032147297742357458 0 0.003764160427746752 0.0031557527849990332 0 0.0036623285032436853 0.0031386888882432087 0 0.0036754564149522281 0.0032147297742357458 0 0.0035763472546620099 0.003206610227097203 0 0.0036623285032436853 0.0031386888882432087 0 0.0035763472546620099 0.003206610227097203 0 0.0035571693656964165 0.0031311571354307351 0 0.0036623285032436853 0.0031386888882432087 0 0.0035763472546620099 0.003206610227097203 0 0.0034356760789451888 0.0032096878905126108 0 0.0035571693656964165 0.0031311571354307351 0 0.0035763472546620099 0.003206610227097203 0 0.0034939896506311807 0.0032794791535027635 0 0.0034356760789451888 0.0032096878905126108 0 0.0035763472546620099 0.003206610227097203 0 0.0034939896506311807 0.0032794791535027635 0 0.0035878422318790936 0.0032854299321215608 0 0.0034939896506311807 0.0032794791535027635 0 0.0035878422318790936 0.0032854299321215608 0 0.0034860545633562767 0.0033704519475201184 0 0.0036754564149522281 0.0032147297742357458 0 0.0035763472546620099 0.003206610227097203 0 0.0035878422318790936 0.0032854299321215608 0 0.0036754564149522281 0.0032147297742357458 0 0.0035878422318790936 0.0032854299321215608 0 0.003684917118789887 0.0032940453732725888 0 0.0035878422318790936 0.0032854299321215608 0 0.0036181326863490011 0.0033897347002833727 0 0.003684917118789887 0.0032940453732725888 0 0.0035878422318790936 0.0032854299321215608 0 0.0034860545633562767 0.0033704519475201184 0 0.0036181326863490011 0.0033897347002833727 0 0.0034860545633562767 0.0033704519475201184 0 0.0034943138234316542 0.0034739396371267451 0 0.0036181326863490011 0.0033897347002833727 0 0.0034943138234316542 0.0034739396371267451 0 0.0036181326863490011 0.0033897347002833727 0 0.0035951335125971214 0.0035325799383943706 0 0.0036181326863490011 0.0033897347002833727 0 0.0037626997166955072 0.0033465319122336422 0 0.0036949935313008394 0.0034565544946771193 0 0.0037758770172821245 0.0032379193779869279 0 0.003684917118789887 0.0032940453732725888 0 0.0037626997166955072 0.0033465319122336422 0 0.0036181326863490011 0.0033897347002833727 0 0.003684917118789887 0.0032940453732725888 0 0.0037626997166955072 0.0033465319122336422 0 0.0038661900070326325 0.003257970812767152 0 0.0037758770172821245 0.0032379193779869279 0 0.0037626997166955072 0.0033465319122336422 0 0.0038915361983586968 0.0033495723012512807 0 0.0037626997166955072 0.0033465319122336422 0 0.0037849248955515264 0.0034528310238542796 0 0.0037626997166955072 0.0033465319122336422 0 0.0037849248955515264 0.0034528310238542796 0 0.0036949935313008394 0.0034565544946771193 0 0.0038461757233229192 0.0035636881295655867 0 0.0037122006086197611 0.0035464298268529748 0 0.0036297779683995769 0.003720844602266433 0 0.0036949935313008394 0.0034565544946771193 0 0.0037122006086197611 0.0035464298268529748 0 0.0035951335125971214 0.0035325799383943706 0 0.0037849248955515264 0.0034528310238542796 0 0.0036949935313008394 0.0034565544946771193 0 0.0037122006086197611 0.0035464298268529748 0 0.0038461757233229192 0.0035636881295655867 0 0.0037849248955515264 0.0034528310238542796 0 0.0037122006086197611 0.0035464298268529748 0 0.0038584539696534482 0.0031609565302128523 0 0.0035221238402961524 0.0032583692688364901 0 0.0039968454446323836 0.0033865470440875181 0 0.0039649315940758724 0.0033503939463152502 0 0.0038705197637760986 0.003386753055220073 0 0.0036870307665847336 0.0029533963882965217 0 0.0035073425765754359 0.0030795373725788729 0 0.0033492977344330467 0.0029295932218606725 0 0.0032760718519512675 0.0030945516526343585 0 0.0035073425765754359 0.0030795373725788729 0 0.0033492977344330467 0.0029295932218606725 0 0.003920693722789464 0.0034572694965265445 0 0.0035221238402961524 0.0032583692688364901 0 0.0035221238402961524 0.0032583692688364901 0 0.0031372315466999087 0.0034030888941492909 0 0.0036297779683995769 0.003720844602266433 0 0.0034274857466585467 0.0036128625340063575 0 0.0033258269247569464 0.0037800263931329664 0 0.0035221238402961524 0.0032583692688364901 0 0.0030489907147014288 0.0030611478433970074 0 0.0032760718519512675 0.0030945516526343585 0 0.0033492977344330467 0.0029295932218606725 0 0.0030892819613603179 0.0030341086645001656 0 0.0036297779683995769 0.003720844602266433 0 0.0035951335125971214 0.0035325799383943706 0 0.0034274857466585467 0.0036128625340063575 0 0.0037122006086197611 0.0035464298268529748 0 0.0036297779683995769 0.003720844602266433 0 0.0035951335125971214 0.0035325799383943706 0 0.0036181326863490011 0.0033897347002833727 0 0.0036949935313008394 0.0034565544946771193 0 0.0035951335125971214 0.0035325799383943706 0 0.0034943138234316542 0.0034739396371267451 0 0.0035951335125971214 0.0035325799383943706 0 0.0034274857466585467 0.0036128625340063575 0 0.0034943138234316542 0.0034739396371267451 0 0.0034274857466585467 0.0036128625340063575 0 0.0033699930886948808 0.0034664160543877607 0 0.0032684728693985585 0.0035828943226599687 0 0.0033035708407455106 0.0036691781362146402 0 0.0034274857466585467 0.0036128625340063575 0 0.0032684728693985585 0.0035828943226599687 0 0.0034274857466585467 0.0036128625340063575 0 0.0033699930886948808 0.0034664160543877607 0 0.0033035708407455106 0.0036691781362146402 0 0.0033258269247569464 0.0037800263931329664 0 0.0031713218673822085 0.0036995887053966701 0 0.0033035708407455106 0.0036691781362146402 0 0.0034274857466585467 0.0036128625340063575 0 0.0033258269247569464 0.0037800263931329664 0 0.0028198564980819285 0.00319316380880574 0 0.00298476774473806 0.0030060302069199077 0 0.0030482712814104479 0.0031100166776142956 0 0.0032862354844282364 0.0030176223321952992 0 0.00298476774473806 0.0030060302069199077 0 0.0030482712814104479 0.0031100166776142956 0 0.0033258269247569464 0.0037800263931329664 0 0.0031713218673822085 0.0036995887053966701 0 0.0029976068647190666 0.0038274922125197358 0 0.0028198564980819285 0.00319316380880574 0 0.00298476774473806 0.0030060302069199077 0 0.0027030233882365364 0.0029984196148045432 0 0.0031372315466999087 0.0034030888941492909 0 0.0028535286228032197 0.00341123449312892 0 0.0031713218673822085 0.0036995887053966701 0 0.0030678134566304461 0.0036166716152041282 0 0.0029976068647190666 0.0038274922125197358 0 0.0032684728693985585 0.0035828943226599687 0 0.0033035708407455106 0.0036691781362146402 0 0.0031713218673822085 0.0036995887053966701 0 0.0032684728693985585 0.0035828943226599687 0 0.0031713218673822085 0.0036995887053966701 0 0.0030678134566304461 0.0036166716152041282 0 0.0032684728693985585 0.0035828943226599687 0 0.0030678134566304461 0.0036166716152041282 0 0.0031656595881744583 0.0034334099887304184 0 0.0032684728693985585 0.0035828943226599687 0 0.0031656595881744583 0.0034334099887304184 0 0.0033699930886948808 0.0034664160543877607 0 0.0034860545633562767 0.0033704519475201184 0 0.0034943138234316542 0.0034739396371267451 0 0.0033699930886948808 0.0034664160543877607 0 0.0034860545633562767 0.0033704519475201184 0 0.0033699930886948808 0.0034664160543877607 0 0.0033637921572158432 0.003335973698742359 0 0.0031656595881744583 0.0034334099887304184 0 0.0033699930886948808 0.0034664160543877607 0 0.0033637921572158432 0.003335973698742359 0 0.0034939896506311807 0.0032794791535027635 0 0.0033637921572158432 0.003335973698742359 0 0.0034356760789451888 0.0032096878905126108 0 0.0034939896506311807 0.0032794791535027635 0 0.0034860545633562767 0.0033704519475201184 0 0.0033637921572158432 0.003335973698742359 0 0.0033637921572158432 0.003335973698742359 0 0.0034356760789451888 0.0032096878905126108 0 0.0032470895704624619 0.0032655325365674778 0 0.0034356760789451888 0.0032096878905126108 0 0.0032470895704624619 0.0032655325365674778 0 0.0033184040132866427 0.003130157783094559 0 0.0031656595881744583 0.0034334099887304184 0 0.0030850246450658102 0.0032942277724739314 0 0.0029257524254190526 0.0033894358426266426 0 0.0032470895704624619 0.0032655325365674778 0 0.0030850246450658102 0.0032942277724739314 0 0.0030960652652245639 0.0031552002005060453 0 0.0031656595881744583 0.0034334099887304184 0 0.0032470895704624619 0.0032655325365674778 0 0.0030850246450658102 0.0032942277724739314 0 0.0031656595881744583 0.0034334099887304184 0 0.0033637921572158432 0.003335973698742359 0 0.0032470895704624619 0.0032655325365674778 0 0.0030850246450658102 0.0032942277724739314 0 0.0029257524254190526 0.0033894358426266426 0 0.0028949989809405781 0.0032288693355779891 0 0.0029257524254190526 0.0033894358426266426 0 0.0026109424476765258 0.0034088564606350779 0 0.0028949989809405781 0.0032288693355779891 0 0.0026109424476765258 0.0034088564606350779 0 0.0026588013134224353 0.0031910830780717222 0 0.0028949989809405781 0.0032288693355779891 0 0.0026109424476765258 0.0034088564606350779 0 0.0026249545200661487 0.0035752291864757021 0 0.0028582106863656864 0.0035748850190265346 0 0.0029257524254190526 0.0033894358426266426 0 0.0026109424476765258 0.0034088564606350779 0 0.0028582106863656864 0.0035748850190265346 0 0.0031656595881744583 0.0034334099887304184 0 0.0029257524254190526 0.0033894358426266426 0 0.0028582106863656864 0.0035748850190265346 0 0.0030678134566304461 0.0036166716152041282 0 0.0031656595881744583 0.0034334099887304184 0 0.0028582106863656864 0.0035748850190265346 0 0.0028582106863656864 0.0035748850190265346 0 0.0029976068647190666 0.0038274922125197358 0 0.0026648335286577518 0.0038407337297579652 0 0.0030678134566304461 0.0036166716152041282 0 0.0028582106863656864 0.0035748850190265346 0 0.0029976068647190666 0.0038274922125197358 0 0.0028198564980819285 0.00319316380880574 0 0.0027030233882365364 0.0029984196148045432 0 0.0025659492996369547 0.0031181919000160293 0 0.0028535286228032197 0.00341123449312892 0 0.0025393317982194651 0.0034092164416375859 0 0.0027030233882365364 0.0029984196148045432 0 0.0025659492996369547 0.0031181919000160293 0 0.002434618906164645 0.0029945218772723459 0 0.0024573952524727027 0.0032154076157851529 0 0.0025659492996369547 0.0031181919000160293 0 0.002434618906164645 0.0029945218772723459 0 0.0024573952524727027 0.0032154076157851529 0 0.0023390098729058418 0.0031633453511573434 0 0.002434618906164645 0.0029945218772723459 0 0.0026249545200661487 0.0035752291864757021 0 0.0028582106863656864 0.0035748850190265346 0 0.0026648335286577518 0.0038407337297579652 0 0.0026249545200661487 0.0035752291864757021 0 0.0026648335286577518 0.0038407337297579652 0 0.0025109415293074061 0.0036990758673751518 0 0.0026648335286577518 0.0038407337297579652 0 0.0025109415293074061 0.0036990758673751518 0 0.0023506668770189821 0.0038308273860300553 0 0.0025109415293074061 0.0036990758673751518 0 0.0023988578184723033 0.0036809555298353614 0 0.0024247944206312443 0.0035772149831331504 0 0.0025109415293074061 0.0036990758673751518 0 0.0023506668770189821 0.0038308273860300553 0 0.0023988578184723033 0.0036809555298353614 0 0.002434618906164645 0.0029945218772723459 0 0.00229695249447591 0.0030809700758945039 0 0.0021760365794951022 0.0029917021011544986 0 0.0023390098729058418 0.0031633453511573434 0 0.002434618906164645 0.0029945218772723459 0 0.00229695249447591 0.0030809700758945039 0 0.0022353790558128929 0.0032343067024364941 0 0.0022617070006546616 0.0031174990697923608 0 0.0021760365794951022 0.0029917021011544986 0 0.0025393317982194651 0.0034092164416375859 0 0.0023093972185217965 0.0034861149294319691 0 0.00229695249447591 0.0030809700758945039 0 0.0022617070006546616 0.0031174990697923608 0 0.0021760365794951022 0.0029917021011544986 0 0.0023390098729058418 0.0031633453511573434 0 0.00229695249447591 0.0030809700758945039 0 0.0022617070006546616 0.0031174990697923608 0 0.0022136008161198245 0.0036123793060491554 0 0.0022225565325337889 0.0036436935768939522 0 0.0022237007808123353 0.0036747892282393384 0 0.0022111451748934303 0.0033910526899297981 0 0.0023093972185217965 0.0034861149294319691 0 0.0022220491928795017 0.0036624235480053982 0 0.0022225565325337889 0.0036436935768939522 0 0.0022288896149830063 0.0036572330747324687 0 0.0022220491928795017 0.0036624235480053982 0 0.0022288896149830063 0.0036572330747324687 0 0.0022310268588541784 0.00366452178191832 0 0.0022225565325337889 0.0036436935768939522 0 0.0022288896149830063 0.0036572330747324687 0 0.0022237007808123353 0.0036747892282393384 0 0.0022288896149830063 0.0036572330747324687 0 0.0022237007808123353 0.0036747892282393384 0 0.0022368463212690082 0.0036644925281299622 0 0.0022237007808123353 0.0036747892282393384 0 0.0022477872028624484 0.0036674651769862594 0 0.0022368463212690082 0.0036644925281299622 0 0.0023093972185217965 0.0034861149294319691 0 0.0022719845668742462 0.0035255239863339442 0 0.0022286577316967672 0.0036585664306516444 0 0.0022477872028624484 0.0036674651769862594 0 0.0022310268588541784 0.00366452178191832 0 0.0022288896149830063 0.0036572330747324687 0 0.0022368463212690082 0.0036644925281299622 0 0.0022310268588541784 0.00366452178191832 0 0.0022477872028624484 0.0036674651769862594 0 0.0022368463212690082 0.0036644925281299622 0 0.0022310268588541784 0.00366452178191832 0 0.0022286577316967672 0.0036585664306516444 0 0.0022477872028624484 0.0036674651769862594 0 0.0022501360162696356 0.0036423199120499236 0 0.0022477872028624484 0.0036674651769862594 0 0.0022501360162696356 0.0036423199120499236 0 0.0023040499277168077 0.003637974685011995 0 0.0022627078916689449 0.0036678048954337894 0 0.0022477872028624484 0.0036674651769862594 0 0.0023040499277168077 0.003637974685011995 0 0.0023506668770189821 0.0038308273860300553 0 0.0023988578184723033 0.0036809555298353614 0 0.0023040499277168077 0.003637974685011995 0 0.0023093972185217965 0.0034861149294319691 0 0.0023227937400366948 0.0037151076821176324 0 0.0023988578184723033 0.0036809555298353614 0 0.0023040499277168077 0.003637974685011995 0 0.0024247944206312443 0.0035772149831331504 0 0.00225011461808396 0.0035663288748482434 0 0.0022501360162696356 0.0036423199120499236 0 0.0023040499277168077 0.003637974685011995 0 0.00225011461808396 0.0035663288748482434 0 0.0024247944206312443 0.0035772149831331504 0 0.002331891387468562 0.0034833069635784664 0 0.00225011461808396 0.0035663288748482434 0 0.0023040499277168077 0.003637974685011995 0 0.0024247944206312443 0.0035772149831331504 0 0.00225011461808396 0.0035663288748482434 0 0.0022502859129367491 0.0034414969325854087 0 0.002331891387468562 0.0034833069635784664 0 0.0026109424476765258 0.0034088564606350779 0 0.0026249545200661487 0.0035752291864757021 0 0.0024247944206312443 0.0035772149831331504 0 0.0026109424476765258 0.0034088564606350779 0 0.0024247944206312443 0.0035772149831331504 0 0.002331891387468562 0.0034833069635784664 0 0.0026249545200661487 0.0035752291864757021 0 0.0025109415293074061 0.0036990758673751518 0 0.0024247944206312443 0.0035772149831331504 0 0.0026109424476765258 0.0034088564606350779 0 0.0023487301925631432 0.0034147332038130811 0 0.0023105436590968522 0.0033406224207197088 0 0.0026109424476765258 0.0034088564606350779 0 0.0023487301925631432 0.0034147332038130811 0 0.002331891387468562 0.0034833069635784664 0 0.002585360677342646 0.0034134022578568264 0 0.0022601280930691094 0.0033309839000279003 0 0.0022502859129367491 0.0034414969325854087 0 0.0023487301925631432 0.0034147332038130811 0 0.0023105436590968522 0.0033406224207197088 0 0.0022502859129367491 0.0034414969325854087 0 0.0023487301925631432 0.0034147332038130811 0 0.002331891387468562 0.0034833069635784664 0 0.0022228795564712394 0.0032721669433698362 0 0.0023131512840345457 0.0032339024406608241 0 0.0022203702548018738 0.0032687488159645678 0 0.0022228795564712394 0.0032721669433698362 0 0.0021920877275551733 0.0033207940209507591 0 0.0023131512840345457 0.0032339024406608241 0 0.0022228795564712394 0.0032721669433698362 0 0.0021920877275551733 0.0033207940209507591 0 0.0021650919907610471 0.0032969844574002038 0 0.0026109424476765258 0.0034088564606350779 0 0.0021920877275551733 0.0033207940209507591 0 0.0023131512840345457 0.0032339024406608241 0 0.0023131512840345457 0.0032339024406608241 0 0.0025493356326651917 0.0030319406798179666 0 0.0026588013134224353 0.0031910830780717222 0 0.0026109424476765258 0.0034088564606350779 0 0.0023131512840345457 0.0032339024406608241 0 0.0026588013134224353 0.0031910830780717222 0 0.0023131512840345457 0.0032339024406608241 0 0.0025493356326651917 0.0030319406798179666 0 0.0023582373670672733 0.0028573778389191298 0 0.0022979037073864242 0.003261877690794771 0 0.0022570741435618941 0.0030042587248660258 0 0.0023131512840345457 0.0032339024406608241 0 0.0021658246740282041 0.0032934708086322963 0 0.0022203702548018738 0.0032687488159645678 0 0.0025493356326651917 0.0030319406798179666 0 0.0023892472176016443 0.0028536228022160281 0 0.0023582373670672733 0.0028573778389191298 0 0.0021658246740282041 0.0032934708086322963 0 0.0021844859049207285 0.0032866287753972457 0 0.0021701048989519762 0.0032938723990852967 0 0.0021658246740282041 0.0032934708086322963 0 0.0021844859049207285 0.0032866287753972457 0 0.0022203702548018738 0.0032687488159645678 0 0.0021844859049207285 0.0032866287753972457 0 0.0021722819060328454 0.0032909397251168798 0 0.0021701048989519762 0.0032938723990852967 0 0.0021844859049207285 0.0032866287753972457 0 0.0022203702548018738 0.0032687488159645678 0 0.0021722819060328454 0.0032909397251168798 0 0.0022228795564712394 0.0032721669433698362 0 0.0022203702548018738 0.0032687488159645678 0 0.0021650919907610471 0.0032969844574002038 0 0.0022203702548018738 0.0032687488159645678 0 0.0021650919907610471 0.0032969844574002038 0 0.0021722819060328454 0.0032909397251168798 0 0.0021225027897623515 0.0033140902844449828 0 0.0021722819060328454 0.0032909397251168798 0 0.0021456432524702587 0.0033007915228296359 0 0.0021225027897623515 0.0033140902844449828 0 0.0021650919907610471 0.0032969844574002038 0 0.0021722819060328454 0.0032909397251168798 0 0.0021722819060328454 0.0032909397251168798 0 0.0021456432524702587 0.0033007915228296359 0 0.0021701048989519762 0.0032938723990852967 0 0.0021615705836300876 0.003292287174279119 0 0.0021254305744706063 0.0032846342986953369 0 0.002168906472738456 0.0032824055769253169 0 0.0021658246740282041 0.0032934708086322963 0 0.0021701048989519762 0.0032938723990852967 0 0.0021615705836300876 0.003292287174279119 0 0.0021456432524702587 0.0033007915228296359 0 0.0021701048989519762 0.0032938723990852967 0 0.0021615705836300876 0.003292287174279119 0 0.0021456432524702587 0.0033007915228296359 0 0.0021615705836300876 0.003292287174279119 0 0.0021254305744706063 0.0032846342986953369 0 0.0019790986815705599 0.0033195094550145204 0 0.0026263060401770046 0.0033948892525047895 0 0.0020161989076304871 0.0033607295991671228 0 0.0020173551840955424 0.0033710015726226704 0 0.002017033714969882 0.003366908238620377 0 0.0020170476636768853 0.003354383998335451 0 0.0020161989076304871 0.0033607295991671228 0 0.002017033714969882 0.003366908238620377 0 0.0023801203073439787 0.0026645759214511638 0 0.0025110894040769102 0.0027267311866307001 0 0.0026458758789798345 0.0026779366310103838 0 0.0026263060401770046 0.0033948892525047895 0 0.002790533877506253 0.0036883295077830692 0 0.003557836557865921 0.0039458427556900684 0 0.0035266347419105467 0.0039706989025346329 0 0.0034878099393513616 0.003942911353434499 0 0.0026263060401770046 0.0033948892525047895 0 0.0031713017855050222 0.0032880348022209867 0 0.003557836557865921 0.0039458427556900684 0 0.0035266347419105467 0.0039706989025346329 0 0.0035599654170172228 0.0040046936356249088 0 0.0023892472176016443 0.0028536228022160281 0 0.0023801203073439787 0.0026645759214511638 0 0.0025110894040769102 0.0027267311866307001 0 0.0022570741435618941 0.0030042587248660258 0 0.0026263060401770046 0.0033948892525047895 0 0.0023237024737232503 0.0027846633007808153 0 0.0029766820290030075 0.002928984204402595 0 0.0021658246740282041 0.0032934708086322963 0 0.0021615705836300876 0.003292287174279119 0 0.002168906472738456 0.0032824055769253169 0 0.0023892472176016443 0.0028536228022160281 0 0.0025110894040769102 0.0027267311866307001 0 0.002629170894057147 0.0027102782305221474 0 0.0025493356326651917 0.0030319406798179666 0 0.0023892472176016443 0.0028536228022160281 0 0.0027672662374139301 0.0026046733339052156 0 0.0023892472176016443 0.0028536228022160281 0 0.0023582373670672733 0.0028573778389191298 0 0.0023801203073439787 0.0026645759214511638 0 0.0025493356326651917 0.0030319406798179666 0 0.0027798002959752545 0.0028098507474263535 0 0.0027849907412157713 0.0026319290951704604 0 0.0025165953898992283 0.0029037731780439846 0 0.0029766820290030075 0.002928984204402595 0 0.0027798002959752545 0.0028098507474263535 0 0.0028843797892370267 0.0027434378185123101 0 0.0028606028220655552 0.0028407104575396461 0 0.0027798002959752545 0.0028098507474263535 0 0.0028362960622824486 0.0026959165578623154 0 0.0028843797892370267 0.0027434378185123101 0 0.0025110894040769102 0.0027267311866307001 0 0.002629170894057147 0.0027102782305221474 0 0.0026458758789798345 0.0026779366310103838 0 0.0027798002959752545 0.0028098507474263535 0 0.0028362960622824486 0.0026959165578623154 0 0.0027849907412157713 0.0026319290951704604 0 0.0028362960622824486 0.0026959165578623154 0 0.0027849907412157713 0.0026319290951704604 0 0.0028386181739000886 0.0026408928928709275 0 0.0027849907412157713 0.0026319290951704604 0 0.0028386181739000886 0.0026408928928709275 0 0.0028540711877643628 0.0025907995825370719 0 0.0028362960622824486 0.0026959165578623154 0 0.0028386181739000886 0.0026408928928709275 0 0.0028762344661227316 0.0026724830615185474 0 0.0030509724343830745 0.003117929066669117 0 0.0030708728712859667 0.0030797511705219767 0 0.0031068429723977837 0.00308137025315497 0 0.0029766820290030075 0.002928984204402595 0 0.0032608422641546538 0.0032332054660190214 0 0.0029766820290030075 0.002928984204402595 0 0.0031713017855050222 0.0032880348022209867 0 0.0031713017855050222 0.0032880348022209867 0 0.0032608422641546538 0.0032332054660190214 0 0.0035266347419105467 0.0039706989025346329 0 0.0034878099393513616 0.003942911353434499 0 0.0035002759763651439 0.0039748533114228818 0 0.0035266347419105467 0.0039706989025346329 0 0.0035002759763651439 0.0039748533114228818 0 0.0035315652222336763 0.0040004085794059039 0 0.0035951931076334074 0.0035635037532799068 0 0.0035599597046767763 0.0035657396870931437 0 0.0035538391308426163 0.0036056279933359527 0 0.0031713017855050222 0.0032880348022209867 0 0.0034996682551059108 0.0040088141007436689 0 0.0034912295138304151 0.0036483416109214122 0 0.0035653671916690247 0.0035390072742303084 0 0.003336658841428477 0.0037002679163305172 0 0.003595349549686635 0.0035401120411665166 0 0.0034912295138304151 0.0036483416109214122 0 0.0034666576638308442 0.003813903328629862 0 0.0032608422641546538 0.0032332054660190214 0 0.0034908726672552245 0.0036895808200615361 0 0.0032608422641546538 0.0032332054660190214 0 0.0033370003434884769 0.0030926826714734556 0 0.0034878099393513616 0.003942911353434499 0 0.0035002759763651439 0.0039748533114228818 0 0.0034526914911054865 0.0040236096842111557 0 0.003595349549686635 0.0035401120411665166 0 0.0034912295138304151 0.0036483416109214122 0 0.0035653671916690247 0.0035390072742303084 0 0.0029676508782297199 0.0026912860869763434 0 0.0030702394542176307 0.0027485667258274949 0 0.0031260735279146717 0.0026191195308013669 0 0.0028540711877643628 0.0025907995825370719 0 0.0029676508782297199 0.0026912860869763434 0 0.0031260735279146717 0.0026191195308013669 0 0.0028540711877643628 0.0025907995825370719 0 0.0028762344661227316 0.0026724830615185474 0 0.0029676508782297199 0.0026912860869763434 0 0.0028386181739000886 0.0026408928928709275 0 0.0028540711877643628 0.0025907995825370719 0 0.0028762344661227316 0.0026724830615185474 0 0.0028762344661227316 0.0026724830615185474 0 0.0029676508782297199 0.0026912860869763434 0 0.0028843797892370267 0.0027434378185123101 0 0.0028362960622824486 0.0026959165578623154 0 0.0028762344661227316 0.0026724830615185474 0 0.0028843797892370267 0.0027434378185123101 0 0.0029676508782297199 0.0026912860869763434 0 0.0028843797892370267 0.0027434378185123101 0 0.0029786660411590836 0.0028339136689337096 0 0.0028843797892370267 0.0027434378185123101 0 0.0028606028220655552 0.0028407104575396461 0 0.0029786660411590836 0.0028339136689337096 0 0.0029676508782297199 0.0026912860869763434 0 0.0030702394542176307 0.0027485667258274949 0 0.0029786660411590836 0.0028339136689337096 0 0.0030702394542176307 0.0027485667258274949 0 0.0029786660411590836 0.0028339136689337096 0 0.0031014756761282552 0.0028393741503253385 0 0.0029786660411590836 0.0028339136689337096 0 0.0030615793646607097 0.0029683778106772908 0 0.0028825651654780537 0.0029511280388149082 0 0.0029786660411590836 0.0028339136689337096 0 0.0030615793646607097 0.0029683778106772908 0 0.0031014756761282552 0.0028393741503253385 0 0.0030615793646607097 0.0029683778106772908 0 0.0028825651654780537 0.0029511280388149082 0 0.002867716793678342 0.0030900152943644722 0 0.0028606028220655552 0.0028407104575396461 0 0.0029786660411590836 0.0028339136689337096 0 0.0028825651654780537 0.0029511280388149082 0 0.0028606028220655552 0.0028407104575396461 0 0.0028825651654780537 0.0029511280388149082 0 0.0027606251987777747 0.0029220228911022383 0 0.0027798002959752545 0.0028098507474263535 0 0.0028606028220655552 0.0028407104575396461 0 0.0027606251987777747 0.0029220228911022383 0 0.0025493356326651917 0.0030319406798179666 0 0.0027798002959752545 0.0028098507474263535 0 0.0027606251987777747 0.0029220228911022383 0 0.0025493356326651917 0.0030319406798179666 0 0.0027606251987777747 0.0029220228911022383 0 0.0027456155060311448 0.0030365940877601816 0 0.0028825651654780537 0.0029511280388149082 0 0.0027456155060311448 0.0030365940877601816 0 0.002867716793678342 0.0030900152943644722 0 0.0028825651654780537 0.0029511280388149082 0 0.0027606251987777747 0.0029220228911022383 0 0.0027456155060311448 0.0030365940877601816 0 0.0027456155060311448 0.0030365940877601816 0 0.0026588013134224353 0.0031910830780717222 0 0.002867716793678342 0.0030900152943644722 0 0.0025493356326651917 0.0030319406798179666 0 0.0027456155060311448 0.0030365940877601816 0 0.0026588013134224353 0.0031910830780717222 0 0.0026588013134224353 0.0031910830780717222 0 0.0028949989809405781 0.0032288693355779891 0 0.002867716793678342 0.0030900152943644722 0 0.0030615793646607097 0.0029683778106772908 0 0.002867716793678342 0.0030900152943644722 0 0.0030960652652245639 0.0031552002005060453 0 0.0030850246450658102 0.0032942277724739314 0 0.0028949989809405781 0.0032288693355779891 0 0.0030960652652245639 0.0031552002005060453 0 0.0028949989809405781 0.0032288693355779891 0 0.002867716793678342 0.0030900152943644722 0 0.0030960652652245639 0.0031552002005060453 0 0.0032470895704624619 0.0032655325365674778 0 0.0030960652652245639 0.0031552002005060453 0 0.0033184040132866427 0.003130157783094559 0 0.0030960652652245639 0.0031552002005060453 0 0.0033184040132866427 0.003130157783094559 0 0.0032595914477698833 0.0030071703480291749 0 0.0034356760789451888 0.0032096878905126108 0 0.003457986270056702 0.0031149969186307319 0 0.0035571693656964165 0.0031311571354307351 0 0.0034356760789451888 0.0032096878905126108 0 0.0033184040132866427 0.003130157783094559 0 0.003457986270056702 0.0031149969186307319 0 0.003457986270056702 0.0031149969186307319 0 0.0034246988697567756 0.0030518037659588147 0 0.0035443070068371936 0.0030538835158010198 0 0.0033184040132866427 0.003130157783094559 0 0.003457986270056702 0.0031149969186307319 0 0.0034246988697567756 0.0030518037659588147 0 0.0033184040132866427 0.003130157783094559 0 0.0034246988697567756 0.0030518037659588147 0 0.0032595914477698833 0.0030071703480291749 0 0.0034246988697567756 0.0030518037659588147 0 0.0033971431819478939 0.0029654044622010435 0 0.0032595914477698833 0.0030071703480291749 0 0.0033971431819478939 0.0029654044622010435 0 0.0033279138097636091 0.002905247443580923 0 0.0032595914477698833 0.0030071703480291749 0 0.0034246988697567756 0.0030518037659588147 0 0.0035237802026678671 0.0029641039874839397 0 0.0035443070068371936 0.0030538835158010198 0 0.0034246988697567756 0.0030518037659588147 0 0.0033971431819478939 0.0029654044622010435 0 0.0035237802026678671 0.0029641039874839397 0 0.0033971431819478939 0.0029654044622010435 0 0.0034286989890872062 0.0028969031028657638 0 0.0035237802026678671 0.0029641039874839397 0 0.0034286989890872062 0.0028969031028657638 0 0.0035203243446544023 0.0028547788699417672 0 0.0035237802026678671 0.0029641039874839397 0 0.0033971431819478939 0.0029654044622010435 0 0.0034286989890872062 0.0028969031028657638 0 0.0033279138097636091 0.002905247443580923 0 0.0034286989890872062 0.0028969031028657638 0 0.0033279138097636091 0.002905247443580923 0 0.003345928248148292 0.0028216032647605427 0 0.0030615793646607097 0.0029683778106772908 0 0.0030960652652245639 0.0031552002005060453 0 0.0032595914477698833 0.0030071703480291749 0 0.0033279138097636091 0.002905247443580923 0 0.0032155975196841631 0.002888361724523677 0 0.003345928248148292 0.0028216032647605427 0 0.0033279138097636091 0.002905247443580923 0 0.0032155975196841631 0.002888361724523677 0 0.0032595914477698833 0.0030071703480291749 0 0.0030615793646607097 0.0029683778106772908 0 0.0032155975196841631 0.002888361724523677 0 0.0032595914477698833 0.0030071703480291749 0 0.0030615793646607097 0.0029683778106772908 0 0.0032155975196841631 0.002888361724523677 0 0.0031014756761282552 0.0028393741503253385 0 0.0032155975196841631 0.002888361724523677 0 0.0031895964674559848 0.0027675855245302009 0 0.0031014756761282552 0.0028393741503253385 0 0.0030702394542176307 0.0027485667258274949 0 0.0031895964674559848 0.0027675855245302009 0 0.0031014756761282552 0.0028393741503253385 0 0.0032155975196841631 0.002888361724523677 0 0.0031895964674559848 0.0027675855245302009 0 0.003345928248148292 0.0028216032647605427 0 0.0031895964674559848 0.0027675855245302009 0 0.003275582949868345 0.0026773901546077779 0 0.003345928248148292 0.0028216032647605427 0 0.0030702394542176307 0.0027485667258274949 0 0.0031895964674559848 0.0027675855245302009 0 0.0031260735279146717 0.0026191195308013669 0 0.0031895964674559848 0.0027675855245302009 0 0.003275582949868345 0.0026773901546077779 0 0.0031260735279146717 0.0026191195308013669 0 0.0033370003434884769 0.0030926826714734556 0 0.0034478467556582591 0.002926258700965933 0 0.0035599597046767763 0.0035657396870931437 0 0.00353726104662235 0.0035827108036894169 0 0.0035166177062192928 0.0035609355480848252 0 0.003275582949868345 0.0026773901546077779 0 0.0031260735279146717 0.0026191195308013669 0 0.0034042747661825533 0.0026555114095695386 0 0.00353726104662235 0.0035827108036894169 0 0.0035163497254430617 0.0035988572094963235 0 0.0035538391308426163 0.0036056279933359527 0 0.0035599597046767763 0.0035657396870931437 0 0.00353726104662235 0.0035827108036894169 0 0.0035538391308426163 0.0036056279933359527 0 0.0034478467556582591 0.002926258700965933 0 0.0035947490500732771 0.0027649088015036924 0 0.0034883615119452056 0.003589127665744127 0 0.0035163497254430617 0.0035988572094963235 0 0.0034819170440318378 0.0036082410890616108 0 0.00353726104662235 0.0035827108036894169 0 0.0035163497254430617 0.0035988572094963235 0 0.0035166177062192928 0.0035609355480848252 0 0.0034883615119452056 0.003589127665744127 0 0.0035163497254430617 0.0035988572094963235 0 0.0035166177062192928 0.0035609355480848252 0 0.0034338193503809298 0.0027742027116032654 0 0.0035203243446544023 0.0028547788699417672 0 0.0036294899246022382 0.0027804988200402438 0 0.0033997505931376206 0.0026762296657993597 0 0.0034338193503809298 0.0027742027116032654 0 0.0036294899246022382 0.0027804988200402438 0 0.003349777180828128 0.0028093719845186868 0 0.0034478467556582591 0.002926258700965933 0 0.003275582949868345 0.0026773901546077779 0 0.0033997505931376206 0.0026762296657993597 0 0.0034338193503809298 0.0027742027116032654 0 0.003275582949868345 0.0026773901546077779 0 0.0034338193503809298 0.0027742027116032654 0 0.003345928248148292 0.0028216032647605427 0 0.0034286989890872062 0.0028969031028657638 0 0.003345928248148292 0.0028216032647605427 0 0.0035203243446544023 0.0028547788699417672 0 0.0034338193503809298 0.0027742027116032654 0 0.003345928248148292 0.0028216032647605427 0 0.0035203243446544023 0.0028547788699417672 0 0.0035203243446544023 0.0028547788699417672 0 0.0036302885899662418 0.0028547406434521862 0 0.0036426996343553396 0.0029216276066182574 0 0.0036302885899662418 0.0028547406434521862 0 0.0037212737241136317 0.0028601593604588014 0 0.0036426996343553396 0.0029216276066182574 0 0.0037212737241136317 0.0028601593604588014 0 0.0037540037587030814 0.0029257112030031344 0 0.0036426996343553396 0.0029216276066182574 0 0.0036302885899662418 0.0028547406434521862 0 0.0036294899246022382 0.0027804988200402438 0 0.0037212737241136317 0.0028601593604588014 0 0.0035203243446544023 0.0028547788699417672 0 0.0036302885899662418 0.0028547406434521862 0 0.0036294899246022382 0.0027804988200402438 0 0.0034883615119452056 0.003589127665744127 0 0.0034391851013475731 0.0035887846632812618 0 0.0034819170440318378 0.0036082410890616108 0 0.0034761008538944501 0.002725018222941951 0 0.0036294899246022382 0.0027804988200402438 0 0.0037376370529797502 0.0027812050178765918 0 0.0034883615119452056 0.003589127665744127 0 0.0035166177062192928 0.0035609355480848252 0 0.0034391851013475731 0.0035887846632812618 0 0.0034478467556582591 0.002926258700965933 0 0.0035869795728546527 0.0032226660400390202 0 0.0036294899246022382 0.0027804988200402438 0 0.0037376370529797502 0.0027812050178765918 0 0.0037212737241136317 0.0028601593604588014 0 0.0034391851013475731 0.0035887846632812618 0 0.0034819170440318378 0.0036082410890616108 0 0.0034495824954748505 0.0036169342634736943 0 0.0034247270442587818 0.0036056751659269059 0 0.0034391851013475731 0.0035887846632812618 0 0.003429719135758263 0.0036068326333917396 0 0.0038901225794265972 0.003058905012264356 0 0.0037376370529797502 0.0027812050178765918 0 0.003825727547550901 0.0029020101380310332 0 0.0036296932903190191 0.0033277572682339999 0 0.0035869795728546527 0.0032226660400390202 0 0.0034391851013475731 0.0035887846632812618 0 0.003429719135758263 0.0036068326333917396 0 0.0034495824954748505 0.0036169342634736943 0 0.0037376370529797502 0.0027812050178765918 0 0.003825727547550901 0.0029020101380310332 0 0.0037821417492518777 0.0028626659433230763 0 0.003825727547550901 0.0029020101380310332 0 0.0038229133550629272 0.0028934040543211505 0 0.0037821417492518777 0.0028626659433230763 0 0.0037376370529797502 0.0027812050178765918 0 0.0037821417492518777 0.0028626659433230763 0 0.0037212737241136317 0.0028601593604588014 0 0.0038229133550629272 0.0028934040543211505 0 0.0037821417492518777 0.0028626659433230763 0 0.0037212737241136317 0.0028601593604588014 0 0.0038229133550629272 0.0028934040543211505 0 0.0037212737241136317 0.0028601593604588014 0 0.0037540037587030814 0.0029257112030031344 0 0.0038449979407621806 0.002931033358201746 0 0.0037774176780045569 0.0029828681157150717 0 0.0037540037587030814 0.0029257112030031344 0 0.0038449979407621806 0.002931033358201746 0 0.0038229133550629272 0.0028934040543211505 0 0.0037540037587030814 0.0029257112030031344 0 0.0037774176780045569 0.0029828681157150717 0 0.0037540037587030814 0.0029257112030031344 0 0.0036691202758078532 0.0029968471003041005 0 0.0037540037587030814 0.0029257112030031344 0 0.0036426996343553396 0.0029216276066182574 0 0.0036691202758078532 0.0029968471003041005 0 0.0035203243446544023 0.0028547788699417672 0 0.0036426996343553396 0.0029216276066182574 0 0.0035237802026678671 0.0029641039874839397 0 0.0035237802026678671 0.0029641039874839397 0 0.0036691202758078532 0.0029968471003041005 0 0.0035443070068371936 0.0030538835158010198 0 0.0036426996343553396 0.0029216276066182574 0 0.0035237802026678671 0.0029641039874839397 0 0.0036691202758078532 0.0029968471003041005 0 0.0036691202758078532 0.0029968471003041005 0 0.0036373200368291416 0.0030762016105434528 0 0.0035443070068371936 0.0030538835158010198 0 0.0036373200368291416 0.0030762016105434528 0 0.0035443070068371936 0.0030538835158010198 0 0.0035571693656964165 0.0031311571354307351 0 0.003457986270056702 0.0031149969186307319 0 0.0035443070068371936 0.0030538835158010198 0 0.0035571693656964165 0.0031311571354307351 0 0.0036373200368291416 0.0030762016105434528 0 0.0035571693656964165 0.0031311571354307351 0 0.0036623285032436853 0.0031386888882432087 0 0.0036373200368291416 0.0030762016105434528 0 0.0036623285032436853 0.0031386888882432087 0 0.003742117002908542 0.0030631829178259379 0 0.003764160427746752 0.0031557527849990332 0 0.0036623285032436853 0.0031386888882432087 0 0.003742117002908542 0.0030631829178259379 0 0.0038419563641142935 0.0030134819385197521 0 0.0038287522276695134 0.0030940617192072623 0 0.003742117002908542 0.0030631829178259379 0 0.0038287522276695134 0.0030940617192072623 0 0.003764160427746752 0.0031557527849990332 0 0.003742117002908542 0.0030631829178259379 0 0.0038419563641142935 0.0030134819385197521 0 0.0037774176780045569 0.0029828681157150717 0 0.003742117002908542 0.0030631829178259379 0 0.0037774176780045569 0.0029828681157150717 0 0.0036691202758078532 0.0029968471003041005 0 0.003742117002908542 0.0030631829178259379 0 0.0036691202758078532 0.0029968471003041005 0 0.0036373200368291416 0.0030762016105434528 0 0.003742117002908542 0.0030631829178259379 0 0.0024350235230471895 0.0049851265600642748 0 0.002497409826425029 0.0045543512248392114 0 0.0025499499370917281 0.0048405256989285574 0 0.0034329578678125245 0.0036704535375753204 0 0.003435236832205894 0.0036614255043459797 0 0.003360983572926194 0.003644686811057128 0 0.0029420978629329728 0.0043151655708659978 0 0.0029476760958954888 0.0041010809897354368 0 0.0027331490094353876 0.0046687357594772261 0 0.002497409826425029 0.0045543512248392114 0 0.0025499499370917281 0.0048405256989285574 0 0.0029476760958954888 0.0041010809897354368 0 0.0030877614615229063 0.003926116110027196 0 0.0027331490094353876 0.0046687357594772261 0 0.002497409826425029 0.0045543512248392114 0 0.0030939258336662571 0.0039180906264779224 0 0.003360983572926194 0.003644686811057128 0 0.0033828285827436754 0.0037546944951756625 0 0.0030939258336662571 0.0039180906264779224 0 0.0034159412230985267 0.0036672907168390457 0 0.003435236832205894 0.0036614255043459797 0 0.0033828285827436754 0.0037546944951756625 0 0.003435236832205894 0.0036614255043459797 0 0.003360983572926194 0.003644686811057128 0 0.0033828285827436754 0.0037546944951756625 0 0.0034159412230985267 0.0036672907168390457 0 0.0033828285827436754 0.0037546944951756625 0 0.0034134563976453997 0.0036418419891052415 0 0.0033828285827436754 0.0037546944951756625 0 0.0034134563976453997 0.0036418419891052415 0 0.0034495824954748505 0.0036169342634736943 0 0.0034134563976453997 0.0036418419891052415 0 0.003429719135758263 0.0036068326333917396 0 0.0034495824954748505 0.0036169342634736943 0 0.0034198967654236992 0.003617275118788228 0 0.0034134563976453997 0.0036418419891052415 0 0.003429719135758263 0.0036068326333917396 0 0.0034819170440318378 0.0036082410890616108 0 0.0034495824954748505 0.0036169342634736943 0 0.003500974794509012 0.0036662149275023931 0 0.0033828285827436754 0.0037546944951756625 0 0.0031134530704134537 0.0039093224049972274 0 0.0030939258336662571 0.0039180906264779224 0 0.0033779519813298244 0.0037572034751725846 0 0.0033073512122680838 0.0037777068860927838 0 0.0033828285827436754 0.0037546944951756625 0 0.0034495824954748505 0.0036169342634736943 0 0.003500974794509012 0.0036662149275023931 0 0.0031134530704134537 0.0039093224049972274 0 0.0032295673045934442 0.0039846745106028141 0 0.0032880142318784337 0.0039012800239677041 0 0.0031134530704134537 0.0039093224049972274 0 0.0032295673045934442 0.0039846745106028141 0 0.0030939258336662571 0.0039180906264779224 0 0.0033073512122680838 0.0037777068860927838 0 0.0034908726672552245 0.0036895808200615361 0 0.0035163497254430617 0.0035988572094963235 0 0.003500974794509012 0.0036662149275023931 0 0.0035538391308426163 0.0036056279933359527 0 0.0035163497254430617 0.0035988572094963235 0 0.0034819170440318378 0.0036082410890616108 0 0.003500974794509012 0.0036662149275023931 0 0.003336658841428477 0.0037002679163305172 0 0.0032880142318784337 0.0039012800239677041 0 0.0034666576638308442 0.003813903328629862 0 0.0031134530704134537 0.0039093224049972274 0 0.003336658841428477 0.0037002679163305172 0 0.0032880142318784337 0.0039012800239677041 0 0.0032880142318784337 0.0039012800239677041 0 0.0033628568201519646 0.0041325018888615029 0 0.0034666576638308442 0.003813903328629862 0 0.0032295673045934442 0.0039846745106028141 0 0.0032880142318784337 0.0039012800239677041 0 0.0033628568201519646 0.0041325018888615029 0 0.0033574193472565854 0.0040937638908276862 0 0.0034996682551059108 0.0040088141007436689 0 0.0033628568201519646 0.0041325018888615029 0 0.0033674602807374191 0.0043696485971374145 0 0.00346945051263969 0.0042159723300403571 0 0.0033628568201519646 0.0041325018888615029 0 0.003168156259297175 0.0042244077483176027 0 0.0033674602807374191 0.0043696485971374145 0 0.0032295673045934442 0.0039846745106028141 0 0.0033628568201519646 0.0041325018888615029 0 0.003168156259297175 0.0042244077483176027 0 0.0027331490094353876 0.0046687357594772261 0 0.0030939258336662571 0.0039180906264779224 0 0.003168156259297175 0.0042244077483176027 0 0.0032295673045934442 0.0039846745106028141 0 0.0030939258336662571 0.0039180906264779224 0 0.003168156259297175 0.0042244077483176027 0 0.0027331490094353876 0.0046687357594772261 0 0.0029196157886274554 0.0047275197213001285 0 0.0028085483377344547 0.0048558863923658735 0 0.0027453136176069214 0.0046497173482284966 0 0.003109914085265798 0.0045620295330374939 0 0.0027331490094353876 0.0046687357594772261 0 0.003168156259297175 0.0042244077483176027 0 0.0033674602807374191 0.0043696485971374145 0 0.0029196157886274554 0.0047275197213001285 0 0.0030333284900946095 0.0047993423849105677 0 0.0029466864045038458 0.0048633870109205104 0 0.0030333284900946095 0.0047993423849105677 0 0.0031338928395352379 0.0047283707968236227 0 0.0030870608213061884 0.0049033828910225946 0 0.0029196157886274554 0.0047275197213001285 0 0.0030333284900946095 0.0047993423849105677 0 0.0031338928395352379 0.0047283707968236227 0 0.0033674602807374191 0.0043696485971374145 0 0.0036065263923035795 0.0042584091989504207 0 0.00346945051263969 0.0042159723300403571 0 0.003109914085265798 0.0045620295330374939 0 0.0034274461853420453 0.00445333209647271 0 0.0034274461853420453 0.00445333209647271 0 0.0034847981986033294 0.0042306117855132807 0 0.0034274461853420453 0.00445333209647271 0 0.0024977224500335837 0.0048560638122586187 0 0.0034274461853420453 0.00445333209647271 0 0.0028177260083175537 0.0042563232939650713 0 0.0031338928395352379 0.0047283707968236227 0 0.003265071926502472 0.0047951069456284318 0 0.0030870608213061884 0.0049033828910225946 0 0.0035112412074285613 0.0042121140942837807 0 0.0035538929541850182 0.0041481692808120266 0 0.0036062399152203516 0.0042012568205855531 0 0.0035538929541850182 0.0041481692808120266 0 0.0035019729528486237 0.0041595300915753348 0 0.0035019624674990936 0.0040672609448395205 0 0.0035112412074285613 0.0042121140942837807 0 0.0035538929541850182 0.0041481692808120266 0 0.0035019729528486237 0.0041595300915753348 0 0.0035019729528486237 0.0041595300915753348 0 0.00346945051263969 0.0042159723300403571 0 0.0034597479531202581 0.0041118173728458812 0 0.0035112412074285613 0.0042121140942837807 0 0.0035019729528486237 0.0041595300915753348 0 0.00346945051263969 0.0042159723300403571 0 0.0033628568201519646 0.0041325018888615029 0 0.00346945051263969 0.0042159723300403571 0 0.0034597479531202581 0.0041118173728458812 0 0.0034597479531202581 0.0041118173728458812 0 0.0034526914911054865 0.0040236096842111557 0 0.0035019624674990936 0.0040672609448395205 0 0.0035019729528486237 0.0041595300915753348 0 0.0034597479531202581 0.0041118173728458812 0 0.0035019624674990936 0.0040672609448395205 0 0.0033628568201519646 0.0041325018888615029 0 0.0034597479531202581 0.0041118173728458812 0 0.0034526914911054865 0.0040236096842111557 0 0.0034526914911054865 0.0040236096842111557 0 0.003497531135759911 0.0040314671503824985 0 0.0035019624674990936 0.0040672609448395205 0 0.0034912295138304151 0.0036483416109214122 0 0.003336658841428477 0.0037002679163305172 0 0.0034666576638308442 0.003813903328629862 0 0.0034526914911054865 0.0040236096842111557 0 0.0035021615478661471 0.0040035673669309895 0 0.003497531135759911 0.0040314671503824985 0 0.0035002759763651439 0.0039748533114228818 0 0.0034526914911054865 0.0040236096842111557 0 0.0035021615478661471 0.0040035673669309895 0 0.0035002759763651439 0.0039748533114228818 0 0.0035021615478661471 0.0040035673669309895 0 0.0035315652222336763 0.0040004085794059039 0 0.0035021615478661471 0.0040035673669309895 0 0.003526579952196423 0.004030363738844793 0 0.0035315652222336763 0.0040004085794059039 0 0.0035021615478661471 0.0040035673669309895 0 0.003497531135759911 0.0040314671503824985 0 0.003526579952196423 0.004030363738844793 0 0.003526579952196423 0.004030363738844793 0 0.0035019624674990936 0.0040672609448395205 0 0.0035565042097878939 0.0040551151378444873 0 0.0035538929541850182 0.0041481692808120266 0 0.0035019624674990936 0.0040672609448395205 0 0.0036142371531150352 0.004091485201696274 0 0.0038099057419556108 0.0041039864170229817 0 0.0028578671490765281 0.0039669318758528633 0 0.003497531135759911 0.0040314671503824985 0 0.003526579952196423 0.004030363738844793 0 0.0035019624674990936 0.0040672609448395205 0 0.0028578671490765281 0.0039669318758528633 0 0.002790533877506253 0.0036883295077830692 0 0.003526579952196423 0.004030363738844793 0 0.0035565042097878939 0.0040551151378444873 0 0.0035599654170172228 0.0040046936356249088 0 0.003526579952196423 0.004030363738844793 0 0.0035599654170172228 0.0040046936356249088 0 0.0035315652222336763 0.0040004085794059039 0 0.0035266347419105467 0.0039706989025346329 0 0.0035599654170172228 0.0040046936356249088 0 0.0035315652222336763 0.0040004085794059039 0 0.002017033714969882 0.003366908238620377 0 0.0020188661976335708 0.0033731663167662104 0 0.0020176612617818566 0.0033715573040834805 0 0.0020222236147631545 0.0033776629031512699 0 0.0020173551840955424 0.0033710015726226704 0 0.0020188661976335708 0.0033731663167662104 0 0.0020173551840955424 0.0033710015726226704 0 0.002017033714969882 0.003366908238620377 0 0.0020188661976335708 0.0033731663167662104 0 0.0020222236147631545 0.0033776629031512699 0 0.0020188661976335708 0.0033731663167662104 0 0.0020176711234870244 0.0033735213375569412 0 0.0028578671490765281 0.0039669318758528633 0 0.0018601949058332716 0.0038875741786789197 0 0.0024292546632914526 0.0044563636923526957 0 0.0021238855429475882 0.0042282061613782129 0 0.002002813404084266 0.004419578180568361 0 0.0024292546632914526 0.0044563636923526957 0 0.0021238855429475882 0.0042282061613782129 0 0.0022865163613020141 0.0041612890900504665 0 0.0022865163613020141 0.0041612890900504665 0 0.0024411064702150741 0.0040049242069839621 0 0.0021362782374351481 0.0040255939170012649 0 0.0021238855429475882 0.0042282061613782129 0 0.0022865163613020141 0.0041612890900504665 0 0.0021362782374351481 0.0040255939170012649 0 0.0021238855429475882 0.0042282061613782129 0 0.0021362782374351481 0.0040255939170012649 0 0.0020072891337310963 0.0040937802933907847 0 0.0028578671490765281 0.0039669318758528633 0 0.0028177260083175537 0.0042563232939650713 0 0.0024292546632914526 0.0044563636923526957 0 0.0022865163613020141 0.0041612890900504665 0 0.0024411064702150741 0.0040049242069839621 0 0.0035538929541850182 0.0041481692808120266 0 0.0036142371531150352 0.004091485201696274 0 0.0036062399152203516 0.0042012568205855531 0 0.0032648952516023512 0.0045776751434600379 0 0.0026431256566385986 0.0046201571755863135 0 0.002780802482083059 0.0043583161121810588 0 0.0028177260083175537 0.0042563232939650713 0 0.0023440092579630773 0.0046281305954047466 0 0.0020011826974252319 0.0046240163320141166 0 0.001888126955960874 0.0046067698222506731 0 0.0020027841775696925 0.0045529498419729841 0 0.0026431256566385986 0.0046201571755863135 0 0.002780802482083059 0.0043583161121810588 0 0.0026477603767599556 0.0044281256543434707 0 0.0024977224500335837 0.0048560638122586187 0 0.0020420348114690255 0.0049034412535108804 0 0.0024977224500335837 0.0048560638122586187 0 0.0023440092579630773 0.0046281305954047466 0 0.0022623012171515589 0.0048398072477104622 0 0.0022303601172657043 0.0048559851407500489 0 0.0022308531643480145 0.0048256737442702157 0 0.0023440092579630773 0.0046281305954047466 0 0.0020420348114690255 0.0049034412535108804 0 0.0028177260083175537 0.0042563232939650713 0 0.0019846067030365078 0.0043348201116762027 0 0.0023440092579630773 0.0046281305954047466 0 0.0019846067030365078 0.0043348201116762027 0 0.0024816492615084796 0.0044205678449929153 0 0.002485628357415203 0.00426197642824636 0 0.0021366010159482706 0.0044426249174503094 0 0.0020011826974252319 0.0046240163320141166 0 0.001888126955960874 0.0046067698222506731 0 0.0017674001178690803 0.00474493888561807 0 0.001888126955960874 0.0046067698222506731 0 0.0017885953017365674 0.0046033318536094544 0 0.0018742272841381479 0.004494504195167775 0 0.001888126955960874 0.0046067698222506731 0 0.0017885953017365674 0.0046033318536094544 0 0.0017674001178690803 0.00474493888561807 0 0.0017885953017365674 0.0046033318536094544 0 0.0017352153245558484 0.0045147605951935269 0 0.0016779124725408612 0.0046557572030558308 0 0.0017885953017365674 0.0046033318536094544 0 0.0017674001178690803 0.00474493888561807 0 0.0016779124725408612 0.0046557572030558308 0 0.0013168623507419052 0.0055310607137003306 0 0.0014525722482726211 0.0054441660248591324 0 0.0013757727845248844 0.0054092453759591545 0 0.0017099807472816364 0.0050553570584824384 0 0.0016939098482617587 0.0050507600018609043 0 0.001672809409802969 0.0050823147380180131 0 0.0014168533637092136 0.0049776625080930111 0 0.001587324847299035 0.0053438337613840948 0 0.0014998333064035708 0.004807937556039036 0 0.0014297740570975459 0.0048537457821613483 0 0.0015589590713295934 0.0048351815000039523 0 0.0017885953017365674 0.0046033318536094544 0 0.0017352153245558484 0.0045147605951935269 0 0.0018742272841381479 0.004494504195167775 0 0.0014278067905273248 0.0047636583771996505 0 0.0016733382855397671 0.004875888403046911 0 0.0014168533637092136 0.0049776625080930111 0 0.0014278067905273248 0.0047636583771996505 0 0.0016733382855397671 0.004875888403046911 0 0.0020420348114690255 0.0049034412535108804 0 0.001888126955960874 0.0046067698222506731 0 0.0018742272841381479 0.004494504195167775 0 0.0020027841775696925 0.0045529498419729841 0 0.0016984709900899533 0.0050499972162594293 0 0.0016939098482617587 0.0050507600018609043 0 0.0016752155130918933 0.0050386325193002334 0 0.0017099807472816364 0.0050553570584824384 0 0.0016983700106199219 0.0050499821827550955 0 0.0016939098482617587 0.0050507600018609043 0 0.0014168533637092136 0.0049776625080930111 0 0.0016733382855397671 0.004875888403046911 0 0.0016733382855397671 0.004875888403046911 0 0.0016736570407914918 0.0048814132011025021 0 0.0018083024428204302 0.0053703455935413544 0 0.0018199843685918499 0.0053547109691865291 0 0.0018046765077031222 0.0053333639508084162 0 0.0016939098482617587 0.0050507600018609043 0 0.0016752155130918933 0.0050386325193002334 0 0.001672809409802969 0.0050823147380180131 0 0.0020420348114690255 0.0049034412535108804 0 0.001587324847299035 0.0053438337613840948 0 0.0018202858230138004 0.0053759787539116319 0 0.0018083024428204302 0.0053703455935413544 0 0.0018199843685918499 0.0053547109691865291 0 0.0018202858230138004 0.0053759787539116319 0 0.0018199843685918499 0.0053547109691865291 0 0.0018408269060350118 0.0053473306358771382 0 0.0018199843685918499 0.0053547109691865291 0 0.0018046765077031222 0.0053333639508084162 0 0.0018408269060350118 0.0053473306358771382 0 0.001587324847299035 0.0053438337613840948 0 0.0017407677852263497 0.0053192688996333551 0 0.0014545066094920434 0.005450024999468981 0 0.0014564249423842804 0.0053643194079218371 0 0.0016275524936765042 0.0053411431187438694 0 0.0014564249423842804 0.0053643194079218371 0 0.0014903613236223045 0.0052178882382874943 0 0.0016275524936765042 0.0053411431187438694 0 0.0014525722482726211 0.0054441660248591324 0 0.0014564249423842804 0.0053643194079218371 0 0.0013757727845248844 0.0054092453759591545 0 0.001587324847299035 0.0053438337613840948 0 0.0015194030119001463 0.0053938306453195778 0 0.0018046765077031222 0.0053333639508084162 0 0.0018456244846942293 0.0052958225642731668 0 0.0018408269060350118 0.0053473306358771382 0 0.0014564249423842804 0.0053643194079218371 0 0.0013625018193281003 0.0053080896783844443 0 0.0013757727845248844 0.0054092453759591545 0 0.0013625018193281003 0.0053080896783844443 0 0.0013757727845248844 0.0054092453759591545 0 0.0012900702937880331 0.0053975933809344654 0 0.0013168623507419052 0.0055310607137003306 0 0.0013757727845248844 0.0054092453759591545 0 0.0012900702937880331 0.0053975933809344654 0 0.0013625018193281003 0.0053080896783844443 0 0.0012900702937880331 0.0053975933809344654 0 0.0012193670441589359 0.0052983019665133581 0 0.0013625018193281003 0.0053080896783844443 0 0.0013259688282156591 0.0051655677950589503 0 0.0012193670441589359 0.0052983019665133581 0 0.0013625018193281003 0.0053080896783844443 0 0.0013259688282156591 0.0051655677950589503 0 0.0014903613236223045 0.0052178882382874943 0 0.0013259688282156591 0.0051655677950589503 0 0.001502630283496877 0.0049999980147898337 0 0.001244451168480275 0.0049999992436293187 0 0.001502630283496877 0.0049999980147898337 0 0.0014903613236223045 0.0052178882382874943 0 0.0016457679188493952 0.0051514323420417179 0 0.0013259688282156591 0.0051655677950589503 0 0.001502630283496877 0.0049999980147898337 0 0.0014903613236223045 0.0052178882382874943 0 0.0014564249423842804 0.0053643194079218371 0 0.0013625018193281003 0.0053080896783844443 0 0.0014903613236223045 0.0052178882382874943 0 0.0014903613236223045 0.0052178882382874943 0 0.0016457679188493952 0.0051514323420417179 0 0.0016275524936765042 0.0053411431187438694 0 0.0018601826816084821 0.0052232215969923446 0 0.0017407677852263497 0.0053192688996333551 0 0.0016457679188493952 0.0051514323420417179 0 0.0018055415105329173 0.0052316382717143917 0 0.0016275524936765042 0.0053411431187438694 0 0.001502630283496877 0.0049999980147898337 0 0.0016457679188493952 0.0051514323420417179 0 0.0017608335099650314 0.0049999932794218922 0 0.0017608335099650314 0.0049999932794218922 0 0.0018055415105329173 0.0052316382717143917 0 0.0019963071713877578 0.0051087616488164232 0 0.0016457679188493952 0.0051514323420417179 0 0.0017608335099650314 0.0049999932794218922 0 0.0018055415105329173 0.0052316382717143917 0 0.0019062618652117571 0.0052259011175932171 0 0.0019160083247685934 0.0052916025435819922 0 0.0018456244846942293 0.0052958225642731668 0 0.0019062618652117571 0.0052259011175932171 0 0.0019160083247685934 0.0052916025435819922 0 0.0019819832972644493 0.0052189734461894569 0 0.0019160083247685934 0.0052916025435819922 0 0.0018939001736087788 0.0053560703838273832 0 0.0020483246787994162 0.0053381510933952232 0 0.0019160083247685934 0.0052916025435819922 0 0.0018456244846942293 0.0052958225642731668 0 0.0018939001736087788 0.0053560703838273832 0 0.0018456244846942293 0.0052958225642731668 0 0.0018408269060350118 0.0053473306358771382 0 0.0018939001736087788 0.0053560703838273832 0 0.0018202858230138004 0.0053759787539116319 0 0.0018408269060350118 0.0053473306358771382 0 0.0018939001736087788 0.0053560703838273832 0 0.0024977224500335837 0.0048560638122586187 0 0.0024929683930733719 0.0051681118277536039 0 0.0030333284900946095 0.0047993423849105677 0 0.0030870608213061884 0.0049033828910225946 0 0.0029466864045038458 0.0048633870109205104 0 0.0030870608213061884 0.0049033828910225946 0 0.0029466864045038458 0.0048633870109205104 0 0.0028627725645500222 0.0050625416435094751 0 0.0029466864045038458 0.0048633870109205104 0 0.0028085483377344547 0.0048558863923658735 0 0.0028627725645500222 0.0050625416435094751 0 0.0029196157886274554 0.0047275197213001285 0 0.0029466864045038458 0.0048633870109205104 0 0.0028085483377344547 0.0048558863923658735 0 0.0028085483377344547 0.0048558863923658735 0 0.0026455802534453491 0.0050034773523603381 0 0.0026540476466587418 0.004895457043020344 0 0.0028085483377344547 0.0048558863923658735 0 0.0028627725645500222 0.0050625416435094751 0 0.0026455802534453491 0.0050034773523603381 0 0.0028627725645500222 0.0050625416435094751 0 0.0024300673954691359 0.0051788321154158431 0 0.0026455802534453491 0.0050034773523603381 0 0.0024929683930733719 0.0051681118277536039 0 0.0024572863474179875 0.0051862359753702255 0 0.0019160083247685934 0.0052916025435819922 0 0.0020483246787994162 0.0053381510933952232 0 0.0019819832972644493 0.0052189734461894569 0 0.0020483246787994162 0.0053381510933952232 0 0.0019819832972644493 0.0052189734461894569 0 0.0021136839861568752 0.0051810945447463667 0 0.0019062618652117571 0.0052259011175932171 0 0.0019819832972644493 0.0052189734461894569 0 0.0019963071713877578 0.0051087616488164232 0 0.0018601826816084821 0.0052232215969923446 0 0.0019889428676199954 0.0051207572409909547 0 0.0019819832972644493 0.0052189734461894569 0 0.0019963071713877578 0.0051087616488164232 0 0.0021136839861568752 0.0051810945447463667 0 0.0017608335099650314 0.0049999932794218922 0 0.0020190985547823125 0.0049999751288793675 0 0.0019963071713877578 0.0051087616488164232 0 0.0019963071713877578 0.0051087616488164232 0 0.0021884197620325617 0.0050825551365658471 0 0.0021136839861568752 0.0051810945447463667 0 0.0020190985547823125 0.0049999751288793675 0 0.0021884197620325617 0.0050825551365658471 0 0.0022773920276061644 0.0049999674905089279 0 0.0020190985547823125 0.0049999751288793675 0 0.0019963071713877578 0.0051087616488164232 0 0.0021884197620325617 0.0050825551365658471 0 0.0021884197620325617 0.0050825551365658471 0 0.0021136839861568752 0.0051810945447463667 0 0.0024300673954691359 0.0051788321154158431 0 0.0020483246787994162 0.0053381510933952232 0 0.0021136839861568752 0.0051810945447463667 0 0.0024300673954691359 0.0051788321154158431 0 0.0024572863474179875 0.0051862359753702255 0 0.0024383898395569283 0.0051832803680712568 0 0.0024300673954691359 0.0051788321154158431 0 0.0022773920276061644 0.0049999674905089279 0 0.002471345244215703 0.0051076667389819462 0 0.0021884197620325617 0.0050825551365658471 0 0.0024300673954691359 0.0051788321154158431 0 0.0022773920276061644 0.0049999674905089279 0 0.0025354426493773502 0.0049999876273790454 0 0.0022773920276061644 0.0049999674905089279 0 0.002471345244215703 0.0051076667389819462 0 0.0024962878485006207 0.0051221162603761134 0 0.0024300673954691359 0.0051788321154158431 0 0.002471345244215703 0.0051076667389819462 0 0.0024962878485006207 0.0051221162603761134 0 0.0024300673954691359 0.0051788321154158431 0 0.002521807312620613 0.0050252099981628554 0 0.0024350235230471895 0.0049851265600642748 0 0.0024962878485006207 0.0051221162603761134 0 0.002521807312620613 0.0050252099981628554 0 0.0024300673954691359 0.0051788321154158431 0 0.002521807312620613 0.0050252099981628554 0 0.0026455802534453491 0.0050034773523603381 0 0.002521807312620613 0.0050252099981628554 0 0.0026540476466587418 0.004895457043020344 0 0.0025499499370917281 0.0048405256989285574 0 0.002521807312620613 0.0050252099981628554 0 0.0026455802534453491 0.0050034773523603381 0 0.0026540476466587418 0.004895457043020344 0 0.0027331490094353876 0.0046687357594772261 0 0.0028085483377344547 0.0048558863923658735 0 0.0026540476466587418 0.004895457043020344 0 0.0027331490094353876 0.0046687357594772261 0 0.0026540476466587418 0.004895457043020344 0 0.0025499499370917281 0.0048405256989285574 0 0.0024350235230471895 0.0049851265600642748 0 0.002521807312620613 0.0050252099981628554 0 0.0025499499370917281 0.0048405256989285574 0 0.00023771093476431372 0.0049890525242639455 0 0.00031280276364281152 0.0050747400655233267 0 5.0983647720743939e-05 0.0049825148133569586 0 0.001693601661029839 0.0044995056976304456 0 0.00068169113236315354 0.0046171823832298411 0 0.0014087604855939275 0.0047028120570572337 0 0.00033117156816376696 0.0049881014858935363 0 0.00029012067543799882 0.004966022143195057 0 0.00023771093476431372 0.0049890525242639455 0 0.00033117156816376696 0.0049881014858935363 0 0.00029012067543799882 0.004966022143195057 0 0.00031349823085152946 0.0049178676592072836 0 0.00029012067543799882 0.004966022143195057 0 0.00023771093476431372 0.0049890525242639455 0 0.00023690575879072617 0.0049120295274805619 0 0.00023771093476431372 0.0049890525242639455 0 0.00023690575879072617 0.0049120295274805619 0 0.00013396907324652934 0.0049138894716191962 0 0.00033117156816376696 0.0049881014858935363 0 0.00023771093476431372 0.0049890525242639455 0 0.00031280276364281152 0.0050747400655233267 0 0.0016722177699127559 0.0045324591505510863 0 0.001693601661029839 0.0044995056976304456 0 0.0014087604855939275 0.0047028120570572337 0 0.00031280276364281152 0.0050747400655233267 0 0.00043542614662893023 0.0050311123259282357 0 0.00052527073120178119 0.0050549182565499343 0 0.00031280276364281152 0.0050747400655233267 0 0.00043542614662893023 0.0050311123259282357 0 0.00038599359587076381 0.0049988265847553089 0 0.00089198549202393221 0.0048518331409567635 0 0.0011267407738532978 0.0043422952931541038 0 0.00031280276364281152 0.0050747400655233267 0 0.00063920317254240221 0.0051257670012778075 0 0.00052527073120178119 0.0050549182565499343 0 0.00043542614662893023 0.0050311123259282357 0 0.00046541470335101061 0.0049558489409503434 0 0.00052527073120178119 0.0050549182565499343 0 0.00043542614662893023 0.0050311123259282357 0 0.00046541470335101061 0.0049558489409503434 0 0.00038599359587076381 0.0049988265847553089 0 0.00033117156816376696 0.0049881014858935363 0 0.00031280276364281152 0.0050747400655233267 0 0.00038599359587076381 0.0049988265847553089 0 0.00046541470335101061 0.0049558489409503434 0 0.00038599359587076381 0.0049988265847553089 0 0.00038349642570825249 0.0049448079056316173 0 0.00033117156816376696 0.0049881014858935363 0 0.00038349642570825249 0.0049448079056316173 0 0.00031349823085152946 0.0049178676592072836 0 0.00033117156816376696 0.0049881014858935363 0 0.00038599359587076381 0.0049988265847553089 0 0.00038349642570825249 0.0049448079056316173 0 0.00046541470335101061 0.0049558489409503434 0 0.00038349642570825249 0.0049448079056316173 0 0.0003860368649525135 0.0048512429775139851 0 0.00038349642570825249 0.0049448079056316173 0 0.0003860368649525135 0.0048512429775139851 0 0.00031349823085152946 0.0049178676592072836 0 0.00046541470335101061 0.0049558489409503434 0 0.00049358744582426084 0.0048564514471574781 0 0.0003860368649525135 0.0048512429775139851 0 0.00049358744582426084 0.0048564514471574781 0 0.0003860368649525135 0.0048512429775139851 0 0.00048870007999891245 0.0047591480037929334 0 0.0003860368649525135 0.0048512429775139851 0 0.00028027236039892108 0.0048383856182352379 0 0.00036485152137569486 0.0047423448901966212 0 0.0003860368649525135 0.0048512429775139851 0 0.00028027236039892108 0.0048383856182352379 0 0.00031349823085152946 0.0049178676592072836 0 0.00028027236039892108 0.0048383856182352379 0 0.00031349823085152946 0.0049178676592072836 0 0.00023690575879072617 0.0049120295274805619 0 0.00029012067543799882 0.004966022143195057 0 0.00031349823085152946 0.0049178676592072836 0 0.00023690575879072617 0.0049120295274805619 0 0.00028027236039892108 0.0048383856182352379 0 0.00023690575879072617 0.0049120295274805619 0 0.00017689548480023272 0.004849664532704254 0 0.00028027236039892108 0.0048383856182352379 0 0.00017689548480023272 0.004849664532704254 0 0.00021334420220633029 0.0047420236218799977 0 0.00017689548480023272 0.004849664532704254 0 7.1642010486237342e-05 0.0048385802353329887 0 0.00013396907324652934 0.0049138894716191962 0 7.1642010486237342e-05 0.0048385802353329887 0 0.00013396907324652934 0.0049138894716191962 0 3.4790609524676958e-05 0.0048794024850607673 0 0.00023690575879072617 0.0049120295274805619 0 0.00017689548480023272 0.004849664532704254 0 0.00013396907324652934 0.0049138894716191962 0 3.4790609524676958e-05 0.0048794024850607673 0 5.0983647720743939e-05 0.0049825148133569586 0 -2.6127966816265026e-05 0.0048563247734460871 0 3.4790609524676958e-05 0.0048794024850607673 0 -6.5201895968295314e-06 0.0048780656268902385 0 -2.6127966816265026e-05 0.0048563247734460871 0 7.1642010486237342e-05 0.0048385802353329887 0 3.4790609524676958e-05 0.0048794024850607673 0 -6.5201895968295314e-06 0.0048780656268902385 0 0.00041008130586352485 0.0047993938753492288 0 -3.6260405025090847e-05 0.004865365506069151 0 5.0983647720743939e-05 0.0049825148133569586 0 -2.6127966816265026e-05 0.0048563247734460871 0 -6.2221342576162885e-05 0.0048795440471878608 0 0.00068169113236315354 0.0046171823832298411 0 0.00037183037523188774 0.0049917775819069022 0 -6.2221342576162885e-05 0.0048795440471878608 0 0.00089198549202393221 0.0048518331409567635 0 0.00041008130586352485 0.0047993938753492288 0 0.00023771093476431372 0.0049890525242639455 0 0.00013396907324652934 0.0049138894716191962 0 5.0983647720743939e-05 0.0049825148133569586 0 0.00013396907324652934 0.0049138894716191962 0 3.4790609524676958e-05 0.0048794024850607673 0 5.0983647720743939e-05 0.0049825148133569586 0 0.00068169113236315354 0.0046171823832298411 0 0.0010972454343971072 0.004843242379533862 0 0.0014087604855939275 0.0047028120570572337 0 0.00068169113236315354 0.0046171823832298411 0 0.0010972454343971072 0.004843242379533862 0 0.00085191562848146811 0.0049577070472495641 0 0.00085191562848146811 0.0049577070472495641 0 0.00062331023546263286 0.0051823993540631432 0 0.00096212321245696647 0.0052986558044079302 0 0.00085191562848146811 0.0049577070472495641 0 0.0011790303576937233 0.0050357298880300948 0 0.00096212321245696647 0.0052986558044079302 0 0.0010972454343971072 0.004843242379533862 0 0.00085191562848146811 0.0049577070472495641 0 0.0011790303576937233 0.0050357298880300948 0 0.00085191562848146811 0.0049577070472495641 0 0.00037183037523188774 0.0049917775819069022 0 0.00062331023546263286 0.0051823993540631432 0 0.00068169113236315354 0.0046171823832298411 0 0.00085191562848146811 0.0049577070472495641 0 0.00037183037523188774 0.0049917775819069022 0 0.00037183037523188774 0.0049917775819069022 0 0.00062331023546263286 0.0051823993540631432 0 0.00030973135583285813 0.0053061225239321589 0 0.00062331023546263286 0.0051823993540631432 0 0.00030973135583285813 0.0053061225239321589 0 0.00064942743327696395 0.0055085573344728642 0 0.00030973135583285813 0.0053061225239321589 0 0.00064942743327696395 0.0055085573344728642 0 0.00028564311069258994 0.0055904193144961003 0 0.0011790303576937233 0.0050357298880300948 0 0.00096212321245696647 0.0052986558044079302 0 0.0012403313582730704 0.0052237997159147245 0 0.00096212321245696647 0.0052986558044079302 0 0.0012376060188469097 0.0054466495623815767 0 0.0012403313582730704 0.0052237997159147245 0 0.00062331023546263286 0.0051823993540631432 0 0.00064942743327696395 0.0055085573344728642 0 0.00096212321245696647 0.0052986558044079302 0 0.00064942743327696395 0.0055085573344728642 0 0.00096212321245696647 0.0052986558044079302 0 0.00095255312498476502 0.0055488108251983085 0 0.00096212321245696647 0.0052986558044079302 0 0.00095255312498476502 0.0055488108251983085 0 0.0012376060188469097 0.0054466495623815767 0 0.0011743880443753417 0.0057033519828570012 0 0.00095255312498476502 0.0055488108251983085 0 0.0012376060188469097 0.0054466495623815767 0 0.001354512078949287 0.005616908357897449 0 0.0012376060188469097 0.0054466495623815767 0 0.00153317518404835 0.0055291906385668268 0 0.00153317518404835 0.0055291906385668268 0 0.0014064724490290121 0.0052325121998590095 0 0.0014627340386434088 0.0049934396466931319 0 0.0012376060188469097 0.0054466495623815767 0 0.00153317518404835 0.0055291906385668268 0 0.0014064724490290121 0.0052325121998590095 0 0.0012376060188469097 0.0054466495623815767 0 0.0014064724490290121 0.0052325121998590095 0 0.0012403313582730704 0.0052237997159147245 0 0.0014064724490290121 0.0052325121998590095 0 0.0012403313582730704 0.0052237997159147245 0 0.0013296203643179754 0.0050832357266683359 0 0.0016722177699127559 0.0045324591505510863 0 0.00153317518404835 0.0055291906385668268 0 0.0014627340386434088 0.0049934396466931319 0 0.0011790303576937233 0.0050357298880300948 0 0.0012403313582730704 0.0052237997159147245 0 0.0013296203643179754 0.0050832357266683359 0 0.0016784732088192483 0.0044572995373850606 0 0.0017629751074822756 0.004546981869750024 0 0.0011790303576937233 0.0050357298880300948 0 0.0013066484801123504 0.0049271589768855525 0 0.0013296203643179754 0.0050832357266683359 0 0.0016722177699127559 0.0045324591505510863 0 0.0019629690694857164 0.0033761715151164875 0 0.0018382896025973493 0.0037203412259260108 0 0.0013066484801123504 0.0049271589768855525 0 0.0014627340386434088 0.0049934396466931319 0 0.0014087604855939275 0.0047028120570572337 0 0.0010972454343971072 0.004843242379533862 0 0.0011790303576937233 0.0050357298880300948 0 0.0013066484801123504 0.0049271589768855525 0 0.0013066484801123504 0.0049271589768855525 0 0.0013296203643179754 0.0050832357266683359 0 0.0014627340386434088 0.0049934396466931319 0 0.0014064724490290121 0.0052325121998590095 0 0.0013296203643179754 0.0050832357266683359 0 0.0014627340386434088 0.0049934396466931319 0 0.0016722177699127559 0.0045324591505510863 0 0.0014627340386434088 0.0049934396466931319 0 0.0014087604855939275 0.0047028120570572337 0 0.0010972454343971072 0.004843242379533862 0 0.0013066484801123504 0.0049271589768855525 0 0.0014087604855939275 0.0047028120570572337 0 0.0016722177699127559 0.0045324591505510863 0 0.0018382896025973493 0.0037203412259260108 0 0.0014616482838468677 0.0043366488173945091 0 0.001693601661029839 0.0044995056976304456 0 0.0014616482838468677 0.0043366488173945091 0 0.00076246277188248099 0.0044501933821811954 0 0.0014616482838468677 0.0043366488173945091 0 0.0012091350886707848 0.0041157023101053023 0 0.00076246277188248099 0.0044501933821811954 0 0.0016722177699127559 0.0045324591505510863 0 0.001693601661029839 0.0044995056976304456 0 0.0014616482838468677 0.0043366488173945091 0 0.0018382896025973493 0.0037203412259260108 0 0.0014616482838468677 0.0043366488173945091 0 0.0012091350886707848 0.0041157023101053023 0 0.0017815141372141778 0.0037124983407012704 0 0.001633665944686628 0.0037458159246643347 0 0.0018848691234832099 0.0034420616884352881 0 0.0018518842854710483 0.0035465506471947976 0 0.0018885284721416702 0.0034793794605787148 0 0.0018382896025973493 0.0037203412259260108 0 0.0018848691234832099 0.0034420616884352881 0 0.0018518842854710483 0.0035465506471947976 0 0.0019629690694857164 0.0033761715151164875 0 0.0018518842854710483 0.0035465506471947976 0 0.0019036092053852994 0.0034258767860101324 0 0.0019629690694857164 0.0033761715151164875 0 0.0018382896025973493 0.0037203412259260108 0 0.0018518842854710483 0.0035465506471947976 0 0.0019180294989564995 0.003419848658206822 0 0.0019036092053852994 0.0034258767860101324 0 0.0018885284721416702 0.0034793794605787148 0 0.0018518842854710483 0.0035465506471947976 0 0.0019036092053852994 0.0034258767860101324 0 0.0018885284721416702 0.0034793794605787148 0 0.0018848691234832099 0.0034420616884352881 0 0.0018885284721416702 0.0034793794605787148 0 0.0019277966168385569 0.0034365233543605747 0 0.0019180294989564995 0.003419848658206822 0 0.0018885284721416702 0.0034793794605787148 0 0.0019277966168385569 0.0034365233543605747 0 0.0018848691234832099 0.0034420616884352881 0 0.0019277966168385569 0.0034365233543605747 0 0.0019430402060630805 0.0034138897270344624 0 0.0019277966168385569 0.0034365233543605747 0 0.0019430402060630805 0.0034138897270344624 0 0.0019732151534517187 0.0033955430967886517 0 0.001943444295871694 0.0034064903187456161 0 0.0019277966168385569 0.0034365233543605747 0 0.0019732151534517187 0.0033955430967886517 0 0.0019732151534517187 0.0033955430967886517 0 0.0019812728119439115 0.0033894931554688357 0 0.0020028090001899595 0.0033791957046245772 0 0.0019430402060630805 0.0034138897270344624 0 0.0019732151534517187 0.0033955430967886517 0 0.0019812728119439115 0.0033894931554688357 0 0.0011267407738532978 0.0043422952931541038 0 0.001898531504395558 0.0038395979426456388 0 0.0019430402060630805 0.0034138897270344624 0 0.0019812728119439115 0.0033894931554688357 0 0.0019368882741284501 0.003378977413352106 0 0.0019812728119439115 0.0033894931554688357 0 0.0019368882741284501 0.003378977413352106 0 0.0019951017394258621 0.0033691116715206929 0 0.001633665944686628 0.0037458159246643347 0 0.0011267407738532978 0.0043422952931541038 0 0.0018848691234832099 0.0034420616884352881 0 0.0019430402060630805 0.0034138897270344624 0 0.0019368882741284501 0.003378977413352106 0 0.0020188661976335708 0.0033731663167662104 0 0.0020176612617818566 0.0033715573040834805 0 0.0020176711234870244 0.0033735213375569412 0 0.0019812728119439115 0.0033894931554688357 0 0.0020028090001899595 0.0033791957046245772 0 0.0020093105112079387 0.0033754011801256883 0 0.0020113161318001237 0.003364535812393832 0 0.0020176612617818566 0.0033715573040834805 0 0.0020028090001899595 0.0033791957046245772 0 0.0020176612617818566 0.0033715573040834805 0 0.0020028090001899595 0.0033791957046245772 0 0.0020093105112079387 0.0033754011801256883 0 0.0020113161318001237 0.003364535812393832 0 0.0019732151534517187 0.0033955430967886517 0 0.0020028090001899595 0.0033791957046245772 0 0.0020093105112079387 0.0033754011801256883 0 0.0019951017394258621 0.0033691116715206929 0 0.0020176711234870244 0.0033735213375569412 0 0.0019812728119439115 0.0033894931554688357 0 0.0020093105112079387 0.0033754011801256883 0 0.0019951017394258621 0.0033691116715206929 0 0.001898531504395558 0.0038395979426456388 0 0.0018601949058332716 0.0038875741786789197 0 0.0015813254611021254 0.0043815364034958879 0 0.002002813404084266 0.004419578180568361 0 0.0018780948608062462 0.0042383167484189611 0 0.0020176612617818566 0.0033715573040834805 0 0.0020093105112079387 0.0033754011801256883 0 0.0020176711234870244 0.0033735213375569412 0 0.0021238855429475882 0.0042282061613782129 0 0.0020072891337310963 0.0040937802933907847 0 0.0018780948608062462 0.0042383167484189611 0 0.0019846067030365078 0.0043348201116762027 0 0.0020927966118265856 0.0041763742103441718 0 0.0021238855429475882 0.0042282061613782129 0 0.002002813404084266 0.004419578180568361 0 0.0018780948608062462 0.0042383167484189611 0 0.0018780948608062462 0.0042383167484189611 0 0.001725537152128207 0.0041626965822344052 0 0.0018569656780208315 0.0040472657144449671 0 0.0020072891337310963 0.0040937802933907847 0 0.0018780948608062462 0.0042383167484189611 0 0.0018569656780208315 0.0040472657144449671 0 0.0015813254611021254 0.0043815364034958879 0 0.0018780948608062462 0.0042383167484189611 0 0.001725537152128207 0.0041626965822344052 0 0.0015813254611021254 0.0043815364034958879 0 0.001725537152128207 0.0041626965822344052 0 0.0015790020255657576 0.0040683844478457349 0 0.001725537152128207 0.0041626965822344052 0 0.0015790020255657576 0.0040683844478457349 0 0.0018569656780208315 0.0040472657144449671 0 0.00093167649748462282 0.0049548839765907919 0 0.0010266627543993048 0.0047521644292329527 0 0.0011209497479492446 0.0048343338045877173 0 0.00093491534433551575 0.0047901286732654367 0 0.0007302459918253737 0.0048206113776424692 0 0.00093167649748462282 0.0049548839765907919 0 0.0010266627543993048 0.0047521644292329527 0 0.0007525306478472877 0.0047988387018823332 0 0.001156018960976207 0.0047421331824427483 0 0.0017476505305561139 0.0044109882553126124 0 0.0013355928426121643 0.0047737112365382082 0 0.0015534420318676777 0.0047597504804929875 0 0.0015376053320724512 0.0046429524177804661 0 0.001156018960976207 0.0047421331824427483 0 0.0013398862087510585 0.0047311632645966849 0 0.0013136257337708289 0.0047078598862011871 0 0.0010266627543993048 0.0047521644292329527 0 0.0011209497479492446 0.0048343338045877173 0 0.0015534420318676777 0.0047597504804929875 0 0.0015376053320724512 0.0046429524177804661 0 0.0016779124725408612 0.0046557572030558308 0 0.0014278067905273248 0.0047636583771996505 0 0.0013398862087510585 0.0047311632645966849 0 0.0017352153245558484 0.0045147605951935269 0 0.0015376053320724512 0.0046429524177804661 0 0.0016779124725408612 0.0046557572030558308 0 0.0019846067030365078 0.0043348201116762027 0 0.0017476505305561139 0.0044109882553126124 0 0.0021324822448905798 0.0040291741189659759 0 0.0020072891337310963 0.0040937802933907847 0 0.0018569656780208315 0.0040472657144449671 0 0.0017674001178690803 0.00474493888561807 0 0.0015534420318676777 0.0047597504804929875 0 0.0016779124725408612 0.0046557572030558308 0 0.00046541470335101061 0.0049558489409503434 0 0.00057644390442198744 0.004971627763318576 0 0.00052527073120178119 0.0050549182565499343 0 0.00063920317254240221 0.0051257670012778075 0 0.00057644390442198744 0.004971627763318576 0 0.00052527073120178119 0.0050549182565499343 0 0.00063920317254240221 0.0051257670012778075 0 0.00092720860315095301 0.0049373481292289568 0 0.00057644390442198744 0.004971627763318576 0 0.001156018960976207 0.0047421331824427483 0 0.00049264478621608029 0.0050273929292816606 0 0.0011630228942684016 0.0043439941255222544 0 0.0015813254611021254 0.0043815364034958879 0 0.0015790020255657576 0.0040683844478457349 0 0.0011267407738532978 0.0043422952931541038 0 0.001156018960976207 0.0047421331824427483 0 0.00093167649748462282 0.0049548839765907919 0 0.00057644390442198744 0.004971627763318576 0 0.0007525306478472877 0.0047988387018823332 0 0.00049358744582426084 0.0048564514471574781 0 0.00069501983941016546 0.0048426301373692684 0 0.00048870007999891245 0.0047591480037929334 0 0.00049358744582426084 0.0048564514471574781 0 0.00057644390442198744 0.004971627763318576 0 0.0007525306478472877 0.0047988387018823332 0 0.00051111561023333048 0.0048534870644409249 0 0.0007302459918253737 0.0048206113776424692 0 0.00046541470335101061 0.0049558489409503434 0 0.00049358744582426084 0.0048564514471574781 0 0.00057644390442198744 0.004971627763318576 0 0.00058211204843914351 0.0046802177649959541 0 0.00044599866736420163 0.0046021212158611387 0 0.00048870007999891245 0.0047591480037929334 0 0.00069501983941016546 0.0048426301373692684 0 0.00058211204843914351 0.0046802177649959541 0 0.00048870007999891245 0.0047591480037929334 0 0.00069501983941016546 0.0048426301373692684 0 0.00058211204843914351 0.0046802177649959541 0 0.00069141751965240948 0.0046834103219515269 0 0.00069501983941016546 0.0048426301373692684 0 0.00079418073167099909 0.0047531558701887034 0 0.00069141751965240948 0.0046834103219515269 0 0.0009162166318207424 0.0048230141915080816 0 0.00069501983941016546 0.0048426301373692684 0 0.00079418073167099909 0.0047531558701887034 0 0.00077702699164145406 0.0046909272694265801 0 0.00069141751965240948 0.0046834103219515269 0 0.00080835359382898462 0.0046332593045004143 0 0.00079418073167099909 0.0047531558701887034 0 0.00077702699164145406 0.0046909272694265801 0 0.00069141751965240948 0.0046834103219515269 0 0.00079418073167099909 0.0047531558701887034 0 0.00077702699164145406 0.0046909272694265801 0 0.00081436412540354403 0.0046939917191914727 0 0.00077702699164145406 0.0046909272694265801 0 0.00081436412540354403 0.0046939917191914727 0 0.00080835359382898462 0.0046332593045004143 0 0.00069141751965240948 0.0046834103219515269 0 0.00064149898056995954 0.0045079099349874998 0 0.00080835359382898462 0.0046332593045004143 0 0.00064149898056995954 0.0045079099349874998 0 0.00080835359382898462 0.0046332593045004143 0 0.00083607330331438826 0.0045934823019310725 0 0.00069195655393645289 0.0048801085965888592 0 0.00090974542950725571 0.0050640350739028055 0 0.00058211204843914351 0.0046802177649959541 0 0.00069141751965240948 0.0046834103219515269 0 0.00064149898056995954 0.0045079099349874998 0 0.00058211204843914351 0.0046802177649959541 0 0.00064149898056995954 0.0045079099349874998 0 0.00044599866736420163 0.0046021212158611387 0 0.00064149898056995954 0.0045079099349874998 0 0.00045158480641550918 0.0044239925488266047 0 0.00044599866736420163 0.0046021212158611387 0 0.00115321184368123 0.0047942045579609004 0 0.0009162166318207424 0.0048230141915080816 0 0.00099288994638281635 0.0047463876297472044 0 0.0014278067905273248 0.0047636583771996505 0 0.00093491534433551575 0.0047901286732654367 0 0.0013168623507419052 0.0055310607137003306 0 0.0012900702937880331 0.0053975933809344654 0 0.0011530219908774039 0.0054567858223198437 0 0.0012148386218834774 0.0047543997578230017 0 0.00115321184368123 0.0047942045579609004 0 0.0010226824621404403 0.004667600051169468 0 0.0014168533637092136 0.0049776625080930111 0 0.0010713047869739087 0.0050587180789639259 0 0.00115321184368123 0.0047942045579609004 0 0.00099288994638281635 0.0047463876297472044 0 0.0010226824621404403 0.004667600051169468 0 0.00099288994638281635 0.0047463876297472044 0 0.0010226824621404403 0.004667600051169468 0 0.00088256115917275529 0.004702528667540222 0 0.0009162166318207424 0.0048230141915080816 0 0.00099288994638281635 0.0047463876297472044 0 0.00088256115917275529 0.004702528667540222 0 0.0009162166318207424 0.0048230141915080816 0 0.00079418073167099909 0.0047531558701887034 0 0.00088256115917275529 0.004702528667540222 0 0.00079418073167099909 0.0047531558701887034 0 0.00088256115917275529 0.004702528667540222 0 0.00081436412540354403 0.0046939917191914727 0 0.00088256115917275529 0.004702528667540222 0 0.00081436412540354403 0.0046939917191914727 0 0.00080835359382898462 0.0046332593045004143 0 0.0010226824621404403 0.004667600051169468 0 0.00088256115917275529 0.004702528667540222 0 0.00083843740006341657 0.0045890741444312476 0 0.0010713047869739087 0.0050587180789639259 0 0.00090974542950725571 0.0050640350739028055 0 0.00099196690064750443 0.0053817578330237863 0 0.0011209942292289418 0.0053327903491764729 0 0.0011199153420641038 0.0051942364063551219 0 0.0011530219908774039 0.0054567858223198437 0 0.00099196690064750443 0.0053817578330237863 0 0.0011209942292289418 0.0053327903491764729 0 0.00088256115917275529 0.004702528667540222 0 0.00080835359382898462 0.0046332593045004143 0 0.00083843740006341657 0.0045890741444312476 0 0.00095891798278178899 0.0048651094618273457 0 0.00090974542950725571 0.0050640350739028055 0 0.0012900702937880331 0.0053975933809344654 0 0.0011530219908774039 0.0054567858223198437 0 0.0012193670441589359 0.0052983019665133581 0 0.0011530219908774039 0.0054567858223198437 0 0.0011209942292289418 0.0053327903491764729 0 0.0012193670441589359 0.0052983019665133581 0 0.0013259688282156591 0.0051655677950589503 0 0.0012193670441589359 0.0052983019665133581 0 0.0011199153420641038 0.0051942364063551219 0 0.0011209942292289418 0.0053327903491764729 0 0.0012193670441589359 0.0052983019665133581 0 0.0011199153420641038 0.0051942364063551219 0 0.00090974542950725571 0.0050640350739028055 0 0.0011057088052875011 0.0052472908682658559 0 0.00096796610153491308 0.0053915382128352689 0 0.0011046516600446933 0.0051977762342922985 0 0.00090934856273493323 0.0052027543234311998 0 0.0011046516600446933 0.0051977762342922985 0 0.00096837794155476718 0.0049999966252894656 0 0.00090934856273493323 0.0052027543234311998 0 0.0011057088052875011 0.0052472908682658559 0 0.0012444357196649031 0.0049999785876320554 0 0.0011046516600446933 0.0051977762342922985 0 0.00096837794155476718 0.0049999966252894656 0 0.0012444278109086753 0.0049999995458458821 0 0.0013259688282156591 0.0051655677950589503 0 0.0011199153420641038 0.0051942364063551219 0 0.001244451168480275 0.0049999992436293187 0 0.00069195655393645289 0.0048801085965888592 0 0.00052904756258861376 0.0050329668496230228 0 0.00077550975991839066 0.0053044289386255626 0 0.00073054759189207085 0.0051177449457440851 0 0.00058464133826990612 0.0052166541233632522 0 0.0007011498520660401 0.0051458500995224653 0 0.00052904756258861376 0.0050329668496230228 0 0.00077550975991839066 0.0053044289386255626 0 0.00096796610153491308 0.0053915382128352689 0 0.00090934856273493323 0.0052027543234311998 0 0.00077550975991839066 0.0053044289386255626 0 0.00090934856273493323 0.0052027543234311998 0 0.00073054759189207085 0.0051177449457440851 0 0.00096837794155476718 0.0049999966252894656 0 0.00090934856273493323 0.0052027543234311998 0 0.00073054759189207085 0.0051177449457440851 0 0.00096837794155476718 0.0049999966252894656 0 0.00069233980412214836 0.005000000295378889 0 0.00073054759189207085 0.0051177449457440851 0 0.00073054759189207085 0.0051177449457440851 0 0.00056798510463101806 0.0050980408982185402 0 0.00057919142077205582 0.0052222990559985701 0 0.00069233980412214836 0.005000000295378889 0 0.00073054759189207085 0.0051177449457440851 0 0.00056798510463101806 0.0050980408982185402 0 0.00069233980412214836 0.005000000295378889 0 0.00056798510463101806 0.0050980408982185402 0 0.00041626193873983702 0.0049999871034738588 0 0.00056798510463101806 0.0050980408982185402 0 0.00041626193873983702 0.0049999871034738588 0 0.00042178929153532908 0.0051506355997252744 0 0.00041626193873983702 0.0049999871034738588 0 0.00042178929153532908 0.0051506355997252744 0 0.00025988884819047619 0.0050723297161764354 0 0.00039951546501233048 0.0051392139174403608 0 0.00027189865410829007 0.0050791043804166835 0 0.00036202685062688804 0.0051225797689072585 0 0.00028616439522193113 0.005162163419694079 0 0.00025988884819047619 0.0050723297161764354 0 0.00036202685062688804 0.0051225797689072585 0 0.00046693730766248241 0.0051689304130294027 0 0.00033411477558531699 0.0052601465365866651 0 0.00036202685062688804 0.0051225797689072585 0 0.00033411477558531699 0.0052601465365866651 0 0.00028616439522193113 0.005162163419694079 0 0.00056798510463101806 0.0050980408982185402 0 0.00042178929153532908 0.0051506355997252744 0 0.00057919142077205582 0.0052222990559985701 0 0.00052904756258861376 0.0050329668496230228 0 0.00029911183318815439 0.0048836315144312704 0 0.00039951546501233048 0.0051392139174403608 0 0.00052904756258861376 0.0050329668496230228 0 0.00044599866736420163 0.0046021212158611387 0 0.00025916563343886457 0.0045527858744889918 0 0.00036485152137569486 0.0047423448901966212 0 0.00045158480641550918 0.0044239925488266047 0 0.00044599866736420163 0.0046021212158611387 0 0.00025916563343886457 0.0045527858744889918 0 0.00025916563343886457 0.0045527858744889918 0 0.00021334420220633029 0.0047420236218799977 0 0.00036485152137569486 0.0047423448901966212 0 0.00028027236039892108 0.0048383856182352379 0 0.00021334420220633029 0.0047420236218799977 0 0.00036485152137569486 0.0047423448901966212 0 0.00044599866736420163 0.0046021212158611387 0 0.00036485152137569486 0.0047423448901966212 0 0.00048870007999891245 0.0047591480037929334 0 0.0003860368649525135 0.0048512429775139851 0 0.00036485152137569486 0.0047423448901966212 0 0.00048870007999891245 0.0047591480037929334 0 -6.5201895968295314e-06 0.0048780656268902385 0 -7.4278255556951302e-06 0.0050129822572128795 0 3.6712181412364701e-05 0.004947576851171193 0 -6.5201895968295314e-06 0.0048780656268902385 0 -6.7556288072977705e-05 0.0049535749756201885 0 -7.4278255556951302e-06 0.0050129822572128795 0 -1.0728478664211422e-05 0.0048806917062413331 0 0.00010483261878199383 0.0049740404986310036 0 7.1642010486237342e-05 0.0048385802353329887 0 -6.5201895968295314e-06 0.0048780656268902385 0 6.3186714295261124e-05 0.004797555449205005 0 6.8026091673290489e-05 0.0047659489873387063 0 0.00010483261878199383 0.0049740404986310036 0 0.00025916563343886457 0.0045527858744889918 0 0.00021334420220633029 0.0047420236218799977 0 5.8491001496510523e-05 0.0046893815468267101 0 0.00017689548480023272 0.004849664532704254 0 7.1642010486237342e-05 0.0048385802353329887 0 0.00021334420220633029 0.0047420236218799977 0 7.1642010486237342e-05 0.0048385802353329887 0 0.00021334420220633029 0.0047420236218799977 0 5.8491001496510523e-05 0.0046893815468267101 0 0.00029911183318815439 0.0048836315144312704 0 0.00010483261878199383 0.0049740404986310036 0 0.00010483261878199383 0.0049740404986310036 0 9.1373652561725435e-05 0.0051465702605996344 0 0.00033411477558531699 0.0052601465365866651 0 0.00020399529018382494 0.0053453514682083028 0 0.00018610274023733077 0.0051920364402534107 0 -6.7556288072977705e-05 0.0049535749756201885 0 -7.4278255556951302e-06 0.0050129822572128795 0 -3.6253047834511915e-06 0.0050516352641882117 0 -7.4278255556951302e-06 0.0050129822572128795 0 -3.6253047834511915e-06 0.0050516352641882117 0 2.4363591175382458e-05 0.0050499541237917474 0 0.00028616439522193113 0.005162163419694079 0 0.00018610274023733077 0.0051920364402534107 0 0.00025988884819047619 0.0050723297161764354 0 0.00033411477558531699 0.0052601465365866651 0 0.00028616439522193113 0.005162163419694079 0 0.00018610274023733077 0.0051920364402534107 0 0.00041626193873983702 0.0049999871034738588 0 0.00025988884819047619 0.0050723297161764354 0 0.00014026598095350683 0.0050000070313901612 0 0.00018610274023733077 0.0051920364402534107 0 0.00025988884819047619 0.0050723297161764354 0 0.00014026598095350683 0.0050000070313901612 0 9.1373652561725435e-05 0.0051465702605996344 0 0.00014020389590053208 0.004999945896563991 0 2.4363591175382458e-05 0.0050499541237917474 0 0.00014002498343135169 0.0049999971825866862 0 -2.717551000330115e-05 0.0049999808963315665 0 -3.6253047834511915e-06 0.0050516352641882117 0 2.4363591175382458e-05 0.0050499541237917474 0 0.00014002498343135169 0.0049999971825866862 0 2.4363591175382458e-05 0.0050499541237917474 0 -2.717551000330115e-05 0.0049999808963315665 0 -1.9196785641047505e-05 0.0050718404383659618 0 -2.717551000330115e-05 0.0049999808963315665 0 -0.00019439251875328888 0.0049999549667436548 0 -1.9196785641047505e-05 0.0050718404383659618 0 -0.00019500229158641281 0.005000182026089939 0 -0.00024932332274171689 0.0050054799752741481 0 -0.00028893551727200874 0.0048578331336785368 0 -0.00019458327401331217 0.0049999560487809019 0 -0.00015029250580876581 0.0049534362419275928 0 -0.00019500229158641281 0.005000182026089939 0 -0.00024932332274171689 0.0050054799752741481 0 -0.00031557442631458346 0.0049996911366032197 0 -0.00024932332274171689 0.0050054799752741481 0 -0.00023989631043197667 0.004867390267051656 0 -0.00018503426574044255 0.0048020484399564469 0 -0.00024932332274171689 0.0050054799752741481 0 -0.00023989631043197667 0.004867390267051656 0 -0.00028893551727200874 0.0048578331336785368 0 -0.00025807853229348036 0.0049926473356482525 0 -0.00031685194093806709 0.0049643938039741929 0 -0.00023989631043197667 0.004867390267051656 0 -0.00023326708808394501 0.0048097636474991748 0 -0.00018503426574044255 0.0048020484399564469 0 -0.00023989631043197667 0.004867390267051656 0 -0.00023326708808394501 0.0048097636474991748 0 -0.00028893551727200874 0.0048578331336785368 0 -7.4278255556951302e-06 0.0050129822572128795 0 2.4363591175382458e-05 0.0050499541237917474 0 -1.9196785641047505e-05 0.0050718404383659618 0 -0.00061088469774634824 0.0050856222276294185 0 -0.00059876080753304775 0.0049999448796052681 0 -0.00073584022680467929 0.005085736014663559 0 -0.00061088469774634824 0.0050856222276294185 0 -0.00059876080753304775 0.0049999448796052681 0 -0.00050885502901347782 0.0050747476333067735 0 -0.00050885502901347782 0.0050747476333067735 0 -0.0003160844603526913 0.0049999777853950841 0 -0.00051403714644704564 0.0051519624487886759 0 -0.00024932332274171689 0.0050054799752741481 0 -0.00031557442631458346 0.0049996911366032197 0 -0.00046176249250081742 0.0050956939370966165 0 -0.00031599175785770276 0.0050000073889186949 0 -0.00049262265005642358 0.005123397765904778 0 -0.00059876080753304775 0.0049999448796052681 0 -0.00050885502901347782 0.0050747476333067735 0 -0.0003160844603526913 0.0049999777853950841 0 -0.00024932332274171689 0.0050054799752741481 0 -0.00043769350018347354 0.005131593799678918 0 -0.00046176249250081742 0.0050956939370966165 0 -0.00050885502901347782 0.0050747476333067735 0 -0.00051403714644704564 0.0051519624487886759 0 -0.00059070121227611748 0.0051295267182569935 0 -0.00061088469774634824 0.0050856222276294185 0 -0.00050885502901347782 0.0050747476333067735 0 -0.00059070121227611748 0.0051295267182569935 0 -0.00051403714644704564 0.0051519624487886759 0 -0.00059070121227611748 0.0051295267182569935 0 -0.00064543427471558303 0.0051783278297674777 0 -0.00068151916683388786 0.0051369523356499117 0 -0.00064543427471558303 0.0051783278297674777 0 -0.00073602390345082385 0.0051815169488349209 0 -0.00059070121227611748 0.0051295267182569935 0 -0.00068151916683388786 0.0051369523356499117 0 -0.00064543427471558303 0.0051783278297674777 0 -0.00061088469774634824 0.0050856222276294185 0 -0.00059070121227611748 0.0051295267182569935 0 -0.00068151916683388786 0.0051369523356499117 0 -0.00051403714644704564 0.0051519624487886759 0 -0.00064543427471558303 0.0051783278297674777 0 -0.00067320555584303465 0.0052317386961853295 0 -0.0007104239203151873 0.0052100072659159082 0 -0.00074542645486721777 0.0052310563635426322 0 -0.00076823312339827175 0.0052139705988782136 0 -0.0007104239203151873 0.0052100072659159082 0 -0.00064543427471558303 0.0051783278297674777 0 -0.00073602390345082385 0.0051815169488349209 0 -0.0007104239203151873 0.0052100072659159082 0 -0.00064543427471558303 0.0051783278297674777 0 -0.00067320555584303465 0.0052317386961853295 0 -0.00031685194093806709 0.0049643938039741929 0 -0.00047793901488949971 0.0049901593118646123 0 -0.00018503426574044255 0.0048020484399564469 0 -0.00025492554554048256 0.0047458131676984296 0 -0.00022527439033230204 0.0047685429537292984 0 -0.00043769350018347354 0.005131593799678918 0 -0.00046176249250081742 0.0050956939370966165 0 -0.00067320555584303465 0.0052317386961853295 0 -0.00049262265005642358 0.005123397765904778 0 -0.00064594281760562561 0.0052339167441408981 0 -0.00018503426574044255 0.0048020484399564469 0 -0.00025492554554048256 0.0047458131676984296 0 -0.00030156685778377562 0.0047266160514810298 0 -0.00043769350018347354 0.005131593799678918 0 -0.00065460141508477199 0.0052530979738992997 0 -0.00067320555584303465 0.0052317386961853295 0 -0.00025492554554048256 0.0047458131676984296 0 -0.00028578077401673457 0.0047487391705146346 0 -0.00025120471633841582 0.0047578715247549143 0 -0.00028578077401673457 0.0047487391705146346 0 -0.00025120471633841582 0.0047578715247549143 0 -0.00034582614365184382 0.0047933424810541582 0 -0.00028578077401673457 0.0047487391705146346 0 -0.00030156685778377562 0.0047266160514810298 0 -0.00034582614365184382 0.0047933424810541582 0 -0.00025492554554048256 0.0047458131676984296 0 -0.00028578077401673457 0.0047487391705146346 0 -0.00030156685778377562 0.0047266160514810298 0 -0.00065460141508477199 0.0052530979738992997 0 -0.00067320555584303465 0.0052317386961853295 0 -0.00075374596938786295 0.0052511531078388938 0 -0.00067320555584303465 0.0052317386961853295 0 -0.00075374596938786295 0.0052511531078388938 0 -0.00074542645486721777 0.0052310563635426322 0 -0.0007104239203151873 0.0052100072659159082 0 -0.00067320555584303465 0.0052317386961853295 0 -0.00074542645486721777 0.0052310563635426322 0 -7.4278255556951302e-06 0.0050129822572128795 0 -1.9196785641047505e-05 0.0050718404383659618 0 3.6712181412364701e-05 0.004947576851171193 0 -0.00015029250580876581 0.0049534362419275928 0 -7.6257478257045632e-05 0.0048570103322885813 0 -0.00028893551727200874 0.0048578331336785368 0 -0.00022356096714371782 0.0047706061736126522 0 -0.00018269280169475212 0.0047404720735125944 0 -0.00022356096714371782 0.0047706061736126522 0 -0.0002038539279468723 0.0047543975089140884 0 -0.00018269280169475212 0.0047404720735125944 0 -0.00023326708808394501 0.0048097636474991748 0 -0.00028893551727200874 0.0048578331336785368 0 -0.00022356096714371782 0.0047706061736126522 0 -0.00023326708808394501 0.0048097636474991748 0 -0.00022527439033230204 0.0047685429537292984 0 -0.00022356096714371782 0.0047706061736126522 0 -0.00023326708808394501 0.0048097636474991748 0 -0.00018503426574044255 0.0048020484399564469 0 -0.00022527439033230204 0.0047685429537292984 0 -0.00022527439033230204 0.0047685429537292984 0 -0.00022356096714371782 0.0047706061736126522 0 -0.00022652177065549995 0.0047513737845996627 0 -0.00025492554554048256 0.0047458131676984296 0 -0.00022527439033230204 0.0047685429537292984 0 -0.00022652177065549995 0.0047513737845996627 0 -0.00022356096714371782 0.0047706061736126522 0 -0.0002038539279468723 0.0047543975089140884 0 -0.00022652177065549995 0.0047513737845996627 0 -0.0002038539279468723 0.0047543975089140884 0 -0.00022652177065549995 0.0047513737845996627 0 -0.0001863746433918442 0.0047726838983626384 0 -0.00025492554554048256 0.0047458131676984296 0 -0.00025120471633841582 0.0047578715247549143 0 -0.00022652177065549995 0.0047513737845996627 0 -0.00025120471633841582 0.0047578715247549143 0 -0.0001863746433918442 0.0047726838983626384 0 -0.00023529779826856424 0.0048091148519569518 0 -0.00025120471633841582 0.0047578715247549143 0 -0.00022652177065549995 0.0047513737845996627 0 -0.0001863746433918442 0.0047726838983626384 0 -7.6257478257045632e-05 0.0048570103322885813 0 -3.1388702228227185e-05 0.0048629002273680669 0 -0.0001863746433918442 0.0047726838983626384 0 -0.00018269280169475212 0.0047404720735125944 0 -2.6127966816265026e-05 0.0048563247734460871 0 -6.5201895968295314e-06 0.0048780656268902385 0 3.6712181412364701e-05 0.004947576851171193 0 -2.6127966816265026e-05 0.0048563247734460871 0 -0.0002038539279468723 0.0047543975089140884 0 -0.0001863746433918442 0.0047726838983626384 0 -0.00018269280169475212 0.0047404720735125944 0 -0.0001863746433918442 0.0047726838983626384 0 -2.6127966816265026e-05 0.0048563247734460871 0 -0.00013630378203079941 0.0048405247689423817 0 -2.6127966816265026e-05 0.0048563247734460871 0 -6.2221342576162885e-05 0.0048795440471878608 0 -0.00013630378203079941 0.0048405247689423817 0 -0.00017865055045029323 0.0048737013725260259 0 -0.00023529779826856424 0.0048091148519569518 0 -0.00029865989866518453 0.0049767790633636821 0 -6.2221342576162885e-05 0.0048795440471878608 0 -0.00029865989866518453 0.0049767790633636821 0 -4.0643324379504665e-05 0.0051232711865776357 0 -6.2221342576162885e-05 0.0048795440471878608 0 -0.00017865055045029323 0.0048737013725260259 0 -0.00029865989866518453 0.0049767790633636821 0 -6.2221342576162885e-05 0.0048795440471878608 0 -0.00017865055045029323 0.0048737013725260259 0 -0.00013630378203079941 0.0048405247689423817 0 -0.00017865055045029323 0.0048737013725260259 0 -0.00013630378203079941 0.0048405247689423817 0 -0.00023529779826856424 0.0048091148519569518 0 -0.0001863746433918442 0.0047726838983626384 0 -0.00013630378203079941 0.0048405247689423817 0 -0.00023529779826856424 0.0048091148519569518 0 -0.00025120471633841582 0.0047578715247549143 0 -0.00023529779826856424 0.0048091148519569518 0 -0.00034582614365184382 0.0047933424810541582 0 -0.00030156685778377562 0.0047266160514810298 0 -0.00034582614365184382 0.0047933424810541582 0 -0.0005242758680085544 0.0048500282579005795 0 -0.00034582614365184382 0.0047933424810541582 0 -0.0005242758680085544 0.0048500282579005795 0 -0.00029865989866518453 0.0049767790633636821 0 -0.00023529779826856424 0.0048091148519569518 0 -0.00034582614365184382 0.0047933424810541582 0 -0.00029865989866518453 0.0049767790633636821 0 -0.00047793901488949971 0.0049901593118646123 0 -0.00065358982089969999 0.0050634622480673621 0 -0.00065460141508477199 0.0052530979738992997 0 -0.00075374596938786295 0.0052511531078388938 0 -0.00079009634766889834 0.0052570990541801199 0 -0.00075374596938786295 0.0052511531078388938 0 -0.00079009634766889834 0.0052570990541801199 0 -0.00083959696952986477 0.0052465249465778047 0 -0.00079009634766889834 0.0052570990541801199 0 -0.00078171648160910731 0.0052032360906575318 0 -0.00083959696952986477 0.0052465249465778047 0 -0.00065358982089969999 0.0050634622480673621 0 -0.00076946797307272604 0.00520052157956749 0 -0.0005242758680085544 0.0048500282579005795 0 -0.00050316900922356303 0.0051444453672575153 0 -0.00078171648160910731 0.0052032360906575318 0 -0.0005242758680085544 0.0048500282579005795 0 -0.00029865989866518453 0.0049767790633636821 0 -0.00050316900922356303 0.0051444453672575153 0 -0.00029865989866518453 0.0049767790633636821 0 -0.00050316900922356303 0.0051444453672575153 0 -0.00031603705942356017 0.0052772983403302567 0 -0.00050316900922356303 0.0051444453672575153 0 -0.00058835817137752402 0.005377359467117422 0 -0.00031603705942356017 0.0052772983403302567 0 -0.00050316900922356303 0.0051444453672575153 0 -0.00058835817137752402 0.005377359467117422 0 -0.00078171648160910731 0.0052032360906575318 0 -0.00058835817137752402 0.005377359467117422 0 -0.00078171648160910731 0.0052032360906575318 0 -0.00080638463911406652 0.0055066143734974152 0 -0.00058835817137752402 0.005377359467117422 0 -0.00031603705942356017 0.0052772983403302567 0 -0.00044283485587743308 0.0056720427949153458 0 -0.00031603705942356017 0.0052772983403302567 0 -4.8854450264234247e-05 0.005467956744672803 0 -0.00044283485587743308 0.0056720427949153458 0 -0.00031603705942356017 0.0052772983403302567 0 -4.8854450264234247e-05 0.005467956744672803 0 -4.0643324379504665e-05 0.0051232711865776357 0 0.00030973135583285813 0.0053061225239321589 0 -4.8854450264234247e-05 0.005467956744672803 0 -4.0643324379504665e-05 0.0051232711865776357 0 0.00030973135583285813 0.0053061225239321589 0 -4.8854450264234247e-05 0.005467956744672803 0 0.00028564311069258994 0.0055904193144961003 0 0.00037183037523188774 0.0049917775819069022 0 0.00030973135583285813 0.0053061225239321589 0 -4.0643324379504665e-05 0.0051232711865776357 0 0.00037183037523188774 0.0049917775819069022 0 -6.2221342576162885e-05 0.0048795440471878608 0 -4.0643324379504665e-05 0.0051232711865776357 0 -0.00029865989866518453 0.0049767790633636821 0 -0.00031603705942356017 0.0052772983403302567 0 -4.0643324379504665e-05 0.0051232711865776357 0 -0.0012079209723080317 0.0051316897411690134 0 -0.0010637213408167757 0.0053488460820406139 0 -0.00094856432968042071 0.0052607424647234018 0 -0.0010939845208096052 0.0052818189528007296 0 -0.0014260905908634422 0.0049818776434823108 0 -0.0012079209723080317 0.0051316897411690134 0 -0.0012779736235466455 0.0050886158922371543 0 -0.0011902170586656317 0.0051086945076529947 0 -0.0012608392918173085 0.00509445755897897 0 -0.0012661670331208701 0.0050966121829287888 0 -0.0012779736235466455 0.0050886158922371543 0 -0.0015071080394632433 0.0048431061611807855 0 -0.0014143079451700215 0.0048676053377117662 0 -0.0012079209723080317 0.0051316897411690134 0 -0.0012779736235466455 0.0050886158922371543 0 -0.0010637213408167757 0.0053488460820406139 0 -0.0010637213408167757 0.0053488460820406139 0 -0.00094856432968042071 0.0052607424647234018 0 -0.00080638463911406652 0.0055066143734974152 0 -0.00078171648160910731 0.0052032360906575318 0 -0.00094856432968042071 0.0052607424647234018 0 -0.00080638463911406652 0.0055066143734974152 0 -0.00078171648160910731 0.0052032360906575318 0 -0.00094856432968042071 0.0052607424647234018 0 -0.00094572928613683772 0.0052331563793085048 0 -0.0012079209723080317 0.0051316897411690134 0 -0.00094856432968042071 0.0052607424647234018 0 -0.00094572928613683772 0.0052331563793085048 0 -0.00078171648160910731 0.0052032360906575318 0 -0.00094572928613683772 0.0052331563793085048 0 -0.00083959696952986477 0.0052465249465778047 0 -0.00075374596938786295 0.0052511531078388938 0 -0.00083959696952986477 0.0052465249465778047 0 -0.00083199119874301849 0.0052372039625189657 0 -0.00083959696952986477 0.0052465249465778047 0 -0.00094832830600645544 0.0052546513053395019 0 -0.00083199119874301849 0.0052372039625189657 0 -0.00094572928613683772 0.0052331563793085048 0 -0.00083959696952986477 0.0052465249465778047 0 -0.00094832830600645544 0.0052546513053395019 0 -0.00094832830600645544 0.0052546513053395019 0 -0.0010578104968359825 0.0052802824273132905 0 -0.001064558727059294 0.0052517580652492336 0 -0.00094572928613683772 0.0052331563793085048 0 -0.00094832830600645544 0.0052546513053395019 0 -0.0010578104968359825 0.0052802824273132905 0 -0.0010713230266446334 0.0053553626152275406 0 -0.00094572928613683772 0.0052331563793085048 0 -0.0010578104968359825 0.0052802824273132905 0 -0.0010939845208096052 0.0052818189528007296 0 -0.00098881788998607064 0.0052249405601712739 0 -0.0010713230266446334 0.0053553626152275406 0 -0.0010578104968359825 0.0052802824273132905 0 -0.0011574061990082577 0.005316891302576455 0 -0.0010578104968359825 0.0052802824273132905 0 -0.001064558727059294 0.0052517580652492336 0 -0.0011643117523373215 0.0052584624431192273 0 -0.0010578104968359825 0.0052802824273132905 0 -0.0011643117523373215 0.0052584624431192273 0 -0.0011574061990082577 0.005316891302576455 0 -0.001064558727059294 0.0052517580652492336 0 -0.0012796519160410784 0.0051897231514214538 0 -0.0011643117523373215 0.0052584624431192273 0 -0.001064558727059294 0.0052517580652492336 0 -0.0010143661959999184 0.005184085650835211 0 -0.00094068627003928481 0.0052293368751519112 0 -0.00094832830600645544 0.0052546513053395019 0 -0.001064558727059294 0.0052517580652492336 0 -0.00094068627003928481 0.0052293368751519112 0 -0.001064558727059294 0.0052517580652492336 0 -0.0010143661959999184 0.005184085650835211 0 -0.0012796519160410784 0.0051897231514214538 0 -0.0010143661959999184 0.005184085650835211 0 -0.0012796519160410784 0.0051897231514214538 0 -0.0010873353550929282 0.0050917821820325986 0 -0.00075374596938786295 0.0052511531078388938 0 -0.00074542645486721777 0.0052310563635426322 0 -0.00083199119874301849 0.0052372039625189657 0 -0.00074542645486721777 0.0052310563635426322 0 -0.00083199119874301849 0.0052372039625189657 0 -0.00076823312339827175 0.0052139705988782136 0 -0.00083199119874301849 0.0052372039625189657 0 -0.00094068627003928481 0.0052293368751519112 0 -0.00084598659893874947 0.0051908716637652065 0 -0.00094832830600645544 0.0052546513053395019 0 -0.00083199119874301849 0.0052372039625189657 0 -0.00094068627003928481 0.0052293368751519112 0 -0.0010143661959999184 0.005184085650835211 0 -0.00094068627003928481 0.0052293368751519112 0 -0.00084598659893874947 0.0051908716637652065 0 -0.0010143661959999184 0.005184085650835211 0 -0.00084598659893874947 0.0051908716637652065 0 -0.00088476979926776025 0.0051193210784327235 0 -0.00083199119874301849 0.0052372039625189657 0 -0.00084598659893874947 0.0051908716637652065 0 -0.00076823312339827175 0.0052139705988782136 0 -0.00084598659893874947 0.0051908716637652065 0 -0.00073602390345082385 0.0051815169488349209 0 -0.00077321095261738144 0.0051434929907847003 0 -0.0007104239203151873 0.0052100072659159082 0 -0.00073602390345082385 0.0051815169488349209 0 -0.00076823312339827175 0.0052139705988782136 0 -0.00084598659893874947 0.0051908716637652065 0 -0.00073602390345082385 0.0051815169488349209 0 -0.00076823312339827175 0.0052139705988782136 0 -0.00068151916683388786 0.0051369523356499117 0 -0.00077321095261738144 0.0051434929907847003 0 -0.00073584022680467929 0.005085736014663559 0 -0.00061088469774634824 0.0050856222276294185 0 -0.00068151916683388786 0.0051369523356499117 0 -0.00073584022680467929 0.005085736014663559 0 -0.00068151916683388786 0.0051369523356499117 0 -0.00073602390345082385 0.0051815169488349209 0 -0.00077321095261738144 0.0051434929907847003 0 -0.00077321095261738144 0.0051434929907847003 0 -0.00088476979926776025 0.0051193210784327235 0 -0.00073584022680467929 0.005085736014663559 0 -0.00084598659893874947 0.0051908716637652065 0 -0.00077321095261738144 0.0051434929907847003 0 -0.00088476979926776025 0.0051193210784327235 0 -0.00088476979926776025 0.0051193210784327235 0 -0.00088144061457928226 0.0049999433160776386 0 -0.0010873353550929282 0.0050917821820325986 0 -0.00088476979926776025 0.0051193210784327235 0 -0.00088144061457928226 0.0049999433160776386 0 -0.00073584022680467929 0.005085736014663559 0 -0.00059876080753304775 0.0049999448796052681 0 -0.00088144061457928226 0.0049999433160776386 0 -0.00073584022680467929 0.005085736014663559 0 -0.0012796519160410784 0.0051897231514214538 0 -0.0010873353550929282 0.0050917821820325986 0 -0.0012988462337925224 0.0050785074758358867 0 -0.0010143661959999184 0.005184085650835211 0 -0.00088476979926776025 0.0051193210784327235 0 -0.0010873353550929282 0.0050917821820325986 0 -0.00088144061457928226 0.0049999433160776386 0 -0.0010873353550929282 0.0050917821820325986 0 -0.0011641615264749395 0.0049999161275117963 0 -0.0010873353550929282 0.0050917821820325986 0 -0.0011641615264749395 0.0049999161275117963 0 -0.0012988462337925224 0.0050785074758358867 0 -0.0011641615264749395 0.0049999161275117963 0 -0.0012988462337925224 0.0050785074758358867 0 -0.0014469312120093233 0.0049999215655071524 0 -0.0012988462337925224 0.0050785074758358867 0 -0.0015127650553317707 0.005130042140567303 0 -0.0014469312120093233 0.0049999215655071524 0 -0.0012796519160410784 0.0051897231514214538 0 -0.0012988462337925224 0.0050785074758358867 0 -0.0015127650553317707 0.005130042140567303 0 -0.0015127650553317707 0.005130042140567303 0 -0.0014469312120093233 0.0049999215655071524 0 -0.0016506636361804934 0.0050888270139991497 0 -0.0014469312120093233 0.0049999215655071524 0 -0.0017296096164162369 0.0049999386332341489 0 -0.0016506636361804934 0.0050888270139991497 0 -0.0017296096164162369 0.0049999386332341489 0 -0.00185583107982483 0.0050987064551710308 0 -0.0016506636361804934 0.0050888270139991497 0 -0.0017296096164162369 0.0049999386332341489 0 -0.00185583107982483 0.0050987064551710308 0 -0.0020123555979071894 0.004999881169828916 0 -0.0015127650553317707 0.005130042140567303 0 -0.0016506636361804934 0.0050888270139991497 0 -0.0016929064239841441 0.0051949627034478746 0 -0.00185583107982483 0.0050987064551710308 0 -0.0016506636361804934 0.0050888270139991497 0 -0.0016929064239841441 0.0051949627034478746 0 -0.00185583107982483 0.0050987064551710308 0 -0.0016929064239841441 0.0051949627034478746 0 -0.0018268673717493199 0.0051977170083948535 0 -0.0018268673717493199 0.0051977170083948535 0 -0.0017412142647215939 0.005207590421346363 0 -0.0017832714075923977 0.0052127007153421915 0 -0.0016929064239841441 0.0051949627034478746 0 -0.0018268673717493199 0.0051977170083948535 0 -0.0017412142647215939 0.005207590421346363 0 -0.0016929064239841441 0.0051949627034478746 0 -0.0016608365177653477 0.0052168886233620541 0 -0.0017412142647215939 0.005207590421346363 0 -0.0016929064239841441 0.0051949627034478746 0 -0.0016608365177653477 0.0052168886233620541 0 -0.001550557443573192 0.0052110122380534989 0 -0.0016608365177653477 0.0052168886233620541 0 -0.0015883389725356288 0.0052322209067998601 0 -0.001550557443573192 0.0052110122380534989 0 -0.0012796519160410784 0.0051897231514214538 0 -0.0015883389725356288 0.0052322209067998601 0 -0.001550557443573192 0.0052110122380534989 0 -0.0012941742802397762 0.0051723588559168341 0 -0.0013686135271886537 0.0052153890694873134 0 -0.0012796519160410784 0.0051897231514214538 0 -0.0015127650553317707 0.005130042140567303 0 -0.001550557443573192 0.0052110122380534989 0 -0.0015127650553317707 0.005130042140567303 0 -0.0016929064239841441 0.0051949627034478746 0 -0.001550557443573192 0.0052110122380534989 0 -0.0025204363374023955 0.0050232967050647045 0 -0.002336175786585514 0.0050288877063243481 0 -0.0026183008006800709 0.004901485665664433 0 -0.0025204363374023955 0.0050232967050647045 0 -0.002336175786585514 0.0050288877063243481 0 -0.0024357715817159421 0.0050783680676094733 0 -0.0025204363374023955 0.0050232967050647045 0 -0.0024357715817159421 0.0050783680676094733 0 -0.0025773633139443276 0.0050683318742580702 0 -0.0023622197616863729 0.0050271749832269935 0 -0.0025887088672122286 0.0050003326295409269 0 -0.0024367701838483632 0.0050364939576954459 0 -0.0022950888766695861 0.0049999012681766434 0 -0.0025777230992453737 0.0049999842269962073 0 -0.0024367701838483632 0.0050364939576954459 0 -0.002336175786585514 0.0050288877063243481 0 -0.0025585649383078465 0.0050989173255304799 0 -0.0024367701838483632 0.0050364939576954459 0 -0.002336175786585514 0.0050288877063243481 0 -0.0022950888766695861 0.0049999012681766434 0 -0.002336175786585514 0.0050288877063243481 0 -0.002124234000250439 0.0050538274868451366 0 -0.0021926982673038382 0.0050205305265448351 0 -0.002336175786585514 0.0050288877063243481 0 -0.0022950888766695861 0.0049999012681766434 0 -0.0021926982673038382 0.0050205305265448351 0 -0.002336175786585514 0.0050288877063243481 0 -0.002124234000250439 0.0050538274868451366 0 -0.0023080951632277412 0.005100259259032726 0 -0.002336175786585514 0.0050288877063243481 0 -0.0023080951632277412 0.005100259259032726 0 -0.0024357715817159421 0.0050783680676094733 0 -0.002124234000250439 0.0050538274868451366 0 -0.0020143054001950972 0.0051076630561973594 0 -0.0023080951632277412 0.005100259259032726 0 -0.0022950888766695861 0.0049999012681766434 0 -0.0021926982673038382 0.0050205305265448351 0 -0.0020123555979071894 0.004999881169828916 0 -0.002124234000250439 0.0050538274868451366 0 -0.0021926982673038382 0.0050205305265448351 0 -0.0020123555979071894 0.004999881169828916 0 -0.00185583107982483 0.0050987064551710308 0 -0.002124234000250439 0.0050538274868451366 0 -0.0020123555979071894 0.004999881169828916 0 -0.00185583107982483 0.0050987064551710308 0 -0.002124234000250439 0.0050538274868451366 0 -0.0020143054001950972 0.0051076630561973594 0 -0.0018268673717493199 0.0051977170083948535 0 -0.0020478925185393494 0.0051703576519639728 0 -0.0020143054001950972 0.0051076630561973594 0 -0.00185583107982483 0.0050987064551710308 0 -0.0018268673717493199 0.0051977170083948535 0 -0.0020143054001950972 0.0051076630561973594 0 -0.0020478925185393494 0.0051703576519639728 0 -0.0019278881146723302 0.0052306208864072896 0 -0.0017985603835096633 0.005241377666820546 0 -0.0018268673717493199 0.0051977170083948535 0 -0.0017985603835096633 0.005241377666820546 0 -0.0017832714075923977 0.0052127007153421915 0 -0.0018268673717493199 0.0051977170083948535 0 -0.0020478925185393494 0.0051703576519639728 0 -0.0017985603835096633 0.005241377666820546 0 -0.0020613044816398174 0.005147889469334155 0 -0.0021377849215798508 0.0051852387453764203 0 -0.0020478925185393494 0.0051703576519639728 0 -0.002353940254166157 0.0051706560282783675 0 -0.0023667405120712864 0.005201789367886755 0 -0.002353940254166157 0.0051706560282783675 0 -0.0024416959626841934 0.0051674087104765258 0 -0.0023667405120712864 0.005201789367886755 0 -0.0020478925185393494 0.0051703576519639728 0 -0.0020143054001950972 0.0051076630561973594 0 -0.0023080951632277412 0.005100259259032726 0 -0.0020478925185393494 0.0051703576519639728 0 -0.0023080951632277412 0.005100259259032726 0 -0.002353940254166157 0.0051706560282783675 0 -0.0023080951632277412 0.005100259259032726 0 -0.002445292749113728 0.0051289908036349346 0 -0.002353940254166157 0.0051706560282783675 0 -0.0023080951632277412 0.005100259259032726 0 -0.002445292749113728 0.0051289908036349346 0 -0.0024357715817159421 0.0050783680676094733 0 -0.002353940254166157 0.0051706560282783675 0 -0.0024888604113673649 0.0051535421464880228 0 -0.0024416959626841934 0.0051674087104765258 0 -0.002445292749113728 0.0051289908036349346 0 -0.002353940254166157 0.0051706560282783675 0 -0.0024888604113673649 0.0051535421464880228 0 -0.002445292749113728 0.0051289908036349346 0 -0.0024888604113673649 0.0051535421464880228 0 -0.0025423850662989645 0.0051350525141411326 0 -0.0024888604113673649 0.0051535421464880228 0 -0.0025423850662989645 0.0051350525141411326 0 -0.0026131920753281789 0.0051326294664748228 0 -0.0025423850662989645 0.0051350525141411326 0 -0.002523492329388062 0.0051079766136576891 0 -0.0026349730204802226 0.0051288747097862249 0 -0.002445292749113728 0.0051289908036349346 0 -0.0025423850662989645 0.0051350525141411326 0 -0.002523492329388062 0.0051079766136576891 0 -0.002445292749113728 0.0051289908036349346 0 -0.002523492329388062 0.0051079766136576891 0 -0.0024357715817159421 0.0050783680676094733 0 -0.002523492329388062 0.0051079766136576891 0 -0.0024357715817159421 0.0050783680676094733 0 -0.0025773633139443276 0.0050683318742580702 0 -0.0026090571115838829 0.0050763495241773872 0 -0.0026312891187739015 0.0050041597097938879 0 -0.0026842465407173029 0.0050205256837867213 0 -0.0025766235647244453 0.0050777719444729651 0 -0.0025831714134752978 0.0050489949366042458 0 -0.0026312891187739015 0.0050041597097938879 0 -0.0026090571115838829 0.0050763495241773872 0 -0.0025766235647244453 0.0050777719444729651 0 -0.0026312891187739015 0.0050041597097938879 0 -0.0026090571115838829 0.0050763495241773872 0 -0.0025306723123379293 0.0051338957089132834 0 -0.0025766235647244453 0.0050777719444729651 0 -0.0026090571115838829 0.0050763495241773872 0 -0.0026131920753281789 0.0051326294664748228 0 -0.0025306723123379293 0.0051338957089132834 0 -0.0024888604113673649 0.0051535421464880228 0 -0.0026131920753281789 0.0051326294664748228 0 -0.0025306723123379293 0.0051338957089132834 0 -0.0024888604113673649 0.0051535421464880228 0 -0.0025306723123379293 0.0051338957089132834 0 -0.0024416959626841934 0.0051674087104765258 0 -0.0025306723123379293 0.0051338957089132834 0 -0.0024416959626841934 0.0051674087104765258 0 -0.0024841939068285888 0.0051484089780861443 0 -0.0025306723123379293 0.0051338957089132834 0 -0.0024841939068285888 0.0051484089780861443 0 -0.0025375734923506164 0.0051095641745090761 0 -0.0024841939068285888 0.0051484089780861443 0 -0.0025375734923506164 0.0051095641745090761 0 -0.002554866305320729 0.0051001501427454079 0 -0.0025306723123379293 0.0051338957089132834 0 -0.0025375734923506164 0.0051095641745090761 0 -0.0025766235647244453 0.0050777719444729651 0 -0.0025375734923506164 0.0051095641745090761 0 -0.0025766235647244453 0.0050777719444729651 0 -0.0025831714134752978 0.0050489949366042458 0 -0.0025375734923506164 0.0051095641745090761 0 -0.0025831714134752978 0.0050489949366042458 0 -0.002554866305320729 0.0051001501427454079 0 -0.0019628941422056459 0.0053628735501886462 0 -0.0019210023045328536 0.0053723159387425697 0 -0.0019977437735998024 0.0054487245249703877 0 -0.0019628941422056459 0.0053628735501886462 0 -0.0019210023045328536 0.0053723159387425697 0 -0.0019278881146723302 0.0052306208864072896 0 -0.0014971490007533801 0.0050793520229547619 0 -0.001682498687419411 0.0051267785655945966 0 -0.0015779165958916357 0.0050199788232361707 0 -0.0014971490007533801 0.0050793520229547619 0 -0.0015779165958916357 0.0050199788232361707 0 -0.0014806353022804764 0.0049551107084243335 0 -0.0024841939068285888 0.0051484089780861443 0 -0.002554866305320729 0.0051001501427454079 0 -0.0023667405120712864 0.005201789367886755 0 -0.0019210023045328536 0.0053723159387425697 0 -0.0019278881146723302 0.0052306208864072896 0 -0.0017985603835096633 0.005241377666820546 0 -0.0022785033426295856 0.0052680337398117545 0 -0.0021377849215798508 0.0051852387453764203 0 -0.0024416959626841934 0.0051674087104765258 0 -0.0024841939068285888 0.0051484089780861443 0 -0.0023667405120712864 0.005201789367886755 0 -0.0017985603835096633 0.005241377666820546 0 -0.001682498687419411 0.0051267785655945966 0 -0.0017576195819833686 0.0051671974735732831 0 -0.0014971490007533801 0.0050793520229547619 0 -0.0017985603835096633 0.005241377666820546 0 -0.001682498687419411 0.0051267785655945966 0 -0.001674259908017686 0.0052113312141063703 0 -0.0017887705153719386 0.0052453086556141877 0 -0.001682498687419411 0.0051267785655945966 0 -0.0017576195819833686 0.0051671974735732831 0 -0.0017202673787878122 0.0050417936397560408 0 -0.001682498687419411 0.0051267785655945966 0 -0.0015779165958916357 0.0050199788232361707 0 -0.0016487686402487129 0.0049989704907776912 0 -0.001682498687419411 0.0051267785655945966 0 -0.0016487686402487129 0.0049989704907776912 0 -0.0017202673787878122 0.0050417936397560408 0 -0.0016487686402487129 0.0049989704907776912 0 -0.0017202673787878122 0.0050417936397560408 0 -0.0016924488112159935 0.0049012288894399961 0 -0.0016487686402487129 0.0049989704907776912 0 -0.0016190530261303187 0.004880515376076297 0 -0.0016924488112159935 0.0049012288894399961 0 -0.0015779165958916357 0.0050199788232361707 0 -0.0016487686402487129 0.0049989704907776912 0 -0.0015726131466258818 0.0049488700092921306 0 -0.0016487686402487129 0.0049989704907776912 0 -0.0015726131466258818 0.0049488700092921306 0 -0.0016190530261303187 0.004880515376076297 0 -0.0015726131466258818 0.0049488700092921306 0 -0.0016190530261303187 0.004880515376076297 0 -0.0015453492852187476 0.0048753237903420609 0 -0.0016190530261303187 0.004880515376076297 0 -0.0015706785778456149 0.0048094773905780841 0 -0.0015453492852187476 0.0048753237903420609 0 -0.0016190530261303187 0.004880515376076297 0 -0.0016553284205546989 0.0047097707628643492 0 -0.0016924488112159935 0.0049012288894399961 0 -0.0016553284205546989 0.0047097707628643492 0 -0.0016177056198996131 0.0045249999976472019 0 -0.0017576683656427821 0.0046372797494066802 0 -0.001675561420936575 0.004673652952218805 0 -0.0015497204905300333 0.0045792996068262917 0 -0.0016553284205546989 0.0047097707628643492 0 -0.0015444229775384945 0.0047413833541771911 0 -0.0014901901905019531 0.0047303411071811527 0 -0.0016553284205546989 0.0047097707628643492 0 -0.0016177056198996131 0.0045249999976472019 0 -0.0016016729274910156 0.0044127839864384604 0 -0.0016553284205546989 0.0047097707628643492 0 -0.0015706785778456149 0.0048094773905780841 0 -0.0015444229775384945 0.0047413833541771911 0 -0.0016190530261303187 0.004880515376076297 0 -0.0016553284205546989 0.0047097707628643492 0 -0.0015706785778456149 0.0048094773905780841 0 -0.0015444229775384945 0.0047413833541771911 0 -0.0014901901905019531 0.0047303411071811527 0 -0.0013516839787329825 0.0047547969536084998 0 -0.0015444229775384945 0.0047413833541771911 0 -0.0014148016989803576 0.0048067058728727564 0 -0.0012893981803727942 0.0047476512452300952 0 -0.0013893998284802719 0.0047599550166828215 0 -0.0016680996896566013 0.0046561965855995129 0 -0.0015706785778456149 0.0048094773905780841 0 -0.0015444229775384945 0.0047413833541771911 0 -0.0014959870058088619 0.0048342300539539907 0 -0.0015444229775384945 0.0047413833541771911 0 -0.0014148016989803576 0.0048067058728727564 0 -0.0014959870058088619 0.0048342300539539907 0 -0.0016177056198996131 0.0045249999976472019 0 -0.0016016729274910156 0.0044127839864384604 0 -0.0016089572772370626 0.0044072594873596866 0 -0.0016016729274910156 0.0044127839864384604 0 -0.0016874924953941828 0.0043005003531787732 0 -0.0016579721878359707 0.0043400190210078349 0 -0.0016016729274910156 0.0044127839864384604 0 -0.0016579721878359707 0.0043400190210078349 0 -0.0016089572772370626 0.0044072594873596866 0 -0.001674259908017686 0.0052113312141063703 0 -0.0019882823531901204 0.0050663048212983624 0 -0.0014424267964229715 0.0048717231459969789 0 -0.0014806353022804764 0.0049551107084243335 0 -0.0013254924073963924 0.0048590305564755751 0 -0.0014148016989803576 0.0048067058728727564 0 -0.0014424267964229715 0.0048717231459969789 0 -0.0013254924073963924 0.0048590305564755751 0 -0.0014971490007533801 0.0050793520229547619 0 -0.0014806353022804764 0.0049551107084243335 0 -0.0013254924073963924 0.0048590305564755751 0 -0.0014148016989803576 0.0048067058728727564 0 -0.0014424267964229715 0.0048717231459969789 0 -0.0014959870058088619 0.0048342300539539907 0 -0.0015706785778456149 0.0048094773905780841 0 -0.0014959870058088619 0.0048342300539539907 0 -0.0015453492852187476 0.0048753237903420609 0 -0.0014959870058088619 0.0048342300539539907 0 -0.0015453492852187476 0.0048753237903420609 0 -0.0014930665509668346 0.004904542831084358 0 -0.0014424267964229715 0.0048717231459969789 0 -0.0014959870058088619 0.0048342300539539907 0 -0.0014930665509668346 0.004904542831084358 0 -0.0015779165958916357 0.0050199788232361707 0 -0.0015726131466258818 0.0049488700092921306 0 -0.0014806353022804764 0.0049551107084243335 0 -0.0015726131466258818 0.0049488700092921306 0 -0.0014930665509668346 0.004904542831084358 0 -0.0014806353022804764 0.0049551107084243335 0 -0.0015726131466258818 0.0049488700092921306 0 -0.0015453492852187476 0.0048753237903420609 0 -0.0014930665509668346 0.004904542831084358 0 -0.0014424267964229715 0.0048717231459969789 0 -0.0014930665509668346 0.004904542831084358 0 -0.0014806353022804764 0.0049551107084243335 0 -0.0022785033426295856 0.0052680337398117545 0 -0.0019882823531901204 0.0050663048212983624 0 -0.0025831714134752978 0.0050489949366042458 0 -0.002554866305320729 0.0051001501427454079 0 -0.002608591871758915 0.005006912363192618 0 -0.0025831714134752978 0.0050489949366042458 0 -0.0026121583286456323 0.0049986334629273854 0 -0.002608591871758915 0.005006912363192618 0 -0.0026121583286456323 0.0049986334629273854 0 -0.002608591871758915 0.005006912363192618 0 -0.0026077098052388857 0.0050027781921818375 0 -0.0016016729274910156 0.0044127839864384604 0 -0.0016874924953941828 0.0043005003531787732 0 -0.0017267105576394839 0.0042420296202684525 0 -0.0019882823531901204 0.0050663048212983624 0 -0.0016680996896566013 0.0046561965855995129 0 -0.0014901901905019531 0.0047303411071811527 0 -0.0013403781055029431 0.0047210148532528511 0 -0.0013516839787329825 0.0047547969536084998 0 -0.0014148016989803576 0.0048067058728727564 0 -0.0013254924073963924 0.0048590305564755751 0 -0.0012893981803727942 0.0047476512452300952 0 -0.0015497204905300333 0.0045792996068262917 0 -0.0016561823209293232 0.0044611764144788279 0 -0.0017428541068368192 0.0042444042964371658 0 -0.0017358126842321228 0.004225048187352475 0 -0.0017689623915903671 0.0042173049121022009 0 -0.0017428541068368192 0.0042444042964371658 0 -0.0017689623915903671 0.0042173049121022009 0 -0.0017688632095687251 0.0042362231641256635 0 -0.0016874924953941828 0.0043005003531787732 0 -0.0017428541068368192 0.0042444042964371658 0 -0.0017267105576394839 0.0042420296202684525 0 -0.0016874924953941828 0.0043005003531787732 0 -0.0017428541068368192 0.0042444042964371658 0 -0.0017242135580763478 0.004276546001790016 0 -0.0016508374059741157 0.004393505959406005 0 -0.0016561823209293232 0.0044611764144788279 0 -0.0016561823209293232 0.0044611764144788279 0 -0.0016680996896566013 0.0046561965855995129 0 -0.002230854594279998 0.0046551294353342591 0 -0.0019398694021175624 0.0041909476278378056 0 -0.0016561823209293232 0.0044611764144788279 0 -0.0019398694021175624 0.0041909476278378056 0 -0.0019332335433024975 0.004473206222341433 0 -0.0019174201736918059 0.0044965037172301388 0 -0.0018963389351217758 0.0044677924561889884 0 -0.0020625435159463716 0.0049559140804356933 0 -0.0018355942694800377 0.0046595416611746893 0 -0.0019607083678604381 0.0046610052239024948 0 -0.0019882823531901204 0.0050663048212983624 0 -0.002230854594279998 0.0046551294353342591 0 -0.002230854594279998 0.0046551294353342591 0 -0.0016680996896566013 0.0046561965855995129 0 -0.0019332335433024975 0.004473206222341433 0 -0.0019174201736918059 0.0044965037172301388 0 -0.0019412339622009343 0.0044971995721549765 0 -0.002230854594279998 0.0046551294353342591 0 -0.0027738025827062818 0.0046362683804705455 0 -0.0019398694021175624 0.0041909476278378056 0 -0.0026036126758890157 0.0040249302319214468 0 -0.002388060443097141 0.0044109956421733952 0 -0.0028694646325254599 0.0044553464187519201 0 -0.0027578010275411515 0.004318619488704367 0 -0.0026077098052388857 0.0050027781921818375 0 -0.0026442433255088799 0.004965637355384786 0 -0.0027010855260818007 0.0049623943496833302 0 -0.0023143515787093856 0.0043178971838472779 0 -0.002388060443097141 0.0044109956421733952 0 -0.0027578010275411515 0.004318619488704367 0 -0.0026442433255088799 0.004965637355384786 0 -0.0027010855260818007 0.0049623943496833302 0 -0.0026936068357642051 0.0049078337629345423 0 -0.0026442433255088799 0.004965637355384786 0 -0.0026312891187739015 0.0050041597097938879 0 -0.0026936068357642051 0.0049078337629345423 0 -0.0026121583286456323 0.0049986334629273854 0 -0.0026077098052388857 0.0050027781921818375 0 -0.0026442433255088799 0.004965637355384786 0 -0.0026121583286456323 0.0049986334629273854 0 -0.0026442433255088799 0.004965637355384786 0 -0.0026312891187739015 0.0050041597097938879 0 -0.0025831714134752978 0.0050489949366042458 0 -0.0026121583286456323 0.0049986334629273854 0 -0.0026312891187739015 0.0050041597097938879 0 -0.0017466679135381292 0.0051375331141487639 0 -0.0017636521803709195 0.005137512025858001 0 -0.0017925050089904078 0.0050656115539241108 0 -0.0017466679135381292 0.0051375331141487639 0 -0.0017821423780247309 0.0050258197007891844 0 -0.0017925050089904078 0.0050656115539241108 0 -0.0013686135271886537 0.0052153890694873134 0 -0.0014692071531820243 0.0052656812765254548 0 -0.0016608365177653477 0.0052168886233620541 0 -0.0015883389725356288 0.0052322209067998601 0 -0.0017636521803709195 0.005137512025858001 0 -0.0016608365177653477 0.0052168886233620541 0 -0.0017466679135381292 0.0051375331141487639 0 -0.0017636521803709195 0.005137512025858001 0 -0.0016608365177653477 0.0052168886233620541 0 -0.0017466679135381292 0.0051375331141487639 0 -0.0017412142647215939 0.005207590421346363 0 -0.0017412142647215939 0.005207590421346363 0 -0.0017576195819833686 0.0051671974735732831 0 -0.0017588490876786541 0.0050978427954116142 0 -0.0017412142647215939 0.005207590421346363 0 -0.0017832714075923977 0.0052127007153421915 0 -0.0017576195819833686 0.0051671974735732831 0 -0.0017985603835096633 0.005241377666820546 0 -0.0017832714075923977 0.0052127007153421915 0 -0.0017576195819833686 0.0051671974735732831 0 -0.0017576195819833686 0.0051671974735732831 0 -0.0017202673787878122 0.0050417936397560408 0 -0.0017588490876786541 0.0050978427954116142 0 -0.0017466679135381292 0.0051375331141487639 0 -0.0017588490876786541 0.0050978427954116142 0 -0.0017821423780247309 0.0050258197007891844 0 -0.0017466679135381292 0.0051375331141487639 0 -0.0017412142647215939 0.005207590421346363 0 -0.0017588490876786541 0.0050978427954116142 0 -0.0017821423780247309 0.0050258197007891844 0 -0.0017670344231281699 0.0048972189073557557 0 -0.0018273641109904232 0.0048705660817582319 0 -0.0017588490876786541 0.0050978427954116142 0 -0.0017821423780247309 0.0050258197007891844 0 -0.0017670344231281699 0.0048972189073557557 0 -0.0016553284205546989 0.0047097707628643492 0 -0.0017670344231281699 0.0048972189073557557 0 -0.0016924488112159935 0.0049012288894399961 0 -0.0017202673787878122 0.0050417936397560408 0 -0.0017670344231281699 0.0048972189073557557 0 -0.0016924488112159935 0.0049012288894399961 0 -0.0017202673787878122 0.0050417936397560408 0 -0.0017588490876786541 0.0050978427954116142 0 -0.0017670344231281699 0.0048972189073557557 0 -0.0016553284205546989 0.0047097707628643492 0 -0.0017670344231281699 0.0048972189073557557 0 -0.0017576683656427821 0.0046372797494066802 0 -0.0017670344231281699 0.0048972189073557557 0 -0.0018273641109904232 0.0048705660817582319 0 -0.0017576683656427821 0.0046372797494066802 0 -0.0016988428421213879 0.0045917677335835464 0 -0.0016323146029096696 0.004495698582491831 0 -0.0015169499267243755 0.0043672668777578021 0 -0.0015136961768684829 0.0043749071711405973 0 -0.0015117906175496027 0.0043724262722371308 0 -0.0016988428421213879 0.0045917677335835464 0 -0.0014260905908634422 0.0049818776434823108 0 -0.0018273641109904232 0.0048705660817582319 0 -0.0017925050089904078 0.0050656115539241108 0 -0.0018450382248026108 0.0049881395985312774 0 -0.0017821423780247309 0.0050258197007891844 0 -0.0018273641109904232 0.0048705660817582319 0 -0.0017925050089904078 0.0050656115539241108 0 -0.0014692071531820243 0.0052656812765254548 0 -0.0014260905908634422 0.0049818776434823108 0 -0.0010713230266446334 0.0053553626152275406 0 -0.0011574061990082577 0.005316891302576455 0 -0.0011767102609784913 0.0053998356446782721 0 -0.0017636521803709195 0.005137512025858001 0 -0.0017925050089904078 0.0050656115539241108 0 -0.0018450382248026108 0.0049881395985312774 0 -0.0012779736235466455 0.0050886158922371543 0 -0.0011902170586656317 0.0051086945076529947 0 -0.0011542284360697682 0.0048583596846426425 0 -0.0014260905908634422 0.0049818776434823108 0 -0.0013260569463904625 0.0045653035061904972 0 -0.0013147533145294462 0.0046563982088971435 0 -0.0011542284360697682 0.0048583596846426425 0 -0.0013322192290538316 0.0048105921961456698 0 -0.0012779736235466455 0.0050886158922371543 0 -0.0011542284360697682 0.0048583596846426425 0 -0.0013322192290538316 0.0048105921961456698 0 -0.0013147533145294462 0.0046563982088971435 0 -0.0012380380375828517 0.0045701572484847458 0 -0.0011542284360697682 0.0048583596846426425 0 -0.0013798806200646461 0.0044934470369723456 0 -0.0013260569463904625 0.0045653035061904972 0 -0.0015038830210769563 0.0043692794985884659 0 -0.0015117906175496027 0.0043724262722371308 0 -0.0015189901349787823 0.0043741360473099171 0 -0.0015169499267243755 0.0043672668777578021 0 -0.0015117906175496027 0.0043724262722371308 0 -0.0015189901349787823 0.0043741360473099171 0 -0.0015169499267243755 0.0043672668777578021 0 -0.0015189901349787823 0.0043741360473099171 0 -0.0015387130138171904 0.0043607160527961361 0 -0.0015387130138171904 0.0043607160527961361 0 -0.0015514467815036753 0.0043875853020168111 0 -0.0016037873029024097 0.0043899037424133163 0 -0.0015189901349787823 0.0043741360473099171 0 -0.0015387130138171904 0.0043607160527961361 0 -0.0015514467815036753 0.0043875853020168111 0 -0.0015189901349787823 0.0043741360473099171 0 -0.0015514467815036753 0.0043875853020168111 0 -0.0015274580739230027 0.0043892582011910977 0 -0.0015514467815036753 0.0043875853020168111 0 -0.0015274580739230027 0.0043892582011910977 0 -0.0015853976513396557 0.0044122207486262388 0 -0.0015038830210769563 0.0043692794985884659 0 -0.0015189901349787823 0.0043741360473099171 0 -0.0015274580739230027 0.0043892582011910977 0 -0.0015038830210769563 0.0043692794985884659 0 -0.001512264386991305 0.0043654760571906846 0 -0.0015274580739230027 0.0043892582011910977 0 -0.001512264386991305 0.0043654760571906846 0 -0.0015274580739230027 0.0043892582011910977 0 -0.0015477169886347862 0.0044474611611138512 0 -0.0015575377929368101 0.0042891765868466325 0 -0.001735640640212103 0.0042079165797990993 0 -0.001512264386991305 0.0043654760571906846 0 -0.0015313772286315187 0.0043061711178924702 0 -0.0015477169886347862 0.0044474611611138512 0 -0.0015313772286315187 0.0043061711178924702 0 -0.0018967253593946342 0.0039598754743294922 0 -0.0017005146597719695 0.0042301596842270412 0 -0.001512264386991305 0.0043654760571906846 0 -0.0015313772286315187 0.0043061711178924702 0 -0.0014425933771615856 0.0043738295008334087 0 -0.0015313772286315187 0.0043061711178924702 0 -0.0014425933771615856 0.0043738295008334087 0 -0.0014959995102550867 0.0043524131689194057 0 -0.0014425933771615856 0.0043738295008334087 0 -0.0013906534039159171 0.0044105163821495071 0 -0.0014393791991950432 0.0043869512446486573 0 -0.0013906534039159171 0.0044105163821495071 0 -0.0013787386847317615 0.0044992657815888567 0 -0.0013998867492086313 0.0044194278285730722 0 -0.0013906534039159171 0.0044105163821495071 0 -0.0014108790768007692 0.004411472683969137 0 -0.0013998867492086313 0.0044194278285730722 0 -0.0013147533145294462 0.0046563982088971435 0 -0.0012380380375828517 0.0045701572484847458 0 -0.0013787386847317615 0.0044992657815888567 0 -0.0012380380375828517 0.0045701572484847458 0 -0.0013906534039159171 0.0044105163821495071 0 -0.0013787386847317615 0.0044992657815888567 0 -0.0012380380375828517 0.0045701572484847458 0 -0.0014425933771615856 0.0043738295008334087 0 -0.0013906534039159171 0.0044105163821495071 0 -0.0013798806200646461 0.0044934470369723456 0 -0.0014272563866949376 0.0043939974383856318 0 -0.0015038830210769563 0.0043692794985884659 0 -0.001512264386991305 0.0043654760571906846 0 -0.0014425933771615856 0.0043738295008334087 0 -0.0018897744795044636 0.0043899963027745998 0 -0.001832495408237003 0.0042127148278734055 0 -0.001715354256974189 0.0043748431469623717 0 -0.0018897744795044636 0.0043899963027745998 0 -0.0019913698411933383 0.0041420303901829169 0 -0.001832495408237003 0.0042127148278734055 0 -0.0018897744795044636 0.0043899963027745998 0 -0.0019913698411933383 0.0041420303901829169 0 -0.0022433100926678032 0.0043285868606591097 0 -0.0017689623915903671 0.0042173049121022009 0 -0.0019913698411933383 0.0041420303901829169 0 -0.001832495408237003 0.0042127148278734055 0 -0.0015555887788410334 0.003581597170692848 0 -0.0019913698411933383 0.0041420303901829169 0 -0.0023272766989960135 0.0036422020762955443 0 -0.0019398694021175624 0.0041909476278378056 0 -0.0018630162337860878 0.0040291443120753995 0 -0.0017689623915903671 0.0042173049121022009 0 -0.001832495408237003 0.0042127148278734055 0 -0.0017688632095687251 0.0042362231641256635 0 -0.001832495408237003 0.0042127148278734055 0 -0.0017033732907825478 0.0043117221577350998 0 -0.001715354256974189 0.0043748431469623717 0 -0.001832495408237003 0.0042127148278734055 0 -0.0017242135580763478 0.004276546001790016 0 -0.0017033732907825478 0.0043117221577350998 0 -0.001832495408237003 0.0042127148278734055 0 -0.0017242135580763478 0.004276546001790016 0 -0.0017688632095687251 0.0042362231641256635 0 -0.0017428541068368192 0.0042444042964371658 0 -0.0017242135580763478 0.004276546001790016 0 -0.0017688632095687251 0.0042362231641256635 0 -0.0017242135580763478 0.004276546001790016 0 -0.0017033732907825478 0.0043117221577350998 0 -0.0016579721878359707 0.0043400190210078349 0 -0.0016874924953941828 0.0043005003531787732 0 -0.0017242135580763478 0.004276546001790016 0 -0.0016579721878359707 0.0043400190210078349 0 -0.0017033732907825478 0.0043117221577350998 0 -0.001715354256974189 0.0043748431469623717 0 -0.0016370140015569531 0.00436587085641777 0 -0.0016370140015569531 0.00436587085641777 0 -0.0016037873029024097 0.0043899037424133163 0 -0.0015853976513396557 0.0044122207486262388 0 -0.001715354256974189 0.0043748431469623717 0 -0.0016370140015569531 0.00436587085641777 0 -0.0015853976513396557 0.0044122207486262388 0 -0.0017033732907825478 0.0043117221577350998 0 -0.0016370140015569531 0.00436587085641777 0 -0.0016579721878359707 0.0043400190210078349 0 -0.0016370140015569531 0.00436587085641777 0 -0.0016579721878359707 0.0043400190210078349 0 -0.0016089572772370626 0.0044072594873596866 0 -0.0016370140015569531 0.00436587085641777 0 -0.0016089572772370626 0.0044072594873596866 0 -0.0016037873029024097 0.0043899037424133163 0 -0.0016177056198996131 0.0045249999976472019 0 -0.0017576683656427821 0.0046372797494066802 0 -0.0016037873029024097 0.0043899037424133163 0 -0.0016323146029096696 0.004495698582491831 0 -0.0015960712282444181 0.0044060109066409309 0 -0.0016177056198996131 0.0045249999976472019 0 -0.0016089572772370626 0.0044072594873596866 0 -0.0016037873029024097 0.0043899037424133163 0 -0.0015514467815036753 0.0043875853020168111 0 -0.0016037873029024097 0.0043899037424133163 0 -0.0015853976513396557 0.0044122207486262388 0 -0.0018967253593946342 0.0039598754743294922 0 -0.0023078455347577613 0.0037716732190190678 0 -0.0020666039171003529 0.0042662795375939741 0 -0.0015274580739230027 0.0043892582011910977 0 -0.0015853976513396557 0.0044122207486262388 0 -0.0015477169886347862 0.0044474611611138512 0 -0.001735640640212103 0.0042079165797990993 0 -0.0020027375737873762 0.0041594346789867349 0 -0.001715354256974189 0.0043748431469623717 0 -0.0015853976513396557 0.0044122207486262388 0 -0.0016741850567642785 0.0045479225696189096 0 -0.0015853976513396557 0.0044122207486262388 0 -0.0015477169886347862 0.0044474611611138512 0 -0.0016741850567642785 0.0045479225696189096 0 -0.0018897744795044636 0.0043899963027745998 0 -0.001715354256974189 0.0043748431469623717 0 -0.0016741850567642785 0.0045479225696189096 0 -0.0023078455347577613 0.0037716732190190678 0 -0.0027357472695963944 0.003960476374751094 0 -0.0024391169470085999 0.0041349111539273958 0 -0.0023078455347577613 0.0037716732190190678 0 -0.0027684745482296352 0.0036154316042812436 0 -0.0027357472695963944 0.003960476374751094 0 -0.0020027375737873762 0.0041594346789867349 0 -0.0024121023472250779 0.004125183983619247 0 -0.0018897744795044636 0.0043899963027745998 0 -0.0020318011491477898 0.0046387135374081397 0 -0.0022433100926678032 0.0043285868606591097 0 -0.0018897744795044636 0.0043899963027745998 0 -0.0016741850567642785 0.0045479225696189096 0 -0.0020318011491477898 0.0046387135374081397 0 -0.0026906999710044461 0.0042777197515455629 0 -0.0024391169470085999 0.0041349111539273958 0 -0.0024267802633337623 0.0043851951299931488 0 -0.0026906999710044461 0.0042777197515455629 0 -0.0027357472695963944 0.003960476374751094 0 -0.0024391169470085999 0.0041349111539273958 0 -0.0024391169470085999 0.0041349111539273958 0 -0.0020666039171003529 0.0042662795375939741 0 -0.0024267802633337623 0.0043851951299931488 0 -0.0023078455347577613 0.0037716732190190678 0 -0.0024391169470085999 0.0041349111539273958 0 -0.0020666039171003529 0.0042662795375939741 0 -0.0020666039171003529 0.0042662795375939741 0 -0.0022006674979927693 0.0045277104390776526 0 -0.0024267802633337623 0.0043851951299931488 0 -0.0018967253593946342 0.0039598754743294922 0 -0.0020666039171003529 0.0042662795375939741 0 -0.0018233817574724266 0.0042867810364043551 0 -0.0020666039171003529 0.0042662795375939741 0 -0.0018233817574724266 0.0042867810364043551 0 -0.0017571560417491813 0.0044288874920954454 0 -0.0020666039171003529 0.0042662795375939741 0 -0.0019547204188261596 0.0045207070710020867 0 -0.0017571560417491813 0.0044288874920954454 0 -0.0019547204188261596 0.0045207070710020867 0 -0.0017824243729599855 0.0046055299598909971 0 -0.002019167431097659 0.0047070537375623576 0 -0.0019547204188261596 0.0045207070710020867 0 -0.0022006674979927693 0.0045277104390776526 0 -0.002019167431097659 0.0047070537375623576 0 -0.0022006674979927693 0.0045277104390776526 0 -0.0023197160961723109 0.004787510783418162 0 -0.002019167431097659 0.0047070537375623576 0 -0.0020666039171003529 0.0042662795375939741 0 -0.0019547204188261596 0.0045207070710020867 0 -0.0022006674979927693 0.0045277104390776526 0 -0.0024267802633337623 0.0043851951299931488 0 -0.0024323610496940437 0.004616226324238925 0 -0.0026215583717206447 0.0045015198415592527 0 -0.0022006674979927693 0.0045277104390776526 0 -0.0024267802633337623 0.0043851951299931488 0 -0.0024323610496940437 0.004616226324238925 0 -0.0022006674979927693 0.0045277104390776526 0 -0.0024323610496940437 0.004616226324238925 0 -0.0023197160961723109 0.004787510783418162 0 -0.0024323610496940437 0.004616226324238925 0 -0.0026546157379764347 0.0047251478809062055 0 -0.0023197160961723109 0.004787510783418162 0 -0.0024323610496940437 0.004616226324238925 0 -0.0026546157379764347 0.0047251478809062055 0 -0.0026215583717206447 0.0045015198415592527 0 -0.0026546157379764347 0.0047251478809062055 0 -0.0026215583717206447 0.0045015198415592527 0 -0.0029086194958939196 0.0044792636456871381 0 -0.0026906999710044461 0.0042777197515455629 0 -0.0026215583717206447 0.0045015198415592527 0 -0.0029086194958939196 0.0044792636456871381 0 -0.0026906999710044461 0.0042777197515455629 0 -0.0024267802633337623 0.0043851951299931488 0 -0.0026215583717206447 0.0045015198415592527 0 -0.0014950629088397529 0.0043917721608338397 0 -0.0015713759771460857 0.0044272737222379351 0 -0.0014749412808091466 0.0044617016223431573 0 -0.0014950629088397529 0.0043917721608338397 0 -0.0014448743313274911 0.0044190257794000168 0 -0.0014749412808091466 0.0044617016223431573 0 -0.0014448743313274911 0.0044190257794000168 0 -0.0014108790768007692 0.004411472683969137 0 -0.0014099604336103987 0.0044608848796744314 0 -0.0014448743313274911 0.0044190257794000168 0 -0.0014749412808091466 0.0044617016223431573 0 -0.0014099604336103987 0.0044608848796744314 0 -0.0013906534039159171 0.0044105163821495071 0 -0.0014108790768007692 0.004411472683969137 0 -0.0014393791991950432 0.0043869512446486573 0 -0.0014448743313274911 0.0044190257794000168 0 -0.0014108790768007692 0.004411472683969137 0 -0.0014393791991950432 0.0043869512446486573 0 -0.0014950629088397529 0.0043917721608338397 0 -0.0014448743313274911 0.0044190257794000168 0 -0.0014393791991950432 0.0043869512446486573 0 -0.0014950629088397529 0.0043917721608338397 0 -0.0014393791991950432 0.0043869512446486573 0 -0.0014959995102550867 0.0043524131689194057 0 -0.0014425933771615856 0.0043738295008334087 0 -0.0014393791991950432 0.0043869512446486573 0 -0.0014959995102550867 0.0043524131689194057 0 -0.0015313772286315187 0.0043061711178924702 0 -0.0014959995102550867 0.0043524131689194057 0 -0.0016015962927273327 0.0043353046278606254 0 -0.0015313772286315187 0.0043061711178924702 0 -0.0016015962927273327 0.0043353046278606254 0 -0.0017005146597719695 0.0042301596842270412 0 -0.0014950629088397529 0.0043917721608338397 0 -0.0014959995102550867 0.0043524131689194057 0 -0.0016015962927273327 0.0043353046278606254 0 -0.0016015962927273327 0.0043353046278606254 0 -0.0018233817574724266 0.0042867810364043551 0 -0.0017005146597719695 0.0042301596842270412 0 -0.0018967253593946342 0.0039598754743294922 0 -0.0018233817574724266 0.0042867810364043551 0 -0.0017005146597719695 0.0042301596842270412 0 -0.0016015962927273327 0.0043353046278606254 0 -0.0018233817574724266 0.0042867810364043551 0 -0.0017571560417491813 0.0044288874920954454 0 -0.0016015962927273327 0.0043353046278606254 0 -0.0017571560417491813 0.0044288874920954454 0 -0.0015713759771460857 0.0044272737222379351 0 -0.0014950629088397529 0.0043917721608338397 0 -0.0016015962927273327 0.0043353046278606254 0 -0.0015713759771460857 0.0044272737222379351 0 -0.0017571560417491813 0.0044288874920954454 0 -0.0015713759771460857 0.0044272737222379351 0 -0.001582867091908447 0.004526791712724478 0 -0.0019547204188261596 0.0045207070710020867 0 -0.0017571560417491813 0.0044288874920954454 0 -0.0017824243729599855 0.0046055299598909971 0 -0.0017571560417491813 0.0044288874920954454 0 -0.001582867091908447 0.004526791712724478 0 -0.0017824243729599855 0.0046055299598909971 0 -0.001582867091908447 0.004526791712724478 0 -0.0017824243729599855 0.0046055299598909971 0 -0.0015421576298166346 0.0046707372759459721 0 -0.001582867091908447 0.004526791712724478 0 -0.0014799248515207429 0.0045577190120820021 0 -0.0015421576298166346 0.0046707372759459721 0 -0.001582867091908447 0.004526791712724478 0 -0.0014799248515207429 0.0045577190120820021 0 -0.0014749412808091466 0.0044617016223431573 0 -0.0015713759771460857 0.0044272737222379351 0 -0.001582867091908447 0.004526791712724478 0 -0.0014749412808091466 0.0044617016223431573 0 -0.0014749412808091466 0.0044617016223431573 0 -0.0014320937256220507 0.0045148926972506907 0 -0.0014099604336103987 0.0044608848796744314 0 -0.0014799248515207429 0.0045577190120820021 0 -0.0014749412808091466 0.0044617016223431573 0 -0.0014320937256220507 0.0045148926972506907 0 -0.0014320937256220507 0.0045148926972506907 0 -0.0014169784542765651 0.0045754017726606635 0 -0.0013943895059429434 0.0045262785378256164 0 -0.0014799248515207429 0.0045577190120820021 0 -0.0014320937256220507 0.0045148926972506907 0 -0.0014169784542765651 0.0045754017726606635 0 -0.0014169784542765651 0.0045754017726606635 0 -0.0013642422827250666 0.0045713550834979421 0 -0.0013943895059429434 0.0045262785378256164 0 -0.0013642422827250666 0.0045713550834979421 0 -0.001354847907553292 0.0045053126382285534 0 -0.001314877740375563 0.0045723592186384084 0 -0.0013642422827250666 0.0045713550834979421 0 -0.001354847907553292 0.0045053126382285534 0 -0.0013943895059429434 0.0045262785378256164 0 -0.0014320937256220507 0.0045148926972506907 0 -0.0013943895059429434 0.0045262785378256164 0 -0.0014099604336103987 0.0044608848796744314 0 -0.001354847907553292 0.0045053126382285534 0 -0.0013943895059429434 0.0045262785378256164 0 -0.0014099604336103987 0.0044608848796744314 0 -0.0014108790768007692 0.004411472683969137 0 -0.0014099604336103987 0.0044608848796744314 0 -0.0013942277152069458 0.0044299900328490663 0 -0.001354847907553292 0.0045053126382285534 0 -0.0014099604336103987 0.0044608848796744314 0 -0.0013942277152069458 0.0044299900328490663 0 -0.001354847907553292 0.0045053126382285534 0 -0.0013942277152069458 0.0044299900328490663 0 -0.0013312999691214558 0.0044467391141632708 0 -0.0013942277152069458 0.0044299900328490663 0 -0.0013312999691214558 0.0044467391141632708 0 -0.0014233452430356074 0.0044067617741869276 0 -0.0013942277152069458 0.0044299900328490663 0 -0.0013998867492086313 0.0044194278285730722 0 -0.0014233452430356074 0.0044067617741869276 0 -0.0014108790768007692 0.004411472683969137 0 -0.0013942277152069458 0.0044299900328490663 0 -0.0013998867492086313 0.0044194278285730722 0 -0.001279244013191233 0.0044216842080296919 0 -0.0012470593222987493 0.0043924586660849547 0 -0.001307087790612128 0.0043662612494346775 0 -0.0012470593222987493 0.0043924586660849547 0 -0.0012115208065146311 0.0043500995225704666 0 -0.001307087790612128 0.0043662612494346775 0 -0.001279244013191233 0.0044216842080296919 0 -0.0012470593222987493 0.0043924586660849547 0 -0.0012292863152260883 0.0044311334513138486 0 -0.001279244013191233 0.0044216842080296919 0 -0.0013312999691214558 0.0044467391141632708 0 -0.001307087790612128 0.0043662612494346775 0 -0.0013312999691214558 0.0044467391141632708 0 -0.0014233452430356074 0.0044067617741869276 0 -0.001307087790612128 0.0043662612494346775 0 -0.0012647319877742986 0.0044666874845690954 0 -0.0012028968839843887 0.0044795228678123043 0 -0.0012292863152260883 0.0044311334513138486 0 -0.001279244013191233 0.0044216842080296919 0 -0.0013312999691214558 0.0044467391141632708 0 -0.0012647319877742986 0.0044666874845690954 0 -0.001279244013191233 0.0044216842080296919 0 -0.0012647319877742986 0.0044666874845690954 0 -0.0012292863152260883 0.0044311334513138486 0 -0.0012647319877742986 0.0044666874845690954 0 -0.0012910764425145664 0.0045209588121995796 0 -0.0012253117662367799 0.0045321692371742186 0 -0.0012647319877742986 0.0044666874845690954 0 -0.0012253117662367799 0.0045321692371742186 0 -0.0012028968839843887 0.0044795228678123043 0 -0.0013312999691214558 0.0044467391141632708 0 -0.0012647319877742986 0.0044666874845690954 0 -0.0012910764425145664 0.0045209588121995796 0 -0.001354847907553292 0.0045053126382285534 0 -0.0013312999691214558 0.0044467391141632708 0 -0.0012910764425145664 0.0045209588121995796 0 -0.001354847907553292 0.0045053126382285534 0 -0.0012910764425145664 0.0045209588121995796 0 -0.001314877740375563 0.0045723592186384084 0 -0.0012910764425145664 0.0045209588121995796 0 -0.001314877740375563 0.0045723592186384084 0 -0.0012642196327227637 0.0046030659265475019 0 -0.0012910764425145664 0.0045209588121995796 0 -0.0012253117662367799 0.0045321692371742186 0 -0.0012642196327227637 0.0046030659265475019 0 -0.0012253117662367799 0.0045321692371742186 0 -0.0011419893160956502 0.0045159409183943931 0 -0.0011759611145201478 0.0045782392506780872 0 -0.0012253117662367799 0.0045321692371742186 0 -0.0011759611145201478 0.0045782392506780872 0 -0.0012642196327227637 0.0046030659265475019 0 -0.0010824442576741827 0.004520658765194115 0 -0.001151854663224034 0.0045440548907458604 0 -0.0011419893160956502 0.0045159409183943931 0 -0.0010747465429585036 0.004517947789215564 0 -0.0011759611145201478 0.0045782392506780872 0 -0.0011419893160956502 0.0045159409183943931 0 -0.0010747465429585036 0.004517947789215564 0 -0.0010855926088845416 0.0045020528231310948 0 -0.0011419893160956502 0.0045159409183943931 0 -0.0011097239605051548 0.0044817664174884647 0 -0.0011516303977403331 0.0044735288775736588 0 -0.0011419893160956502 0.0045159409183943931 0 -0.0011097239605051548 0.0044817664174884647 0 -0.0010855926088845416 0.0045020528231310948 0 -0.0011097239605051548 0.0044817664174884647 0 -0.0011516303977403331 0.0044735288775736588 0 -0.0011308105215892593 0.004451939671472031 0 -0.0011419893160956502 0.0045159409183943931 0 -0.0011516303977403331 0.0044735288775736588 0 -0.0012028968839843887 0.0044795228678123043 0 -0.0012253117662367799 0.0045321692371742186 0 -0.0011419893160956502 0.0045159409183943931 0 -0.0012028968839843887 0.0044795228678123043 0 -0.00089586791391807702 0.0044806462750348877 0 -0.00091607907454272918 0.0044677139534950909 0 -0.00087161025350633071 0.0044696006135000596 0 -0.001052024117002677 0.0045105162079450631 0 -0.0010747465429585036 0.004517947789215564 0 -0.0010153073061560422 0.004547542238675522 0 -0.001052024117002677 0.0045105162079450631 0 -0.0010747465429585036 0.004517947789215564 0 -0.0010855926088845416 0.0045020528231310948 0 -0.001052024117002677 0.0045105162079450631 0 -0.0010786162799631828 0.0044840510206619116 0 -0.0010618967856024868 0.0044602839680291219 0 -0.0011097239605051548 0.0044817664174884647 0 -0.0010855926088845416 0.0045020528231310948 0 -0.0010786162799631828 0.0044840510206619116 0 -0.0011097239605051548 0.0044817664174884647 0 -0.0010786162799631828 0.0044840510206619116 0 -0.0010955595257405683 0.0044615778242960494 0 -0.0010786162799631828 0.0044840510206619116 0 -0.0010618967856024868 0.0044602839680291219 0 -0.0010955595257405683 0.0044615778242960494 0 -0.001052024117002677 0.0045105162079450631 0 -0.0010855926088845416 0.0045020528231310948 0 -0.0010786162799631828 0.0044840510206619116 0 -0.00091607907454272918 0.0044677139534950909 0 -0.00087161025350633071 0.0044696006135000596 0 -0.00083538643648582017 0.0044789467071697795 0 -0.001052024117002677 0.0045105162079450631 0 -0.001050508872624898 0.0044551525578303474 0 -0.0010618967856024868 0.0044602839680291219 0 -0.00098524279660468792 0.0045015286888010972 0 -0.00094175123646035195 0.0044442368967248947 0 -0.00085325487795307093 0.0044747575304538417 0 -0.00087161025350633071 0.0044696006135000596 0 -0.00083538643648582017 0.0044789467071697795 0 -0.00084386181782733071 0.0044850974855214897 0 -0.00083250622033044573 0.0045037316011989365 0 -0.00083538643648582017 0.0044789467071697795 0 -0.00085325487795307093 0.0044747575304538417 0 -0.00084386181782733071 0.0044850974855214897 0 -0.00083538643648582017 0.0044789467071697795 0 -0.001050508872624898 0.0044551525578303474 0 -0.001060003387122956 0.0044555124357828777 0 -0.0010618967856024868 0.0044602839680291219 0 -0.001050508872624898 0.0044551525578303474 0 -0.001060003387122956 0.0044555124357828777 0 -0.0010579398559628812 0.0044524702564088595 0 -0.0010618967856024868 0.0044602839680291219 0 -0.0011106933672802158 0.0044267982106416534 0 -0.0011130476973485375 0.0044068871235633722 0 -0.0010618967856024868 0.0044602839680291219 0 -0.0010955595257405683 0.0044615778242960494 0 -0.0011106933672802158 0.0044267982106416534 0 -0.0010607624606982684 0.0044643464905256523 0 -0.0010883084019736276 0.0044056830152257066 0 -0.001060003387122956 0.0044555124357828777 0 -0.0010618967856024868 0.0044602839680291219 0 -0.0010650512550615539 0.0044544449896070995 0 -0.001060003387122956 0.0044555124357828777 0 -0.0010579398559628812 0.0044524702564088595 0 -0.0010650512550615539 0.0044544449896070995 0 -0.0010579398559628812 0.0044524702564088595 0 -0.0010650512550615539 0.0044544449896070995 0 -0.0010616587140052276 0.0044494181714362594 0 -0.001050508872624898 0.0044551525578303474 0 -0.0010579398559628812 0.0044524702564088595 0 -0.0010527032608284117 0.0044496550344840288 0 -0.00094175123646035195 0.0044442368967248947 0 -0.00093406497924012569 0.0046227589913086699 0 -0.00083250622033044573 0.0045037316011989365 0 -0.00083538643648582017 0.0044789467071697795 0 -0.00080215491052479241 0.004557991002410929 0 -0.0012028968839843887 0.0044795228678123043 0 -0.0011744479215785649 0.00443609006815621 0 -0.0012292863152260883 0.0044311334513138486 0 -0.0011744479215785649 0.00443609006815621 0 -0.0012292863152260883 0.0044311334513138486 0 -0.0012043405310903637 0.004400275076268138 0 -0.0011516303977403331 0.0044735288775736588 0 -0.0012028968839843887 0.0044795228678123043 0 -0.0011744479215785649 0.00443609006815621 0 -0.0011516303977403331 0.0044735288775736588 0 -0.0011744479215785649 0.00443609006815621 0 -0.0011308105215892593 0.004451939671472031 0 -0.0010955595257405683 0.0044615778242960494 0 -0.0011308105215892593 0.004451939671472031 0 -0.0011106933672802158 0.0044267982106416534 0 -0.0011097239605051548 0.0044817664174884647 0 -0.0010955595257405683 0.0044615778242960494 0 -0.0011308105215892593 0.004451939671472031 0 -0.0011308105215892593 0.004451939671472031 0 -0.0011106933672802158 0.0044267982106416534 0 -0.0011437221583374311 0.0044261414366975399 0 -0.0011744479215785649 0.00443609006815621 0 -0.0011437221583374311 0.0044261414366975399 0 -0.0011598744482430969 0.0043882029641930517 0 -0.0011744479215785649 0.00443609006815621 0 -0.0011308105215892593 0.004451939671472031 0 -0.0011437221583374311 0.0044261414366975399 0 -0.0010883084019736276 0.0044056830152257066 0 -0.0012340931226810666 0.0046462663310160987 0 -0.0010650512550615539 0.0044544449896070995 0 -0.0010730163242718828 0.004451280574324196 0 -0.0010616587140052276 0.0044494181714362594 0 -0.0011130476973485375 0.0044068871235633722 0 -0.0011523328153145752 0.004395642726946228 0 -0.0011676961906514488 0.0043634470839182937 0 -0.0011106933672802158 0.0044267982106416534 0 -0.0011437221583374311 0.0044261414366975399 0 -0.0011598744482430969 0.0043882029641930517 0 -0.0011203081550882417 0.0044201356453706011 0 -0.0011478622130633026 0.0044046681781243395 0 -0.0011106933672802158 0.0044267982106416534 0 -0.0011130476973485375 0.0044068871235633722 0 -0.0011523328153145752 0.004395642726946228 0 -0.0011478622130633026 0.0044046681781243395 0 -0.0014210001940036627 0.0044909732626758217 0 -0.0011523328153145752 0.004395642726946228 0 -0.0011941980763020327 0.0043652606865536075 0 -0.0011676961906514488 0.0043634470839182937 0 -0.0011598744482430969 0.0043882029641930517 0 -0.0012043405310903637 0.004400275076268138 0 -0.0012115208065146311 0.0043500995225704666 0 -0.0011744479215785649 0.00443609006815621 0 -0.0011598744482430969 0.0043882029641930517 0 -0.0012043405310903637 0.004400275076268138 0 -0.0012470593222987493 0.0043924586660849547 0 -0.0012292863152260883 0.0044311334513138486 0 -0.0012043405310903637 0.004400275076268138 0 -0.0012470593222987493 0.0043924586660849547 0 -0.0012043405310903637 0.004400275076268138 0 -0.0012115208065146311 0.0043500995225704666 0 -0.0012340931226810666 0.0046462663310160987 0 -0.0014472370507429425 0.0048808944285916294 0 -0.0012952928778466493 0.0050320114933660254 0 -0.001306474997046659 0.0049149787756885789 0 -0.0014069880505492686 0.0049123800401237455 0 -0.0014789629105323586 0.0048006537762604537 0 -0.0014746814677010854 0.0047996178422396217 0 -0.0014844537100509566 0.0047980764713306005 0 -0.0014210001940036627 0.0044909732626758217 0 -0.0012340931226810666 0.0046462663310160987 0 -0.0012340931226810666 0.0046462663310160987 0 -0.0010824492212356338 0.0047605671746615945 0 -0.0012952928778466493 0.0050320114933660254 0 -0.0012042793927099021 0.0049458503525485649 0 -0.001306474997046659 0.0049149787756885789 0 -0.0012952928778466493 0.0050320114933660254 0 -0.0012042793927099021 0.0049458503525485649 0 -0.0011048272515325952 0.0050313844541175507 0 -0.0012042793927099021 0.0049458503525485649 0 -0.0012303277269824669 0.004843637601346997 0 -0.001306474997046659 0.0049149787756885789 0 -0.0012042793927099021 0.0049458503525485649 0 -0.0012303277269824669 0.004843637601346997 0 -0.001073725085435847 0.0048639279588007026 0 -0.001306474997046659 0.0049149787756885789 0 -0.0013770078540513008 0.0047999625318569626 0 -0.0014069880505492686 0.0049123800401237455 0 -0.0012303277269824669 0.004843637601346997 0 -0.001306474997046659 0.0049149787756885789 0 -0.0013770078540513008 0.0047999625318569626 0 -0.00087043275550999319 0.0048924113920271331 0 -0.00090330977982970334 0.0050249666846976975 0 -0.00098135508612018276 0.0049248028592673299 0 -0.00093406497924012569 0.0046227589913086699 0 -0.0010824492212356338 0.0047605671746615945 0 -0.0010579398559628812 0.0044524702564088595 0 -0.0010527032608284117 0.0044496550344840288 0 -0.0010616587140052276 0.0044494181714362594 0 -0.00090330977982970334 0.0050249666846976975 0 -0.0011048272515325952 0.0050313844541175507 0 -0.00098135508612018276 0.0049248028592673299 0 -0.0012042793927099021 0.0049458503525485649 0 -0.0011048272515325952 0.0050313844541175507 0 -0.001073725085435847 0.0048639279588007026 0 -0.0011048272515325952 0.0050313844541175507 0 -0.001073725085435847 0.0048639279588007026 0 -0.00098135508612018276 0.0049248028592673299 0 -0.001073725085435847 0.0048639279588007026 0 -0.00098135508612018276 0.0049248028592673299 0 -0.00094917243829173025 0.0048075814246334603 0 -0.00087043275550999319 0.0048924113920271331 0 -0.00098135508612018276 0.0049248028592673299 0 -0.00094917243829173025 0.0048075814246334603 0 -0.001073725085435847 0.0048639279588007026 0 -0.00094917243829173025 0.0048075814246334603 0 -0.00098543115036219616 0.004683121047923058 0 -0.00084156015871663509 0.0047393943458682031 0 -0.00094917243829173025 0.0048075814246334603 0 -0.00098543115036219616 0.004683121047923058 0 -0.001073725085435847 0.0048639279588007026 0 -0.0011327415507626129 0.0047659764304223452 0 -0.00098543115036219616 0.004683121047923058 0 -0.0012303277269824669 0.004843637601346997 0 -0.001073725085435847 0.0048639279588007026 0 -0.0011327415507626129 0.0047659764304223452 0 -4.8854450264234247e-05 0.005467956744672803 0 3.8954486066135116e-05 0.0058547233390546924 0 -0.00044283485587743308 0.0056720427949153458 0 -0.0011327415507626129 0.0047659764304223452 0 -0.00098543115036219616 0.004683121047923058 0 -0.0012279116997868968 0.0046758407165972855 0 -0.0004409220350460532 0.0052658124607861704 0 -0.00083382014413199636 0.0051760974515763104 0 -4.8854450264234247e-05 0.005467956744672803 0 3.8954486066135116e-05 0.0058547233390546924 0 0.00028564311069258994 0.0055904193144961003 0 0.00049890475727555194 0.0057652188537602993 0 3.8954486066135116e-05 0.0058547233390546924 0 0.00028564311069258994 0.0055904193144961003 0 -0.0012303277269824669 0.004843637601346997 0 -0.0013770078540513008 0.0047999625318569626 0 -0.0012279116997868968 0.0046758407165972855 0 -0.0012303277269824669 0.004843637601346997 0 -0.0011327415507626129 0.0047659764304223452 0 -0.0012279116997868968 0.0046758407165972855 0 -0.00083382014413199636 0.0051760974515763104 0 -0.0011084033193321226 0.0051118359172111043 0 -0.0013770078540513008 0.0047999625318569626 0 -0.0012279116997868968 0.0046758407165972855 0 -0.0014325762820279128 0.0047067872161669355 0 -0.00058835817137752402 0.005377359467117422 0 -0.00044283485587743308 0.0056720427949153458 0 -0.00080638463911406652 0.0055066143734974152 0 -0.0013770078540513008 0.0047999625318569626 0 -0.0014325762820279128 0.0047067872161669355 0 -0.0014567117449819341 0.0047688849343117037 0 -0.0014325762820279128 0.0047067872161669355 0 -0.0014567117449819341 0.0047688849343117037 0 -0.0015016508301989558 0.0047784522897911137 0 -0.0013770078540513008 0.0047999625318569626 0 -0.0014567117449819341 0.0047688849343117037 0 -0.0014908546969469069 0.0047923247606734363 0 -0.0014908546969469069 0.0047923247606734363 0 -0.0015016508301989558 0.0047784522897911137 0 -0.0014658323572678202 0.0047337189943803745 0 -0.0014908546969469069 0.0047923247606734363 0 -0.0014658323572678202 0.0047337189943803745 0 -0.0014929342599445407 0.0047987318278322217 0 -0.0014567117449819341 0.0047688849343117037 0 -0.0014908546969469069 0.0047923247606734363 0 -0.0015016508301989558 0.0047784522897911137 0 -0.0014550905119945429 0.0047345893287681707 0 -0.0015900288225391824 0.0046905906535281497 0 -0.0012661670331208701 0.0050966121829287888 0 -0.0011084033193321226 0.0051118359172111043 0 -0.0015071080394632433 0.0048431061611807855 0 -0.0014325762820279128 0.0047067872161669355 0 -0.0015016508301989558 0.0047784522897911137 0 -0.0015016508301989558 0.0047784522897911137 0 -0.0014143079451700215 0.0048676053377117662 0 -0.0014658323572678202 0.0047337189943803745 0 -0.0015071080394632433 0.0048431061611807855 0 -0.0015016508301989558 0.0047784522897911137 0 -0.0014143079451700215 0.0048676053377117662 0 -0.0012779736235466455 0.0050886158922371543 0 -0.0014143079451700215 0.0048676053377117662 0 -0.0013322192290538316 0.0048105921961456698 0 -0.0014143079451700215 0.0048676053377117662 0 -0.0013322192290538316 0.0048105921961456698 0 -0.0014658323572678202 0.0047337189943803745 0 -0.0013147533145294462 0.0046563982088971435 0 -0.0013322192290538316 0.0048105921961456698 0 -0.0014658323572678202 0.0047337189943803745 0 -0.0013147533145294462 0.0046563982088971435 0 -0.0014658323572678202 0.0047337189943803745 0 -0.0013787386847317615 0.0044992657815888567 0 -0.0014658323572678202 0.0047337189943803745 0 -0.001473009240405738 0.0045371906668223968 0 -0.0016231098851973648 0.0045562185668910748 0 -0.0014658323572678202 0.0047337189943803745 0 -0.001473009240405738 0.0045371906668223968 0 -0.0013787386847317615 0.0044992657815888567 0 -0.001473009240405738 0.0045371906668223968 0 -0.0013787386847317615 0.0044992657815888567 0 -0.0013998867492086313 0.0044194278285730722 0 -0.001473009240405738 0.0045371906668223968 0 -0.0014233452430356074 0.0044067617741869276 0 -0.0015347666418260722 0.0044802406944216078 0 -0.001473009240405738 0.0045371906668223968 0 -0.0013998867492086313 0.0044194278285730722 0 -0.0014233452430356074 0.0044067617741869276 0 -0.0014233452430356074 0.0044067617741869276 0 -0.0015347666418260722 0.0044802406944216078 0 -0.001618173316514265 0.0044110330619828598 0 -0.0014187165773301082 0.004403438498687893 0 -0.0014750162337808265 0.0043818787747335348 0 -0.0015347666418260722 0.0044802406944216078 0 -0.001618173316514265 0.0044110330619828598 0 -0.0016231098851973648 0.0045562185668910748 0 -0.0014210001940036627 0.0044909732626758217 0 -0.0014750162337808265 0.0043818787747335348 0 -0.0017716106374310132 0.0044194430350093152 0 -0.001618173316514265 0.0044110330619828598 0 -0.0016231098851973648 0.0045562185668910748 0 -0.0014789629105323586 0.0048006537762604537 0 -0.0014844537100509566 0.0047980764713306005 0 -0.0014929342599445407 0.0047987318278322217 0 -0.0014210001940036627 0.0044909732626758217 0 -0.0015900288225391824 0.0046905906535281497 0 -0.0014908546969469069 0.0047923247606734363 0 -0.0014844537100509566 0.0047980764713306005 0 -0.0014929342599445407 0.0047987318278322217 0 -0.0013770078540513008 0.0047999625318569626 0 -0.0014908546969469069 0.0047923247606734363 0 -0.0014069880505492686 0.0049123800401237455 0 -0.0014902896366505523 0.0047939191321733753 0 -0.0014472370507429425 0.0048808944285916294 0 -0.001473009240405738 0.0045371906668223968 0 -0.0015347666418260722 0.0044802406944216078 0 -0.0016231098851973648 0.0045562185668910748 0 -0.0051357869979419858 0.0040266589373252493 0 -0.0049999431153397158 0.0040733171786574273 0 -0.0051144746094101646 0.0037107206397897115 0 -0.0051357869979419858 0.0040266589373252493 0 -0.0051583632349208666 0.0038182983620534709 0 -0.0051144746094101646 0.0037107206397897115 0 -0.0051583632349208666 0.0038182983620534709 0 -0.0051359744134804979 0.0040335182531716684 0 -0.0052789994873186268 0.0037494400846380138 0 -0.0051357869979419858 0.0040266589373252493 0 -0.0051583632349208666 0.0038182983620534709 0 -0.0051359744134804979 0.0040335182531716684 0 -0.0051357869979419858 0.0040266589373252493 0 -0.0051359744134804979 0.0040335182531716684 0 -0.0052440618127920311 0.0042027477734410106 0 -0.0051357869979419858 0.0040266589373252493 0 -0.0052440618127920311 0.0042027477734410106 0 -0.0051204898966106293 0.0044231410480600952 0 -0.0051080628878308158 0.0040756355864114222 0 -0.0049268090827999309 0.0044780298078888709 0 -0.0051359744134804979 0.0040335182531716684 0 -0.0045849518604264648 0.0047407906020727683 0 -0.0051085281013807261 0.004434513364363314 0 -0.0045849518604264648 0.0047407906020727683 0 -0.0049324432932605824 0.0047495998327199444 0 -0.004667645739643466 0.0052322164851069664 0 -0.0045849518604264648 0.0047407906020727683 0 -0.0049324432932605824 0.0047495998327199444 0 -0.0051085281013807261 0.004434513364363314 0 -0.0049268090827999309 0.0044780298078888709 0 -0.004870155386965223 0.0048445402747238214 0 -0.0051357869979419858 0.0040266589373252493 0 -0.0049999431153397158 0.0040733171786574273 0 -0.0051204898966106293 0.0044231410480600952 0 -0.0051204898966106293 0.0044231410480600952 0 -0.0051053000579267234 0.0047605250555720806 0 -0.0052297859869271544 0.0044835232945985484 0 -0.0049999431153397158 0.0040733171786574273 0 -0.0051204898966106293 0.0044231410480600952 0 -0.0049992372629728606 0.0050001899972903401 0 -0.0051204898966106293 0.0044231410480600952 0 -0.0051053000579267234 0.0047605250555720806 0 -0.0049992372629728606 0.0050001899972903401 0 -0.0046736310686199978 0.0051911179070930858 0 -0.0048395009514765417 0.0049999665846916915 0 -0.0045568905849688209 0.0049999996922809667 0 -0.0048868003940154151 0.004961730997305582 0 -0.0048396501031084879 0.0049999622158811829 0 -0.0051053000579267234 0.0047605250555720806 0 -0.0048409374628507222 0.0049995244808199498 0 -0.0049992372629728606 0.0050001899972903401 0 -0.0045568905849688209 0.0049999996922809667 0 -0.0044785323286310541 0.0051465710889146239 0 -0.0042742397037217293 0.0049999321821989325 0 -0.0046736310686199978 0.0051911179070930858 0 -0.0045568905849688209 0.0049999996922809667 0 -0.0044785323286310541 0.0051465710889146239 0 -0.0046736310686199978 0.0051911179070930858 0 -0.0044785323286310541 0.0051465710889146239 0 -0.0045537049672833372 0.0052333601759995251 0 -0.0044785323286310541 0.0051465710889146239 0 -0.0045537049672833372 0.0052333601759995251 0 -0.0044438695161258032 0.0052108947780127321 0 -0.0045537049672833372 0.0052333601759995251 0 -0.004667645739643466 0.0052322164851069664 0 -0.0044438695161258032 0.0052108947780127321 0 -0.0048868003940154151 0.004961730997305582 0 -0.004870155386965223 0.0048445402747238214 0 -0.0046736310686199978 0.0051911179070930858 0 -0.0045537049672833372 0.0052333601759995251 0 -0.0045110172387234993 0.0052265950838091537 0 -0.0052440618127920311 0.0042027477734410106 0 -0.0051204898966106293 0.0044231410480600952 0 -0.0052297859869271544 0.0044835232945985484 0 -0.0045537049672833372 0.0052333601759995251 0 -0.0045110172387234993 0.0052265950838091537 0 -0.004667645739643466 0.0052322164851069664 0 -0.0045849518604264648 0.0047407906020727683 0 -0.0045110172387234993 0.0052265950838091537 0 -0.004667645739643466 0.0052322164851069664 0 -0.004667645739643466 0.0052322164851069664 0 -0.0044613131324226741 0.0052575929189427441 0 -0.0044330720022717242 0.0053526031247836817 0 -0.0044613131324226741 0.0052575929189427441 0 -0.0043398100370889928 0.0052665060274813295 0 -0.0044438695161258032 0.0052108947780127321 0 -0.004667645739643466 0.0052322164851069664 0 -0.0044613131324226741 0.0052575929189427441 0 -0.0044438695161258032 0.0052108947780127321 0 -0.0044613131324226741 0.0052575929189427441 0 -0.0043398100370889928 0.0052665060274813295 0 -0.0044330720022717242 0.0053526031247836817 0 -0.0043398100370889928 0.0052665060274813295 0 -0.0044438695161258032 0.0052108947780127321 0 -0.004193266748915305 0.0051450801439360504 0 -0.0040445186151883399 0.0052822310084319271 0 -0.004193266748915305 0.0051450801439360504 0 -0.0040504325398651652 0.0051952937663114181 0 -0.0042010705051172522 0.0052292011261289954 0 -0.0041934082816438003 0.005151481177929091 0 -0.0044785323286310541 0.0051465710889146239 0 -0.0044438695161258032 0.0052108947780127321 0 -0.0043494672974639451 0.0051299360636181844 0 -0.0044438695161258032 0.0052108947780127321 0 -0.0043494672974639451 0.0051299360636181844 0 -0.004193266748915305 0.0051450801439360504 0 -0.004193266748915305 0.0051450801439360504 0 -0.0042742397037217293 0.0049999321821989325 0 -0.0039914411883031188 0.0049999483842559176 0 -0.0043494672974639451 0.0051299360636181844 0 -0.004193266748915305 0.0051450801439360504 0 -0.0042742397037217293 0.0049999321821989325 0 -0.0044785323286310541 0.0051465710889146239 0 -0.0043494672974639451 0.0051299360636181844 0 -0.0042742397037217293 0.0049999321821989325 0 -0.0039914411883031188 0.0049999483842559176 0 -0.0039575892931082417 0.0051247187285945227 0 -0.0037087251655476602 0.0049999701880351875 0 -0.004193266748915305 0.0051450801439360504 0 -0.0039914411883031188 0.0049999483842559176 0 -0.0039575892931082417 0.0051247187285945227 0 -0.004193266748915305 0.0051450801439360504 0 -0.0039575892931082417 0.0051247187285945227 0 -0.0040504325398651652 0.0051952937663114181 0 -0.0039575892931082417 0.0051247187285945227 0 -0.0037794139294964214 0.0052519320293530824 0 -0.0040504325398651652 0.0051952937663114181 0 -0.0039575892931082417 0.0051247187285945227 0 -0.0037794139294964214 0.0052519320293530824 0 -0.0037087251655476602 0.0049999701880351875 0 -0.0037171890514615725 0.0050505570805422654 0 -0.0039140823768792138 0.0052451960021361078 0 -0.0037662540423295653 0.0052817400850092731 0 -0.0040445186151883399 0.0052822310084319271 0 -0.0040504325398651652 0.0051952937663114181 0 -0.0039140823768792138 0.0052451960021361078 0 -0.0037171890514615725 0.0050505570805422654 0 -0.0040504325398651652 0.0051952937663114181 0 -0.0039140823768792138 0.0052451960021361078 0 -0.0037468214892864837 0.0051525354168960886 0 -0.0040265727050623366 0.0051910229912426322 0 -0.0039140823768792138 0.0052451960021361078 0 -0.0037662540423295653 0.0052817400850092731 0 -0.0039092465896708277 0.0053600394116972618 0 -0.0040445186151883399 0.0052822310084319271 0 -0.0039140823768792138 0.0052451960021361078 0 -0.0039092465896708277 0.0053600394116972618 0 -0.0037662540423295653 0.0052817400850092731 0 -0.0037854389165017234 0.0054099884004974071 0 -0.0036531044407062717 0.0053483374073238421 0 -0.0037854389165017234 0.0054099884004974071 0 -0.0036608766975142607 0.0054695280013008531 0 -0.0036531044407062717 0.0053483374073238421 0 -0.0037662540423295653 0.0052817400850092731 0 -0.0037854389165017234 0.0054099884004974071 0 -0.0039092465896708277 0.0053600394116972618 0 -0.0037854389165017234 0.0054099884004974071 0 -0.0037849481683567281 0.0055305996557882481 0 -0.003896409061869725 0.0054786242566239908 0 -0.0037854389165017234 0.0054099884004974071 0 -0.0037849481683567281 0.0055305996557882481 0 -0.0036608766975142607 0.0054695280013008531 0 -0.003896409061869725 0.0054786242566239908 0 -0.0039891062670940874 0.0054451864117610917 0 -0.0039737322037070588 0.0055970772035349742 0 -0.0037849481683567281 0.0055305996557882481 0 -0.003896409061869725 0.0054786242566239908 0 -0.0038815581375577298 0.0055841765623582951 0 -0.0037854389165017234 0.0054099884004974071 0 -0.003896409061869725 0.0054786242566239908 0 -0.0039092465896708277 0.0053600394116972618 0 -0.003896409061869725 0.0054786242566239908 0 -0.0039092465896708277 0.0053600394116972618 0 -0.0039891062670940874 0.0054451864117610917 0 -0.0043419632971662915 0.0054797801336378222 0 -0.0044330720022717242 0.0053526031247836817 0 -0.0044421828767145432 0.005499255670239349 0 -0.0042010705051172522 0.0052292011261289954 0 -0.0040958830711529401 0.005617430225412539 0 -0.0040445186151883399 0.0052822310084319271 0 -0.0039092465896708277 0.0053600394116972618 0 -0.0039891062670940874 0.0054451864117610917 0 -0.0043398100370889928 0.0052665060274813295 0 -0.0043419632971662915 0.0054797801336378222 0 -0.0044330720022717242 0.0053526031247836817 0 -0.004667645739643466 0.0052322164851069664 0 -0.0044330720022717242 0.0053526031247836817 0 -0.0044421828767145432 0.005499255670239349 0 -0.0049324432932605824 0.0047495998327199444 0 -0.004667645739643466 0.0052322164851069664 0 -0.0053760243547022017 0.0045769802900273576 0 -0.0046761161192551085 0.005235624795468667 0 -0.0049534491364073285 0.0049981782875955722 0 -0.0051085281013807261 0.004434513364363314 0 -0.0053760243547022017 0.0045769802900273576 0 -0.0053839922019559006 0.0042007018394416666 0 -0.0049324432932605824 0.0047495998327199444 0 -0.0051085281013807261 0.004434513364363314 0 -0.0053760243547022017 0.0045769802900273576 0 -0.0053760243547022017 0.0045769802900273576 0 -0.0056216949584351594 0.0040307619196054889 0 -0.0053839922019559006 0.0042007018394416666 0 -0.0049534491364073285 0.0049981782875955722 0 -0.0046870708901012728 0.004928206167660259 0 -0.0040958830711529401 0.005617430225412539 0 -0.0046870708901012728 0.004928206167660259 0 -0.0043419632971662915 0.0054797801336378222 0 -0.0044421828767145432 0.005499255670239349 0 -0.0043368542160735369 0.0056215857656230998 0 -0.0054540406426663492 0.0039834355770712957 0 -0.0055194097590758077 0.0040141082217756792 0 -0.0053839922019559006 0.0042007018394416666 0 -0.0055194097590758077 0.0040141082217756792 0 -0.0056216949584351594 0.0040307619196054889 0 -0.0053839922019559006 0.0042007018394416666 0 -0.0054540406426663492 0.0039834355770712957 0 -0.0055194097590758077 0.0040141082217756792 0 -0.0055078981585961403 0.003955192081605774 0 -0.0055194097590758077 0.0040141082217756792 0 -0.005605681000381035 0.0039731929640216641 0 -0.0055078981585961403 0.003955192081605774 0 -0.0055194097590758077 0.0040141082217756792 0 -0.005605681000381035 0.0039731929640216641 0 -0.0056216949584351594 0.0040307619196054889 0 -0.005605681000381035 0.0039731929640216641 0 -0.0056021601879770941 0.0040302650915636489 0 -0.0056272729854805054 0.0039930158067250148 0 -0.0048617635002220832 0.0044578071271375082 0 -0.0046870708901012728 0.004928206167660259 0 -0.0046870708901012728 0.004928206167660259 0 -0.0045650960457649667 0.0046705508642784898 0 -0.0051359744134804979 0.0040335182531716684 0 -0.0051085281013807261 0.004434513364363314 0 -0.0053839922019559006 0.0042007018394416666 0 -0.0051359744134804979 0.0040335182531716684 0 -0.0053839922019559006 0.0042007018394416666 0 -0.0053468638122525173 0.0039790617892471328 0 -0.0054540406426663492 0.0039834355770712957 0 -0.0053839922019559006 0.0042007018394416666 0 -0.0053468638122525173 0.0039790617892471328 0 -0.0051359744134804979 0.0040335182531716684 0 -0.0053468638122525173 0.0039790617892471328 0 -0.0052789994873186268 0.0037494400846380138 0 -0.0053468638122525173 0.0039790617892471328 0 -0.0054521757025210015 0.0038539943679696629 0 -0.0052789994873186268 0.0037494400846380138 0 -0.0045650960457649667 0.0046705508642784898 0 -0.0052885368433279274 0.0032909315949943433 0 -0.005605681000381035 0.0039731929640216641 0 -0.0054521757025210015 0.0038539943679696629 0 -0.0054240476778946072 0.0037023144966702279 0 -0.0049261447739039942 0.0031281132068375337 0 -0.0049281347984092274 0.0032565034498701216 0 -0.0050254248503731423 0.0032982468036935847 0 -0.005605681000381035 0.0039731929640216641 0 -0.0056272729854805054 0.0039930158067250148 0 -0.0054240476778946072 0.0037023144966702279 0 -0.005605681000381035 0.0039731929640216641 0 -0.0055078981585961403 0.003955192081605774 0 -0.0054521757025210015 0.0038539943679696629 0 -0.0054540406426663492 0.0039834355770712957 0 -0.0055078981585961403 0.003955192081605774 0 -0.0054521757025210015 0.0038539943679696629 0 -0.0054540406426663492 0.0039834355770712957 0 -0.0053468638122525173 0.0039790617892471328 0 -0.0054521757025210015 0.0038539943679696629 0 -0.0038789768285916442 0.0056915896890568848 0 -0.0038746311138169892 0.0057867193058765169 0 -0.0039616717159441676 0.0056519674207510468 0 -0.0043686921339567168 0.0039293276832388863 0 -0.0045650960457649667 0.0046705508642784898 0 -0.0038789768285916442 0.0056915896890568848 0 -0.0038746311138169892 0.0057867193058765169 0 -0.0037929954593746555 0.0056475078534841405 0 -0.0048546835596120948 0.0032408417206082063 0 -0.0049261447739039942 0.0031281132068375337 0 -0.0049281347984092274 0.0032565034498701216 0 -0.0043686921339567168 0.0039293276832388863 0 -0.0039869719305488148 0.0048023708276218472 0 -0.0038746311138169892 0.0057867193058765169 0 -0.0037929954593746555 0.0056475078534841405 0 -0.0036346117664604475 0.0057406550996018709 0 -0.0037849481683567281 0.0055305996557882481 0 -0.0037929954593746555 0.0056475078534841405 0 -0.0036258540297488271 0.0055914492016721235 0 -0.0037849481683567281 0.0055305996557882481 0 -0.0037929954593746555 0.0056475078534841405 0 -0.0038815581375577298 0.0055841765623582951 0 -0.003896409061869725 0.0054786242566239908 0 -0.0038815581375577298 0.0055841765623582951 0 -0.0039616717159441676 0.0056519674207510468 0 -0.003896409061869725 0.0054786242566239908 0 -0.0039737322037070588 0.0055970772035349742 0 -0.0039652073106075207 0.0056105902725296919 0 -0.0038191541756229679 0.0058209638649807192 0 -0.0045650960457649667 0.0046705508642784898 0 -0.0038789768285916442 0.0056915896890568848 0 -0.0039616717159441676 0.0056519674207510468 0 -0.0038864057373568838 0.0056423261773291813 0 -0.0038815581375577298 0.0055841765623582951 0 -0.0039616717159441676 0.0056519674207510468 0 -0.0038864057373568838 0.0056423261773291813 0 -0.0037929954593746555 0.0056475078534841405 0 -0.0038815581375577298 0.0055841765623582951 0 -0.0038864057373568838 0.0056423261773291813 0 -0.0038789768285916442 0.0056915896890568848 0 -0.0037929954593746555 0.0056475078534841405 0 -0.0038864057373568838 0.0056423261773291813 0 -0.0036258540297488271 0.0055914492016721235 0 -0.0036346117664604475 0.0057406550996018709 0 -0.0033665198269756821 0.0056667846102207414 0 -0.0036258540297488271 0.0055914492016721235 0 -0.0033665198269756821 0.0056667846102207414 0 -0.0034904432897992408 0.0054992778083636316 0 -0.0037929954593746555 0.0056475078534841405 0 -0.0036258540297488271 0.0055914492016721235 0 -0.0036346117664604475 0.0057406550996018709 0 -0.0039869719305488148 0.0048023708276218472 0 -0.0037503215917809108 0.0047343614626195263 0 -0.0043801426292303892 0.0036460285141914194 0 -0.0042280352217972939 0.0037656159067802845 0 -0.0041055328419439532 0.0038188498865390618 0 -0.0042280352217972939 0.0037656159067802845 0 -0.0041055328419439532 0.0038188498865390618 0 -0.0041002214323301962 0.003882505401983143 0 -0.0038694000755186146 0.0040512154867990147 0 -0.0041055328419439532 0.0038188498865390618 0 -0.0041002214323301962 0.003882505401983143 0 -0.0038694000755186146 0.0040512154867990147 0 -0.0036784953441783984 0.0040611977666256188 0 -0.0041055328419439532 0.0038188498865390618 0 -0.0034030493643386326 0.0048157415676774347 0 -0.0037503215917809108 0.0047343614626195263 0 -0.0030911180921557569 0.0055516036151476069 0 -0.0033665198269756821 0.0056667846102207414 0 -0.0032628617181547715 0.0054015305859417603 0 -0.0033665198269756821 0.0056667846102207414 0 -0.0032628617181547715 0.0054015305859417603 0 -0.0034904432897992408 0.0054992778083636316 0 -0.0030911180921557569 0.0055516036151476069 0 -0.0032628617181547715 0.0054015305859417603 0 -0.0030045003203444183 0.0053477702802634669 0 -0.0032628617181547715 0.0054015305859417603 0 -0.0030813520236327883 0.005234755608486347 0 -0.0030045003203444183 0.0053477702802634669 0 -0.0032628617181547715 0.0054015305859417603 0 -0.0033100668119636183 0.0052244651146236779 0 -0.0030813520236327883 0.005234755608486347 0 -0.0032628617181547715 0.0054015305859417603 0 -0.0034895325388719914 0.0053559710114714073 0 -0.0033100668119636183 0.0052244651146236779 0 -0.0032628617181547715 0.0054015305859417603 0 -0.0034895325388719914 0.0053559710114714073 0 -0.0034904432897992408 0.0054992778083636316 0 -0.0036258540297488271 0.0055914492016721235 0 -0.0034904432897992408 0.0054992778083636316 0 -0.0036608766975142607 0.0054695280013008531 0 -0.0037849481683567281 0.0055305996557882481 0 -0.0036258540297488271 0.0055914492016721235 0 -0.0036608766975142607 0.0054695280013008531 0 -0.0034895325388719914 0.0053559710114714073 0 -0.0034904432897992408 0.0054992778083636316 0 -0.0036608766975142607 0.0054695280013008531 0 -0.0034895325388719914 0.0053559710114714073 0 -0.0036608766975142607 0.0054695280013008531 0 -0.0036531044407062717 0.0053483374073238421 0 -0.0034895325388719914 0.0053559710114714073 0 -0.0036531044407062717 0.0053483374073238421 0 -0.0035542527919581409 0.0052157300647865824 0 -0.0037662540423295653 0.0052817400850092731 0 -0.0036531044407062717 0.0053483374073238421 0 -0.0035542527919581409 0.0052157300647865824 0 -0.0034895325388719914 0.0053559710114714073 0 -0.0035542527919581409 0.0052157300647865824 0 -0.0033100668119636183 0.0052244651146236779 0 -0.0035542527919581409 0.0052157300647865824 0 -0.003399775971545733 0.0050183405059352048 0 -0.0033100668119636183 0.0052244651146236779 0 -0.0037171890514615725 0.0050505570805422654 0 -0.0037662540423295653 0.0052817400850092731 0 -0.0035542527919581409 0.0052157300647865824 0 -0.0037171890514615725 0.0050505570805422654 0 -0.0035542527919581409 0.0052157300647865824 0 -0.003399775971545733 0.0050183405059352048 0 -0.0037468214892864837 0.0051525354168960886 0 -0.0034378480220132743 0.005118810004768928 0 -0.0037794139294964214 0.0052519320293530824 0 -0.0034714393357888032 0.0052220893105090881 0 -0.0037087251655476602 0.0049999701880351875 0 -0.0034714393357888032 0.0052220893105090881 0 -0.0037087251655476602 0.0049999701880351875 0 -0.0034259112645511161 0.0049999468010215988 0 -0.0031258144771651678 0.0050303585659157053 0 -0.0031432223813610094 0.0049998694509786976 0 -0.0032819609015951015 0.0050553323207726845 0 -0.0031258144771651678 0.0050303585659157053 0 -0.0032819609015951015 0.0050553323207726845 0 -0.0031625147060915771 0.0050774563898850862 0 -0.0031432223813610094 0.0049998694509786976 0 -0.0032819609015951015 0.0050553323207726845 0 -0.0034259112645511161 0.0049999468010215988 0 -0.0034714393357888032 0.0052220893105090881 0 -0.0032819609015951015 0.0050553323207726845 0 -0.0034259112645511161 0.0049999468010215988 0 -0.0034714393357888032 0.0052220893105090881 0 -0.0032819609015951015 0.0050553323207726845 0 -0.0031625147060915771 0.0050774563898850862 0 -0.0034378480220132743 0.005118810004768928 0 -0.0031848538065874185 0.0050819552479634874 0 -0.003399775971545733 0.0050183405059352048 0 -0.0031625147060915771 0.0050774563898850862 0 -0.0031380868732462201 0.0051433831008379912 0 -0.0031625147060915771 0.0050774563898850862 0 -0.0031380868732462201 0.0051433831008379912 0 -0.0030406464501384124 0.0050940671379586218 0 -0.003399775971545733 0.0050183405059352048 0 -0.0031380868732462201 0.0051433831008379912 0 -0.0033100668119636183 0.0052244651146236779 0 -0.0031380868732462201 0.0051433831008379912 0 -0.0033100668119636183 0.0052244651146236779 0 -0.0030813520236327883 0.005234755608486347 0 -0.0031380868732462201 0.0051433831008379912 0 -0.0030813520236327883 0.005234755608486347 0 -0.0029654389931115487 0.0051462931542795185 0 -0.0030813520236327883 0.005234755608486347 0 -0.0029654389931115487 0.0051462931542795185 0 -0.0028875931448999045 0.0052179671156709741 0 -0.0029654389931115487 0.0051462931542795185 0 -0.0027752000667674794 0.0051274357691500714 0 -0.0028875931448999045 0.0052179671156709741 0 -0.0028817742615504277 0.0050768396455073764 0 -0.0029654389931115487 0.0051462931542795185 0 -0.0027752000667674794 0.0051274357691500714 0 -0.0028817742615504277 0.0050768396455073764 0 -0.0029654389931115487 0.0051462931542795185 0 -0.0030406464501384124 0.0050940671379586218 0 -0.0031380868732462201 0.0051433831008379912 0 -0.0029654389931115487 0.0051462931542795185 0 -0.0030406464501384124 0.0050940671379586218 0 -0.0031258144771651678 0.0050303585659157053 0 -0.0031625147060915771 0.0050774563898850862 0 -0.0030079859117498561 0.0050349688693508872 0 -0.0028817742615504277 0.0050768396455073764 0 -0.0030406464501384124 0.0050940671379586218 0 -0.0030079859117498561 0.0050349688693508872 0 -0.0031625147060915771 0.0050774563898850862 0 -0.0030406464501384124 0.0050940671379586218 0 -0.0030079859117498561 0.0050349688693508872 0 -0.0028817742615504277 0.0050768396455073764 0 -0.0030079859117498561 0.0050349688693508872 0 -0.0028783611172704233 0.0050059368329812386 0 -0.0028817742615504277 0.0050768396455073764 0 -0.0028783611172704233 0.0050059368329812386 0 -0.002764568116938692 0.0050274092169837305 0 -0.0030079859117498561 0.0050349688693508872 0 -0.0028783611172704233 0.0050059368329812386 0 -0.0029644353286464339 0.0049787074490687802 0 -0.0029644353286464339 0.0049787074490687802 0 -0.0028682276719145194 0.0049031558413709167 0 -0.0030793942943783252 0.0050034845287969419 0 -0.0028605327360439656 0.0050000130117392738 0 -0.002822711002892205 0.0050608079890158359 0 -0.0030793942943783252 0.0050034845287969419 0 -0.0028435726830039585 0.004986976879882199 0 -0.0030565916326397357 0.0049949450546297085 0 -0.0028783611172704233 0.0050059368329812386 0 -0.0029644353286464339 0.0049787074490687802 0 -0.0028682276719145194 0.0049031558413709167 0 -0.0031432223813610094 0.0049998694509786976 0 -0.0028605327360439656 0.0050000130117392738 0 -0.0030793942943783252 0.0050034845287969419 0 -0.0031258144771651678 0.0050303585659157053 0 -0.0030793942943783252 0.0050034845287969419 0 -0.0030445109016850745 0.0050093009603392287 0 -0.0031258144771651678 0.0050303585659157053 0 -0.0031432223813610094 0.0049998694509786976 0 -0.0030793942943783252 0.0050034845287969419 0 -0.0031258144771651678 0.0050303585659157053 0 -0.0030079859117498561 0.0050349688693508872 0 -0.0030445109016850745 0.0050093009603392287 0 -0.0029644353286464339 0.0049787074490687802 0 -0.0030793942943783252 0.0050034845287969419 0 -0.0030445109016850745 0.0050093009603392287 0 -0.0030079859117498561 0.0050349688693508872 0 -0.0029644353286464339 0.0049787074490687802 0 -0.0030445109016850745 0.0050093009603392287 0 -0.0024367701838483632 0.0050364939576954459 0 -0.0025585649383078465 0.0050989173255304799 0 -0.0025777230992453737 0.0049999842269962073 0 -0.0028682276719145194 0.0049031558413709167 0 -0.0026183008006800709 0.004901485665664433 0 -0.0027300964022342906 0.004958858699085006 0 -0.0028605327360439656 0.0050000130117392738 0 -0.002822711002892205 0.0050608079890158359 0 -0.0025777230992453737 0.0049999842269962073 0 -0.0028435726830039585 0.004986976879882199 0 -0.0025887088672122286 0.0050003326295409269 0 -0.002822711002892205 0.0050608079890158359 0 -0.0025585649383078465 0.0050989173255304799 0 -0.0025777230992453737 0.0049999842269962073 0 -0.0028682276719145194 0.0049031558413709167 0 -0.0027300964022342906 0.004958858699085006 0 -0.0028032291748624504 0.0049716588858693964 0 -0.0028783611172704233 0.0050059368329812386 0 -0.0028682276719145194 0.0049031558413709167 0 -0.0028032291748624504 0.0049716588858693964 0 -0.0027300964022342906 0.004958858699085006 0 -0.002764568116938692 0.0050274092169837305 0 -0.0026470831894973988 0.0050139369160447003 0 -0.0027300964022342906 0.004958858699085006 0 -0.0028032291748624504 0.0049716588858693964 0 -0.002764568116938692 0.0050274092169837305 0 -0.0028783611172704233 0.0050059368329812386 0 -0.0028032291748624504 0.0049716588858693964 0 -0.002764568116938692 0.0050274092169837305 0 -0.0028817742615504277 0.0050768396455073764 0 -0.002764568116938692 0.0050274092169837305 0 -0.0027763861675258574 0.0050787065412206964 0 -0.002764568116938692 0.0050274092169837305 0 -0.0026847710805347653 0.0050768194691798302 0 -0.0027763861675258574 0.0050787065412206964 0 -0.002764568116938692 0.0050274092169837305 0 -0.0026470831894973988 0.0050139369160447003 0 -0.0026847710805347653 0.0050768194691798302 0 -0.0026470831894973988 0.0050139369160447003 0 -0.0025773633139443276 0.0050683318742580702 0 -0.0026847710805347653 0.0050768194691798302 0 -0.0026183008006800709 0.004901485665664433 0 -0.0027300964022342906 0.004958858699085006 0 -0.0026470831894973988 0.0050139369160447003 0 -0.0025204363374023955 0.0050232967050647045 0 -0.0026183008006800709 0.004901485665664433 0 -0.0026470831894973988 0.0050139369160447003 0 -0.0025204363374023955 0.0050232967050647045 0 -0.0026470831894973988 0.0050139369160447003 0 -0.0025773633139443276 0.0050683318742580702 0 -0.002523492329388062 0.0051079766136576891 0 -0.0025773633139443276 0.0050683318742580702 0 -0.0026349730204802226 0.0051288747097862249 0 -0.0025773633139443276 0.0050683318742580702 0 -0.0026847710805347653 0.0050768194691798302 0 -0.0026349730204802226 0.0051288747097862249 0 -0.0026847710805347653 0.0050768194691798302 0 -0.0027752000667674794 0.0051274357691500714 0 -0.0026349730204802226 0.0051288747097862249 0 -0.0028817742615504277 0.0050768396455073764 0 -0.0027763861675258574 0.0050787065412206964 0 -0.0027752000667674794 0.0051274357691500714 0 -0.0026847710805347653 0.0050768194691798302 0 -0.0027763861675258574 0.0050787065412206964 0 -0.0027752000667674794 0.0051274357691500714 0 -0.0027752000667674794 0.0051274357691500714 0 -0.0026349730204802226 0.0051288747097862249 0 -0.002713544978763068 0.0051551169996907949 0 -0.0027752000667674794 0.0051274357691500714 0 -0.002713544978763068 0.0051551169996907949 0 -0.0028875931448999045 0.0052179671156709741 0 -0.0026131920753281789 0.0051326294664748228 0 -0.0026349730204802226 0.0051288747097862249 0 -0.002713544978763068 0.0051551169996907949 0 -0.0025423850662989645 0.0051350525141411326 0 -0.0026131920753281789 0.0051326294664748228 0 -0.0026349730204802226 0.0051288747097862249 0 -0.0026131920753281789 0.0051326294664748228 0 -0.0026842465407173029 0.0050205256837867213 0 -0.002713544978763068 0.0051551169996907949 0 -0.0026090571115838829 0.0050763495241773872 0 -0.0026131920753281789 0.0051326294664748228 0 -0.0026842465407173029 0.0050205256837867213 0 -0.0026842465407173029 0.0050205256837867213 0 -0.0031089060432484936 0.0044224454574783379 0 -0.0027979394107110907 0.0047930452377570988 0 -0.0027475419456158357 0.0050037284357317422 0 -0.003002244926516834 0.0049030392053166522 0 -0.0026842465407173029 0.0050205256837867213 0 -0.002713544978763068 0.0051551169996907949 0 -0.002826979472464579 0.0053531024372246811 0 -0.002713544978763068 0.0051551169996907949 0 -0.0028875931448999045 0.0052179671156709741 0 -0.002826979472464579 0.0053531024372246811 0 -0.0030813520236327883 0.005234755608486347 0 -0.0028875931448999045 0.0052179671156709741 0 -0.0030045003203444183 0.0053477702802634669 0 -0.0030911180921557569 0.0055516036151476069 0 -0.0030045003203444183 0.0053477702802634669 0 -0.002826979472464579 0.0053531024372246811 0 -0.0028875931448999045 0.0052179671156709741 0 -0.0030045003203444183 0.0053477702802634669 0 -0.002826979472464579 0.0053531024372246811 0 -0.0036784953441783984 0.0040611977666256188 0 -0.0031089060432484936 0.0044224454574783379 0 -0.0031986384733919582 0.0044968682853843076 0 -0.0036784953441783984 0.0040611977666256188 0 -0.0031986384733919582 0.0044968682853843076 0 -0.0034552121554606362 0.0043727342683816837 0 -0.0034030493643386326 0.0048157415676774347 0 -0.003002244926516834 0.0049030392053166522 0 -0.0038694000755186146 0.0040512154867990147 0 -0.0034552121554606362 0.0043727342683816837 0 -0.0036386190858577194 0.0043572386852328785 0 -0.0038694000755186146 0.0040512154867990147 0 -0.0036784953441783984 0.0040611977666256188 0 -0.0034552121554606362 0.0043727342683816837 0 -0.0034552121554606362 0.0043727342683816837 0 -0.0032860933872127652 0.0044788995339857737 0 -0.0036386190858577194 0.0043572386852328785 0 -0.0031986384733919582 0.0044968682853843076 0 -0.0034552121554606362 0.0043727342683816837 0 -0.0029800618812279057 0.0048001098934859418 0 -0.0034552121554606362 0.0043727342683816837 0 -0.0031613942607518156 0.0043322268999309022 0 -0.0032860933872127652 0.0044788995339857737 0 -0.003401015360377394 0.0044195550038805204 0 -0.0030493328754328738 0.0045490267812210031 0 -0.0031613942607518156 0.0043322268999309022 0 -0.0028694646325254599 0.0044553464187519201 0 -0.0032860933872127652 0.0044788995339857737 0 -0.0026036126758890157 0.0040249302319214468 0 -0.0031510315458364853 0.0040525939913395011 0 -0.0030493328754328738 0.0045490267812210031 0 -0.0027738025827062818 0.0046362683804705455 0 -0.0031613942607518156 0.0043322268999309022 0 -0.0028694646325254599 0.0044553464187519201 0 -0.0027578010275411515 0.004318619488704367 0 -0.0029800618812279057 0.0048001098934859418 0 -0.0027010855260818007 0.0049623943496833302 0 -0.0027979394107110907 0.0047930452377570988 0 -0.0026312891187739015 0.0050041597097938879 0 -0.0026842465407173029 0.0050205256837867213 0 -0.0026936068357642051 0.0049078337629345423 0 -0.0026842465407173029 0.0050205256837867213 0 -0.0026936068357642051 0.0049078337629345423 0 -0.0027979394107110907 0.0047930452377570988 0 -0.0027010855260818007 0.0049623943496833302 0 -0.0026936068357642051 0.0049078337629345423 0 -0.0027979394107110907 0.0047930452377570988 0 -0.0031986384733919582 0.0044968682853843076 0 -0.0029800618812279057 0.0048001098934859418 0 -0.0027979394107110907 0.0047930452377570988 0 -0.0031089060432484936 0.0044224454574783379 0 -0.0031986384733919582 0.0044968682853843076 0 -0.0027979394107110907 0.0047930452377570988 0 -0.0026295978609946948 0.0040608494552143567 0 -0.0031530977824817761 0.0040832538870782921 0 -0.002771920194895275 0.0045922462557263354 0 -0.0022433100926678032 0.0043285868606591097 0 -0.0026295978609946948 0.0040608494552143567 0 -0.002771920194895275 0.0045922462557263354 0 -0.0019913698411933383 0.0041420303901829169 0 -0.0022433100926678032 0.0043285868606591097 0 -0.0022963853699362094 0.0040565352014343727 0 -0.0022433100926678032 0.0043285868606591097 0 -0.0022963853699362094 0.0040565352014343727 0 -0.0026295978609946948 0.0040608494552143567 0 -0.0023272766989960135 0.0036422020762955443 0 -0.0022963853699362094 0.0040565352014343727 0 -0.0026295978609946948 0.0040608494552143567 0 -0.0019913698411933383 0.0041420303901829169 0 -0.0023272766989960135 0.0036422020762955443 0 -0.0022963853699362094 0.0040565352014343727 0 -0.0023272766989960135 0.0036422020762955443 0 -0.0026295978609946948 0.0040608494552143567 0 -0.0030134559527567146 0.003627675145033453 0 -0.0030134559527567146 0.003627675145033453 0 -0.0037273051872833965 0.0036619482570323489 0 -0.0031530977824817761 0.0040832538870782921 0 -0.0026295978609946948 0.0040608494552143567 0 -0.0030134559527567146 0.003627675145033453 0 -0.0031530977824817761 0.0040832538870782921 0 -0.0031510315458364853 0.0040525939913395011 0 -0.0036649379603412606 0.0039970601369135553 0 -0.0037273051872833965 0.0036619482570323489 0 -0.003617039116140175 0.0043098192478825594 0 -0.0031530977824817761 0.0040832538870782921 0 -0.0037273051872833965 0.0036619482570323489 0 -0.003617039116140175 0.0043098192478825594 0 -0.0039486506805326005 0.0038663823780400522 0 -0.003617039116140175 0.0043098192478825594 0 -0.0031530977824817761 0.0040832538870782921 0 -0.002771920194895275 0.0045922462557263354 0 -0.0036863891081941073 0.0039186052542086076 0 -0.0030225815877566531 0.0040515674025834699 0 -0.0038026193090271191 0.0035252456765305627 0 -0.0035266021174882541 0.0038198683827394579 0 -0.0032741786153086074 0.0035178716531949583 0 -0.0035266021174882541 0.0038198683827394579 0 -0.003659450353293685 0.0040516308464598628 0 -0.0038804624695609976 0.0038128631074028094 0 -0.0038026193090271191 0.0035252456765305627 0 -0.0035266021174882541 0.0038198683827394579 0 -0.0038804624695609976 0.0038128631074028094 0 -0.0035266021174882541 0.0038198683827394579 0 -0.0031296614720097322 0.0038834906878997552 0 -0.0032741786153086074 0.0035178716531949583 0 -0.0027684745482296352 0.0036154316042812436 0 -0.0031296614720097322 0.0038834906878997552 0 -0.0032741786153086074 0.0035178716531949583 0 -0.0024121023472250779 0.004125183983619247 0 -0.0030225815877566531 0.0040515674025834699 0 -0.0020318011491477898 0.0046387135374081397 0 -0.0022433100926678032 0.0043285868606591097 0 -0.002771920194895275 0.0045922462557263354 0 -0.0027684745482296352 0.0036154316042812436 0 -0.0027357472695963944 0.003960476374751094 0 -0.0031296614720097322 0.0038834906878997552 0 -0.0027357472695963944 0.003960476374751094 0 -0.0031296614720097322 0.0038834906878997552 0 -0.0030375545403388388 0.0041785758649386462 0 -0.0026906999710044461 0.0042777197515455629 0 -0.0027357472695963944 0.003960476374751094 0 -0.0030375545403388388 0.0041785758649386462 0 -0.0031296614720097322 0.0038834906878997552 0 -0.0030375545403388388 0.0041785758649386462 0 -0.0033547644674252696 0.004084471119388579 0 -0.0030375545403388388 0.0041785758649386462 0 -0.0032480896324428429 0.004333473507921775 0 -0.0029086194958939196 0.0044792636456871381 0 -0.0030375545403388388 0.0041785758649386462 0 -0.0032480896324428429 0.004333473507921775 0 -0.0033547644674252696 0.004084471119388579 0 -0.0026906999710044461 0.0042777197515455629 0 -0.0030375545403388388 0.0041785758649386462 0 -0.0029086194958939196 0.0044792636456871381 0 -0.0032480896324428429 0.004333473507921775 0 -0.0029086194958939196 0.0044792636456871381 0 -0.0032095737446811105 0.0045191671438664207 0 -0.0029799780883222335 0.0047018182327889287 0 -0.0033463477206715974 0.0046012065187872701 0 -0.0030996238971944022 0.0048883346356849789 0 -0.0029086194958939196 0.0044792636456871381 0 -0.0032095737446811105 0.0045191671438664207 0 -0.0029799780883222335 0.0047018182327889287 0 -0.0030078778617732217 0.0047009684363730634 0 -0.0034139883464996282 0.0046228926321909714 0 -0.0032095737446811105 0.0045191671438664207 0 -0.0029799780883222335 0.0047018182327889287 0 -0.0034887566905130551 0.0046588101259685127 0 -0.0026546157379764347 0.0047251478809062055 0 -0.0029086194958939196 0.0044792636456871381 0 -0.0029799780883222335 0.0047018182327889287 0 -0.0034139883464996282 0.0046228926321909714 0 -0.0038535262978141669 0.0045252848456217298 0 -0.0034924231157034288 0.0047287066496075406 0 -0.0033463477206715974 0.0046012065187872701 0 -0.0037757254956848302 0.0044949545804464598 0 -0.0034887566905130551 0.0046588101259685127 0 -0.0036595932036583628 0.0044896298025511924 0 -0.0039404329197922179 0.0045108695397580974 0 -0.0034924231157034288 0.0047287066496075406 0 -0.0033463477206715974 0.0046012065187872701 0 -0.0030996238971944022 0.0048883346356849789 0 -0.0034887566905130551 0.0046588101259685127 0 -0.0034545609118422234 0.0044364385404020469 0 -0.0036595932036583628 0.0044896298025511924 0 -0.0032095737446811105 0.0045191671438664207 0 -0.0034887566905130551 0.0046588101259685127 0 -0.0034545609118422234 0.0044364385404020469 0 -0.0032480896324428429 0.004333473507921775 0 -0.0034545609118422234 0.0044364385404020469 0 -0.0035222009324327804 0.0042404076962574413 0 -0.0032480896324428429 0.004333473507921775 0 -0.0032095737446811105 0.0045191671438664207 0 -0.0034545609118422234 0.0044364385404020469 0 -0.0036595932036583628 0.0044896298025511924 0 -0.0037874508942492085 0.0044192212298673067 0 -0.0039404329197922179 0.0045108695397580974 0 -0.0034545609118422234 0.0044364385404020469 0 -0.0036743685234851033 0.0043508965738839056 0 -0.0036595932036583628 0.0044896298025511924 0 -0.0034545609118422234 0.0044364385404020469 0 -0.0036743685234851033 0.0043508965738839056 0 -0.0035222009324327804 0.0042404076962574413 0 -0.0036743685234851033 0.0043508965738839056 0 -0.0036595932036583628 0.0044896298025511924 0 -0.0037874508942492085 0.0044192212298673067 0 -0.0036743685234851033 0.0043508965738839056 0 -0.0037874508942492085 0.0044192212298673067 0 -0.0039032454481673705 0.0042936163402016551 0 -0.0036743685234851033 0.0043508965738839056 0 -0.0037798151382758055 0.0041714951651054223 0 -0.0039032454481673705 0.0042936163402016551 0 -0.0036743685234851033 0.0043508965738839056 0 -0.0037798151382758055 0.0041714951651054223 0 -0.0035222009324327804 0.0042404076962574413 0 -0.0037798151382758055 0.0041714951651054223 0 -0.0035222009324327804 0.0042404076962574413 0 -0.003659450353293685 0.0040516308464598628 0 -0.0032480896324428429 0.004333473507921775 0 -0.0035222009324327804 0.0042404076962574413 0 -0.0033547644674252696 0.004084471119388579 0 -0.0035222009324327804 0.0042404076962574413 0 -0.0033547644674252696 0.004084471119388579 0 -0.003659450353293685 0.0040516308464598628 0 -0.0035266021174882541 0.0038198683827394579 0 -0.0033547644674252696 0.004084471119388579 0 -0.003659450353293685 0.0040516308464598628 0 -0.0035266021174882541 0.0038198683827394579 0 -0.0031296614720097322 0.0038834906878997552 0 -0.0033547644674252696 0.004084471119388579 0 -0.003659450353293685 0.0040516308464598628 0 -0.003971666890376176 0.003986621130444486 0 -0.0038804624695609976 0.0038128631074028094 0 -0.0037798151382758055 0.0041714951651054223 0 -0.003659450353293685 0.0040516308464598628 0 -0.003971666890376176 0.003986621130444486 0 -0.003971666890376176 0.003986621130444486 0 -0.0041864134378441185 0.0038604642975292292 0 -0.0040749618438831623 0.0037952020490411684 0 -0.003971666890376176 0.003986621130444486 0 -0.0041864134378441185 0.0038604642975292292 0 -0.0042049815886412399 0.0039901116583624177 0 -0.0041864134378441185 0.0038604642975292292 0 -0.0042049815886412399 0.0039901116583624177 0 -0.004335223317351187 0.0038652433773920056 0 -0.003971666890376176 0.003986621130444486 0 -0.0042049815886412399 0.0039901116583624177 0 -0.0040860597376142088 0.0041495503489996739 0 -0.0042049815886412399 0.0039901116583624177 0 -0.0040860597376142088 0.0041495503489996739 0 -0.0042396519003988532 0.0041572666398918484 0 -0.0040860597376142088 0.0041495503489996739 0 -0.0042396519003988532 0.0041572666398918484 0 -0.0040983938842059277 0.0042995940517395166 0 -0.0037798151382758055 0.0041714951651054223 0 -0.003971666890376176 0.003986621130444486 0 -0.0039388536601290148 0.0041463836603306123 0 -0.003971666890376176 0.003986621130444486 0 -0.0040860597376142088 0.0041495503489996739 0 -0.0039388536601290148 0.0041463836603306123 0 -0.0040860597376142088 0.0041495503489996739 0 -0.0039388536601290148 0.0041463836603306123 0 -0.0039032454481673705 0.0042936163402016551 0 -0.0040860597376142088 0.0041495503489996739 0 -0.0039032454481673705 0.0042936163402016551 0 -0.0040983938842059277 0.0042995940517395166 0 -0.0037798151382758055 0.0041714951651054223 0 -0.0039388536601290148 0.0041463836603306123 0 -0.0039032454481673705 0.0042936163402016551 0 -0.0037874508942492085 0.0044192212298673067 0 -0.0039032454481673705 0.0042936163402016551 0 -0.0039404329197922179 0.0045108695397580974 0 -0.0039032454481673705 0.0042936163402016551 0 -0.0039404329197922179 0.0045108695397580974 0 -0.0040983938842059277 0.0042995940517395166 0 -0.0037757254956848302 0.0044949545804464598 0 -0.0039318292530456491 0.0045312063554862215 0 -0.0042248538142158083 0.0043957407888034032 0 -0.0042396519003988532 0.0041572666398918484 0 -0.0040983938842059277 0.0042995940517395166 0 -0.0043352549524160143 0.0043383682047952584 0 -0.0039614429655102732 0.0042208159739591817 0 -0.0042698606450934165 0.0041967641874011722 0 -0.0039404329197922179 0.0045108695397580974 0 -0.0040983938842059277 0.0042995940517395166 0 -0.0043352549524160143 0.0043383682047952584 0 -0.0038535262978141669 0.0045252848456217298 0 -0.0042698606450934165 0.0041967641874011722 0 -0.0039862792159437565 0.0039159008051990003 0 -0.0041633338039479611 0.004087248261805153 0 -0.0043070521014279169 0.0039604911608476182 0 -0.0039862792159437565 0.0039159008051990003 0 -0.0043070521014279169 0.0039604911608476182 0 -0.0042979581353203367 0.0038002454449043367 0 -0.0039862792159437565 0.0039159008051990003 0 -0.0041633338039479611 0.004087248261805153 0 -0.0039925176899132725 0.0041108457330971517 0 -0.0034921463307531534 0.0044386074980010317 0 -0.0039614429655102732 0.0042208159739591817 0 -0.0034924231157034288 0.0047287066496075406 0 -0.0037757254956848302 0.0044949545804464598 0 -0.0039318292530456491 0.0045312063554862215 0 -0.0034878869898500387 0.0041453153291187853 0 -0.0039862792159437565 0.0039159008051990003 0 -0.003800318327323467 0.0041610006349623776 0 -0.0039862792159437565 0.0039159008051990003 0 -0.0039925176899132725 0.0041108457330971517 0 -0.003800318327323467 0.0041610006349623776 0 -0.0045515790840737419 0.0039782099460285748 0 -0.0047795087917114759 0.0040447344630909834 0 -0.0046036321316495149 0.0041682445693831949 0 -0.0045515790840737419 0.0039782099460285748 0 -0.0047299234451229051 0.0038580374677424844 0 -0.0047795087917114759 0.0040447344630909834 0 -0.0045515790840737419 0.0039782099460285748 0 -0.0044403143810061189 0.0041712544306467493 0 -0.0046036321316495149 0.0041682445693831949 0 -0.0045515790840737419 0.0039782099460285748 0 -0.0043445079409546112 0.0040720529134786309 0 -0.0044403143810061189 0.0041712544306467493 0 -0.0041633338039479611 0.004087248261805153 0 -0.0043445079409546112 0.0040720529134786309 0 -0.0043070521014279169 0.0039604911608476182 0 -0.0045515790840737419 0.0039782099460285748 0 -0.0043445079409546112 0.0040720529134786309 0 -0.0043070521014279169 0.0039604911608476182 0 -0.0045515790840737419 0.0039782099460285748 0 -0.0043070521014279169 0.0039604911608476182 0 -0.0044715532006324634 0.003751419990045835 0 -0.0043070521014279169 0.0039604911608476182 0 -0.0042979581353203367 0.0038002454449043367 0 -0.0044715532006324634 0.003751419990045835 0 -0.0042396519003988532 0.0041572666398918484 0 -0.0043352549524160143 0.0043383682047952584 0 -0.0043724089645809511 0.0041199900478718328 0 -0.0043352549524160143 0.0043383682047952584 0 -0.0044755593570465404 0.0042382171324643206 0 -0.0043724089645809511 0.0041199900478718328 0 -0.0042698606450934165 0.0041967641874011722 0 -0.0044698545679470059 0.0040054278991286593 0 -0.0044715532006324634 0.003751419990045835 0 -0.0048426993092988303 0.0037367005442121904 0 -0.0047299234451229051 0.0038580374677424844 0 -0.0045515790840737419 0.0039782099460285748 0 -0.0044715532006324634 0.003751419990045835 0 -0.0047299234451229051 0.0038580374677424844 0 -0.0044755593570465404 0.0042382171324643206 0 -0.0046035888759074512 0.0039023266651452646 0 -0.0048426993092988303 0.0037367005442121904 0 -0.0044698545679470059 0.0040054278991286593 0 -0.0048078757248016732 0.0037638989861429758 0 -0.0046035888759074512 0.0039023266651452646 0 -0.0046257564999786921 0.0037477833639310678 0 -0.0048426993092988303 0.0037367005442121904 0 -0.0044755593570465404 0.0042382171324643206 0 -0.0046035888759074512 0.0039023266651452646 0 -0.0043724089645809511 0.0041199900478718328 0 -0.0046035888759074512 0.0039023266651452646 0 -0.0043724089645809511 0.0041199900478718328 0 -0.0044009356993716621 0.0039580432845021715 0 -0.0042396519003988532 0.0041572666398918484 0 -0.0043724089645809511 0.0041199900478718328 0 -0.0044009356993716621 0.0039580432845021715 0 -0.0042049815886412399 0.0039901116583624177 0 -0.0042396519003988532 0.0041572666398918484 0 -0.0044009356993716621 0.0039580432845021715 0 -0.004335223317351187 0.0038652433773920056 0 -0.0046257564999786921 0.0037477833639310678 0 -0.0043568641931458285 0.0037711577273786892 0 -0.0044009356993716621 0.0039580432845021715 0 -0.004335223317351187 0.0038652433773920056 0 -0.0046257564999786921 0.0037477833639310678 0 -0.0042049815886412399 0.0039901116583624177 0 -0.0044009356993716621 0.0039580432845021715 0 -0.004335223317351187 0.0038652433773920056 0 -0.0041864134378441185 0.0038604642975292292 0 -0.004335223317351187 0.0038652433773920056 0 -0.0043568641931458285 0.0037711577273786892 0 -0.0046035888759074512 0.0039023266651452646 0 -0.0044009356993716621 0.0039580432845021715 0 -0.0046257564999786921 0.0037477833639310678 0 -0.0046257564999786921 0.0037477833639310678 0 -0.0044243685011106336 0.0036906850416066721 0 -0.0046543406671791764 0.0036132364766583124 0 -0.0046257564999786921 0.0037477833639310678 0 -0.0044243685011106336 0.0036906850416066721 0 -0.0043568641931458285 0.0037711577273786892 0 -0.0044243685011106336 0.0036906850416066721 0 -0.004447109285758406 0.0036407852874401608 0 -0.0046543406671791764 0.0036132364766583124 0 -0.0044243685011106336 0.0036906850416066721 0 -0.0042082179275599171 0.0037284473061547302 0 -0.0042721354726485581 0.0037171136225899715 0 -0.0044243685011106336 0.0036906850416066721 0 -0.004447109285758406 0.0036407852874401608 0 -0.0042721354726485581 0.0037171136225899715 0 -0.0044243685011106336 0.0036906850416066721 0 -0.0043568641931458285 0.0037711577273786892 0 -0.0042082179275599171 0.0037284473061547302 0 -0.0041864134378441185 0.0038604642975292292 0 -0.0043568641931458285 0.0037711577273786892 0 -0.0042082179275599171 0.0037284473061547302 0 -0.0041864134378441185 0.0038604642975292292 0 -0.0040749618438831623 0.0037952020490411684 0 -0.0042082179275599171 0.0037284473061547302 0 -0.003971666890376176 0.003986621130444486 0 -0.0040749618438831623 0.0037952020490411684 0 -0.0038804624695609976 0.0038128631074028094 0 -0.0040749618438831623 0.0037952020490411684 0 -0.0038804624695609976 0.0038128631074028094 0 -0.0040472235736195216 0.0037138231082467451 0 -0.0038026193090271191 0.0035252456765305627 0 -0.0040472235736195216 0.0037138231082467451 0 -0.0041428519496252147 0.003789238723560922 0 -0.0038026193090271191 0.0035252456765305627 0 -0.0038804624695609976 0.0038128631074028094 0 -0.0040472235736195216 0.0037138231082467451 0 -0.0040472235736195216 0.0037138231082467451 0 -0.0042082179275599171 0.0037284473061547302 0 -0.0041428519496252147 0.003789238723560922 0 -0.0040749618438831623 0.0037952020490411684 0 -0.0040472235736195216 0.0037138231082467451 0 -0.0042082179275599171 0.0037284473061547302 0 -0.0042082179275599171 0.0037284473061547302 0 -0.0041428519496252147 0.003789238723560922 0 -0.0042721354726485581 0.0037171136225899715 0 -0.0041428519496252147 0.003789238723560922 0 -0.0041002214323301962 0.003882505401983143 0 -0.0043183648207086207 0.0037006296632288837 0 -0.0036863891081941073 0.0039186052542086076 0 -0.0040902947432693536 0.0038070778553175597 0 -0.003617039116140175 0.0043098192478825594 0 -0.0041428519496252147 0.003789238723560922 0 -0.0039486506805326005 0.0038663823780400522 0 -0.0038694000755186146 0.0040512154867990147 0 -0.0036386190858577194 0.0043572386852328785 0 -0.0041002214323301962 0.003882505401983143 0 -0.0037273051872833965 0.0036619482570323489 0 -0.0039486506805326005 0.0038663823780400522 0 -0.0041002214323301962 0.003882505401983143 0 -0.0036649379603412606 0.0039970601369135553 0 -0.0040321949518008051 0.003910843856064457 0 -0.0041428519496252147 0.003789238723560922 0 -0.0039486506805326005 0.0038663823780400522 0 -0.0041002214323301962 0.003882505401983143 0 -0.0042280352217972939 0.0037656159067802845 0 -0.0041002214323301962 0.003882505401983143 0 -0.0043183648207086207 0.0037006296632288837 0 -0.0043801426292303892 0.0036460285141914194 0 -0.0042280352217972939 0.0037656159067802845 0 -0.0043183648207086207 0.0037006296632288837 0 -0.0043801426292303892 0.0036460285141914194 0 -0.0043183648207086207 0.0037006296632288837 0 -0.0045447598300002541 0.0035449767182014116 0 -0.004447109285758406 0.0036407852874401608 0 -0.0043183648207086207 0.0037006296632288837 0 -0.0045447598300002541 0.0035449767182014116 0 -0.0041428519496252147 0.003789238723560922 0 -0.0043183648207086207 0.0037006296632288837 0 -0.0042721354726485581 0.0037171136225899715 0 -0.004447109285758406 0.0036407852874401608 0 -0.0043183648207086207 0.0037006296632288837 0 -0.0042721354726485581 0.0037171136225899715 0 -0.004859285556595835 0.0034938223810834709 0 -0.0045447598300002541 0.0035449767182014116 0 -0.0048230434795242831 0.0033704478410048018 0 -0.004859285556595835 0.0034938223810834709 0 -0.0048230434795242831 0.0033704478410048018 0 -0.0049648484160949953 0.003383335814098797 0 -0.004447109285758406 0.0036407852874401608 0 -0.0045447598300002541 0.0035449767182014116 0 -0.0046543406671791764 0.0036132364766583124 0 -0.004859285556595835 0.0034938223810834709 0 -0.0045447598300002541 0.0035449767182014116 0 -0.0046543406671791764 0.0036132364766583124 0 -0.0044752468045133401 0.0035896927203882918 0 -0.0043801426292303892 0.0036460285141914194 0 -0.0045447598300002541 0.0035449767182014116 0 -0.0043686921339567168 0.0039293276832388863 0 -0.0046661129479318797 0.0033263599495941911 0 -0.004771785778039949 0.0031783586774151084 0 -0.0045447598300002541 0.0035449767182014116 0 -0.0048230434795242831 0.0033704478410048018 0 -0.0048230434795242831 0.0033704478410048018 0 -0.0049281347984092274 0.0032565034498701216 0 -0.0049648484160949953 0.003383335814098797 0 -0.004771785778039949 0.0031783586774151084 0 -0.0048230434795242831 0.0033704478410048018 0 -0.0049281347984092274 0.0032565034498701216 0 -0.0043686921339567168 0.0039293276832388863 0 -0.004850380887341417 0.0035102208083940909 0 -0.0054521757025210015 0.0038539943679696629 0 -0.0054240476778946072 0.0037023144966702279 0 -0.0052789994873186268 0.0037494400846380138 0 -0.0049281347984092274 0.0032565034498701216 0 -0.0050254248503731423 0.0032982468036935847 0 -0.0049648484160949953 0.003383335814098797 0 -0.0054240476778946072 0.0037023144966702279 0 -0.0052789994873186268 0.0037494400846380138 0 -0.0052071634529577814 0.003499579533335042 0 -0.0052789994873186268 0.0037494400846380138 0 -0.0052071634529577814 0.003499579533335042 0 -0.0051908589555776964 0.0035875777628046101 0 -0.004859285556595835 0.0034938223810834709 0 -0.0049648484160949953 0.003383335814098797 0 -0.0052071634529577814 0.003499579533335042 0 -0.0052885368433279274 0.0032909315949943433 0 -0.0052108792463724813 0.0035933265047684896 0 -0.0050254248503731423 0.0032982468036935847 0 -0.0049648484160949953 0.003383335814098797 0 -0.0052071634529577814 0.003499579533335042 0 -0.0050067008652541533 0.0035392587919867145 0 -0.0052071634529577814 0.003499579533335042 0 -0.0051353763338979168 0.0035140058967968804 0 -0.004859285556595835 0.0034938223810834709 0 -0.0050067008652541533 0.0035392587919867145 0 -0.0052071634529577814 0.003499579533335042 0 -0.0052071634529577814 0.003499579533335042 0 -0.0051353763338979168 0.0035140058967968804 0 -0.0052021616282130903 0.0034487344748061017 0 -0.0051353763338979168 0.0035140058967968804 0 -0.0051944696581342617 0.0034051868733102537 0 -0.0052021616282130903 0.0034487344748061017 0 -0.0050067008652541533 0.0035392587919867145 0 -0.0051353763338979168 0.0035140058967968804 0 -0.0048843415071815385 0.0036058910906926079 0 -0.0051353763338979168 0.0035140058967968804 0 -0.0048843415071815385 0.0036058910906926079 0 -0.0051183060289285561 0.0035450891012535168 0 -0.004859285556595835 0.0034938223810834709 0 -0.0050067008652541533 0.0035392587919867145 0 -0.0046543406671791764 0.0036132364766583124 0 -0.0050067008652541533 0.0035392587919867145 0 -0.0048843415071815385 0.0036058910906926079 0 -0.0046543406671791764 0.0036132364766583124 0 -0.0046257564999786921 0.0037477833639310678 0 -0.0048843415071815385 0.0036058910906926079 0 -0.0046543406671791764 0.0036132364766583124 0 -0.0046257564999786921 0.0037477833639310678 0 -0.0048843415071815385 0.0036058910906926079 0 -0.004868190187115113 0.0036559799415233503 0 -0.0046257564999786921 0.0037477833639310678 0 -0.004868190187115113 0.0036559799415233503 0 -0.0048426993092988303 0.0037367005442121904 0 -0.004868190187115113 0.0036559799415233503 0 -0.0048426993092988303 0.0037367005442121904 0 -0.0051183060289285561 0.0035450891012535168 0 -0.0048843415071815385 0.0036058910906926079 0 -0.004868190187115113 0.0036559799415233503 0 -0.0051183060289285561 0.0035450891012535168 0 -0.0048426993092988303 0.0037367005442121904 0 -0.0052773771275918327 0.0035063144078355075 0 -0.0051183060289285561 0.0035450891012535168 0 -0.0048426993092988303 0.0037367005442121904 0 -0.0047299234451229051 0.0038580374677424844 0 -0.0049528141667317289 0.0038432507174658835 0 -0.0048426993092988303 0.0037367005442121904 0 -0.0049528141667317289 0.0038432507174658835 0 -0.0052773771275918327 0.0035063144078355075 0 -0.0049528141667317289 0.0038432507174658835 0 -0.0052590539204019574 0.0040732998100062772 0 -0.0050039300399616132 0.0041657036059345306 0 -0.0049528141667317289 0.0038432507174658835 0 -0.0052590539204019574 0.0040732998100062772 0 -0.0052773771275918327 0.0035063144078355075 0 -0.0047299234451229051 0.0038580374677424844 0 -0.0049528141667317289 0.0038432507174658835 0 -0.0047795087917114759 0.0040447344630909834 0 -0.0049528141667317289 0.0038432507174658835 0 -0.0047795087917114759 0.0040447344630909834 0 -0.0050039300399616132 0.0041657036059345306 0 -0.0053744932217160649 0.0035138010301157411 0 -0.0053037111118732459 0.0034974202879040433 0 -0.0052450346527301442 0.0030662286360113446 0 -0.0055174781698102415 0.0029583934864844089 0 -0.0052773771275918327 0.0035063144078355075 0 -0.0052450346527301442 0.0030662286360113446 0 -0.0052773771275918327 0.0035063144078355075 0 -0.0052266554520716746 0.0033412832628291443 0 -0.0052773771275918327 0.0035063144078355075 0 -0.0052266554520716746 0.0033412832628291443 0 -0.0051183060289285561 0.0035450891012535168 0 -0.0052266554520716746 0.0033412832628291443 0 -0.0051183060289285561 0.0035450891012535168 0 -0.0051944696581342617 0.0034051868733102537 0 -0.0051353763338979168 0.0035140058967968804 0 -0.0051183060289285561 0.0035450891012535168 0 -0.0051944696581342617 0.0034051868733102537 0 -0.0049999699821332549 0.0025855342191813697 0 -0.005084405279959652 0.0028548073510395815 0 -0.00499976615754934 0.0034079228204483883 0 -0.0051944696581342617 0.0034051868733102537 0 -0.0051855870070455848 0.0032699735302040333 0 -0.0051816588283181324 0.0033386168927740534 0 -0.0051855870070455848 0.0032699735302040333 0 -0.0051233704666649987 0.0031621187313029624 0 -0.0051816588283181324 0.0033386168927740534 0 -0.0051855870070455848 0.0032699735302040333 0 -0.0051618990357844736 0.0030819997942836538 0 -0.0051233704666649987 0.0031621187313029624 0 -0.0052266554520716746 0.0033412832628291443 0 -0.0051944696581342617 0.0034051868733102537 0 -0.0051855870070455848 0.0032699735302040333 0 -0.0052266554520716746 0.0033412832628291443 0 -0.0051855870070455848 0.0032699735302040333 0 -0.0051618990357844736 0.0030819997942836538 0 -0.0052450346527301442 0.0030662286360113446 0 -0.0052266554520716746 0.0033412832628291443 0 -0.0051618990357844736 0.0030819997942836538 0 -0.0051618990357844736 0.0030819997942836538 0 -0.0050787524789413377 0.0026746022253425366 0 -0.0051851949600621111 0.00270392810968182 0 -0.0052450346527301442 0.0030662286360113446 0 -0.0051618990357844736 0.0030819997942836538 0 -0.0051851949600621111 0.00270392810968182 0 -0.0049996892474931959 0.0025858000229055521 0 -0.0050787524789413377 0.0026746022253425366 0 -0.0050176245785701762 0.0029835656009463553 0 -0.0051618990357844736 0.0030819997942836538 0 -0.0050787524789413377 0.0026746022253425366 0 -0.0050176245785701762 0.0029835656009463553 0 -0.0050000002863304048 0.0025854164228894939 0 -0.0050566465326149839 0.0029194433156659537 0 -0.005084405279959652 0.0028548073510395815 0 -0.0051233704666649987 0.0031621187313029624 0 -0.00499976615754934 0.0034079228204483883 0 -0.0050566465326149839 0.0029194433156659537 0 -0.0051202412654384162 0.0031374754844772715 0 -0.0051618990357844736 0.0030819997942836538 0 -0.0050176245785701762 0.0029835656009463553 0 -0.0051233704666649987 0.0031621187313029624 0 -0.0051233704666649987 0.0031621187313029624 0 -0.00499976615754934 0.0034079228204483883 0 -0.0051478952386209897 0.0034310130538548174 0 -0.0049999431153397158 0.0040733171786574273 0 -0.00499976615754934 0.0034079228204483883 0 -0.0051144746094101646 0.0037107206397897115 0 -0.0051816588283181324 0.0033386168927740534 0 -0.0052021616282130903 0.0034487344748061017 0 -0.0051478952386209897 0.0034310130538548174 0 -0.0051233704666649987 0.0031621187313029624 0 -0.0051816588283181324 0.0033386168927740534 0 -0.0051478952386209897 0.0034310130538548174 0 -0.0051944696581342617 0.0034051868733102537 0 -0.0051816588283181324 0.0033386168927740534 0 -0.0052021616282130903 0.0034487344748061017 0 -0.0052071634529577814 0.003499579533335042 0 -0.0052021616282130903 0.0034487344748061017 0 -0.0051908589555776964 0.0035875777628046101 0 -0.0052021616282130903 0.0034487344748061017 0 -0.0051478952386209897 0.0034310130538548174 0 -0.0051908589555776964 0.0035875777628046101 0 -0.0051478952386209897 0.0034310130538548174 0 -0.0051908589555776964 0.0035875777628046101 0 -0.0051144746094101646 0.0037107206397897115 0 -0.0051583632349208666 0.0038182983620534709 0 -0.0052789994873186268 0.0037494400846380138 0 -0.0051908589555776964 0.0035875777628046101 0 -0.0051583632349208666 0.0038182983620534709 0 -0.0051908589555776964 0.0035875777628046101 0 -0.0051144746094101646 0.0037107206397897115 0 -0.00499976615754934 0.0034079228204483883 0 -0.0051478952386209897 0.0034310130538548174 0 -0.0051144746094101646 0.0037107206397897115 0 -0.0051487403071370187 0.0014547493172256014 0 -0.0052771974645240711 0.0015564162741537274 0 -0.0052938953197876728 0.0013879887351944701 0 -0.0051487403071370187 0.0014547493172256014 0 -0.0052771974645240711 0.0015564162741537274 0 -0.0051572103326195289 0.0016300451975542877 0 -0.0051487403071370187 0.0014547493172256014 0 -0.0051572103326195289 0.0016300451975542877 0 -0.0049999958345167059 0.0015840335993811323 0 -0.0051487403071370187 0.0014547493172256014 0 -0.0049999872279390791 0.0013480157004934336 0 -0.0049999958345167059 0.0015840335993811323 0 -0.0051487403071370187 0.0014547493172256014 0 -0.0049999872279390791 0.0013480157004934336 0 -0.0051863148764353445 0.0012217797264600799 0 -0.0051487403071370187 0.0014547493172256014 0 -0.0052938953197876728 0.0013879887351944701 0 -0.0051863148764353445 0.0012217797264600799 0 -0.0052938953197876728 0.0013879887351944701 0 -0.0053780193257632735 0.0012487754875076264 0 -0.0051863148764353445 0.0012217797264600799 0 -0.0054037180350416042 0.0014847370645014255 0 -0.0053912549608207952 0.0012493053557943068 0 -0.0053818314059238441 0.0013908695209230266 0 -0.0054792382475970357 0.0014441798651048691 0 -0.0053780193257632735 0.0012487754875076264 0 -0.0053818314059238441 0.0013908695209230266 0 -0.0052938953197876728 0.0013879887351944701 0 -0.0053780193257632735 0.0012487754875076264 0 -0.0053562566088393958 0.0019633464727455302 0 -0.0054124758710864199 0.0018025909686180269 0 -0.0054515415592487184 0.0012919835100361325 0 -0.0054399443610954655 0.0014206910735137146 0 -0.0053780193257632735 0.0012487754875076264 0 -0.0055297149832134254 0.0012701983270420021 0 -0.0054515415592487184 0.0012919835100361325 0 -0.0054399443610954655 0.0014206910735137146 0 -0.0051750793021376664 0.0025654777655611874 0 -0.0052980425410907271 0.0022659720506548798 0 -0.0051476855667206443 0.0023862351735268856 0 -0.0055297149832134254 0.0012701983270420021 0 -0.0054399443610954655 0.0014206910735137146 0 -0.0054587197570298744 0.0014657064413120282 0 -0.0052980425410907271 0.0022659720506548798 0 -0.0052167041517454018 0.0020692154495926592 0 -0.0051635890032955172 0.0022736053463111501 0 -0.0052980425410907271 0.0022659720506548798 0 -0.0051635890032955172 0.0022736053463111501 0 -0.0051476855667206443 0.0023862351735268856 0 -0.0054037180350416042 0.0014847370645014255 0 -0.0054124758710864199 0.0018025909686180269 0 -0.0054573870881389581 0.0015451462672501986 0 -0.0055034405124009247 0.0014983549928036773 0 -0.0055661426303288616 0.0016490378033616638 0 -0.0054792382475970357 0.0014441798651048691 0 -0.0054573870881389581 0.0015451462672501986 0 -0.0055034405124009247 0.0014983549928036773 0 -0.0052771974645240711 0.0015564162741537274 0 -0.0052938953197876728 0.0013879887351944701 0 -0.0053768327159206047 0.0014855147663306904 0 -0.0053818314059238441 0.0013908695209230266 0 -0.0052938953197876728 0.0013879887351944701 0 -0.0053768327159206047 0.0014855147663306904 0 -0.0053818314059238441 0.0013908695209230266 0 -0.0054792382475970357 0.0014441798651048691 0 -0.0053768327159206047 0.0014855147663306904 0 -0.0054573870881389581 0.0015451462672501986 0 -0.0053768327159206047 0.0014855147663306904 0 -0.0054046517831385114 0.0015994368951980748 0 -0.0054792382475970357 0.0014441798651048691 0 -0.0054573870881389581 0.0015451462672501986 0 -0.0053768327159206047 0.0014855147663306904 0 -0.0052771974645240711 0.0015564162741537274 0 -0.0053768327159206047 0.0014855147663306904 0 -0.0054046517831385114 0.0015994368951980748 0 -0.0052771974645240711 0.0015564162741537274 0 -0.0054046517831385114 0.0015994368951980748 0 -0.0053279683754034858 0.0016864707375472314 0 -0.0054046517831385114 0.0015994368951980748 0 -0.0054246289572756311 0.0016820136685393573 0 -0.0053279683754034858 0.0016864707375472314 0 -0.0054246289572756311 0.0016820136685393573 0 -0.0055661426303288616 0.0016490378033616638 0 -0.0053999525642910683 0.0017929584223315394 0 -0.0054573870881389581 0.0015451462672501986 0 -0.0054046517831385114 0.0015994368951980748 0 -0.0055661426303288616 0.0016490378033616638 0 -0.0054046517831385114 0.0015994368951980748 0 -0.0054246289572756311 0.0016820136685393573 0 -0.0055661426303288616 0.0016490378033616638 0 -0.0054124758710864199 0.0018025909686180269 0 -0.0053734154263184106 0.0019961259834796311 0 -0.0054062653858284529 0.0018267770389636215 0 -0.0054101364280144948 0.0019010617509944796 0 -0.0054325092511621877 0.0018890257913131009 0 -0.0054255214778737623 0.0019977696389121709 0 -0.0053318947959106354 0.0019010366490310045 0 -0.0053734154263184106 0.0019961259834796311 0 -0.0053981045072309039 0.0017967683499646541 0 -0.0054101364280144948 0.0019010617509944796 0 -0.0053328172170561483 0.0018840492749042821 0 -0.0053221129423284656 0.0019125838995186981 0 -0.0054062653858284529 0.0018267770389636215 0 -0.0054101364280144948 0.0019010617509944796 0 -0.0053328172170561483 0.0018840492749042821 0 -0.0054316758788584942 0.0018993554592837403 0 -0.0053221129423284656 0.0019125838995186981 0 -0.0053347102411811309 0.0019522793418905446 0 -0.0054276141821276947 0.001910344087052001 0 -0.0054029160440517915 0.0019477553582953736 0 -0.0054407777082238432 0.0019295352595862765 0 -0.0053981045072309039 0.0017967683499646541 0 -0.0052231026732801411 0.0019574102917678834 0 -0.0053279683754034858 0.0016864707375472314 0 -0.0052984160423648358 0.0017707049038332813 0 -0.0053999525642910683 0.0017929584223315394 0 -0.0054246289572756311 0.0016820136685393573 0 -0.0053279683754034858 0.0016864707375472314 0 -0.0053999525642910683 0.0017929584223315394 0 -0.0053328172170561483 0.0018840492749042821 0 -0.0053221129423284656 0.0019125838995186981 0 -0.0052838675939006242 0.0019397017253856448 0 -0.0052984160423648358 0.0017707049038332813 0 -0.0053999525642910683 0.0017929584223315394 0 -0.0052520150005203959 0.0018316418320697872 0 -0.0053999525642910683 0.0017929584223315394 0 -0.0052520150005203959 0.0018316418320697872 0 -0.0052295826506503877 0.0019479691941731562 0 -0.0052520150005203959 0.0018316418320697872 0 -0.0052212141288377808 0.0017548108435761407 0 -0.0051278292154075412 0.0018555935394402015 0 -0.0052212141288377808 0.0017548108435761407 0 -0.0051122196213899398 0.0017402763569404189 0 -0.0051278292154075412 0.0018555935394402015 0 -0.0053279683754034858 0.0016864707375472314 0 -0.0052984160423648358 0.0017707049038332813 0 -0.0052212141288377808 0.0017548108435761407 0 -0.0052984160423648358 0.0017707049038332813 0 -0.0052520150005203959 0.0018316418320697872 0 -0.0052212141288377808 0.0017548108435761407 0 -0.0053279683754034858 0.0016864707375472314 0 -0.0052212141288377808 0.0017548108435761407 0 -0.0052441272954178754 0.0016583497685878151 0 -0.0052212141288377808 0.0017548108435761407 0 -0.0052441272954178754 0.0016583497685878151 0 -0.0051572103326195289 0.0016300451975542877 0 -0.0052212141288377808 0.0017548108435761407 0 -0.0051572103326195289 0.0016300451975542877 0 -0.0051122196213899398 0.0017402763569404189 0 -0.0052771974645240711 0.0015564162741537274 0 -0.0052441272954178754 0.0016583497685878151 0 -0.0051572103326195289 0.0016300451975542877 0 -0.0052771974645240711 0.0015564162741537274 0 -0.0053279683754034858 0.0016864707375472314 0 -0.0052441272954178754 0.0016583497685878151 0 -0.0051572103326195289 0.0016300451975542877 0 -0.0049999958345167059 0.0015840335993811323 0 -0.0051122196213899398 0.0017402763569404189 0 -0.0049999958345167059 0.0015840335993811323 0 -0.0051122196213899398 0.0017402763569404189 0 -0.0049999889438859888 0.0018200393529727958 0 -0.0051122196213899398 0.0017402763569404189 0 -0.0051278292154075412 0.0018555935394402015 0 -0.0049999889438859888 0.0018200393529727958 0 -0.0051278292154075412 0.0018555935394402015 0 -0.0049999889438859888 0.0018200393529727958 0 -0.0050000065222036661 0.0020560163020635698 0 -0.0051278292154075412 0.0018555935394402015 0 -0.0052295826506503877 0.0019479691941731562 0 -0.0050000065222036661 0.0020560163020635698 0 -0.0052295826506503877 0.0019479691941731562 0 -0.0052294990520078653 0.0020161547593663337 0 -0.0050000065222036661 0.0020560163020635698 0 -0.0052520150005203959 0.0018316418320697872 0 -0.0051278292154075412 0.0018555935394402015 0 -0.0052295826506503877 0.0019479691941731562 0 -0.0052295826506503877 0.0019479691941731562 0 -0.0052294990520078653 0.0020161547593663337 0 -0.0052838675939006242 0.0019397017253856448 0 -0.0051018429634584793 0.0022475647848838039 0 -0.0049999363537684962 0.0020565025982658956 0 -0.00510863229758952 0.0024523787572630186 0 -0.0051018429634584793 0.0022475647848838039 0 -0.00510863229758952 0.0024523787572630186 0 -0.0051746518038657844 0.0024268273356274988 0 -0.0051536639349660986 0.002129222178595186 0 -0.0049999990119851531 0.0020560764273151711 0 -0.0049999363537684962 0.0020565025982658956 0 -0.0049999725094173894 0.0023206989667200551 0 -0.00510863229758952 0.0024523787572630186 0 -0.0050787524789413377 0.0026746022253425366 0 -0.0049999725094173894 0.0023206989667200551 0 -0.00510863229758952 0.0024523787572630186 0 -0.0049996892474931959 0.0025858000229055521 0 -0.0050787524789413377 0.0026746022253425366 0 -0.0049999725094173894 0.0023206989667200551 0 -0.0052450346527301442 0.0030662286360113446 0 -0.0051851949600621111 0.00270392810968182 0 -0.0053485168897049384 0.0026826418967542073 0 -0.0050787524789413377 0.0026746022253425366 0 -0.00510863229758952 0.0024523787572630186 0 -0.0051851949600621111 0.00270392810968182 0 -0.00510863229758952 0.0024523787572630186 0 -0.0051851949600621111 0.00270392810968182 0 -0.0051746518038657844 0.0024268273356274988 0 -0.0051851949600621111 0.00270392810968182 0 -0.0052773953543748878 0.0025097989464197869 0 -0.0051746518038657844 0.0024268273356274988 0 -0.0051851949600621111 0.00270392810968182 0 -0.0052773953543748878 0.0025097989464197869 0 -0.0053485168897049384 0.0026826418967542073 0 -0.0052773953543748878 0.0025097989464197869 0 -0.0052257830417947642 0.002339996878603754 0 -0.0053912319980086105 0.0024491252684516462 0 -0.0052773953543748878 0.0025097989464197869 0 -0.0051746518038657844 0.0024268273356274988 0 -0.0052257830417947642 0.002339996878603754 0 -0.0051018429634584793 0.0022475647848838039 0 -0.0051746518038657844 0.0024268273356274988 0 -0.0052257830417947642 0.002339996878603754 0 -0.0052294990520078653 0.0020161547593663337 0 -0.0053347102411811309 0.0019522793418905446 0 -0.0053710797659490932 0.0019915227827446854 0 -0.0051536639349660986 0.002129222178595186 0 -0.0052930017221218331 0.0021616629393566809 0 -0.0053328172170561483 0.0018840492749042821 0 -0.0052295826506503877 0.0019479691941731562 0 -0.0052838675939006242 0.0019397017253856448 0 -0.0052294990520078653 0.0020161547593663337 0 -0.0053347102411811309 0.0019522793418905446 0 -0.0052838675939006242 0.0019397017253856448 0 -0.0053221129423284656 0.0019125838995186981 0 -0.0053347102411811309 0.0019522793418905446 0 -0.0052838675939006242 0.0019397017253856448 0 -0.0054276141821276947 0.001910344087052001 0 -0.0053347102411811309 0.0019522793418905446 0 -0.0054029160440517915 0.0019477553582953736 0 -0.0052930017221218331 0.0021616629393566809 0 -0.0054324333989346401 0.0022303589190991215 0 -0.0053710797659490932 0.0019915227827446854 0 -0.0054379368406124728 0.001955514408632709 0 -0.0054715150218022281 0.0019807760572423351 0 -0.0054255214778737623 0.0019977696389121709 0 -0.005353951546245083 0.0019325938579593065 0 -0.0053347102411811309 0.0019522793418905446 0 -0.0053710797659490932 0.0019915227827446854 0 -0.0054029160440517915 0.0019477553582953736 0 -0.0053710797659490932 0.0019915227827446854 0 -0.0054029160440517915 0.0019477553582953736 0 -0.0054379368406124728 0.001955514408632709 0 -0.0054029160440517915 0.0019477553582953736 0 -0.0054379368406124728 0.001955514408632709 0 -0.0054407777082238432 0.0019295352595862765 0 -0.0054560728852116056 0.0019428582932082769 0 -0.0054812836992847213 0.0019626169497031012 0 -0.0054578875305487965 0.0019069748839348857 0 -0.0054379368406124728 0.001955514408632709 0 -0.0054560728852116056 0.0019428582932082769 0 -0.0054407777082238432 0.0019295352595862765 0 -0.0054194047223496558 0.0022209492615769678 0 -0.0053935383760107692 0.0021615813223057989 0 -0.0052257830417947642 0.002339996878603754 0 -0.0053643515649512688 0.0023745178199982126 0 -0.0053912319980086105 0.0024491252684516462 0 -0.0054379368406124728 0.001955514408632709 0 -0.0054623138976664385 0.0019598915250874766 0 -0.0054560728852116056 0.0019428582932082769 0 -0.0054379368406124728 0.001955514408632709 0 -0.0054623138976664385 0.0019598915250874766 0 -0.0054715150218022281 0.0019807760572423351 0 -0.0054623138976664385 0.0019598915250874766 0 -0.0054560728852116056 0.0019428582932082769 0 -0.0054812836992847213 0.0019626169497031012 0 -0.0054623138976664385 0.0019598915250874766 0 -0.0054812836992847213 0.0019626169497031012 0 -0.0054715150218022281 0.0019807760572423351 0 -0.0054066318604921769 0.0024051591626145299 0 -0.0054015457289285319 0.0024095789658316832 0 -0.0054066252098920421 0.0024296131569567134 0 -0.0054066318604921769 0.0024051591626145299 0 -0.005396750832168176 0.0024058589215399571 0 -0.0054015457289285319 0.0024095789658316832 0 -0.0054102759351358307 0.0022607987122514159 0 -0.0054066645499462138 0.0022522178969799954 0 -0.0054155997739929098 0.0022511415341101575 0 -0.00539195920904502 0.0024220885825866341 0 -0.0053996857889529919 0.002396809132225067 0 -0.0053912319980086105 0.0024491252684516462 0 -0.0053812779631819052 0.0023812507429166975 0 -0.00539195920904502 0.0024220885825866341 0 -0.0053912319980086105 0.0024491252684516462 0 -0.0053812779631819052 0.0023812507429166975 0 -0.0053643515649512688 0.0023745178199982126 0 -0.0053912319980086105 0.0024491252684516462 0 -0.0054194047223496558 0.0022209492615769678 0 -0.0054324333989346401 0.0022303589190991215 0 -0.0054194047223496558 0.0022209492615769678 0 -0.0054218107940559876 0.0022908356717098186 0 -0.0054218107940559876 0.0022908356717098186 0 -0.0054324333989346401 0.0022303589190991215 0 -0.0054066318604921769 0.0024051591626145299 0 -0.0054039008549443823 0.002402412161034147 0 -0.005396750832168176 0.0024058589215399571 0 -0.0053853305220144124 0.0024071108851521283 0 -0.005396750832168176 0.0024058589215399571 0 -0.00539195920904502 0.0024220885825866341 0 -0.0054218107940559876 0.0022908356717098186 0 -0.0054044141457120481 0.0023123997012626935 0 -0.0054218107940559876 0.0022908356717098186 0 -0.0054291541710244032 0.0023651236268583593 0 -0.0054852604874429146 0.0024180867276373257 0 -0.005517965961772237 0.0024390682611989734 0 -0.0054954069260860763 0.0024134998774251663 0 -0.0053996857889529919 0.002396809132225067 0 -0.0054015457289285319 0.0024095789658316832 0 -0.005385237973404693 0.0024260092189405742 0 -0.005396750832168176 0.0024058589215399571 0 -0.0053996857889529919 0.002396809132225067 0 -0.0054015457289285319 0.0024095789658316832 0 -0.0054852604874429146 0.0024180867276373257 0 -0.005465330627209007 0.0024525854090967861 0 -0.0053912319980086105 0.0024491252684516462 0 -0.005396750832168176 0.0024058589215399571 0 -0.00539195920904502 0.0024220885825866341 0 -0.0053996857889529919 0.002396809132225067 0 -0.0055505852053763941 0.0022369559801280305 0 -0.0053499524365626452 0.002510085136318761 0 -0.0054852604874429146 0.0024180867276373257 0 -0.005465330627209007 0.0024525854090967861 0 -0.005517965961772237 0.0024390682611989734 0 -0.0054639387352531012 0.0025354964627135601 0 -0.0055577876223213652 0.0026221656281475445 0 -0.005517965961772237 0.0024390682611989734 0 -0.0053777314994692968 0.0035319565984317622 0 -0.0053576044139009285 0.0037202659279078074 0 -0.005465330627209007 0.0024525854090967861 0 -0.0054639387352531012 0.0025354964627135601 0 -0.005517965961772237 0.0024390682611989734 0 -0.005465330627209007 0.0024525854090967861 0 -0.0054639387352531012 0.0025354964627135601 0 -0.0053912319980086105 0.0024491252684516462 0 -0.0054639387352531012 0.0025354964627135601 0 -0.0053912319980086105 0.0024491252684516462 0 -0.0053619118005948955 0.0025458186283749658 0 -0.0052773953543748878 0.0025097989464197869 0 -0.0053912319980086105 0.0024491252684516462 0 -0.0053619118005948955 0.0025458186283749658 0 -0.0052773953543748878 0.0025097989464197869 0 -0.0053485168897049384 0.0026826418967542073 0 -0.0053619118005948955 0.0025458186283749658 0 -0.0054639387352531012 0.0025354964627135601 0 -0.0053485168897049384 0.0026826418967542073 0 -0.0053619118005948955 0.0025458186283749658 0 -0.0054639387352531012 0.0025354964627135601 0 -0.0053485168897049384 0.0026826418967542073 0 -0.0055577876223213652 0.0026221656281475445 0 -0.0053744932217160649 0.0035138010301157411 0 -0.0053777314994692968 0.0035319565984317622 0 -0.0055174781698102415 0.0029583934864844089 0 -0.0053485168897049384 0.0026826418967542073 0 -0.0055577876223213652 0.0026221656281475445 0 -0.0052450346527301442 0.0030662286360113446 0 -0.0055174781698102415 0.0029583934864844089 0 -0.0053485168897049384 0.0026826418967542073 0 -0.0047795087917114759 0.0040447344630909834 0 -0.004819209872304029 0.0043512359290498103 0 -0.0050039300399616132 0.0041657036059345306 0 -0.0047795087917114759 0.0040447344630909834 0 -0.004819209872304029 0.0043512359290498103 0 -0.0046036321316495149 0.0041682445693831949 0 -0.0052038298668317749 0.0044697838550046493 0 -0.004819209872304029 0.0043512359290498103 0 -0.0050039300399616132 0.0041657036059345306 0 -0.0052590539204019574 0.0040732998100062772 0 -0.0052038298668317749 0.0044697838550046493 0 -0.0050039300399616132 0.0041657036059345306 0 -0.0052038298668317749 0.0044697838550046493 0 -0.004819209872304029 0.0043512359290498103 0 -0.0048526444979705196 0.004576005747082358 0 -0.004819209872304029 0.0043512359290498103 0 -0.0048526444979705196 0.004576005747082358 0 -0.0045901092646324741 0.0045264993211135383 0 -0.0048526444979705196 0.004576005747082358 0 -0.0047028140053582291 0.0047341724369084166 0 -0.0045901092646324741 0.0045264993211135383 0 -0.0048526444979705196 0.004576005747082358 0 -0.0049331783058479874 0.0047803799393566796 0 -0.0047028140053582291 0.0047341724369084166 0 -0.0049331783058479874 0.0047803799393566796 0 -0.0047028140053582291 0.0047341724369084166 0 -0.0047904555717699776 0.0048674894864562312 0 -0.0052038298668317749 0.0044697838550046493 0 -0.0048526444979705196 0.004576005747082358 0 -0.0049331783058479874 0.0047803799393566796 0 -0.0052038298668317749 0.0044697838550046493 0 -0.0049331783058479874 0.0047803799393566796 0 -0.0051576551026335932 0.0048380345163185536 0 -0.0051576551026335932 0.0048380345163185536 0 -0.0050473980177242013 0.0050398799841902013 0 -0.0051077301082494888 0.0052104349031988637 0 -0.0053576044139009285 0.0037202659279078074 0 -0.0050899704505845663 0.003466545036488257 0 -0.0051576551026335932 0.0048380345163185536 0 -0.004979893997041432 0.0049098266904639516 0 -0.0050473980177242013 0.0050398799841902013 0 -0.0049331783058479874 0.0047803799393566796 0 -0.0051576551026335932 0.0048380345163185536 0 -0.004979893997041432 0.0049098266904639516 0 -0.004979893997041432 0.0049098266904639516 0 -0.0050473980177242013 0.0050398799841902013 0 -0.0048721879843471715 0.0050444942787717714 0 -0.0047028140053582291 0.0047341724369084166 0 -0.0047904555717699776 0.0048674894864562312 0 -0.0046518993790057731 0.0049685892862602428 0 -0.0047904555717699776 0.0048674894864562312 0 -0.0048721879843471715 0.0050444942787717714 0 -0.0046518993790057731 0.0049685892862602428 0 -0.004979893997041432 0.0049098266904639516 0 -0.0047904555717699776 0.0048674894864562312 0 -0.0048721879843471715 0.0050444942787717714 0 -0.0049331783058479874 0.0047803799393566796 0 -0.004979893997041432 0.0049098266904639516 0 -0.0047904555717699776 0.0048674894864562312 0 -0.0048721879843471715 0.0050444942787717714 0 -0.0051077301082494888 0.0052104349031988637 0 -0.0046744823227196893 0.0052834083114237764 0 -0.0048721879843471715 0.0050444942787717714 0 -0.0046744823227196893 0.0052834083114237764 0 -0.0046518993790057731 0.0049685892862602428 0 -0.0050899704505845663 0.003466545036488257 0 -0.0044822267694587083 0.0048095720885685091 0 -0.0047603666901586336 0.0042625430679600141 0 -0.0049786628822126745 0.0039852642562407297 0 -0.0044909584911195406 0.0040596086109004007 0 -0.0043069994298789403 0.0042994575431952505 0 -0.0042857066101678375 0.0043004735179548179 0 -0.0042813119359561662 0.0042820054457198475 0 -0.0045513357499799402 0.0040122238666321659 0 -0.0044822267694587083 0.0048095720885685091 0 -0.0045258741115342073 0.0038745517655636372 0 -0.0046378136016074316 0.0039604676011887338 0 -0.0043147395216629374 0.004141504954824517 0 -0.0043069994298789403 0.0042994575431952505 0 -0.0042857066101678375 0.0043004735179548179 0 -0.004288900163296366 0.0043191025532919028 0 -0.0048629340246351691 0.0033970201914723616 0 -0.0050899704505845663 0.003466545036488257 0 -0.0046938583157922435 0.0037318622166389852 0 -0.0049092961663746897 0.0037344722599522069 0 -0.0049253276124441667 0.0034415559888133951 0 -0.0045513357499799402 0.0040122238666321659 0 -0.0050899704505845663 0.003466545036488257 0 -0.0049404490216829675 0.0032850208979453449 0 -0.0049576526413087525 0.0029517124169302156 0 -0.0051965730401531797 0.0031410120521419998 0 -0.0048034860374967271 0.0031800847506418535 0 -0.0046330255369086085 0.003276259070555264 0 -0.0048624103827876724 0.0034518005447156971 0 -0.0048629340246351691 0.0033970201914723616 0 -0.0046301523183265537 0.0037594229304501263 0 -0.0046938583157922435 0.0037318622166389852 0 -0.0049092961663746897 0.0037344722599522069 0 -0.0047867635977044028 0.0038029361680158025 0 -0.0045513357499799402 0.0040122238666321659 0 -0.0046301523183265537 0.0037594229304501263 0 -0.0050473980177242013 0.0050398799841902013 0 -0.0048721879843471715 0.0050444942787717714 0 -0.0051077301082494888 0.0052104349031988637 0 -0.0055505852053763941 0.0022369559801280305 0 -0.0050899704505845663 0.003466545036488257 0 -0.0053996857889529919 0.002396809132225067 0 -0.0053560876342970245 0.0024470294388934297 0 -0.005385237973404693 0.0024260092189405742 0 -0.0049576526413087525 0.0029517124169302156 0 -0.0053354772346328478 0.0028969048958443172 0 -0.0051965730401531797 0.0031410120521419998 0 -0.0053560876342970245 0.0024470294388934297 0 -0.005385237973404693 0.0024260092189405742 0 -0.0054066252098920421 0.0024296131569567134 0 -0.0050899704505845663 0.003466545036488257 0 -0.0053539560243590799 0.0025258090305597439 0 -0.0054015457289285319 0.0024095789658316832 0 -0.005385237973404693 0.0024260092189405742 0 -0.0054066252098920421 0.0024296131569567134 0 -0.0053539560243590799 0.0025258090305597439 0 -0.0050973017023052455 0.0027792325263017031 0 -0.0052119202051882684 0.0023789079147784084 0 -0.005474535177382155 0.0023876569619357656 0 -0.0050808917093283371 0.00261030079588384 0 -0.0053687584122071516 0.002134307511349443 0 -0.0050973017023052455 0.0027792325263017031 0 -0.0054255214778737623 0.0019977696389121709 0 -0.0053687584122071516 0.002134307511349443 0 -0.0054255214778737623 0.0019977696389121709 0 -0.0053935383760107692 0.0021615813223057989 0 -0.0054259880840391702 0.0020669478081767056 0 -0.0053658368598027608 0.0021007697618685567 0 -0.005355795552118554 0.0020768487709461837 0 -0.0054560728852116056 0.0019428582932082769 0 -0.0054407777082238432 0.0019295352595862765 0 -0.0054578875305487965 0.0019069748839348857 0 -0.0054276141821276947 0.001910344087052001 0 -0.0054407777082238432 0.0019295352595862765 0 -0.0054578875305487965 0.0019069748839348857 0 -0.0053687584122071516 0.002134307511349443 0 -0.0053935383760107692 0.0021615813223057989 0 -0.0052119202051882684 0.0023789079147784084 0 -0.005474535177382155 0.0023876569619357656 0 -0.0054562429184505015 0.002344117032734397 0 -0.0054042717794560071 0.0022482261129166282 0 -0.0053508307656983892 0.0023424170053977767 0 -0.0054383172411107961 0.0023296747755370611 0 -0.0054194047223496558 0.0022209492615769678 0 -0.0053539560243590799 0.0025258090305597439 0 -0.0053539560243590799 0.0025258090305597439 0 -0.0053935383760107692 0.0021615813223057989 0 -0.0053734154263184106 0.0019961259834796311 0 -0.0053687584122071516 0.002134307511349443 0 -0.0052927953864757259 0.002225333013557792 0 -0.0051716697936678704 0.0024714553161246872 0 -0.004971456911627572 0.0024074523210418728 0 -0.0053945331785129622 0.0024677758987008058 0 -0.0052927953864757259 0.002225333013557792 0 -0.0051716697936678704 0.0024714553161246872 0 -0.0051716697936678704 0.0024714553161246872 0 -0.0050115899619888838 0.0026122389541619654 0 -0.0051881972631441188 0.0026443706923729385 0 -0.0053734154263184106 0.0019961259834796311 0 -0.0050824108128200421 0.0024557194710179428 0 -0.0053945331785129622 0.0024677758987008058 0 -0.0051716697936678704 0.0024714553161246872 0 -0.0051881972631441188 0.0026443706923729385 0 -0.004971456911627572 0.0024074523210418728 0 -0.0050115899619888838 0.0026122389541619654 0 -0.0048111956957240199 0.0026898554926476372 0 -0.0048034860374967271 0.0031800847506418535 0 -0.0051178014047609148 0.0030032414332941794 0 -0.0048624103827876724 0.0034518005447156971 0 -0.0050973017023052455 0.0027792325263017031 0 -0.0047960582740187328 0.0031991316143632599 0 -0.0048629340246351691 0.0033970201914723616 0 -0.0050973017023052455 0.0027792325263017031 0 -0.0051716697936678704 0.0024714553161246872 0 -0.004971456911627572 0.0024074523210418728 0 -0.0050115899619888838 0.0026122389541619654 0 -0.0050115899619888838 0.0026122389541619654 0 -0.0049821366762696417 0.0028193576690058865 0 -0.0048111956957240199 0.0026898554926476372 0 -0.0050115899619888838 0.0026122389541619654 0 -0.0049821366762696417 0.0028193576690058865 0 -0.0051881972631441188 0.0026443706923729385 0 -0.0048906546229986123 0.0024574256193381442 0 -0.0050824108128200421 0.0024557194710179428 0 -0.0048906546229986123 0.0024574256193381442 0 -0.0047960582740187328 0.0031991316143632599 0 -0.0048906546229986123 0.0024574256193381442 0 -0.0048847001024473541 0.0024423673861718579 0 -0.0048921505220134486 0.0023891484101424476 0 -0.0048455482920729352 0.0024280135474842764 0 -0.0047805459803287121 0.0023068008640648487 0 -0.0052167041517454018 0.0020692154495926592 0 -0.0051635890032955172 0.0022736053463111501 0 -0.0050494090346773447 0.0022117101936967587 0 -0.0051635890032955172 0.0022736053463111501 0 -0.0050494090346773447 0.0022117101936967587 0 -0.0050658724146952676 0.0023471629978207681 0 -0.0048817549737173865 0.0023540566170044846 0 -0.0050494090346773447 0.0022117101936967587 0 -0.0050658724146952676 0.0023471629978207681 0 -0.0051635890032955172 0.0022736053463111501 0 -0.0050658724146952676 0.0023471629978207681 0 -0.0051476855667206443 0.0023862351735268856 0 -0.0051750793021376664 0.0025654777655611874 0 -0.0051476855667206443 0.0023862351735268856 0 -0.0050282959125389319 0.0024668849092066903 0 -0.0050658724146952676 0.0023471629978207681 0 -0.0051476855667206443 0.0023862351735268856 0 -0.0050282959125389319 0.0024668849092066903 0 -0.0048817549737173865 0.0023540566170044846 0 -0.0050658724146952676 0.0023471629978207681 0 -0.0050282959125389319 0.0024668849092066903 0 -0.0050282959125389319 0.0024668849092066903 0 -0.0049088406165461312 0.0025416590686765704 0 -0.0050506274758945775 0.0025883126829345901 0 -0.0051750793021376664 0.0025654777655611874 0 -0.0050282959125389319 0.0024668849092066903 0 -0.0050506274758945775 0.0025883126829345901 0 -0.0048986183067116513 0.0023808615160356714 0 -0.0048455482920729352 0.0024280135474842764 0 -0.0049088406165461312 0.0025416590686765704 0 -0.0048906546229986123 0.0024574256193381442 0 -0.0049887364428548887 0.0024523139067910318 0 -0.0048986183067116513 0.0023808615160356714 0 -0.0050282959125389319 0.0024668849092066903 0 -0.0049088406165461312 0.0025416590686765704 0 -0.0049088406165461312 0.0025416590686765704 0 -0.0047809600746648671 0.0025198694474669616 0 -0.0047904154148756808 0.0026098690147288157 0 -0.0048455482920729352 0.0024280135474842764 0 -0.0049088406165461312 0.0025416590686765704 0 -0.0047809600746648671 0.0025198694474669616 0 -0.0044811141470585212 0.0042369836534351122 0 -0.0044843617222181352 0.0042399053581858972 0 -0.0044785193032900296 0.0042251922571634988 0 -0.0046907379306855342 0.0024520609670317748 0 -0.0045948795846515516 0.0026077658267077693 0 -0.0046877437263298759 0.002635571573062287 0 -0.0044403160017618803 0.0042941921875522347 0 -0.0044843617222181352 0.0042399053581858972 0 -0.0044283414786444562 0.0043969781029303363 0 -0.0044260775574185354 0.0044734803547484513 0 -0.0045006476080757972 0.0037098692941973602 0 -0.0047809600746648671 0.0025198694474669616 0 -0.0046907379306855342 0.0024520609670317748 0 -0.0046877437263298759 0.002635571573062287 0 -0.0048455482920729352 0.0024280135474842764 0 -0.0047809600746648671 0.0025198694474669616 0 -0.0046907379306855342 0.0024520609670317748 0 -0.004602285959514122 0.0033270960794328473 0 -0.0045006476080757972 0.0037098692941973602 0 -0.004398768588956146 0.0043429090121838813 0 -0.0043857739898542037 0.0043696707622375014 0 -0.0044283414786444562 0.0043969781029303363 0 -0.004398768588956146 0.0043429090121838813 0 -0.0044161012776690141 0.0042960042103523831 0 -0.0044283414786444562 0.0043969781029303363 0 -0.0044161012776690141 0.0042960042103523831 0 -0.0044403160017618803 0.0042941921875522347 0 -0.0044283414786444562 0.0043969781029303363 0 -0.0043857739898542037 0.0043696707622375014 0 -0.0043206948402477992 0.0043394473909640586 0 -0.0043395882854130588 0.0044127690947748585 0 -0.004398768588956146 0.0043429090121838813 0 -0.0043857739898542037 0.0043696707622375014 0 -0.0043670041060244651 0.0043110390554574728 0 -0.0043857739898542037 0.0043696707622375014 0 -0.0043670041060244651 0.0043110390554574728 0 -0.0043206948402477992 0.0043394473909640586 0 -0.004398768588956146 0.0043429090121838813 0 -0.0043670041060244651 0.0043110390554574728 0 -0.0044161012776690141 0.0042960042103523831 0 -0.0043670041060244651 0.0043110390554574728 0 -0.0044161012776690141 0.0042960042103523831 0 -0.0043927024921770119 0.0042671449485542053 0 -0.0044161012776690141 0.0042960042103523831 0 -0.0044403160017618803 0.0042941921875522347 0 -0.0044340495187178775 0.0042472708149956396 0 -0.0044340495187178775 0.0042472708149956396 0 -0.0043844708508725015 0.0042208671222819533 0 -0.0044627549119778641 0.004220792165837579 0 -0.0044340495187178775 0.0042472708149956396 0 -0.0043927024921770119 0.0042671449485542053 0 -0.0043844708508725015 0.0042208671222819533 0 -0.0044161012776690141 0.0042960042103523831 0 -0.0044340495187178775 0.0042472708149956396 0 -0.0043927024921770119 0.0042671449485542053 0 -0.0043670041060244651 0.0043110390554574728 0 -0.0043927024921770119 0.0042671449485542053 0 -0.004353080280171887 0.0042628470399017132 0 -0.0043927024921770119 0.0042671449485542053 0 -0.004353080280171887 0.0042628470399017132 0 -0.0043844708508725015 0.0042208671222819533 0 -0.0043378484929575576 0.0042365388587182586 0 -0.0043170566682751675 0.004241096160533064 0 -0.0042857066101678375 0.0043004735179548179 0 -0.004288900163296366 0.0043191025532919028 0 -0.0042753761426627609 0.0043128882611220207 0 -0.0044743902190463878 0.0041777603153638878 0 -0.0043844708508725015 0.0042208671222819533 0 -0.0044627549119778641 0.004220792165837579 0 -0.0046301523183265537 0.0037594229304501263 0 -0.0043170566682751675 0.004241096160533064 0 -0.0045513357499799402 0.0040122238666321659 0 -0.0043170566682751675 0.004241096160533064 0 -0.0044743902190463878 0.0041777603153638878 0 -0.0044627549119778641 0.004220792165837579 0 -0.0045074858927129872 0.0042224559894779119 0 -0.0046301523183265537 0.0037594229304501263 0 -0.0047960582740187328 0.0031991316143632599 0 -0.0044811141470585212 0.0042369836534351122 0 -0.0045074858927129872 0.0042224559894779119 0 -0.0044843617222181352 0.0042399053581858972 0 -0.004602285959514122 0.0033270960794328473 0 -0.0047960582740187328 0.0031991316143632599 0 -0.0048455482920729352 0.0024280135474842764 0 -0.0046907379306855342 0.0024520609670317748 0 -0.0047805459803287121 0.0023068008640648487 0 -0.0044627549119778641 0.004220792165837579 0 -0.0045074858927129872 0.0042224559894779119 0 -0.0044843617222181352 0.0042399053581858972 0 -0.0044403160017618803 0.0042941921875522347 0 -0.0044340495187178775 0.0042472708149956396 0 -0.0044843617222181352 0.0042399053581858972 0 -0.0044340495187178775 0.0042472708149956396 0 -0.0044627549119778641 0.004220792165837579 0 -0.0044843617222181352 0.0042399053581858972 0 -0.004234651038643786 0.0043160814238842509 0 -0.0042601790976097122 0.0043325157576339125 0 -0.0042597661877658913 0.0043079295659542464 0 -0.004234651038643786 0.0043160814238842509 0 -0.0042601790976097122 0.0043325157576339125 0 -0.0042135171201475065 0.004336781073899146 0 -0.004353080280171887 0.0042628470399017132 0 -0.0043753432300785112 0.0042204552647552305 0 -0.0042601790976097122 0.0043325157576339125 0 -0.0042753761426627609 0.0043128882611220207 0 -0.0042601790976097122 0.0043325157576339125 0 -0.0042597661877658913 0.0043079295659542464 0 -0.004288900163296366 0.0043191025532919028 0 -0.0042753761426627609 0.0043128882611220207 0 -0.0042601790976097122 0.0043325157576339125 0 -0.0043170566682751675 0.004241096160533064 0 -0.0042687382603988607 0.0043295254122742493 0 -0.004353080280171887 0.0042628470399017132 0 -0.0042601790976097122 0.0043325157576339125 0 -0.0043206948402477992 0.0043394473909640586 0 -0.0043670041060244651 0.0043110390554574728 0 -0.004353080280171887 0.0042628470399017132 0 -0.0043206948402477992 0.0043394473909640586 0 -0.0043206948402477992 0.0043394473909640586 0 -0.0042585175502858619 0.0043888068595056553 0 -0.0043395882854130588 0.0044127690947748585 0 -0.0042601790976097122 0.0043325157576339125 0 -0.0043206948402477992 0.0043394473909640586 0 -0.0042585175502858619 0.0043888068595056553 0 -0.0042601790976097122 0.0043325157576339125 0 -0.0042135171201475065 0.004336781073899146 0 -0.0042585175502858619 0.0043888068595056553 0 -0.0038498280736466994 0.0049492416793128005 0 -0.0039467102291438974 0.0052084452229706419 0 -0.003473961217396826 0.005661193553014034 0 -0.0034476645703980392 0.0057929502979529365 0 -0.0035848988383269092 0.0057637033004577483 0 -0.0033925911484128184 0.0057334303107690453 0 -0.0033581107759450301 0.0056711394513037743 0 -0.003473961217396826 0.005661193553014034 0 -0.0033925911484128184 0.0057334303107690453 0 -0.003473961217396826 0.005661193553014034 0 -0.0034476645703980392 0.0057929502979529365 0 -0.0033215679171905007 0.0057299978059940316 0 -0.0032688876441716629 0.0057650090159615461 0 -0.0033396268851930986 0.0057972315064811772 0 -0.0033215679171905007 0.0057299978059940316 0 -0.0033925911484128184 0.0057334303107690453 0 -0.0033396268851930986 0.0057972315064811772 0 -0.0033215679171905007 0.0057299978059940316 0 -0.0033925911484128184 0.0057334303107690453 0 -0.0033581107759450301 0.0056711394513037743 0 -0.0033215679171905007 0.0057299978059940316 0 -0.0033581107759450301 0.0056711394513037743 0 -0.0032988875558276711 0.005676664838671572 0 -0.0033215679171905007 0.0057299978059940316 0 -0.0032988875558276711 0.005676664838671572 0 -0.003252425379114588 0.0057150136788535226 0 -0.0033581107759450301 0.0056711394513037743 0 -0.0033550606807539931 0.0056066665570812038 0 -0.003473961217396826 0.005661193553014034 0 -0.0033550606807539931 0.0056066665570812038 0 -0.003473961217396826 0.005661193553014034 0 -0.0033498945952226411 0.005539339173763559 0 -0.0033581107759450301 0.0056711394513037743 0 -0.0033018404330853075 0.0056194895857399809 0 -0.0033550606807539931 0.0056066665570812038 0 -0.0033581107759450301 0.0056711394513037743 0 -0.0032988875558276711 0.005676664838671572 0 -0.0033018404330853075 0.0056194895857399809 0 -0.0034771730204294828 0.0056005613648262989 0 -0.003596326437302867 0.0051545894651439115 0 -0.0033018404330853075 0.0056194895857399809 0 -0.0033550606807539931 0.0056066665570812038 0 -0.0033472829169956535 0.0055422800428752833 0 -0.0033018404330853075 0.0056194895857399809 0 -0.0033472829169956535 0.0055422800428752833 0 -0.0032767530489716378 0.0055712377198296375 0 -0.0042135171201475065 0.004336781073899146 0 -0.0042076876864680073 0.0043133906385688457 0 -0.0041792436103923712 0.0043160506577531368 0 -0.004234651038643786 0.0043160814238842509 0 -0.0042135171201475065 0.004336781073899146 0 -0.0042076876864680073 0.0043133906385688457 0 -0.0038498280736466994 0.0049492416793128005 0 -0.003596326437302867 0.0051545894651439115 0 -0.0038653296067786753 0.0050936473000352282 0 -0.0042254411079130187 0.0047354277006824517 0 -0.0042076876864680073 0.0043133906385688457 0 -0.0041768809567346559 0.0043030586577829377 0 -0.0042305322297647692 0.0042887736886259775 0 -0.0042076876864680073 0.0043133906385688457 0 -0.0041792436103923712 0.0043160506577531368 0 -0.0041768809567346559 0.0043030586577829377 0 -0.0033472829169956535 0.0055422800428752833 0 -0.0032979143361641142 0.0055002966722617654 0 -0.0032767530489716378 0.0055712377198296375 0 -0.0036133583516002842 0.0052162878492276266 0 -0.0036182409486339205 0.0052600984251534554 0 -0.0036548205580974884 0.0052554662244599735 0 -0.003596326437302867 0.0051545894651439115 0 -0.0034913392240132558 0.0053450549121081365 0 -0.003596326437302867 0.0051545894651439115 0 -0.0038653296067786753 0.0050936473000352282 0 -0.0036074621556076046 0.0054848035243032318 0 -0.0035162824457150473 0.0054974268560052005 0 -0.0034596173340444777 0.0054461803955416039 0 -0.0038653296067786753 0.0050936473000352282 0 -0.0034913392240132558 0.0053450549121081365 0 -0.0038653296067786753 0.0050936473000352282 0 -0.0036961351228725616 0.0051665035270679355 0 -0.0036074621556076046 0.0054848035243032318 0 -0.0035916785975522712 0.0051746552723492163 0 -0.0034339859594830148 0.0053026917503727978 0 -0.0038532590741039794 0.0053185092588723931 0 -0.0040301568051973316 0.0051017775044017739 0 -0.0038149956819020217 0.005036811013915149 0 -0.0038532590741039794 0.0053185092588723931 0 -0.0040301568051973316 0.0051017775044017739 0 -0.0041859155274724651 0.0052686595050095942 0 -0.0040301568051973316 0.0051017775044017739 0 -0.0041859155274724651 0.0052686595050095942 0 -0.0042670266685460711 0.0050359190196609107 0 -0.0041859155274724651 0.0052686595050095942 0 -0.0045094862117188881 0.0052187450530200774 0 -0.0042670266685460711 0.0050359190196609107 0 -0.004234651038643786 0.0043160814238842509 0 -0.0042305322297647692 0.0042887736886259775 0 -0.0042597661877658913 0.0043079295659542464 0 -0.004234651038643786 0.0043160814238842509 0 -0.0042076876864680073 0.0043133906385688457 0 -0.0042305322297647692 0.0042887736886259775 0 -0.0042857066101678375 0.0043004735179548179 0 -0.0042597661877658913 0.0043079295659542464 0 -0.0042813119359561662 0.0042820054457198475 0 -0.0042305322297647692 0.0042887736886259775 0 -0.0042597661877658913 0.0043079295659542464 0 -0.0042813119359561662 0.0042820054457198475 0 -0.0042857066101678375 0.0043004735179548179 0 -0.0042753761426627609 0.0043128882611220207 0 -0.0042597661877658913 0.0043079295659542464 0 -0.0046744823227196893 0.0052834083114237764 0 -0.0046518993790057731 0.0049685892862602428 0 -0.004358258514455331 0.0050634783997435904 0 -0.0042254411079130187 0.0047354277006824517 0 -0.0044822267694587083 0.0048095720885685091 0 -0.0044822267694587083 0.0048095720885685091 0 -0.0043529763650133925 0.0051215087836581135 0 -0.0046518993790057731 0.0049685892862602428 0 -0.004358258514455331 0.0050634783997435904 0 -0.0045227172568893196 0.0048044100618797325 0 -0.004358258514455331 0.0050634783997435904 0 -0.0043136954431079819 0.0047206298570473875 0 -0.004024248825711986 0.0048406498845237657 0 -0.004358258514455331 0.0050634783997435904 0 -0.0043136954431079819 0.0047206298570473875 0 -0.0045227172568893196 0.0048044100618797325 0 -0.0043136954431079819 0.0047206298570473875 0 -0.0045227172568893196 0.0048044100618797325 0 -0.0045901092646324741 0.0045264993211135383 0 -0.0047028140053582291 0.0047341724369084166 0 -0.0045227172568893196 0.0048044100618797325 0 -0.0045901092646324741 0.0045264993211135383 0 -0.0047028140053582291 0.0047341724369084166 0 -0.0046518993790057731 0.0049685892862602428 0 -0.0045227172568893196 0.0048044100618797325 0 -0.0045901092646324741 0.0045264993211135383 0 -0.0043085031021483037 0.0045077480059755879 0 -0.0044418363273172681 0.0043553127842817872 0 -0.0043136954431079819 0.0047206298570473875 0 -0.0045901092646324741 0.0045264993211135383 0 -0.0043085031021483037 0.0045077480059755879 0 -0.0043085031021483037 0.0045077480059755879 0 -0.0042536714026654744 0.004287707767214116 0 -0.004088089619936416 0.0045674022078421913 0 -0.0043136954431079819 0.0047206298570473875 0 -0.0043085031021483037 0.0045077480059755879 0 -0.004088089619936416 0.0045674022078421913 0 -0.0043085031021483037 0.0045077480059755879 0 -0.0044418363273172681 0.0043553127842817872 0 -0.0042536714026654744 0.004287707767214116 0 -0.0044418363273172681 0.0043553127842817872 0 -0.0042536714026654744 0.004287707767214116 0 -0.0044403143810061189 0.0041712544306467493 0 -0.0041633338039479611 0.004087248261805153 0 -0.0043445079409546112 0.0040720529134786309 0 -0.0042536714026654744 0.004287707767214116 0 -0.0043445079409546112 0.0040720529134786309 0 -0.0042536714026654744 0.004287707767214116 0 -0.0044403143810061189 0.0041712544306467493 0 -0.0045901092646324741 0.0045264993211135383 0 -0.0044418363273172681 0.0043553127842817872 0 -0.0046036321316495149 0.0041682445693831949 0 -0.004819209872304029 0.0043512359290498103 0 -0.0045901092646324741 0.0045264993211135383 0 -0.0046036321316495149 0.0041682445693831949 0 -0.0044418363273172681 0.0043553127842817872 0 -0.0044403143810061189 0.0041712544306467493 0 -0.0046036321316495149 0.0041682445693831949 0 -0.003800318327323467 0.0041610006349623776 0 -0.0040169729022415095 0.0042748832191758304 0 -0.0038904070894910628 0.0044806896275081292 0 -0.003800318327323467 0.0041610006349623776 0 -0.0036542022452445248 0.0044175058487099213 0 -0.0038904070894910628 0.0044806896275081292 0 -0.0039925176899132725 0.0041108457330971517 0 -0.003800318327323467 0.0041610006349623776 0 -0.0040169729022415095 0.0042748832191758304 0 -0.0041633338039479611 0.004087248261805153 0 -0.0039925176899132725 0.0041108457330971517 0 -0.0040169729022415095 0.0042748832191758304 0 -0.0042536714026654744 0.004287707767214116 0 -0.0040169729022415095 0.0042748832191758304 0 -0.004088089619936416 0.0045674022078421913 0 -0.0041633338039479611 0.004087248261805153 0 -0.0042536714026654744 0.004287707767214116 0 -0.0040169729022415095 0.0042748832191758304 0 -0.0040169729022415095 0.0042748832191758304 0 -0.004088089619936416 0.0045674022078421913 0 -0.0038904070894910628 0.0044806896275081292 0 -0.0036551666153331898 0.0044416511970593511 0 -0.0036841456810944502 0.0047624422994805866 0 -0.0036542022452445248 0.0044175058487099213 0 -0.0038904070894910628 0.0044806896275081292 0 -0.0037541089750209723 0.0047350121272614143 0 -0.004088089619936416 0.0045674022078421913 0 -0.0038904070894910628 0.0044806896275081292 0 -0.0037541089750209723 0.0047350121272614143 0 -0.0043136954431079819 0.0047206298570473875 0 -0.004088089619936416 0.0045674022078421913 0 -0.004024248825711986 0.0048406498845237657 0 -0.004088089619936416 0.0045674022078421913 0 -0.0037541089750209723 0.0047350121272614143 0 -0.004024248825711986 0.0048406498845237657 0 -0.0040301568051973316 0.0051017775044017739 0 -0.004024248825711986 0.0048406498845237657 0 -0.0038149956819020217 0.005036811013915149 0 -0.0043529763650133925 0.0051215087836581135 0 -0.0040180128164584543 0.0048243456867691648 0 -0.0040301568051973316 0.0051017775044017739 0 -0.0042670266685460711 0.0050359190196609107 0 -0.004024248825711986 0.0048406498845237657 0 -0.0036841456810944502 0.0047624422994805866 0 -0.0036961351228725616 0.0051665035270679355 0 -0.0037541089750209723 0.0047350121272614143 0 -0.004024248825711986 0.0048406498845237657 0 -0.0038149956819020217 0.005036811013915149 0 -0.0033859070299891861 0.0050705515177614201 0 -0.003267697928269957 0.0052434796647477713 0 -0.0034339859594830148 0.0053026917503727978 0 -0.0035916785975522712 0.0051746552723492163 0 -0.0033859070299891861 0.0050705515177614201 0 -0.0034339859594830148 0.0053026917503727978 0 -0.0036194659105116167 0.0048449048440688943 0 -0.0035916785975522712 0.0051746552723492163 0 -0.0033859070299891861 0.0050705515177614201 0 -0.0033859070299891861 0.0050705515177614201 0 -0.0031118234904477034 0.0051076888979113937 0 -0.003267697928269957 0.0052434796647477713 0 -0.0031118234904477034 0.0051076888979113937 0 -0.0032776387610830055 0.0047286401332656755 0 -0.0029236314182594712 0.0048312787065324598 0 -0.0033859070299891861 0.0050705515177614201 0 -0.0031118234904477034 0.0051076888979113937 0 -0.0032776387610830055 0.0047286401332656755 0 -0.0036194659105116167 0.0048449048440688943 0 -0.0033859070299891861 0.0050705515177614201 0 -0.0032776387610830055 0.0047286401332656755 0 -0.0036542022452445248 0.0044175058487099213 0 -0.0036194659105116167 0.0048449048440688943 0 -0.0032776387610830055 0.0047286401332656755 0 -0.0036542022452445248 0.0044175058487099213 0 -0.0032776387610830055 0.0047286401332656755 0 -0.0033558065663805785 0.0044306816805262999 0 -0.0032776387610830055 0.0047286401332656755 0 -0.0033558065663805785 0.0044306816805262999 0 -0.0030207993813584728 0.0044318998117130071 0 -0.0034921463307531534 0.0044386074980010317 0 -0.0030662853999728255 0.0046557438183544549 0 -0.0034878869898500387 0.0041453153291187853 0 -0.0033558065663805785 0.0044306816805262999 0 -0.0030207993813584728 0.0044318998117130071 0 -0.0034878869898500387 0.0041453153291187853 0 -0.003800318327323467 0.0041610006349623776 0 -0.0036542022452445248 0.0044175058487099213 0 -0.0034878869898500387 0.0041453153291187853 0 -0.0036542022452445248 0.0044175058487099213 0 -0.0033558065663805785 0.0044306816805262999 0 -0.0030662853999728255 0.0046557438183544549 0 -0.0026784534307376603 0.0048413305200838462 0 -0.0029799780883222335 0.0047018182327889287 0 -0.0030996238971944022 0.0048883346356849789 0 -0.00268938503020597 0.0049867946171482519 0 -0.0026546157379764347 0.0047251478809062055 0 -0.0029799780883222335 0.0047018182327889287 0 -0.00268938503020597 0.0049867946171482519 0 -0.0030207993813584728 0.0044318998117130071 0 -0.0026545307055281689 0.0047033266250132207 0 -0.0029236314182594712 0.0048312787065324598 0 -0.0032776387610830055 0.0047286401332656755 0 -0.0030207993813584728 0.0044318998117130071 0 -0.0029236314182594712 0.0048312787065324598 0 -0.0026545307055281689 0.0047033266250132207 0 -0.0029236314182594712 0.0048312787065324598 0 -0.0026206860351787949 0.0050553176664653587 0 -0.0029236314182594712 0.0048312787065324598 0 -0.002861561114200798 0.0051087170813301688 0 -0.0026206860351787949 0.0050553176664653587 0 -0.0031118234904477034 0.0051076888979113937 0 -0.0029236314182594712 0.0048312787065324598 0 -0.002861561114200798 0.0051087170813301688 0 -0.0031118234904477034 0.0051076888979113937 0 -0.002861561114200798 0.0051087170813301688 0 -0.0029471267299346795 0.0053096205146938831 0 -0.002861561114200798 0.0051087170813301688 0 -0.0027546944160508386 0.0052789878124995197 0 -0.0026206860351787949 0.0050553176664653587 0 -0.002861561114200798 0.0051087170813301688 0 -0.0027546944160508386 0.0052789878124995197 0 -0.0029471267299346795 0.0053096205146938831 0 -0.0027546944160508386 0.0052789878124995197 0 -0.0028457915815088214 0.0054419236974148043 0 -0.0029471267299346795 0.0053096205146938831 0 -0.0027546944160508386 0.0052789878124995197 0 -0.0028457915815088214 0.0054419236974148043 0 -0.0026759964696678957 0.0054868500957139217 0 -0.0028457915815088214 0.0054419236974148043 0 -0.0028435075711668836 0.005597606756986828 0 -0.0026759964696678957 0.0054868500957139217 0 -0.0028457915815088214 0.0054419236974148043 0 -0.0030120352855778714 0.0055167702150932434 0 -0.0029471267299346795 0.0053096205146938831 0 -0.0028457915815088214 0.0054419236974148043 0 -0.0030120352855778714 0.0055167702150932434 0 -0.0028435075711668836 0.005597606756986828 0 -0.0030120352855778714 0.0055167702150932434 0 -0.0029471267299346795 0.0053096205146938831 0 -0.003131915625975428 0.0053861147907493549 0 -0.0031118234904477034 0.0051076888979113937 0 -0.0029471267299346795 0.0053096205146938831 0 -0.003131915625975428 0.0053861147907493549 0 -0.0031118234904477034 0.0051076888979113937 0 -0.003267697928269957 0.0052434796647477713 0 -0.003131915625975428 0.0053861147907493549 0 -0.003267697928269957 0.0052434796647477713 0 -0.003131915625975428 0.0053861147907493549 0 -0.0032908251716285966 0.0053779015756534763 0 -0.003267697928269957 0.0052434796647477713 0 -0.0034339859594830148 0.0053026917503727978 0 -0.0032908251716285966 0.0053779015756534763 0 -0.0036074621556076046 0.0054848035243032318 0 -0.0034339859594830148 0.0053026917503727978 0 -0.0034596173340444777 0.0054461803955416039 0 -0.0034339859594830148 0.0053026917503727978 0 -0.0032908251716285966 0.0053779015756534763 0 -0.0034596173340444777 0.0054461803955416039 0 -0.0034913392240132558 0.0053450549121081365 0 -0.0031625516047391307 0.0055412717730297413 0 -0.0032979143361641142 0.0055002966722617654 0 -0.0031768156577725039 0.0055147498510931077 0 -0.0032237156323698573 0.0055650721028152952 0 -0.0035254097252141025 0.0055096781109158274 0 -0.0034596173340444777 0.0054461803955416039 0 -0.0031768156577725039 0.0055147498510931077 0 -0.0032908251716285966 0.0053779015756534763 0 -0.0034596173340444777 0.0054461803955416039 0 -0.0031768156577725039 0.0055147498510931077 0 -0.0034913392240132558 0.0053450549121081365 0 -0.0035107818869000219 0.005396363158498692 0 -0.0032979143361641142 0.0055002966722617654 0 -0.0032767530489716378 0.0055712377198296375 0 -0.0032237156323698573 0.0055650721028152952 0 -0.0030120352855778714 0.0055167702150932434 0 -0.003131915625975428 0.0053861147907493549 0 -0.0031768156577725039 0.0055147498510931077 0 -0.003131915625975428 0.0053861147907493549 0 -0.0032908251716285966 0.0053779015756534763 0 -0.0031768156577725039 0.0055147498510931077 0 -0.0030120352855778714 0.0055167702150932434 0 -0.0031768156577725039 0.0055147498510931077 0 -0.0031182189109072449 0.0056161907410307906 0 -0.0031768156577725039 0.0055147498510931077 0 -0.0031182189109072449 0.0056161907410307906 0 -0.0032237156323698573 0.0055650721028152952 0 -0.0031182189109072449 0.0056161907410307906 0 -0.0032260177848636496 0.0056429340101157802 0 -0.0031493598505937821 0.0056861923266988672 0 -0.0031182189109072449 0.0056161907410307906 0 -0.0030676250974067914 0.0057019377751223706 0 -0.0029915559184363508 0.0056432526920005008 0 -0.0031182189109072449 0.0056161907410307906 0 -0.0030676250974067914 0.0057019377751223706 0 -0.0031493598505937821 0.0056861923266988672 0 -0.0033018404330853075 0.0056194895857399809 0 -0.0032767530489716378 0.0055712377198296375 0 -0.0032260177848636496 0.0056429340101157802 0 -0.0032767530489716378 0.0055712377198296375 0 -0.0032237156323698573 0.0055650721028152952 0 -0.0032260177848636496 0.0056429340101157802 0 -0.0031182189109072449 0.0056161907410307906 0 -0.0032237156323698573 0.0055650721028152952 0 -0.0032260177848636496 0.0056429340101157802 0 -0.0032988875558276711 0.005676664838671572 0 -0.0033018404330853075 0.0056194895857399809 0 -0.0032260177848636496 0.0056429340101157802 0 -0.0032988875558276711 0.005676664838671572 0 -0.0032260177848636496 0.0056429340101157802 0 -0.003252425379114588 0.0057150136788535226 0 -0.0032260177848636496 0.0056429340101157802 0 -0.003252425379114588 0.0057150136788535226 0 -0.0031938770717728337 0.0057196496529206388 0 -0.0032260177848636496 0.0056429340101157802 0 -0.0031938770717728337 0.0057196496529206388 0 -0.0031493598505937821 0.0056861923266988672 0 -0.0031938770717728337 0.0057196496529206388 0 -0.0032024550763169717 0.0057634930778849326 0 -0.0031355973928583777 0.005753428471585346 0 -0.0032024550763169717 0.0057634930778849326 0 -0.0032688876441716629 0.0057650090159615461 0 -0.0032179199073227127 0.005806294625500797 0 -0.003252425379114588 0.0057150136788535226 0 -0.0031938770717728337 0.0057196496529206388 0 -0.0032024550763169717 0.0057634930778849326 0 -0.003252425379114588 0.0057150136788535226 0 -0.0032024550763169717 0.0057634930778849326 0 -0.0032688876441716629 0.0057650090159615461 0 -0.0033215679171905007 0.0057299978059940316 0 -0.003252425379114588 0.0057150136788535226 0 -0.0032688876441716629 0.0057650090159615461 0 -0.0030676250974067914 0.0057019377751223706 0 -0.0031493598505937821 0.0056861923266988672 0 -0.0031355973928583777 0.005753428471585346 0 -0.0031938770717728337 0.0057196496529206388 0 -0.0031493598505937821 0.0056861923266988672 0 -0.0031355973928583777 0.005753428471585346 0 -0.0032024550763169717 0.0057634930778849326 0 -0.0031355973928583777 0.005753428471585346 0 -0.0031656528294754542 0.0058056118308869795 0 -0.0031355973928583777 0.005753428471585346 0 -0.0031095356321619925 0.0058213471965482969 0 -0.0031656528294754542 0.0058056118308869795 0 -0.0031355973928583777 0.005753428471585346 0 -0.0030300060834812671 0.0057806020124756092 0 -0.0031095356321619925 0.0058213471965482969 0 -0.0030676250974067914 0.0057019377751223706 0 -0.0031355973928583777 0.005753428471585346 0 -0.0030300060834812671 0.0057806020124756092 0 -0.0030300060834812671 0.0057806020124756092 0 -0.0029887361734849136 0.0057171192929847368 0 -0.0029194346384004495 0.0057591639313981343 0 -0.0030300060834812671 0.0057806020124756092 0 -0.0029194346384004495 0.0057591639313981343 0 -0.0029601907495038363 0.0058339001165126992 0 -0.0030676250974067914 0.0057019377751223706 0 -0.0030300060834812671 0.0057806020124756092 0 -0.0029887361734849136 0.0057171192929847368 0 -0.0030676250974067914 0.0057019377751223706 0 -0.0029887361734849136 0.0057171192929847368 0 -0.0029915559184363508 0.0056432526920005008 0 -0.0029887361734849136 0.0057171192929847368 0 -0.0029194346384004495 0.0057591639313981343 0 -0.0028978584955144534 0.0056845656442579013 0 -0.0029194346384004495 0.0057591639313981343 0 -0.0028342288883856288 0.0058059946183340897 0 -0.0029601907495038363 0.0058339001165126992 0 -0.0029194346384004495 0.0057591639313981343 0 -0.0028342288883856288 0.0058059946183340897 0 -0.0028063479436224253 0.005714436244556172 0 -0.0028342288883856288 0.0058059946183340897 0 -0.0027385851892998032 0.0057794700815808333 0 -0.0026849733959798377 0.0058452222749137165 0 -0.0028342288883856288 0.0058059946183340897 0 -0.0027385851892998032 0.0057794700815808333 0 -0.0028063479436224253 0.005714436244556172 0 -0.0027385851892998032 0.0057794700815808333 0 -0.0028063479436224253 0.005714436244556172 0 -0.0027104880185242091 0.0057203693505364483 0 -0.0028063479436224253 0.005714436244556172 0 -0.0027104880185242091 0.0057203693505364483 0 -0.0027084000935422925 0.0056425623230847415 0 -0.0029194346384004495 0.0057591639313981343 0 -0.0028063479436224253 0.005714436244556172 0 -0.0028978584955144534 0.0056845656442579013 0 -0.0028435075711668836 0.005597606756986828 0 -0.0026759964696678957 0.0054868500957139217 0 -0.0027084000935422925 0.0056425623230847415 0 -0.0028063479436224253 0.005714436244556172 0 -0.0028435075711668836 0.005597606756986828 0 -0.0028978584955144534 0.0056845656442579013 0 -0.0028063479436224253 0.005714436244556172 0 -0.0028435075711668836 0.005597606756986828 0 -0.0027084000935422925 0.0056425623230847415 0 -0.0030120352855778714 0.0055167702150932434 0 -0.0028435075711668836 0.005597606756986828 0 -0.0029915559184363508 0.0056432526920005008 0 -0.0030120352855778714 0.0055167702150932434 0 -0.0031182189109072449 0.0056161907410307906 0 -0.0029915559184363508 0.0056432526920005008 0 -0.0028435075711668836 0.005597606756986828 0 -0.0029915559184363508 0.0056432526920005008 0 -0.0028978584955144534 0.0056845656442579013 0 -0.0029887361734849136 0.0057171192929847368 0 -0.0029915559184363508 0.0056432526920005008 0 -0.0028978584955144534 0.0056845656442579013 0 -0.0029020582240726713 0.0047006452679476847 0 -0.0028983919466950749 0.0046871639450738103 0 -0.0029568676707743984 0.0046839595945022431 0 -0.0028891705371424186 0.0053885627928659599 0 -0.0028102288740271572 0.0048606784787095913 0 -0.0026705558627399752 0.0040671379472852114 0 -0.0028127958419253453 0.003928431127845437 0 -0.0028590140971534164 0.0041268214647352496 0 -0.0029020582240726713 0.0047006452679476847 0 -0.0028983919466950749 0.0046871639450738103 0 -0.0028381944595474232 0.0046930718851343331 0 -0.0027315549373867461 0.0043672539777007057 0 -0.0028102288740271572 0.0048606784787095913 0 -0.0029443270298240075 0.0059618837474942699 0 -0.0028938370793499522 0.0059018604184043182 0 -0.0027338458818318696 0.0059470073620619618 0 -0.0028342288883856288 0.0058059946183340897 0 -0.0028938370793499522 0.0059018604184043182 0 -0.0026849733959798377 0.0058452222749137165 0 -0.0028938370793499522 0.0059018604184043182 0 -0.0027338458818318696 0.0059470073620619618 0 -0.0026158174757707846 0.005878533034601785 0 -0.0029367551328024705 0.0060466902691041881 0 -0.0024786754238839584 0.0053955965036110781 0 -0.0028342288883856288 0.0058059946183340897 0 -0.0028938370793499522 0.0059018604184043182 0 -0.0029601907495038363 0.0058339001165126992 0 -0.0029443270298240075 0.0059618837474942699 0 -0.0028938370793499522 0.0059018604184043182 0 -0.0029611118089432394 0.0058922974724222857 0 -0.0028938370793499522 0.0059018604184043182 0 -0.0029611118089432394 0.0058922974724222857 0 -0.0029601907495038363 0.0058339001165126992 0 -0.0029443270298240075 0.0059618837474942699 0 -0.0029611118089432394 0.0058922974724222857 0 -0.003045713304332526 0.0058732356354829285 0 -0.0029611118089432394 0.0058922974724222857 0 -0.0029601907495038363 0.0058339001165126992 0 -0.003045713304332526 0.0058732356354829285 0 -0.0030300060834812671 0.0057806020124756092 0 -0.0029601907495038363 0.0058339001165126992 0 -0.003045713304332526 0.0058732356354829285 0 -0.0030300060834812671 0.0057806020124756092 0 -0.0031095356321619925 0.0058213471965482969 0 -0.003045713304332526 0.0058732356354829285 0 -0.0029443270298240075 0.0059618837474942699 0 -0.003045713304332526 0.0058732356354829285 0 -0.0031490867125756015 0.0059261543954188239 0 -0.0031095356321619925 0.0058213471965482969 0 -0.0031206140652213529 0.0058687513053310211 0 -0.003045713304332526 0.0058732356354829285 0 -0.0031095356321619925 0.0058213471965482969 0 -0.0031656528294754542 0.0058056118308869795 0 -0.003155597933880643 0.005842981933643231 0 -0.0031095356321619925 0.0058213471965482969 0 -0.003155597933880643 0.005842981933643231 0 -0.0031206140652213529 0.0058687513053310211 0 -0.0031206140652213529 0.0058687513053310211 0 -0.003045713304332526 0.0058732356354829285 0 -0.0031490867125756015 0.0059261543954188239 0 -0.0031206140652213529 0.0058687513053310211 0 -0.0031804907906933921 0.0058744153797757447 0 -0.0031490867125756015 0.0059261543954188239 0 -0.003155597933880643 0.005842981933643231 0 -0.0031206140652213529 0.0058687513053310211 0 -0.0031804907906933921 0.0058744153797757447 0 -0.0032688876441716629 0.0057650090159615461 0 -0.0032179199073227127 0.005806294625500797 0 -0.0032369580522367898 0.0058595594679693962 0 -0.0032688876441716629 0.0057650090159615461 0 -0.0032369580522367898 0.0058595594679693962 0 -0.0033396268851930986 0.0057972315064811772 0 -0.0032179199073227127 0.005806294625500797 0 -0.0031917899204032298 0.0058379354928955749 0 -0.0032369580522367898 0.0058595594679693962 0 -0.0032024550763169717 0.0057634930778849326 0 -0.0031656528294754542 0.0058056118308869795 0 -0.0032179199073227127 0.005806294625500797 0 -0.0031656528294754542 0.0058056118308869795 0 -0.0032179199073227127 0.005806294625500797 0 -0.0031917899204032298 0.0058379354928955749 0 -0.0031656528294754542 0.0058056118308869795 0 -0.003155597933880643 0.005842981933643231 0 -0.0031917899204032298 0.0058379354928955749 0 -0.0031804907906933921 0.0058744153797757447 0 -0.0032369580522367898 0.0058595594679693962 0 -0.0031524314661211519 0.0059359423275053644 0 -0.003155597933880643 0.005842981933643231 0 -0.0031917899204032298 0.0058379354928955749 0 -0.0031804907906933921 0.0058744153797757447 0 -0.0031917899204032298 0.0058379354928955749 0 -0.0031804907906933921 0.0058744153797757447 0 -0.0032369580522367898 0.0058595594679693962 0 -0.0032369580522367898 0.0058595594679693962 0 -0.0031524314661211519 0.0059359423275053644 0 -0.0033569188373886081 0.0059017404771933117 0 -0.003403709906857416 0.0040350060849210553 0 -0.0034071735942802269 0.0040557705188489189 0 -0.0033728531116289668 0.004047209171891851 0 -0.003403709906857416 0.0040350060849210553 0 -0.0033799299911779546 0.0040205575856197984 0 -0.0033728531116289668 0.004047209171891851 0 -0.003205218283269232 0.0049597062042456858 0 -0.0033895911632351979 0.0049665102189412787 0 -0.0028891705371424186 0.0053885627928659599 0 -0.003205218283269232 0.0049597062042456858 0 -0.0029443270298240075 0.0059618837474942699 0 -0.0031490867125756015 0.0059261543954188239 0 -0.0031523367756463188 0.0059388407681780957 0 -0.0027315549373867461 0.0043672539777007057 0 -0.0030260627287347322 0.0039959802759249796 0 -0.0029020582240726713 0.0047006452679476847 0 -0.0029637084766865711 0.0047092664585272623 0 -0.0029568676707743984 0.0046839595945022431 0 -0.0031804907906933921 0.0058744153797757447 0 -0.0031490867125756015 0.0059261543954188239 0 -0.0031524314661211519 0.0059359423275053644 0 -0.0032180984178046147 0.0050416551039698968 0 -0.003205218283269232 0.0049597062042456858 0 -0.0030260627287347322 0.0039959802759249796 0 -0.003205218283269232 0.0049597062042456858 0 -0.0024894916876152247 0.0040098216028272285 0 -0.0025638667679014917 0.0038250555073315266 0 -0.0026497034543657093 0.003905057791792925 0 -0.0026705558627399752 0.0040671379472852114 0 -0.0024894916876152247 0.0040098216028272285 0 -0.0026497034543657093 0.003905057791792925 0 -0.0030260627287347322 0.0039959802759249796 0 -0.003296321665246404 0.0037850743079313504 0 -0.0030260627287347322 0.0039959802759249796 0 -0.0028609766957890057 0.0034874757883450887 0 -0.0034200532182755566 0.0035997689559687058 0 -0.0033247314884085719 0.0031849573956964812 0 -0.0031312824685566626 0.0035154762534025659 0 -0.0024427989197963436 0.0038030951963520334 0 -0.0025638667679014917 0.0038250555073315266 0 -0.0025437130065158633 0.003674454349098133 0 -0.0024894916876152247 0.0040098216028272285 0 -0.0024427989197963436 0.0038030951963520334 0 -0.0025638667679014917 0.0038250555073315266 0 -0.0026497034543657093 0.003905057791792925 0 -0.0028127958419253453 0.003928431127845437 0 -0.0026903489589784166 0.0037379782520997142 0 -0.0025638667679014917 0.0038250555073315266 0 -0.0026497034543657093 0.003905057791792925 0 -0.0026903489589784166 0.0037379782520997142 0 -0.0026705558627399752 0.0040671379472852114 0 -0.0026497034543657093 0.003905057791792925 0 -0.0028127958419253453 0.003928431127845437 0 -0.0028207634623034156 0.0038508174116001306 0 -0.0026923778923466663 0.0037757273596639067 0 -0.0027764338088074052 0.0039240971187243789 0 -0.0028080102816813715 0.0037964061011018487 0 -0.0028527771954891582 0.0038600591587232311 0 -0.0027764338088074052 0.0039240971187243789 0 -0.0028080102816813715 0.0037964061011018487 0 -0.0026903489589784166 0.0037379782520997142 0 -0.0028080102816813715 0.0037964061011018487 0 -0.0028112860484386217 0.0036874296609667617 0 -0.0026903489589784166 0.0037379782520997142 0 -0.0028112860484386217 0.0036874296609667617 0 -0.0026903489589784166 0.0037379782520997142 0 -0.0027145978415089519 0.0035681222947235064 0 -0.0026903489589784166 0.0037379782520997142 0 -0.0027145978415089519 0.0035681222947235064 0 -0.0025437130065158633 0.003674454349098133 0 -0.0027145978415089519 0.0035681222947235064 0 -0.00257805303197575 0.0035025384417151383 0 -0.0025437130065158633 0.003674454349098133 0 -0.0028112860484386217 0.0036874296609667617 0 -0.0027145978415089519 0.0035681222947235064 0 -0.002841306162814904 0.003471792769692849 0 -0.0028308354753517301 0.0037543517668528407 0 -0.0027490194122845538 0.0033113605916296712 0 -0.0027145978415089519 0.0035681222947235064 0 -0.0027544581282369666 0.003486449761149681 0 -0.002841306162814904 0.003471792769692849 0 -0.0029645851661699121 0.0025984329806429205 0 -0.0027490194122845538 0.0033113605916296712 0 -0.0027544581282369666 0.003486449761149681 0 -0.002757553600626145 0.0033957627221698795 0 -0.002841306162814904 0.003471792769692849 0 -0.0029645851661699121 0.0025984329806429205 0 -0.0028279053973664947 0.0029239619467955661 0 -0.0032055220792585604 0.0022434316644874114 0 -0.0031580169439740062 0.0022342975431458227 0 -0.0031526401612966999 0.0022794815388914448 0 -0.0027145978415089519 0.0035681222947235064 0 -0.0027544581282369666 0.003486449761149681 0 -0.00257805303197575 0.0035025384417151383 0 -0.0027544581282369666 0.003486449761149681 0 -0.002757553600626145 0.0033957627221698795 0 -0.00257805303197575 0.0035025384417151383 0 -0.0032055220792585604 0.0022434316644874114 0 -0.0031580169439740062 0.0022342975431458227 0 -0.0031545381866013764 0.0022002803596320253 0 -0.0029645851661699121 0.0025984329806429205 0 -0.0031785234011473258 0.0020984176877186615 0 -0.0031034177677899152 0.0021594492224350443 0 -0.0031310055324248079 0.0022024859263238459 0 -0.0031545381866013764 0.0022002803596320253 0 -0.0030922402782127471 0.0021811330601452959 0 -0.00306354831817137 0.0021818307211196909 0 -0.0031310055324248079 0.0022024859263238459 0 -0.0030922402782127471 0.0021811330601452959 0 -0.0031034177677899152 0.0021594492224350443 0 -0.0031310055324248079 0.0022024859263238459 0 -0.0026556528176015764 0.0027718182276275862 0 -0.0028793111663857605 0.0026441522838318633 0 -0.0028344698579373033 0.0029299570147288886 0 -0.0030922402782127471 0.0021811330601452959 0 -0.0031034177677899152 0.0021594492224350443 0 -0.00306354831817137 0.0021818307211196909 0 -0.0029645851661699121 0.0025984329806429205 0 -0.0026886407660067523 0.0024453736403456158 0 -0.0032301624858169448 0.0021147217603230848 0 -0.0032716542707135025 0.0021177562159417082 0 -0.0031610437026231768 0.002190616724580147 0 -0.0031082649272304382 0.0022283366897967623 0 -0.0031437974922548018 0.0022165295553535354 0 -0.0031610437026231768 0.002190616724580147 0 -0.0031082649272304382 0.0022283366897967623 0 -0.0031437974922548018 0.0022165295553535354 0 -0.0031304575197297546 0.0022477535993355511 0 -0.0032301624858169448 0.0021147217603230848 0 -0.0032908443914192631 0.0020867708064129294 0 -0.0032716542707135025 0.0021177562159417082 0 -0.0031437974922548018 0.0022165295553535354 0 -0.0031514991410419488 0.0022119947102144117 0 -0.0031580169439740062 0.0022342975431458227 0 -0.0031437974922548018 0.0022165295553535354 0 -0.0031514991410419488 0.0022119947102144117 0 -0.003151073304050915 0.0022010175956004826 0 -0.0031514991410419488 0.0022119947102144117 0 -0.0031580169439740062 0.0022342975431458227 0 -0.0031545381866013764 0.0022002803596320253 0 -0.0031437974922548018 0.0022165295553535354 0 -0.0031580169439740062 0.0022342975431458227 0 -0.0031304575197297546 0.0022477535993355511 0 -0.0031580169439740062 0.0022342975431458227 0 -0.0031526401612966999 0.0022794815388914448 0 -0.0031304575197297546 0.0022477535993355511 0 -0.0031082649272304382 0.0022283366897967623 0 -0.0031304575197297546 0.0022477535993355511 0 -0.0030807330569403808 0.0022852258479833616 0 -0.0032301624858169448 0.0021147217603230848 0 -0.0032936116634600162 0.0020748037625847029 0 -0.0032908443914192631 0.0020867708064129294 0 -0.0031526401612966999 0.0022794815388914448 0 -0.0031304575197297546 0.0022477535993355511 0 -0.0030807330569403808 0.0022852258479833616 0 -0.0031740215056779843 0.0021618040780552903 0 -0.0031854832576844985 0.0022657233198043738 0 -0.0028279053973664947 0.0029239619467955661 0 -0.0029169315559878077 0.0030068273711424493 0 -0.0029169315559878077 0.0030068273711424493 0 -0.0031854832576844985 0.0022657233198043738 0 -0.0031526401612966999 0.0022794815388914448 0 -0.0030874228914300745 0.002325767788664404 0 -0.0030807330569403808 0.0022852258479833616 0 -0.00257805303197575 0.0035025384417151383 0 -0.0024008055841159477 0.0036016805407704583 0 -0.0025437130065158633 0.003674454349098133 0 -0.0025638667679014917 0.0038250555073315266 0 -0.0026903489589784166 0.0037379782520997142 0 -0.0025437130065158633 0.003674454349098133 0 -0.0028609766957890057 0.0034874757883450887 0 -0.0029169315559878077 0.0030068273711424493 0 -0.0024427989197963436 0.0038030951963520334 0 -0.0024008055841159477 0.0036016805407704583 0 -0.0025437130065158633 0.003674454349098133 0 -0.0033247314884085719 0.0031849573956964812 0 -0.0032257829057118705 0.0027646085144347383 0 -0.0031066777060379802 0.002831428333729446 0 -0.0033766014187922031 0.0021000217845151162 0 -0.0033581834615756573 0.0021121574044526545 0 -0.003329023231585234 0.0020755941670643763 0 -0.0033247314884085719 0.0031849573956964812 0 -0.0030070533577689412 0.002996873825948901 0 -0.0031066777060379802 0.002831428333729446 0 -0.0033581834615756573 0.0021121574044526545 0 -0.003229297932424182 0.0020753262191854976 0 -0.0032729555668989819 0.0021881980382358825 0 -0.0033581834615756573 0.0021121574044526545 0 -0.0033593249298516678 0.0018666384540296172 0 -0.003229297932424182 0.0020753262191854976 0 -0.0033581834615756573 0.0021121574044526545 0 -0.0033593249298516678 0.0018666384540296172 0 -0.0034587625173309712 0.0018714665195020714 0 -0.0033404339882465396 0.0019137429868977224 0 -0.0032873222437598184 0.0019057929821830024 0 -0.0033766014187922031 0.0021000217845151162 0 -0.003329023231585234 0.0020755941670643763 0 -0.0033020036724578767 0.002076484125423821 0 -0.0033568960272093778 0.0021146577652451713 0 -0.0033991674499418987 0.0019411670507615642 0 -0.0032263774039161257 0.0027625885502266935 0 -0.0031066777060379802 0.002831428333729446 0 -0.0031754424486854045 0.0025530065783531831 0 -0.0031778627697063317 0.0024665106956596704 0 -0.0031854832576844985 0.0022657233198043738 0 -0.0030070533577689412 0.002996873825948901 0 -0.0031066777060379802 0.002831428333729446 0 -0.0031754424486854045 0.0025530065783531831 0 -0.0029169315559878077 0.0030068273711424493 0 -0.0031634027157197956 0.0028327534024246348 0 -0.003329023231585234 0.0020755941670643763 0 -0.0032908443914192631 0.0020867708064129294 0 -0.0032716542707135025 0.0021177562159417082 0 -0.003329023231585234 0.0020755941670643763 0 -0.0033020036724578767 0.002076484125423821 0 -0.0032908443914192631 0.0020867708064129294 0 -0.0034587625173309712 0.0018714665195020714 0 -0.0034160995567975678 0.0017714744912907408 0 -0.0035046583003452885 0.0017170694024662243 0 -0.0033991674499418987 0.0019411670507615642 0 -0.0033745966632994745 0.0020658786659508294 0 -0.0031854832576844985 0.0022657233198043738 0 -0.0031956081844441231 0.0021685108453602824 0 -0.0033593249298516678 0.0018666384540296172 0 -0.0034587625173309712 0.0018714665195020714 0 -0.0034005001367906312 0.0018252123226361837 0 -0.0034005001367906312 0.0018252123226361837 0 -0.0034160995567975678 0.0017714744912907408 0 -0.0033183662454051082 0.0017901359429585836 0 -0.0034587625173309712 0.0018714665195020714 0 -0.0034005001367906312 0.0018252123226361837 0 -0.0034160995567975678 0.0017714744912907408 0 -0.0033593249298516678 0.0018666384540296172 0 -0.0034005001367906312 0.0018252123226361837 0 -0.0033183662454051082 0.0017901359429585836 0 -0.0034160995567975678 0.0017714744912907408 0 -0.0033638282755688266 0.0017268843638731722 0 -0.0034306225299240564 0.0016960330781285585 0 -0.0034160995567975678 0.0017714744912907408 0 -0.0033638282755688266 0.0017268843638731722 0 -0.0033183662454051082 0.0017901359429585836 0 -0.0033638282755688266 0.0017268843638731722 0 -0.0033152213946681091 0.0016773541551878348 0 -0.0034304070108097263 0.0016169650097180239 0 -0.0033638282755688266 0.0017268843638731722 0 -0.0034306225299240564 0.0016960330781285585 0 -0.0034304070108097263 0.0016169650097180239 0 -0.0034306225299240564 0.0016960330781285585 0 -0.0035046583003452885 0.0017170694024662243 0 -0.0034304070108097263 0.0016169650097180239 0 -0.0034160995567975678 0.0017714744912907408 0 -0.0034306225299240564 0.0016960330781285585 0 -0.0035046583003452885 0.0017170694024662243 0 -0.0040262727801297317 0.0011530899879444033 0 -0.0035588130536772038 0.0011246795825223053 0 -0.0040098717352781239 0.00052559597390815335 0 -0.0039907454333070165 0.00052817824158047299 0 -0.0040095791266932532 0.00053023276936157147 0 -0.0040262727801297317 0.0011530899879444033 0 -0.0047023165220278704 0.00021714602932054478 0 -0.0045554092364880902 0.00060317839461415288 0 -0.0046098097650260836 0.00060794129495405269 0 -0.0045510530213791651 0.00065392412671169936 0 -0.003217995555267594 0.001727725281541273 0 -0.0033183662454051082 0.0017901359429585836 0 -0.0033152213946681091 0.0016773541551878348 0 -0.0033638282755688266 0.0017268843638731722 0 -0.0033183662454051082 0.0017901359429585836 0 -0.0033152213946681091 0.0016773541551878348 0 -0.0033183662454051082 0.0017901359429585836 0 -0.0032131921490306634 0.0018348321314471889 0 -0.0032893712796803229 0.0018713454964222776 0 -0.0033593249298516678 0.0018666384540296172 0 -0.0033183662454051082 0.0017901359429585836 0 -0.0032893712796803229 0.0018713454964222776 0 -0.0040262727801297317 0.0011530899879444033 0 -0.0037836660887572357 0.0016455120027372954 0 -0.003217995555267594 0.001727725281541273 0 -0.0033183662454051082 0.0017901359429585836 0 -0.0032131921490306634 0.0018348321314471889 0 -0.0037836660887572357 0.0016455120027372954 0 -0.0037889429457495793 0.0015886546122189163 0 -0.0032131921490306634 0.0018348321314471889 0 -0.0032578241430862931 0.0019121309288176055 0 -0.0032140135404315024 0.0019282887043975982 0 -0.0032131921490306634 0.0018348321314471889 0 -0.0032893712796803229 0.0018713454964222776 0 -0.0032578241430862931 0.0019121309288176055 0 -0.0033593249298516678 0.0018666384540296172 0 -0.0032893712796803229 0.0018713454964222776 0 -0.003314857604056331 0.0019421415571378357 0 -0.0032893712796803229 0.0018713454964222776 0 -0.003314857604056331 0.0019421415571378357 0 -0.0032578241430862931 0.0019121309288176055 0 -0.003314857604056331 0.0019421415571378357 0 -0.0032578241430862931 0.0019121309288176055 0 -0.0032520584136552532 0.0019775708821988848 0 -0.0032578241430862931 0.0019121309288176055 0 -0.0032140135404315024 0.0019282887043975982 0 -0.0032520584136552532 0.0019775708821988848 0 -0.0032140135404315024 0.0019282887043975982 0 -0.0032520584136552532 0.0019775708821988848 0 -0.0032148981762949716 0.0020115466996100569 0 -0.0032520584136552532 0.0019775708821988848 0 -0.0032270244381805437 0.0020122298712421036 0 -0.0032395893086393842 0.0020186466465517633 0 -0.0032520584136552532 0.0019775708821988848 0 -0.0032270244381805437 0.0020122298712421036 0 -0.0032148981762949716 0.0020115466996100569 0 -0.0033389252866811996 0.0019885538341964087 0 -0.0034784802253831717 0.0022884590644811709 0 -0.0033172547411573182 0.0026819014616289564 0 -0.0034784802253831717 0.0022884590644811709 0 -0.0032520584136552532 0.0019775708821988848 0 -0.0032681492351754452 0.0020382398811447963 0 -0.0032337125270414024 0.0020290558637258765 0 -0.0032270244381805437 0.0020122298712421036 0 -0.0032220242571778111 0.0020134234334807798 0 -0.0032395893086393842 0.0020186466465517633 0 -0.0037545035631741243 0.0019569095979006025 0 -0.0034784802253831717 0.0022884590644811709 0 -0.0032270244381805437 0.0020122298712421036 0 -0.0032218256200165422 0.0020135188213482261 0 -0.0032148981762949716 0.0020115466996100569 0 -0.00370765051852195 0.0019662649915643034 0 -0.0037545035631741243 0.0019569095979006025 0 -0.0034784802253831717 0.0022884590644811709 0 -0.0039188809334017435 0.0030839613117249337 0 -0.0038743652857536354 0.0021061119420702763 0 -0.0040424035736923236 0.0021531257253281462 0 -0.0037339686454310908 0.0029774506652150826 0 -0.003798288816551356 0.0027881048505742048 0 -0.003607481984650798 0.0027344558324422317 0 -0.0036158809391299202 0.0031202426374922513 0 -0.0033047952739755498 0.0039730906831788636 0 -0.0032907017126289958 0.0040063956407651201 0 -0.0033261953446157089 0.0040066649458264736 0 -0.003607481984650798 0.0027344558324422317 0 -0.0036158809391299202 0.0031202426374922513 0 -0.003386589851932735 0.0033431431045148536 0 -0.0033172547411573182 0.0026819014616289564 0 -0.0034253502071819649 0.0036073858456743446 0 -0.0033172547411573182 0.0026819014616289564 0 -0.0032894455267589279 0.0033370441323502136 0 -0.0033047952739755498 0.0039730906831788636 0 -0.0033261953446157089 0.0040066649458264736 0 -0.0033561262112423175 0.003995809801369531 0 -0.003314857604056331 0.0019421415571378357 0 -0.0032520584136552532 0.0019775708821988848 0 -0.0032681492351754452 0.0020382398811447963 0 -0.003229297932424182 0.0020753262191854976 0 -0.0031450695233334039 0.0022447533891199493 0 -0.0032729555668989819 0.0021881980382358825 0 -0.0032873222437598184 0.0019057929821830024 0 -0.0033172547411573182 0.0026819014616289564 0 -0.0031450695233334039 0.0022447533891199493 0 -0.0032729555668989819 0.0021881980382358825 0 -0.0033408748668942172 0.0022873012866413121 0 -0.0033766014187922031 0.0021000217845151162 0 -0.0033581834615756573 0.0021121574044526545 0 -0.0033408748668942172 0.0022873012866413121 0 -0.0031778627697063317 0.0024665106956596704 0 -0.0032894455267589279 0.0033370441323502136 0 -0.0033581834615756573 0.0021121574044526545 0 -0.0032729555668989819 0.0021881980382358825 0 -0.0033408748668942172 0.0022873012866413121 0 -0.0033247314884085719 0.0031849573956964812 0 -0.0030070533577689412 0.002996873825948901 0 -0.0030762602966054042 0.0032827150101424609 0 -0.0030070533577689412 0.002996873825948901 0 -0.0030762602966054042 0.0032827150101424609 0 -0.0028427960061132526 0.0034322916222099104 0 -0.0033247314884085719 0.0031849573956964812 0 -0.0030762602966054042 0.0032827150101424609 0 -0.0031312824685566626 0.0035154762534025659 0 -0.003296321665246404 0.0037850743079313504 0 -0.0032894455267589279 0.0033370441323502136 0 -0.0030762602966054042 0.0032827150101424609 0 -0.0031312824685566626 0.0035154762534025659 0 -0.0028427960061132526 0.0034322916222099104 0 -0.0033799299911779546 0.0040205575856197984 0 -0.0033535205508650194 0.0040041047639319633 0 -0.0033660155383660444 0.0040259355168239348 0 -0.0033535205508650194 0.0040041047639319633 0 -0.0033497481337374357 0.0040141181428879963 0 -0.0033660155383660444 0.0040259355168239348 0 -0.0033261953446157089 0.0040066649458264736 0 -0.0033561262112423175 0.003995809801369531 0 -0.0033497481337374357 0.0040141181428879963 0 -0.0032894455267589279 0.0033370441323502136 0 -0.0032061300521817005 0.0038755711877025657 0 -0.0033728531116289668 0.004047209171891851 0 -0.0033660155383660444 0.0040259355168239348 0 -0.0033299078102059609 0.0040411806989444563 0 -0.0033895911632351979 0.0049665102189412787 0 -0.0033761319472908114 0.0050630554422586961 0 -0.0033497481337374357 0.0040141181428879963 0 -0.0033660155383660444 0.0040259355168239348 0 -0.0033299078102059609 0.0040411806989444563 0 -0.0033799299911779546 0.0040205575856197984 0 -0.0033728531116289668 0.004047209171891851 0 -0.0033660155383660444 0.0040259355168239348 0 -0.0033925911484128184 0.0057334303107690453 0 -0.0033396268851930986 0.0057972315064811772 0 -0.0034476645703980392 0.0057929502979529365 0 -0.0033569188373886081 0.0059017404771933117 0 -0.0033396268851930986 0.0057972315064811772 0 -0.0034476645703980392 0.0057929502979529365 0 -0.0032369580522367898 0.0058595594679693962 0 -0.0033569188373886081 0.0059017404771933117 0 -0.0033396268851930986 0.0057972315064811772 0 -0.0033569188373886081 0.0059017404771933117 0 -0.0034476645703980392 0.0057929502979529365 0 -0.0035291135756727039 0.0058739844711054546 0 -0.0034476645703980392 0.0057929502979529365 0 -0.0035848988383269092 0.0057637033004577483 0 -0.0035291135756727039 0.0058739844711054546 0 -0.0035848988383269092 0.0057637033004577483 0 -0.0035291135756727039 0.0058739844711054546 0 -0.0036799899666802066 0.0058543137497688146 0 -0.0039467102291438974 0.0052084452229706419 0 -0.0041284854236255117 0.0043529269010619473 0 -0.0035848988383269092 0.0057637033004577483 0 -0.0036799899666802066 0.0058543137497688146 0 -0.0036870040010770957 0.0058414750894740623 0 -0.0042585175502858619 0.0043888068595056553 0 -0.0043395882854130588 0.0044127690947748585 0 -0.0043627362720405271 0.0044921140945447125 0 -0.0033761319472908114 0.0050630554422586961 0 -0.003705316609271256 0.0041074062746183724 0 -0.0032907017126289958 0.0040063956407651201 0 -0.0033299078102059609 0.0040411806989444563 0 -0.0032777673764913286 0.0040358874654795335 0 -0.0036158809391299202 0.0031202426374922513 0 -0.003386589851932735 0.0033431431045148536 0 -0.0034344960265870459 0.0034524446378173235 0 -0.0034253502071819649 0.0036073858456743446 0 -0.003705316609271256 0.0041074062746183724 0 -0.0032907017126289958 0.0040063956407651201 0 -0.0033261953446157089 0.0040066649458264736 0 -0.0033299078102059609 0.0040411806989444563 0 -0.0033261953446157089 0.0040066649458264736 0 -0.0033497481337374357 0.0040141181428879963 0 -0.0033299078102059609 0.0040411806989444563 0 -0.004623187952789873 0.0028268795390503729 0 -0.0047177003316350623 0.0027225868595577071 0 -0.004842953126750483 0.0028311495438709073 0 -0.0048446214900219799 0.0018746053764696882 0 -0.0047799073575813074 0.0018473899982302529 0 -0.0048648974894954173 0.0018428437669047429 0 -0.0045890791102195785 0.0025847609371067145 0 -0.0048445889395871723 0.0023491501688590495 0 -0.0042019994635311949 0.0027421773221289877 0 -0.0043852575156326156 0.0027376421012210001 0 -0.0043355249510846749 0.0028686801593104062 0 -0.0039188809334017435 0.0030839613117249337 0 -0.0040600128155162231 0.0034592060409178314 0 -0.003386589851932735 0.0033431431045148536 0 -0.0034344960265870459 0.0034524446378173235 0 -0.0033454683880888825 0.0034575687972433502 0 -0.003705316609271256 0.0041074062746183724 0 -0.0040600128155162231 0.0034592060409178314 0 -0.003705316609271256 0.0041074062746183724 0 -0.0041284854236255117 0.0043529269010619473 0 -0.0039651602504060289 0.0037213590648285137 0 -0.0041827450516716833 0.0037076316495552992 0 -0.0040452799842922984 0.0035815158717417144 0 -0.0040600128155162231 0.0034592060409178314 0 -0.0041284854236255117 0.0043529269010619473 0 -0.0042559806239269157 0.0040834243515888618 0 -0.0042366976564962517 0.0039829778918881766 0 -0.0042052863787237216 0.0040368371116010857 0 -0.0042421788138907249 0.004348032309436407 0 -0.0041284854236255117 0.0043529269010619473 0 -0.0040600128155162231 0.0034592060409178314 0 -0.0045890791102195785 0.0025847609371067145 0 -0.0042019994635311949 0.0027421773221289877 0 -0.0043367695309434497 0.0028696572209589511 0 -0.0040724037479309945 0.0028488136263096616 0 -0.0044861104514668723 0.0028748831011137237 0 -0.0046221787544486219 0.0028833250289792387 0 -0.0045914636160058649 0.0026651875963447712 0 -0.0040125650832277286 0.003130190058126813 0 -0.0040600128155162231 0.0034592060409178314 0 -0.0045890791102195785 0.0025847609371067145 0 -0.0046091005669346525 0.0027700801082615801 0 -0.0040600128155162231 0.0034592060409178314 0 -0.0045006476080757972 0.0037098692941973602 0 -0.0043880689651635925 0.0044226819036537589 0 -0.0042421788138907249 0.004348032309436407 0 -0.0042421788138907249 0.004348032309436407 0 -0.0045006476080757972 0.0037098692941973602 0 -0.0043857739898542037 0.0043696707622375014 0 -0.0043395882854130588 0.0044127690947748585 0 -0.0043712909756988003 0.004477878664448251 0 -0.0042559806239269157 0.0040834243515888618 0 -0.0042366976564962517 0.0039829778918881766 0 -0.0044204229740926913 0.0036707526441253587 0 -0.0043857739898542037 0.0043696707622375014 0 -0.0043759738019300189 0.0044811000908097113 0 -0.0044283414786444562 0.0043969781029303363 0 -0.0044861104514668723 0.0028748831011137237 0 -0.0045914636160058649 0.0026651875963447712 0 -0.0045948795846515516 0.0026077658267077693 0 -0.0043395882854130588 0.0044127690947748585 0 -0.0043712909756988003 0.004477878664448251 0 -0.0043627362720405271 0.0044921140945447125 0 -0.0045914636160058649 0.0026651875963447712 0 -0.0045948795846515516 0.0026077658267077693 0 -0.0046877437263298759 0.002635571573062287 0 -0.0045914636160058649 0.0026651875963447712 0 -0.0046877437263298759 0.002635571573062287 0 -0.0047177003316350623 0.0027225868595577071 0 -0.004623187952789873 0.0028268795390503729 0 -0.0045914636160058649 0.0026651875963447712 0 -0.0047177003316350623 0.0027225868595577071 0 -0.0047177003316350623 0.0027225868595577071 0 -0.0047904154148756808 0.0026098690147288157 0 -0.0048616757394757846 0.0027092668568388096 0 -0.0046877437263298759 0.002635571573062287 0 -0.0047177003316350623 0.0027225868595577071 0 -0.0047904154148756808 0.0026098690147288157 0 -0.0047809600746648671 0.0025198694474669616 0 -0.0046877437263298759 0.002635571573062287 0 -0.0047904154148756808 0.0026098690147288157 0 -0.0049088406165461312 0.0025416590686765704 0 -0.0047904154148756808 0.0026098690147288157 0 -0.0048616757394757846 0.0027092668568388096 0 -0.0049741620314836367 0.002666080200977135 0 -0.0048616757394757846 0.0027092668568388096 0 -0.0050678933462594755 0.0028336648555901608 0 -0.0049088406165461312 0.0025416590686765704 0 -0.0049741620314836367 0.002666080200977135 0 -0.0048616757394757846 0.0027092668568388096 0 -0.0049088406165461312 0.0025416590686765704 0 -0.0049741620314836367 0.002666080200977135 0 -0.0050506274758945775 0.0025883126829345901 0 -0.0047177003316350623 0.0027225868595577071 0 -0.0048616757394757846 0.0027092668568388096 0 -0.004842953126750483 0.0028311495438709073 0 -0.0049741620314836367 0.002666080200977135 0 -0.0050506274758945775 0.0025883126829345901 0 -0.0050678933462594755 0.0028336648555901608 0 -0.0055297149832134254 0.0012701983270420021 0 -0.0055875874281937563 0.001083846192033389 0 -0.0055201548811618971 0.0011713538861477153 0 -0.0053562566088393958 0.0019633464727455302 0 -0.0051914390215304432 0.0017658374359134745 0 -0.0051750793021376664 0.0025654777655611874 0 -0.0050506274758945775 0.0025883126829345901 0 -0.0050678933462594755 0.0028336648555901608 0 -0.0055339414320367437 0.0011114636821160494 0 -0.0055875874281937563 0.001083846192033389 0 -0.0055201548811618971 0.0011713538861477153 0 -0.0055511157685232335 0.0010815138484096449 0 -0.0055339414320367437 0.0011114636821160494 0 -0.0055875874281937563 0.001083846192033389 0 -0.0053948359607222029 0.0016335201061956869 0 -0.0051914390215304432 0.0017658374359134745 0 -0.0051914390215304432 0.0017658374359134745 0 -0.0050944451182819957 0.0014571876874637396 0 -0.0055833825315067236 0.0010828447329185701 0 -0.0055708363507289572 0.0010294845235302612 0 -0.0056174039899075405 0.00098523797025868495 0 -0.0055511157685232335 0.0010815138484096449 0 -0.005535434472916257 0.001038083445636759 0 -0.005488055668106606 0.0010917902412119157 0 -0.0055511157685232335 0.0010815138484096449 0 -0.0055833825315067236 0.0010828447329185701 0 -0.0055708363507289572 0.0010294845235302612 0 -0.0055511157685232335 0.0010815138484096449 0 -0.0055708363507289572 0.0010294845235302612 0 -0.005535434472916257 0.001038083445636759 0 -0.0049647687930880272 0.0018424696922822365 0 -0.0048648974894954173 0.0018428437669047429 0 -0.004938796271067792 0.0019092081317471706 0 -0.0048446214900219799 0.0018746053764696882 0 -0.0048648974894954173 0.0018428437669047429 0 -0.004938796271067792 0.0019092081317471706 0 -0.0051914390215304432 0.0017658374359134745 0 -0.0048445889395871723 0.0023491501688590495 0 -0.0048616757394757846 0.0027092668568388096 0 -0.0050678933462594755 0.0028336648555901608 0 -0.004842953126750483 0.0028311495438709073 0 -0.0049453269863965 0.0011890345994635906 0 -0.0048354948576209977 0.0012661044726268371 0 -0.0047463013170328918 0.0012347096179185421 0 -0.0048446214900219799 0.0018746053764696882 0 -0.0049205005313885776 0.001898761364178616 0 -0.0049143498190798258 0.0019152009911734787 0 -0.0048389929725745932 0.0019195905744445491 0 -0.0050944451182819957 0.0014571876874637396 0 -0.0050100132675740218 0.0013445698032181256 0 -0.0045579358752460058 0.0017757218404443518 0 -0.0048446214900219799 0.0018746053764696882 0 -0.0049143498190798258 0.0019152009911734787 0 -0.00479781490769343 0.0019467295488191207 0 -0.0050598461041839043 0.0010754705986737965 0 -0.0050298065386208141 0.0012308112892430233 0 -0.0052147755534287044 0.0011340823771006179 0 -0.0055708363507289572 0.0010294845235302612 0 -0.005535434472916257 0.001038083445636759 0 -0.0055769761259101625 0.00096748851432903072 0 -0.005535434472916257 0.001038083445636759 0 -0.0055769761259101625 0.00096748851432903072 0 -0.0054897520736849571 0.0010244550857488432 0 -0.0055708363507289572 0.0010294845235302612 0 -0.0055769761259101625 0.00096748851432903072 0 -0.0056174039899075405 0.00098523797025868495 0 -0.0053303683039112168 0.0011538516558947112 0 -0.0050944451182819957 0.0014571876874637396 0 -0.0052268724464238541 0.0012692811758260392 0 -0.0050913189613323783 0.0012171230917339757 0 -0.0050570520663444684 0.0013092707178548174 0 -0.0050944451182819957 0.0014571876874637396 0 -0.0050100132675740218 0.0013445698032181256 0 -0.0050598461041839043 0.0010754705986737965 0 -0.0049777334174569135 0.0010949773396189456 0 -0.0050298065386208141 0.0012308112892430233 0 -0.0053303683039112168 0.0011538516558947112 0 -0.0050100132675740218 0.0013445698032181256 0 -0.0053303683039112168 0.0011538516558947112 0 -0.0053418842190930379 0.0010241410348628573 0 -0.0050298065386208141 0.0012308112892430233 0 -0.0049059236409211655 0.0013429703129811575 0 -0.0051311269189986885 0.001401747433823511 0 -0.0050298065386208141 0.0012308112892430233 0 -0.0051311269189986885 0.001401747433823511 0 -0.0052147755534287044 0.0011340823771006179 0 -0.0048925265696221458 0.0013354762215342284 0 -0.0047562537757498266 0.0013072056795046028 0 -0.0049059236409211655 0.0013429703129811575 0 -0.0049777334174569135 0.0010949773396189456 0 -0.0050298065386208141 0.0012308112892430233 0 -0.0048925265696221458 0.0013354762215342284 0 -0.0049453269863965 0.0011890345994635906 0 -0.0048354948576209977 0.0012661044726268371 0 -0.0048925265696221458 0.0013354762215342284 0 -0.0050100132675740218 0.0013445698032181256 0 -0.0049021411734057408 0.0012503144668326285 0 -0.0050298065386208141 0.0012308112892430233 0 -0.0048925265696221458 0.0013354762215342284 0 -0.0049059236409211655 0.0013429703129811575 0 -0.0046045254335840991 0.0013030846046888417 0 -0.0049174733638841853 0.0012099019349918823 0 -0.0048354948576209977 0.0012661044726268371 0 -0.0048925265696221458 0.0013354762215342284 0 -0.0047562537757498266 0.0013072056795046028 0 -0.0046045254335840991 0.0013030846046888417 0 -0.0045579358752460058 0.0017757218404443518 0 -0.0048354948576209977 0.0012661044726268371 0 -0.0047562537757498266 0.0013072056795046028 0 -0.0047463013170328918 0.0012347096179185421 0 -0.0048446214900219799 0.0018746053764696882 0 -0.0047799073575813074 0.0018473899982302529 0 -0.00479781490769343 0.0019467295488191207 0 -0.0045890791102195785 0.0025847609371067145 0 -0.0045579358752460058 0.0017757218404443518 0 -0.0042019994635311949 0.0027421773221289877 0 -0.0040724037479309945 0.0028488136263096616 0 -0.0039616316297669272 0.0021321572766053371 0 -0.0042019994635311949 0.0027421773221289877 0 -0.0039616316297669272 0.0021321572766053371 0 -0.0044516914485864352 0.0019893224717494246 0 -0.0042019994635311949 0.0027421773221289877 0 -0.0043852575156326156 0.0027376421012210001 0 -0.0044516914485864352 0.0019893224717494246 0 -0.0039188809334017435 0.0030839613117249337 0 -0.0040576335468128161 0.0018446697255750178 0 -0.0038743652857536354 0.0021061119420702763 0 -0.0037339686454310908 0.0029774506652150826 0 -0.0038097803772454294 0.0020880405270122483 0 -0.0043590548001596124 0.0013585741035693532 0 -0.0043869961842603646 0.001370134759159195 0 -0.0043703077456835795 0.0013449850122727361 0 -0.0046045254335840991 0.0013030846046888417 0 -0.0040576335468128161 0.0018446697255750178 0 -0.0045579358752460058 0.0017757218404443518 0 -0.0040576335468128161 0.0018446697255750178 0 -0.0045210813999459762 0.0017283448150221298 0 -0.0044936453076292781 0.0015559395647971679 0 -0.0041991955751793262 0.0016422719686920021 0 -0.0037545035631741243 0.0019569095979006025 0 -0.0040576335468128161 0.0018446697255750178 0 -0.0043900508662437672 0.0013334716362305402 0 -0.0043869961842603646 0.001370134759159195 0 -0.0043703077456835795 0.0013449850122727361 0 -0.0037889429457495793 0.0015886546122189163 0 -0.0040576335468128161 0.0018446697255750178 0 -0.0043900508662437672 0.0013334716362305402 0 -0.0043703077456835795 0.0013449850122727361 0 -0.004373674978502131 0.0013286228193203802 0 -0.0043590548001596124 0.0013585741035693532 0 -0.0043703077456835795 0.0013449850122727361 0 -0.0043553244263389241 0.0013265347014949874 0 -0.0047577416809798665 0.0010218311534686587 0 -0.0047781023538634683 0.0011447505163368669 0 -0.0048598749245214673 0.0011316458455026802 0 -0.0046045254335840991 0.0013030846046888417 0 -0.0044552693809958707 0.0012724688550335228 0 -0.0043703133249117536 0.0013305615576680592 0 -0.0044552693809958707 0.0012724688550335228 0 -0.0043703077456835795 0.0013449850122727361 0 -0.004373674978502131 0.0013286228193203802 0 -0.0043594280352103705 0.0013241856839339167 0 -0.0044552693809958707 0.0012724688550335228 0 -0.0043800782099784391 0.001310825235583505 0 -0.0044552693809958707 0.0012724688550335228 0 -0.0048422010642290058 0.0010075438791946293 0 -0.0043594280352103705 0.0013241856839339167 0 -0.0043620525793840693 0.0013032569132509413 0 -0.0043758154504344449 0.0013123388288310337 0 -0.0043620525793840693 0.0013032569132509413 0 -0.0043758154504344449 0.0013123388288310337 0 -0.0043739947312603309 0.0013010925497051443 0 -0.0043645762006970191 0.0013093901000275044 0 -0.0043620525793840693 0.0013032569132509413 0 -0.0043567690839400293 0.0013023397368990787 0 -0.0043896493352794629 0.0013021307870574245 0 -0.0043900508662437672 0.0013334716362305402 0 -0.0043758154504344449 0.0013123388288310337 0 -0.0043896493352794629 0.0013021307870574245 0 -0.0043758154504344449 0.0013123388288310337 0 -0.0043739947312603309 0.0013010925497051443 0 -0.0043900508662437672 0.0013334716362305402 0 -0.004373674978502131 0.0013286228193203802 0 -0.0043758154504344449 0.0013123388288310337 0 -0.004373674978502131 0.0013286228193203802 0 -0.0043594280352103705 0.0013241856839339167 0 -0.0043758154504344449 0.0013123388288310337 0 -0.0043896493352794629 0.0013021307870574245 0 -0.0043739947312603309 0.0013010925497051443 0 -0.0043694581239768172 0.0012863984996630492 0 -0.0043898726462527722 0.0012767654601256509 0 -0.0043896493352794629 0.0013021307870574245 0 -0.0043694581239768172 0.0012863984996630492 0 -0.0048021544619205048 0.00061922473949909307 0 -0.0052634874430064283 0.00036299471678702091 0 -0.0043620525793840693 0.0013032569132509413 0 -0.0043694581239768172 0.0012863984996630492 0 -0.0043567690839400293 0.0013023397368990787 0 -0.0048021544619205048 0.00061922473949909307 0 -0.0048422010642290058 0.0010075438791946293 0 -0.0043620525793840693 0.0013032569132509413 0 -0.0043739947312603309 0.0013010925497051443 0 -0.0043694581239768172 0.0012863984996630492 0 -0.0052427681540225925 -5.751994711536954e-05 0 -0.0052980741988849049 -3.4396504715347641e-05 0 -0.0052440346444928019 -1.1952358321771489e-05 0 -0.0052980741988849049 -3.4396504715347641e-05 0 -0.0052999787126493079 3.883396431870103e-06 0 -0.0052440346444928019 -1.1952358321771489e-05 0 -0.0040262727801297317 0.0011530899879444033 0 -0.0048021544619205048 0.00061922473949909307 0 -0.0045554092364880902 0.00060317839461415288 0 -0.0046697308492087662 0.00055966533202318302 0 -0.0046098097650260836 0.00060794129495405269 0 -0.0052427681540225925 -5.751994711536954e-05 0 -0.0052142721495714184 -3.0276087869316003e-05 0 -0.0052440346444928019 -1.1952358321771489e-05 0 -0.004960255291414568 0.00024563401163630748 0 -0.0047023165220278704 0.00021714602932054478 0 -0.0048021544619205048 0.00061922473949909307 0 -0.004960255291414568 0.00024563401163630748 0 -0.0053568780798825578 -4.6606168307063999e-05 0 -0.0053997004236043126 7.3862914614450296e-06 0 -0.0053413081769189182 5.2493415086571443e-06 0 -0.0054320418291480673 1.466263067363225e-05 0 -0.0054108576622496143 1.3140778483052581e-05 0 -0.0052980741988849049 -3.4396504715347641e-05 0 -0.0052999787126493079 3.883396431870103e-06 0 -0.0053413081769189182 5.2493415086571443e-06 0 -0.0053568780798825578 -4.6606168307063999e-05 0 -0.0052980741988849049 -3.4396504715347641e-05 0 -0.0053413081769189182 5.2493415086571443e-06 0 -0.0052427681540225925 -5.751994711536954e-05 0 -0.0052980741988849049 -3.4396504715347641e-05 0 -0.0053159395497235579 -8.6472908842935e-05 0 -0.0048467036606880927 0.00067836891026229343 0 -0.0050269818974094964 0.00060556887529809747 0 -0.0049847592667053124 0.00056060628561449641 0 -0.0053568780798825578 -4.6606168307063999e-05 0 -0.0052980741988849049 -3.4396504715347641e-05 0 -0.0053159395497235579 -8.6472908842935e-05 0 -0.0052634874430064283 0.00036299471678702091 0 -0.0048422010642290058 0.0010075438791946293 0 -0.0052634874430064283 0.00036299471678702091 0 -0.0053677790997250976 0.0004939949700462343 0 -0.0055226108885284295 0.00010533404345406914 0 -0.0056167091258512297 0.00021186661514682734 0 -0.005501165445155636 0.00026209748518401507 0 -0.0055226108885284295 0.00010533404345406914 0 -0.005501165445155636 0.00026209748518401507 0 -0.005416690534819287 0.00020770173147062807 0 -0.0054320418291480673 1.466263067363225e-05 0 -0.0052634874430064283 0.00036299471678702091 0 -0.0052102763412711041 0.00073776365840870581 0 -0.0052001980742021883 0.00071247926002302104 0 -0.0052651604512044771 0.0007137930082570321 0 -0.005161446252531076 0.00075722834670875392 0 -0.0052102763412711041 0.00073776365840870581 0 -0.0051840400535766613 0.00073051412016294777 0 -0.0051840400535766613 0.00073051412016294777 0 -0.005185105480692594 0.00070654624158109796 0 -0.0051685217596396738 0.00073349723906987506 0 -0.0052102763412711041 0.00073776365840870581 0 -0.0051840400535766613 0.00073051412016294777 0 -0.0052001980742021883 0.00071247926002302104 0 -0.0051840400535766613 0.00073051412016294777 0 -0.005185105480692594 0.00070654624158109796 0 -0.0052001980742021883 0.00071247926002302104 0 -0.005185105480692594 0.00070654624158109796 0 -0.0051436699146104239 0.00073981936362578504 0 -0.0051685217596396738 0.00073349723906987506 0 -0.005161446252531076 0.00075722834670875392 0 -0.0051436699146104239 0.00073981936362578504 0 -0.0051685217596396738 0.00073349723906987506 0 -0.005161446252531076 0.00075722834670875392 0 -0.0051840400535766613 0.00073051412016294777 0 -0.0051685217596396738 0.00073349723906987506 0 -0.0050844629306561039 0.00091326034235089107 0 -0.0048422010642290058 0.0010075438791946293 0 -0.0049383301144567899 0.0011593423709218241 0 -0.0048568919655342302 0.0012284342915698603 0 -0.0048598749245214673 0.0011316458455026802 0 -0.0047781023538634683 0.0011447505163368669 0 -0.0048568919655342302 0.0012284342915698603 0 -0.0048598749245214673 0.0011316458455026802 0 -0.0047577416809798665 0.0010218311534686587 0 -0.0048598749245214673 0.0011316458455026802 0 -0.0048882587839343484 0.0010546955264839695 0 -0.0049383301144567899 0.0011593423709218241 0 -0.0048598749245214673 0.0011316458455026802 0 -0.0048882587839343484 0.0010546955264839695 0 -0.0049383301144567899 0.0011593423709218241 0 -0.0048882587839343484 0.0010546955264839695 0 -0.0050206045275693672 0.0010885983568781499 0 -0.0049174733638841853 0.0012099019349918823 0 -0.0051439723555325619 0.00099860085419950875 0 -0.005185105480692594 0.00070654624158109796 0 -0.0052001980742021883 0.00071247926002302104 0 -0.0052151120654579403 0.00068388402122142376 0 -0.0050844629306561039 0.00091326034235089107 0 -0.0051439723555325619 0.00099860085419950875 0 -0.0051439723555325619 0.00099860085419950875 0 -0.0052668332961739051 0.00059067478837681979 0 -0.0052151120654579403 0.00068388402122142376 0 -0.005275747711080035 0.00069915963180045373 0 -0.0052394653638473832 0.00071461347011932857 0 -0.0052552072058532039 0.00078955133407915539 0 -0.0052077935357198917 0.00079824190414739659 0 -0.0052057531020889159 0.00077254063378524613 0 -0.0053377598981239503 0.00028347141300026396 0 -0.0052345045273674215 0.00026328965333978802 0 -0.0052194317582034402 0.0003312418432688306 0 -0.005264587409070408 0.00046024309539254683 0 -0.0053891502959920049 0.00041052880026997991 0 -0.0052013669301058845 0.0003910838717464898 0 -0.0053187420150126478 0.00053573058832194465 0 -0.0052194174963200958 0.00034229105334078832 0 -0.0053377598981239503 0.00028347141300026396 0 -0.0053857320399742382 0.00031640859253312029 0 -0.0052194317582034402 0.0003312418432688306 0 -0.0052668332961739051 0.00059067478837681979 0 -0.0053187420150126478 0.00053573058832194465 0 -0.005501165445155636 0.00026209748518401507 0 -0.0053857320399742382 0.00031640859253312029 0 -0.005416690534819287 0.00020770173147062807 0 -0.0051869418608520368 0.00071825157052974242 0 -0.0053187420150126478 0.00053573058832194465 0 -0.0052001980742021883 0.00071247926002302104 0 -0.0052151120654579403 0.00068388402122142376 0 -0.0052394653638473832 0.00071461347011932857 0 -0.0053677790997250976 0.0004939949700462343 0 -0.0053187420150126478 0.00053573058832194465 0 -0.0053377598981239503 0.00028347141300026396 0 -0.0053857320399742382 0.00031640859253312029 0 -0.005416690534819287 0.00020770173147062807 0 -0.0055226108885284295 0.00010533404345406914 0 -0.005416690534819287 0.00020770173147062807 0 -0.0054103465441929788 9.3813416323882925e-05 0 -0.005416690534819287 0.00020770173147062807 0 -0.0053662643983447139 0.00014244842089201651 0 -0.0054103465441929788 9.3813416323882925e-05 0 -0.005416690534819287 0.00020770173147062807 0 -0.0053662643983447139 0.00014244842089201651 0 -0.0053510229397601842 0.00018906459467859537 0 -0.0053377598981239503 0.00028347141300026396 0 -0.005416690534819287 0.00020770173147062807 0 -0.0053510229397601842 0.00018906459467859537 0 -0.0053377598981239503 0.00028347141300026396 0 -0.0053005102201903404 0.00013288208017418168 0 -0.0052148718750463221 0.00011848377951964668 0 -0.0053316063366141775 0.00027559602824739696 0 -0.0052267142551614418 0.00015378829054442706 0 -0.0053377598981239503 0.00028347141300026396 0 -0.0052357908951109339 0.00018135209359364254 0 -0.0052345045273674215 0.00026328965333978802 0 -0.0053377598981239503 0.00028347141300026396 0 -0.0053510229397601842 0.00018906459467859537 0 -0.0053005102201903404 0.00013288208017418168 0 -0.0053662643983447139 0.00014244842089201651 0 -0.0053510229397601842 0.00018906459467859537 0 -0.0053005102201903404 0.00013288208017418168 0 -0.0053662643983447139 0.00014244842089201651 0 -0.0053005102201903404 0.00013288208017418168 0 -0.0053526235351333256 7.981058230714415e-05 0 -0.0053005102201903404 0.00013288208017418168 0 -0.0053526235351333256 7.981058230714415e-05 0 -0.0052946285017270393 5.5155618632153401e-05 0 -0.0052946285017270393 5.5155618632153401e-05 0 -0.0052095372890640394 1.6527143664678603e-05 0 -0.0052148718750463221 0.00011848377951964668 0 -0.0053005102201903404 0.00013288208017418168 0 -0.0052946285017270393 5.5155618632153401e-05 0 -0.0052148718750463221 0.00011848377951964668 0 -0.0052946285017270393 5.5155618632153401e-05 0 -0.0052095372890640394 1.6527143664678603e-05 0 -0.0052432238346748873 -6.3225688760948752e-05 0 -0.0053526235351333256 7.981058230714415e-05 0 -0.0052946285017270393 5.5155618632153401e-05 0 -0.0053866218163929136 1.6913929980524415e-05 0 -0.0052946285017270393 5.5155618632153401e-05 0 -0.0053866218163929136 1.6913929980524415e-05 0 -0.0053231097555387179 -5.380829708810385e-05 0 -0.0053866218163929136 1.6913929980524415e-05 0 -0.0053997004236043126 7.3862914614450296e-06 0 -0.0054103465441929788 9.3813416323882925e-05 0 -0.0055226108885284295 0.00010533404345406914 0 -0.0053997004236043126 7.3862914614450296e-06 0 -0.0054103465441929788 9.3813416323882925e-05 0 -0.0053662643983447139 0.00014244842089201651 0 -0.0053526235351333256 7.981058230714415e-05 0 -0.0054103465441929788 9.3813416323882925e-05 0 -0.0053526235351333256 7.981058230714415e-05 0 -0.0053866218163929136 1.6913929980524415e-05 0 -0.0054103465441929788 9.3813416323882925e-05 0 -0.0051535010263071218 0.00016652289352640814 0 -0.0051132134711055635 -1.6874748172029875e-05 0 -0.0049999878324237003 9.3060910341643871e-05 0 -0.0051545801411089194 0.00015060891674341143 0 -0.0051256578805382426 -2.385232762651007e-05 0 -0.0052267142551614418 0.00015378829054442706 0 -0.0051132134711055635 -1.6874748172029875e-05 0 -0.0051502895233673102 0.00016975959642930757 0 -0.0052357908951109339 0.00018135209359364254 0 -0.0051247573656493075 4.4693440670767997e-05 0 -0.0052095372890640394 1.6527143664678603e-05 0 -0.0052148718750463221 0.00011848377951964668 0 -0.0050831919897017094 -4.5299088111550765e-05 0 -0.0051535010263071218 0.00016652289352640814 0 -0.0051729056744932401 0.00027751777591812339 0 -0.0051502895233673102 0.00016975959642930757 0 -0.0051998899700227722 0.00022691901462152208 0 -0.005174647488481913 0.000294810519954582 0 -0.0051502895233673102 0.00016975959642930757 0 -0.0052357908951109339 0.00018135209359364254 0 -0.0051998899700227722 0.00022691901462152208 0 -0.0052357908951109339 0.00018135209359364254 0 -0.0051998899700227722 0.00022691901462152208 0 -0.0052345045273674215 0.00026328965333978802 0 -0.0051998899700227722 0.00022691901462152208 0 -0.0052345045273674215 0.00026328965333978802 0 -0.005174647488481913 0.000294810519954582 0 -0.005085738343610628 0.00022784405407317332 0 -0.0050000128901541456 0.00036470644666873207 0 -0.005174647488481913 0.000294810519954582 0 -0.0049999878324237003 9.3060910341643871e-05 0 -0.005085738343610628 0.00022784405407317332 0 -0.0050000128901541456 0.00036470644666873207 0 -0.0049999878324237003 9.3060910341643871e-05 0 -0.0051545801411089194 0.00015060891674341143 0 -0.005085738343610628 0.00022784405407317332 0 -0.0051545801411089194 0.00015060891674341143 0 -0.005085738343610628 0.00022784405407317332 0 -0.005174647488481913 0.000294810519954582 0 -0.0050000131011311367 0.00036477623809884102 0 -0.0052194174963200958 0.00034229105334078832 0 -0.0050000128901541456 0.00036470644666873207 0 -0.0052194317582034402 0.0003312418432688306 0 -0.005174647488481913 0.000294810519954582 0 -0.005000042188295987 0.00038266498856301965 0 -0.005152800353514223 0.00042649188508535275 0 -0.0049999810542539882 0.00038258603035506284 0 -0.0050000182350064268 0.00036484067106430331 0 -0.0051352526899895602 0.00042343015733977649 0 -0.0050000182350064268 0.00036484067106430331 0 -0.0052013669301058845 0.0003910838717464898 0 -0.0051352526899895602 0.00042343015733977649 0 -0.0049999991432768927 0.00038265858471158348 0 -0.0051700072780487289 0.00043336803702199761 0 -0.0050810522345467127 0.00050967921950835677 0 -0.0052668332961739051 0.00059067478837681979 0 -0.005152800353514223 0.00042649188508535275 0 -0.005264587409070408 0.00046024309539254683 0 -0.0052013669301058845 0.0003910838717464898 0 -0.0051352526899895602 0.00042343015733977649 0 -0.0052345045273674215 0.00026328965333978802 0 -0.0052194317582034402 0.0003312418432688306 0 -0.005174647488481913 0.000294810519954582 0 -0.005335759460395109 0.00048132944584666244 0 -0.0051700072780487289 0.00043336803702199761 0 -0.0051906854783498237 0.00054097167512707101 0 -0.0052077935357198917 0.00079824190414739659 0 -0.0051777377060308058 0.00078249171470025716 0 -0.0051841750073859921 0.00080813602541292826 0 -0.0052077935357198917 0.00079824190414739659 0 -0.0052057531020889159 0.00077254063378524613 0 -0.0051777377060308058 0.00078249171470025716 0 -0.0052668332961739051 0.00059067478837681979 0 -0.0051833430004964891 0.00066060581120979333 0 -0.0051777377060308058 0.00078249171470025716 0 -0.0051479195752246508 0.00079322842490939856 0 -0.0051841750073859921 0.00080813602541292826 0 -0.0049999991432768927 0.00038265858471158348 0 -0.0050810522345467127 0.00050967921950835677 0 -0.0049999991897164463 0.00058752570647288614 0 -0.0051700072780487289 0.00043336803702199761 0 -0.0051906854783498237 0.00054097167512707101 0 -0.0050810522345467127 0.00050967921950835677 0 -0.0051906854783498237 0.00054097167512707101 0 -0.0050810522345467127 0.00050967921950835677 0 -0.0050425531912871614 0.0006036482638977611 0 -0.0051833430004964891 0.00066060581120979333 0 -0.0050661539386105273 0.00065500920906372967 0 -0.0050810522345467127 0.00050967921950835677 0 -0.0050425531912871614 0.0006036482638977611 0 -0.0049999991897164463 0.00058752570647288614 0 -0.0050661539386105273 0.00065500920906372967 0 -0.0050000466710675949 0.00058763266700032882 0 -0.0050431312847122227 0.00060445594511360505 0 -0.004999999992419811 0.0006221532637284492 0 -0.0049999999871005651 0.00058753129180513786 0 -0.0050661539386105273 0.00065500920906372967 0 -0.0050000894324765113 0.00062223581634346934 0 -0.0050428896063342398 0.00060514250991057028 0 -0.0050753996343223728 0.00074530121689987347 0 -0.0052266458265270276 0.00067964899097621182 0 -0.0050428896063342398 0.00060514250991057028 0 -0.0049999998205883488 0.00062215910811881084 0 -0.0050753996343223728 0.00074530121689987347 0 -0.0049999998205883488 0.00062215910811881084 0 -0.0050753996343223728 0.00074530121689987347 0 -0.004999999167578849 0.00086708939756429944 0 -0.0050661539386105273 0.00065500920906372967 0 -0.0052032582050685929 0.00073804454166537063 0 -0.0050753996343223728 0.00074530121689987347 0 -0.004999999167578849 0.00086708939756429944 0 -0.0052058171820414797 0.0009300771902307827 0 -0.0052058171820414797 0.0009300771902307827 0 -0.0052266458265270276 0.00067964899097621182 0 -0.0054086522231507192 0.00075241550644194089 0 -0.0050753996343223728 0.00074530121689987347 0 -0.0052058171820414797 0.0009300771902307827 0 -0.0052266458265270276 0.00067964899097621182 0 -0.0052140701139337031 0.00093737437589497686 0 -0.005325182299404211 0.00093367842594076135 0 -0.0052077935357198917 0.00079824190414739659 0 -0.0051841750073859921 0.00080813602541292826 0 -0.0052180422121914137 0.00082185938497914197 0 -0.0052032582050685929 0.00073804454166537063 0 -0.005325182299404211 0.00093367842594076135 0 -0.0051311269189986885 0.001401747433823511 0 -0.0053694025814448624 0.0011922355980111851 0 -0.0052147755534287044 0.0011340823771006179 0 -0.0051439723555325619 0.00099860085419950875 0 -0.005325182299404211 0.00093367842594076135 0 -0.0052552072058532039 0.00078955133407915539 0 -0.0052077935357198917 0.00079824190414739659 0 -0.0052180422121914137 0.00082185938497914197 0 -0.005325182299404211 0.00093367842594076135 0 -0.0053418842190930379 0.0010241410348628573 0 -0.0055713230580451047 0.00095195467346125906 0 -0.0054692863333395446 0.00091021633229344844 0 -0.0054126438348339502 0.00099063685707115974 0 -0.0053303683039112168 0.0011538516558947112 0 -0.0055268577533986113 0.00094341201512979469 0 -0.0055769761259101625 0.00096748851432903072 0 -0.0054126438348339502 0.00099063685707115974 0 -0.0054897520736849571 0.0010244550857488432 0 -0.0053617914028591578 0.00086278658005863517 0 -0.0054692863333395446 0.00091021633229344844 0 -0.0054126438348339502 0.00099063685707115974 0 -0.0053617914028591578 0.00086278658005863517 0 -0.0054126438348339502 0.00099063685707115974 0 -0.0053455925959795909 0.0010486162504587725 0 -0.0051941098602474815 0.00099012279368079444 0 -0.0053617914028591578 0.00086278658005863517 0 -0.0053455925959795909 0.0010486162504587725 0 -0.005291196866580917 0.0011215267274447334 0 -0.0053455925959795909 0.0010486162504587725 0 -0.0054223109755660295 0.0011340301495496887 0 -0.0054126438348339502 0.00099063685707115974 0 -0.0053455925959795909 0.0010486162504587725 0 -0.0054323467432665223 0.0010576867232281626 0 -0.0053455925959795909 0.0010486162504587725 0 -0.0054323467432665223 0.0010576867232281626 0 -0.0054223109755660295 0.0011340301495496887 0 -0.005535434472916257 0.001038083445636759 0 -0.0054897520736849571 0.0010244550857488432 0 -0.005488055668106606 0.0010917902412119157 0 -0.0054897520736849571 0.0010244550857488432 0 -0.0054323467432665223 0.0010576867232281626 0 -0.005488055668106606 0.0010917902412119157 0 -0.0054126438348339502 0.00099063685707115974 0 -0.0054897520736849571 0.0010244550857488432 0 -0.0054323467432665223 0.0010576867232281626 0 -0.0054323467432665223 0.0010576867232281626 0 -0.0054223109755660295 0.0011340301495496887 0 -0.005488055668106606 0.0010917902412119157 0 -0.0055339414320367437 0.0011114636821160494 0 -0.005488055668106606 0.0010917902412119157 0 -0.0055201548811618971 0.0011713538861477153 0 -0.0055511157685232335 0.0010815138484096449 0 -0.0055339414320367437 0.0011114636821160494 0 -0.005488055668106606 0.0010917902412119157 0 -0.0054223109755660295 0.0011340301495496887 0 -0.005488055668106606 0.0010917902412119157 0 -0.0055201548811618971 0.0011713538861477153 0 -0.0054223109755660295 0.0011340301495496887 0 -0.0055201548811618971 0.0011713538861477153 0 -0.0054598520435659098 0.0012290196695383339 0 -0.0054515415592487184 0.0012919835100361325 0 -0.0054598520435659098 0.0012290196695383339 0 -0.0053780193257632735 0.0012487754875076264 0 -0.0054223109755660295 0.0011340301495496887 0 -0.0054598520435659098 0.0012290196695383339 0 -0.0053780193257632735 0.0012487754875076264 0 -0.0055297149832134254 0.0012701983270420021 0 -0.0054515415592487184 0.0012919835100361325 0 -0.0054598520435659098 0.0012290196695383339 0 -0.0055297149832134254 0.0012701983270420021 0 -0.0055201548811618971 0.0011713538861477153 0 -0.0054598520435659098 0.0012290196695383339 0 -0.005291196866580917 0.0011215267274447334 0 -0.0053780193257632735 0.0012487754875076264 0 -0.0051863148764353445 0.0012217797264600799 0 -0.005291196866580917 0.0011215267274447334 0 -0.0054223109755660295 0.0011340301495496887 0 -0.0053780193257632735 0.0012487754875076264 0 -0.0049999872279390791 0.0013480157004934336 0 -0.0051863148764353445 0.0012217797264600799 0 -0.0050000213892169437 0.0011121101586333941 0 -0.004999999167578849 0.00086708939756429944 0 -0.0052058171820414797 0.0009300771902307827 0 -0.0049999997376833361 0.0011120241159999458 0 -0.0052140701139337031 0.00093737437589497686 0 -0.0050000021642331582 0.0011120381455979283 0 -0.0051941098602474815 0.00099012279368079444 0 -0.0051863148764353445 0.0012217797264600799 0 -0.0050000213892169437 0.0011121101586333941 0 -0.0051941098602474815 0.00099012279368079444 0 -0.005291196866580917 0.0011215267274447334 0 -0.0051863148764353445 0.0012217797264600799 0 -0.0051941098602474815 0.00099012279368079444 0 -0.005291196866580917 0.0011215267274447334 0 -0.0053455925959795909 0.0010486162504587725 0 -0.0012485924024272224 0.00469848697664434 0 -0.0012085844147379544 0.0047066794455031752 0 -0.0012240100898792711 0.0046929253224667327 0 -0.0012485924024272224 0.00469848697664434 0 -0.0012085844147379544 0.0047066794455031752 0 -0.0012278602160874898 0.0046866293288727852 0 -0.0012085844147379544 0.0047066794455031752 0 -0.0012278602160874898 0.0046866293288727852 0 -0.0011721480063642163 0.004697564286603343 0 -0.0012485924024272224 0.00469848697664434 0 -0.0012278602160874898 0.0046866293288727852 0 -0.0012801945180946133 0.0046886455264560601 0 -0.0012801945180946133 0.0046886455264560601 0 -0.0013174172884895033 0.0046956304186620557 0 -0.0012851930825906041 0.0046970495154795002 0 -0.0012801945180946133 0.0046886455264560601 0 -0.0013174172884895033 0.0046956304186620557 0 -0.0013383276081024849 0.004673086612505332 0 -0.0013174172884895033 0.0046956304186620557 0 -0.0013101152384100967 0.0046982540923226276 0 -0.0013512661824361515 0.0047049244275691599 0 -0.0013174172884895033 0.0046956304186620557 0 -0.0013383276081024849 0.004673086612505332 0 -0.0013512661824361515 0.0047049244275691599 0 -0.0013174172884895033 0.0046956304186620557 0 -0.0013101152384100967 0.0046982540923226276 0 -0.0012851930825906041 0.0046970495154795002 0 -0.0012485924024272224 0.00469848697664434 0 -0.0012801945180946133 0.0046886455264560601 0 -0.0012851930825906041 0.0046970495154795002 0 -0.0013101152384100967 0.0046982540923226276 0 -0.0012851930825906041 0.0046970495154795002 0 -0.0012692025415654441 0.0046964744241242886 0 -0.0012485924024272224 0.00469848697664434 0 -0.0012851930825906041 0.0046970495154795002 0 -0.0012692025415654441 0.0046964744241242886 0 -0.0013101152384100967 0.0046982540923226276 0 -0.0012692025415654441 0.0046964744241242886 0 -0.0012917369391004508 0.0046987927113955096 0 -0.0013101152384100967 0.0046982540923226276 0 -0.0013113479993631073 0.0046993198432303419 0 -0.0012917369391004508 0.0046987927113955096 0 -0.0013113479993631073 0.0046993198432303419 0 -0.0012985805820577216 0.0047032581244646297 0 -0.0013164374816884471 0.0047040806311195076 0 -0.0013113479993631073 0.0046993198432303419 0 -0.0012917369391004508 0.0046987927113955096 0 -0.0012985805820577216 0.0047032581244646297 0 -0.0012917369391004508 0.0046987927113955096 0 -0.0012985805820577216 0.0047032581244646297 0 -0.0012747323844267469 0.004698534695868407 0 -0.0012985805820577216 0.0047032581244646297 0 -0.0012747323844267469 0.004698534695868407 0 -0.001288619791270636 0.0047064367950555549 0 -0.0012985805820577216 0.0047032581244646297 0 -0.0013164374816884471 0.0047040806311195076 0 -0.001309458478032173 0.0047068965104968344 0 -0.0012692025415654441 0.0046964744241242886 0 -0.0012747323844267469 0.004698534695868407 0 -0.0012435443916279669 0.0046909314123482985 0 -0.0012692025415654441 0.0046964744241242886 0 -0.0012917369391004508 0.0046987927113955096 0 -0.0012747323844267469 0.004698534695868407 0 -0.0012747323844267469 0.004698534695868407 0 -0.0012435443916279669 0.0046909314123482985 0 -0.0012560994887538984 0.0046997133296901158 0 -0.0012435443916279669 0.0046909314123482985 0 -0.0012240100898792711 0.0046929253224667327 0 -0.0012041607631558115 0.0046732632507545963 0 -0.0012435443916279669 0.0046909314123482985 0 -0.0012316183684096284 0.0046960984082332685 0 -0.0012560994887538984 0.0046997133296901158 0 -0.0012435443916279669 0.0046909314123482985 0 -0.0012041607631558115 0.0046732632507545963 0 -0.0012316183684096284 0.0046960984082332685 0 -0.0012692025415654441 0.0046964744241242886 0 -0.0012435443916279669 0.0046909314123482985 0 -0.0012240100898792711 0.0046929253224667327 0 -0.0012485924024272224 0.00469848697664434 0 -0.0012692025415654441 0.0046964744241242886 0 -0.0012240100898792711 0.0046929253224667327 0 -0.0012085844147379544 0.0047066794455031752 0 -0.0012240100898792711 0.0046929253224667327 0 -0.0011989033182270134 0.00468631625605274 0 -0.0012240100898792711 0.0046929253224667327 0 -0.0012041607631558115 0.0046732632507545963 0 -0.0011989033182270134 0.00468631625605274 0 -0.0012404552286113854 0.004660937689878188 0 -0.0011989033182270134 0.00468631625605274 0 -0.0011528389911599928 0.0046442200991907781 0 -0.0012041607631558115 0.0046732632507545963 0 -0.0011989033182270134 0.00468631625605274 0 -0.0011528389911599928 0.0046442200991907781 0 -0.0012404552286113854 0.004660937689878188 0 -0.0012290997889487065 0.0046966321048830572 0 -0.0011989033182270134 0.00468631625605274 0 -0.0012290997889487065 0.0046966321048830572 0 -0.0011989033182270134 0.00468631625605274 0 -0.0012134422404129822 0.0047025565841207857 0 -0.0012475092504377391 0.0046249067376052961 0 -0.0012418859739799855 0.0046863977539119001 0 -0.0013413558242681956 0.0042731141507517719 0 -0.00054026586216796165 0.0044106668839459223 0 -0.0012548259247578779 0.0045993372036766123 0 -0.0013458545366261555 0.0045866905528641347 0 -0.0013003884200466307 0.0046572148726469285 0 -0.0012548259247578779 0.0045993372036766123 0 -0.0012480964805324536 0.0046709130273253855 0 -0.0013003884200466307 0.0046572148726469285 0 -0.0012480964805324536 0.0046709130273253855 0 -0.0013003884200466307 0.0046572148726469285 0 -0.001269447176901457 0.0047054531518989761 0 -0.0013458545366261555 0.0045866905528641347 0 -0.0013003884200466307 0.0046572148726469285 0 -0.0013568444936534344 0.0046721929917696563 0 -0.0013003884200466307 0.0046572148726469285 0 -0.0013568444936534344 0.0046721929917696563 0 -0.0013099843990329739 0.0047092128247785917 0 -0.00028848529420484392 0.0043609097790281862 0 -0.00040926071091755616 0.004744135096043438 0 -0.00073462437075359017 0.0044966546549021023 0 -0.00054026586216796165 0.0044106668839459223 0 -0.001053815698075927 0.0045954002171805413 0 -0.0013003884200466307 0.0046572148726469285 0 -0.0013099843990329739 0.0047092128247785917 0 -0.001269447176901457 0.0047054531518989761 0 -0.0013099843990329739 0.0047092128247785917 0 -0.001269447176901457 0.0047054531518989761 0 -0.0012625747980777112 0.0047449692792509574 0 -0.001053815698075927 0.0045954002171805413 0 -0.0010849418631603774 0.0045185181789651691 0 -0.0010718525877203592 0.0047552180692657505 0 -0.0010647690939571018 0.0047084003301705131 0 -0.00097463077070846144 0.0047301985342086553 0 -0.0010849418631603774 0.0045185181789651691 0 -0.00093556702615854039 0.0044593566772645251 0 -0.00073462437075359017 0.0044966546549021023 0 -0.0010609536912181505 0.0042476122614969018 0 -0.00061591539947891791 0.0041108746534746603 0 0.00023507020028210748 0.0041572644979766121 0 -0.00093556702615854039 0.0044593566772645251 0 -0.00028848529420484392 0.0043609097790281862 0 -0.00073462437075359017 0.0044966546549021023 0 -0.00061591539947891791 0.0041108746534746603 0 -0.0012085844147379544 0.0047066794455031752 0 -0.0012134422404129822 0.0047025565841207857 0 -0.0012198643069187629 0.0047126124817503988 0 -0.0012085844147379544 0.0047066794455031752 0 -0.0011989033182270134 0.00468631625605274 0 -0.0012134422404129822 0.0047025565841207857 0 -0.0012015733491025646 0.0047112650507763407 0 -0.0011799419014333771 0.0047074176670049098 0 -0.0012480964805324536 0.0046709130273253855 0 -0.001269447176901457 0.0047054531518989761 0 -0.0012391512305654762 0.0047379853620257584 0 -0.0012290997889487065 0.0046966321048830572 0 -0.0012134422404129822 0.0047025565841207857 0 -0.0012198643069187629 0.0047126124817503988 0 -0.0012418859739799855 0.0046863977539119001 0 -0.0011799419014333771 0.0047074176670049098 0 -0.0011258532508633735 0.0047227389237356069 0 -0.0011197143083505397 0.0046981992528826837 0 -0.0011721480063642163 0.004697564286603343 0 -0.001269447176901457 0.0047054531518989761 0 -0.0012625747980777112 0.0047449692792509574 0 -0.0012391512305654762 0.0047379853620257584 0 -0.0010849418631603774 0.0045185181789651691 0 -0.0011799419014333771 0.0047074176670049098 0 -0.0010718525877203592 0.0047552180692657505 0 -0.0011125624888895468 0.0047669871142075569 0 -0.0011197143083505397 0.0046981992528826837 0 -0.0010718525877203592 0.0047552180692657505 0 -0.0010647690939571018 0.0047084003301705131 0 -0.0011197143083505397 0.0046981992528826837 0 -0.0011799419014333771 0.0047074176670049098 0 -0.0011322281191331622 0.0047175607813977043 0 -0.0012085844147379544 0.0047066794455031752 0 -0.0011258532508633735 0.0047227389237356069 0 -0.0011721480063642163 0.004697564286603343 0 -0.0012278602160874898 0.0046866293288727852 0 -0.0011721480063642163 0.004697564286603343 0 -0.0011689978847433612 0.0046558371018571992 0 -0.0011197143083505397 0.0046981992528826837 0 -0.0011721480063642163 0.004697564286603343 0 -0.0011689978847433612 0.0046558371018571992 0 -0.0011197143083505397 0.0046981992528826837 0 -0.0011689978847433612 0.0046558371018571992 0 -0.0010947768137108567 0.004655667879518593 0 -0.0010647690939571018 0.0047084003301705131 0 -0.0011197143083505397 0.0046981992528826837 0 -0.0010947768137108567 0.004655667879518593 0 -0.0011689978847433612 0.0046558371018571992 0 -0.0010947768137108567 0.004655667879518593 0 -0.0011136273686225601 0.0045962869107824501 0 -0.0010947768137108567 0.004655667879518593 0 -0.0010412711672026279 0.0046156203224621203 0 -0.0011136273686225601 0.0045962869107824501 0 -0.0011689978847433612 0.0046558371018571992 0 -0.0011136273686225601 0.0045962869107824501 0 -0.0011856642262578741 0.0045928639326340273 0 -0.00088028713494468769 0.0047033001621858009 0 -0.00097463077070846144 0.0047301985342086553 0 -0.00095443085787199331 0.0046423298591971775 0 -0.00097463077070846144 0.0047301985342086553 0 -0.0010329848946009816 0.0046684118606332503 0 -0.00095443085787199331 0.0046423298591971775 0 -0.0010647690939571018 0.0047084003301705131 0 -0.00097463077070846144 0.0047301985342086553 0 -0.0010329848946009816 0.0046684118606332503 0 -0.0010647690939571018 0.0047084003301705131 0 -0.0010947768137108567 0.004655667879518593 0 -0.0010329848946009816 0.0046684118606332503 0 -0.0010329848946009816 0.0046684118606332503 0 -0.0010412711672026279 0.0046156203224621203 0 -0.00095443085787199331 0.0046423298591971775 0 -0.0010947768137108567 0.004655667879518593 0 -0.0010329848946009816 0.0046684118606332503 0 -0.0010412711672026279 0.0046156203224621203 0 -0.0010412711672026279 0.0046156203224621203 0 -0.00095443085787199331 0.0046423298591971775 0 -0.00098016841459574447 0.0045937654618783408 0 -0.00090761375683672278 0.0045671186624587946 0 -0.00095443085787199331 0.0046423298591971775 0 -0.00098016841459574447 0.0045937654618783408 0 -0.00090761375683672278 0.0045671186624587946 0 -0.00089852334011930471 0.0045152928585390443 0 -0.0010153073061560422 0.004547542238675522 0 -0.00090761375683672278 0.0045671186624587946 0 -0.00098016841459574447 0.0045937654618783408 0 -0.0010153073061560422 0.004547542238675522 0 -0.0010412711672026279 0.0046156203224621203 0 -0.00098016841459574447 0.0045937654618783408 0 -0.0010153073061560422 0.004547542238675522 0 -0.0010412711672026279 0.0046156203224621203 0 -0.0010153073061560422 0.004547542238675522 0 -0.0011136273686225601 0.0045962869107824501 0 -0.0010747465429585036 0.004517947789215564 0 -0.0010153073061560422 0.004547542238675522 0 -0.0010803134436769956 0.0045365702600577004 0 -0.00098524279660468792 0.0045015286888010972 0 -0.0010129754678963316 0.0045475634904358457 0 -0.00089586791391807702 0.0044806462750348877 0 -0.00091607907454272918 0.0044677139534950909 0 -0.0010153073061560422 0.004547542238675522 0 -0.00089852334011930471 0.0045152928585390443 0 -0.00089586791391807702 0.0044806462750348877 0 -0.0010153073061560422 0.004547542238675522 0 -0.0011136273686225601 0.0045962869107824501 0 -0.0011263202201956669 0.0045105675371381795 0 -0.0011856642262578741 0.0045928639326340273 0 -0.0010153073061560422 0.004547542238675522 0 -0.0011136273686225601 0.0045962869107824501 0 -0.0010803134436769956 0.0045365702600577004 0 -0.0011136273686225601 0.0045962869107824501 0 -0.0010803134436769956 0.0045365702600577004 0 -0.0011263202201956669 0.0045105675371381795 0 -0.0010747465429585036 0.004517947789215564 0 -0.0010803134436769956 0.0045365702600577004 0 -0.0011263202201956669 0.0045105675371381795 0 -0.0011263202201956669 0.0045105675371381795 0 -0.0012122958357618904 0.0045351782955931888 0 -0.0011856642262578741 0.0045928639326340273 0 -0.001151854663224034 0.0045440548907458604 0 -0.00123711336892187 0.0045690548526927588 0 -0.001314877740375563 0.0045723592186384084 0 -0.0012642196327227637 0.0046030659265475019 0 -0.0013327212216344749 0.0046164577656027011 0 -0.00123711336892187 0.0045690548526927588 0 -0.0013107700822380774 0.0045950352355615155 0 -0.0012122958357618904 0.0045351782955931888 0 -0.0012401068421880408 0.0045973893880755373 0 -0.0012906268737379102 0.0045704623304503103 0 -0.0012401068421880408 0.0045973893880755373 0 -0.0012894922643472959 0.0046349753810652145 0 -0.0012906268737379102 0.0045704623304503103 0 -0.0012122958357618904 0.0045351782955931888 0 -0.0012401068421880408 0.0045973893880755373 0 -0.0011856642262578741 0.0045928639326340273 0 -0.0012401068421880408 0.0045973893880755373 0 -0.0011856642262578741 0.0045928639326340273 0 -0.0012239182906682994 0.0046460387284600968 0 -0.0011689978847433612 0.0046558371018571992 0 -0.0011856642262578741 0.0045928639326340273 0 -0.0012239182906682994 0.0046460387284600968 0 -0.0012401068421880408 0.0045973893880755373 0 -0.0012239182906682994 0.0046460387284600968 0 -0.0012894922643472959 0.0046349753810652145 0 -0.0012239182906682994 0.0046460387284600968 0 -0.0012721849987472702 0.0046670758336780794 0 -0.0012894922643472959 0.0046349753810652145 0 -0.0012278602160874898 0.0046866293288727852 0 -0.0012239182906682994 0.0046460387284600968 0 -0.0012721849987472702 0.0046670758336780794 0 -0.0012278602160874898 0.0046866293288727852 0 -0.0012801945180946133 0.0046886455264560601 0 -0.0012721849987472702 0.0046670758336780794 0 -0.0012278602160874898 0.0046866293288727852 0 -0.0011689978847433612 0.0046558371018571992 0 -0.0012239182906682994 0.0046460387284600968 0 -0.0012801945180946133 0.0046886455264560601 0 -0.0012721849987472702 0.0046670758336780794 0 -0.0013383276081024849 0.004673086612505332 0 -0.0012721849987472702 0.0046670758336780794 0 -0.0013383276081024849 0.004673086612505332 0 -0.0012894922643472959 0.0046349753810652145 0 -0.0013383276081024849 0.004673086612505332 0 -0.0012894922643472959 0.0046349753810652145 0 -0.0013753927043619562 0.0046300551259613213 0 -0.0013383276081024849 0.004673086612505332 0 -0.0013753927043619562 0.0046300551259613213 0 -0.0013965961093988116 0.004656777597479368 0 -0.0013703636594511691 0.0046250252979924689 0 -0.0013107700822380774 0.0045950352355615155 0 -0.0012894922643472959 0.0046349753810652145 0 -0.0013753927043619562 0.0046300551259613213 0 -0.0012906268737379102 0.0045704623304503103 0 -0.0013642422827250666 0.0045713550834979421 0 -0.001314877740375563 0.0045723592186384084 0 -0.0013327212216344749 0.0046164577656027011 0 -0.0013642422827250666 0.0045713550834979421 0 -0.0013753927043619562 0.0046300551259613213 0 -0.0013327212216344749 0.0046164577656027011 0 -0.0014169784542765651 0.0045754017726606635 0 -0.0013642422827250666 0.0045713550834979421 0 -0.0013753927043619562 0.0046300551259613213 0 -0.0014169784542765651 0.0045754017726606635 0 -0.0013753927043619562 0.0046300551259613213 0 -0.0014476947190061472 0.0046418189243333597 0 -0.0014799248515207429 0.0045577190120820021 0 -0.0014169784542765651 0.0045754017726606635 0 -0.0014476947190061472 0.0046418189243333597 0 -0.0013753927043619562 0.0046300551259613213 0 -0.0014476947190061472 0.0046418189243333597 0 -0.0013965961093988116 0.004656777597479368 0 -0.0014476947190061472 0.0046418189243333597 0 -0.0013965961093988116 0.004656777597479368 0 -0.0014376151815268217 0.0046654988677908476 0 -0.0014476947190061472 0.0046418189243333597 0 -0.0014797610366742858 0.0046570620055008697 0 -0.0014376151815268217 0.0046654988677908476 0 -0.0014799248515207429 0.0045577190120820021 0 -0.0014476947190061472 0.0046418189243333597 0 -0.0015421576298166346 0.0046707372759459721 0 -0.0014476947190061472 0.0046418189243333597 0 -0.0014797610366742858 0.0046570620055008697 0 -0.0015421576298166346 0.0046707372759459721 0 -0.0015421576298166346 0.0046707372759459721 0 -0.0018810460255455038 0.0048327720804434036 0 -0.0017041170275430154 0.0049199983553375173 0 -0.0015435283508494981 0.0046803553855699533 0 -0.0015983156285142614 0.0047805665589831271 0 -0.0017824243729599855 0.0046055299598909971 0 -0.0015421576298166346 0.0046707372759459721 0 -0.0018810460255455038 0.0048327720804434036 0 -0.0017824243729599855 0.0046055299598909971 0 -0.0018810460255455038 0.0048327720804434036 0 -0.002019167431097659 0.0047070537375623576 0 -0.0018810460255455038 0.0048327720804434036 0 -0.0017041170275430154 0.0049199983553375173 0 -0.0018608772495079891 0.0050998508984577496 0 -0.0014797610366742858 0.0046570620055008697 0 -0.0015421576298166346 0.0046707372759459721 0 -0.0014919985248600201 0.004657764120232449 0 -0.0014797610366742858 0.0046570620055008697 0 -0.0014919985248600201 0.004657764120232449 0 -0.0014716605665866839 0.004680964328875061 0 -0.0014919985248600201 0.004657764120232449 0 -0.0014716605665866839 0.004680964328875061 0 -0.0015037087451129224 0.0046771907383188214 0 -0.0015983156285142614 0.0047805665589831271 0 -0.0016866763458337549 0.0048954450742276761 0 -0.0015037087451129224 0.0046771907383188214 0 -0.0015252736594257462 0.0047109309156883284 0 -0.0014863735390377452 0.0047144192214295588 0 -0.0016866763458337549 0.0048954450742276761 0 -0.0017126953676715624 0.0049604568534821541 0 -0.0017126953676715624 0.0049604568534821541 0 -0.0013709757286195945 0.0046921964269712214 0 -0.0014716605665866839 0.004680964328875061 0 -0.0014344639035950859 0.0047168137970146308 0 -0.0014863735390377452 0.0047144192214295588 0 -0.0014716605665866839 0.004680964328875061 0 -0.0015037087451129224 0.0046771907383188214 0 -0.0014863735390377452 0.0047144192214295588 0 -0.0013869730874254663 0.0046819305090297783 0 -0.0014376151815268217 0.0046654988677908476 0 -0.0014344639035950859 0.0047168137970146308 0 -0.0014716605665866839 0.004680964328875061 0 -0.0014376151815268217 0.0046654988677908476 0 -0.0014344639035950859 0.0047168137970146308 0 -0.0013383276081024849 0.004673086612505332 0 -0.0013869730874254663 0.0046819305090297783 0 -0.0013965961093988116 0.004656777597479368 0 -0.0013383276081024849 0.004673086612505332 0 -0.0013869730874254663 0.0046819305090297783 0 -0.0013512661824361515 0.0047049244275691599 0 -0.0013869730874254663 0.0046819305090297783 0 -0.0013965961093988116 0.004656777597479368 0 -0.0014376151815268217 0.0046654988677908476 0 -0.0014797610366742858 0.0046570620055008697 0 -0.0014716605665866839 0.004680964328875061 0 -0.0014376151815268217 0.0046654988677908476 0 -0.0026784534307376603 0.0048413305200838462 0 -0.0023693322627761286 0.0049782187920558146 0 -0.0026546157379764347 0.0047251478809062055 0 -0.00268938503020597 0.0049867946171482519 0 -0.0023197160961723109 0.004787510783418162 0 -0.00268938503020597 0.0049867946171482519 0 -0.0023197160961723109 0.004787510783418162 0 -0.0023429290354088717 0.004989575769604352 0 -0.0023197160961723109 0.004787510783418162 0 -0.0020758889585638374 0.0049268800276270237 0 -0.0023429290354088717 0.004989575769604352 0 -0.0023197160961723109 0.004787510783418162 0 -0.002019167431097659 0.0047070537375623576 0 -0.0020758889585638374 0.0049268800276270237 0 -0.0018810460255455038 0.0048327720804434036 0 -0.002019167431097659 0.0047070537375623576 0 -0.0020758889585638374 0.0049268800276270237 0 -0.0018810460255455038 0.0048327720804434036 0 -0.0018608772495079891 0.0050998508984577496 0 -0.0020758889585638374 0.0049268800276270237 0 -0.0018608772495079891 0.0050998508984577496 0 -0.0020758889585638374 0.0049268800276270237 0 -0.0020535530885099898 0.0051186640016286705 0 -0.0020758889585638374 0.0049268800276270237 0 -0.0020535530885099898 0.0051186640016286705 0 -0.0022103384401773629 0.0050946200296199387 0 -0.0018608772495079891 0.0050998508984577496 0 -0.0020535530885099898 0.0051186640016286705 0 -0.0019932563203105391 0.0052713653926534246 0 -0.0017126953676715624 0.0049604568534821541 0 -0.0022103024448657947 0.0051863871682191831 0 -0.0020535530885099898 0.0051186640016286705 0 -0.0019932563203105391 0.0052713653926534246 0 -0.0021657392691395183 0.0052262784308577887 0 -0.0020535530885099898 0.0051186640016286705 0 -0.0021657392691395183 0.0052262784308577887 0 -0.0022103384401773629 0.0050946200296199387 0 -0.0021657392691395183 0.0052262784308577887 0 -0.0023950801375280562 0.0052208263476822931 0 -0.0022738692525369236 0.0053259342421016834 0 -0.0021657392691395183 0.0052262784308577887 0 -0.0022103384401773629 0.0050946200296199387 0 -0.0023950801375280562 0.0052208263476822931 0 -0.0020758889585638374 0.0049268800276270237 0 -0.0022103384401773629 0.0050946200296199387 0 -0.0023429290354088717 0.004989575769604352 0 -0.0022103384401773629 0.0050946200296199387 0 -0.0023429290354088717 0.004989575769604352 0 -0.0023950801375280562 0.0052208263476822931 0 -0.0023429290354088717 0.004989575769604352 0 -0.0023950801375280562 0.0052208263476822931 0 -0.0026206860351787949 0.0050553176664653587 0 -0.0023950801375280562 0.0052208263476822931 0 -0.0026206860351787949 0.0050553176664653587 0 -0.0025721759513328119 0.005321024696703599 0 -0.0027546944160508386 0.0052789878124995197 0 -0.0026206860351787949 0.0050553176664653587 0 -0.0025721759513328119 0.005321024696703599 0 -0.0026545307055281689 0.0047033266250132207 0 -0.0023429290354088717 0.004989575769604352 0 -0.0026206860351787949 0.0050553176664653587 0 -0.0026759964696678957 0.0054868500957139217 0 -0.002481456629579582 0.0054512480900981855 0 -0.0026060897227570515 0.0055831397909684201 0 -0.0026759964696678957 0.0054868500957139217 0 -0.0025721759513328119 0.005321024696703599 0 -0.002481456629579582 0.0054512480900981855 0 -0.0027546944160508386 0.0052789878124995197 0 -0.0026759964696678957 0.0054868500957139217 0 -0.0025721759513328119 0.005321024696703599 0 -0.0023950801375280562 0.0052208263476822931 0 -0.0025721759513328119 0.005321024696703599 0 -0.002481456629579582 0.0054512480900981855 0 -0.0023950801375280562 0.0052208263476822931 0 -0.0023583796137879014 0.0054167322535426223 0 -0.0022738692525369236 0.0053259342421016834 0 -0.0023985488480175897 0.0052368467121232994 0 -0.0024157964417425956 0.0054055166605183258 0 -0.0023583796137879014 0.0054167322535426223 0 -0.0021816836024203157 0.005416143946740247 0 -0.0022830811335366541 0.0055538528444717431 0 -0.0023583796137879014 0.0054167322535426223 0 -0.0021816836024203157 0.005416143946740247 0 -0.0022738692525369236 0.0053259342421016834 0 -0.0021657392691395183 0.0052262784308577887 0 -0.0021816836024203157 0.005416143946740247 0 -0.0022738692525369236 0.0053259342421016834 0 -0.0017126953676715624 0.0049604568534821541 0 -0.0017831737615177908 0.0050657008667793005 0 -0.0013598991680257334 0.0046858060654828967 0 -0.0013678762237956763 0.0046945215119309621 0 -0.0013532390587027339 0.0046933177186891739 0 -0.0020553548052882589 0.0052432348839221033 0 -0.0021657392691395183 0.0052262784308577887 0 -0.0021816836024203157 0.005416143946740247 0 -0.0013678762237956763 0.0046945215119309621 0 -0.0013549481682878822 0.0046986257951177413 0 -0.0013532390587027339 0.0046933177186891739 0 -0.0013678762237956763 0.0046945215119309621 0 -0.0013549481682878822 0.0046986257951177413 0 -0.0013668151690316155 0.0047009843021437875 0 -0.0013668151690316155 0.0047009843021437875 0 -0.0013569607102625939 0.0047047886179068408 0 -0.0013697117266383001 0.0047092494758313288 0 -0.0013549481682878822 0.0046986257951177413 0 -0.0013668151690316155 0.0047009843021437875 0 -0.0013569607102625939 0.0047047886179068408 0 -0.0013569607102625939 0.0047047886179068408 0 -0.0013573394468252191 0.0047116035176906724 0 -0.0013477150253061606 0.004706558001714994 0 -0.0013573394468252191 0.0047116035176906724 0 -0.0013697117266383001 0.0047092494758313288 0 -0.001366880837345281 0.0047160157218841718 0 -0.0013569607102625939 0.0047047886179068408 0 -0.0013573394468252191 0.0047116035176906724 0 -0.0013697117266383001 0.0047092494758313288 0 -0.0013808847199667537 0.004712842181252389 0 -0.0013846283451971917 0.0047021626668318365 0 -0.0013921093497176393 0.0047210733732730263 0 -0.0013697117266383001 0.0047092494758313288 0 -0.001366880837345281 0.0047160157218841718 0 -0.0013782059442348465 0.0047191802695088908 0 -0.0013697117266383001 0.0047092494758313288 0 -0.0013782059442348465 0.0047191802695088908 0 -0.0013808847199667537 0.004712842181252389 0 -0.0013782059442348465 0.0047191802695088908 0 -0.0013921093497176393 0.0047210733732730263 0 -0.0013895549518684377 0.0047285893235557716 0 -0.0013782059442348465 0.0047191802695088908 0 -0.0013808847199667537 0.004712842181252389 0 -0.0013921093497176393 0.0047210733732730263 0 -0.0013697117266383001 0.0047092494758313288 0 -0.0013808847199667537 0.004712842181252389 0 -0.0013846283451971917 0.0047021626668318365 0 -0.0013668151690316155 0.0047009843021437875 0 -0.0013697117266383001 0.0047092494758313288 0 -0.0013846283451971917 0.0047021626668318365 0 -0.0017831737615177908 0.0050657008667793005 0 -0.0017823732674990607 0.0050810537563204493 0 -0.0013678762237956763 0.0046945215119309621 0 -0.0013668151690316155 0.0047009843021437875 0 -0.0013846283451971917 0.0047021626668318365 0 -0.0024157964417425956 0.0054055166605183258 0 -0.0024726342971956791 0.0056896621782180218 0 -0.002481456629579582 0.0054512480900981855 0 -0.0025394135078151722 0.0056613928361103636 0 -0.0026060897227570515 0.0055831397909684201 0 -0.0023583796137879014 0.0054167322535426223 0 -0.0023484244697947036 0.0055506985354213398 0 -0.0022830811335366541 0.0055538528444717431 0 -0.0023484244697947036 0.0055506985354213398 0 -0.0022830811335366541 0.0055538528444717431 0 -0.0023528039388341295 0.0056548643375600935 0 -0.0017823732674990607 0.0050810537563204493 0 -0.0021764743529596865 0.0053679680152636574 0 -0.0013846283451971917 0.0047021626668318365 0 -0.0013921093497176393 0.0047210733732730263 0 -0.0014197437200458901 0.0047333450364340354 0 -0.0025394135078151722 0.0056613928361103636 0 -0.0025923853196651147 0.00576021399679141 0 -0.0025670585965759667 0.0058630565541986351 0 -0.0024726342971956791 0.0056896621782180218 0 -0.0021764743529596865 0.0053679680152636574 0 -0.0026377865849047002 0.0056920464320261736 0 -0.0025923853196651147 0.00576021399679141 0 -0.0026625539457525976 0.0057732495283829791 0 -0.0025394135078151722 0.0056613928361103636 0 -0.0026377865849047002 0.0056920464320261736 0 -0.0025923853196651147 0.00576021399679141 0 -0.0025923853196651147 0.00576021399679141 0 -0.0026230042760857462 0.0058220222354603305 0 -0.0025670585965759667 0.0058630565541986351 0 -0.0025923853196651147 0.00576021399679141 0 -0.0026230042760857462 0.0058220222354603305 0 -0.0026625539457525976 0.0057732495283829791 0 -0.0027385851892998032 0.0057794700815808333 0 -0.0026625539457525976 0.0057732495283829791 0 -0.0026849733959798377 0.0058452222749137165 0 -0.0026230042760857462 0.0058220222354603305 0 -0.0026625539457525976 0.0057732495283829791 0 -0.0026849733959798377 0.0058452222749137165 0 -0.0027385851892998032 0.0057794700815808333 0 -0.0026625539457525976 0.0057732495283829791 0 -0.0027104880185242091 0.0057203693505364483 0 -0.0026377865849047002 0.0056920464320261736 0 -0.0026625539457525976 0.0057732495283829791 0 -0.0027104880185242091 0.0057203693505364483 0 -0.0026377865849047002 0.0056920464320261736 0 -0.0027084000935422925 0.0056425623230847415 0 -0.0026060897227570515 0.0055831397909684201 0 -0.0026759964696678957 0.0054868500957139217 0 -0.0027084000935422925 0.0056425623230847415 0 -0.0026060897227570515 0.0055831397909684201 0 -0.0026377865849047002 0.0056920464320261736 0 -0.0027104880185242091 0.0057203693505364483 0 -0.0027084000935422925 0.0056425623230847415 0 -0.0025394135078151722 0.0056613928361103636 0 -0.0026377865849047002 0.0056920464320261736 0 -0.0026060897227570515 0.0055831397909684201 0 -0.0013362466253383656 0.0046955816757530862 0 -0.0013416398066671456 0.0046976010451876072 0 -0.0013318932448319193 0.0046970926185862238 0 -0.0013362466253383656 0.0046955816757530862 0 -0.0013326189476289656 0.00469622725648216 0 -0.0013367660690430541 0.0046954526003591497 0 -0.0013362466253383656 0.0046955816757530862 0 -0.0013326189476289656 0.00469622725648216 0 -0.0013318932448319193 0.0046970926185862238 0 -0.0013101152384100967 0.0046982540923226276 0 -0.0013326189476289656 0.00469622725648216 0 -0.0013512661824361515 0.0047049244275691599 0 -0.0013101152384100967 0.0046982540923226276 0 -0.0013113479993631073 0.0046993198432303419 0 -0.0013326189476289656 0.00469622725648216 0 -0.0013869730874254663 0.0046819305090297783 0 -0.0013512661824361515 0.0047049244275691599 0 -0.0014344639035950859 0.0047168137970146308 0 -0.0013326189476289656 0.00469622725648216 0 -0.0013512661824361515 0.0047049244275691599 0 -0.0013367660690430541 0.0046954526003591497 0 -0.0013537470949940504 0.0047063923330973806 0 -0.0013952285037281099 0.0047043284756477857 0 -0.0013362466253383656 0.0046955816757530862 0 -0.0013367660690430541 0.0046954526003591497 0 -0.001341938147151148 0.0046936677937708801 0 -0.0013367660690430541 0.0046954526003591497 0 -0.001341938147151148 0.0046936677937708801 0 -0.0013462626168238678 0.004687432807870727 0 -0.0013952285037281099 0.0047043284756477857 0 -0.0013709757286195945 0.0046921964269712214 0 -0.0013598991680257334 0.0046858060654828967 0 -0.0013462626168238678 0.004687432807870727 0 -0.0013532390587027339 0.0046933177186891739 0 -0.001341938147151148 0.0046936677937708801 0 -0.0013462626168238678 0.004687432807870727 0 -0.0013532390587027339 0.0046933177186891739 0 -0.0013549481682878822 0.0046986257951177413 0 -0.0013532390587027339 0.0046933177186891739 0 -0.0013416398066671456 0.0046976010451876072 0 -0.0013362466253383656 0.0046955816757530862 0 -0.001341938147151148 0.0046936677937708801 0 -0.0013416398066671456 0.0046976010451876072 0 -0.001341938147151148 0.0046936677937708801 0 -0.0013532390587027339 0.0046933177186891739 0 -0.0013416398066671456 0.0046976010451876072 0 -0.0013416398066671456 0.0046976010451876072 0 -0.0013457815090929602 0.0047023029231458516 0 -0.0013346770862429874 0.0047012969803830029 0 -0.0013549481682878822 0.0046986257951177413 0 -0.0013569607102625939 0.0047047886179068408 0 -0.0013457815090929602 0.0047023029231458516 0 -0.0013549481682878822 0.0046986257951177413 0 -0.0013416398066671456 0.0046976010451876072 0 -0.0013457815090929602 0.0047023029231458516 0 -0.0013569607102625939 0.0047047886179068408 0 -0.0013457815090929602 0.0047023029231458516 0 -0.0013477150253061606 0.004706558001714994 0 -0.0013457815090929602 0.0047023029231458516 0 -0.0013477150253061606 0.004706558001714994 0 -0.0013395774522280083 0.0047047291188314355 0 -0.0013346770862429874 0.0047012969803830029 0 -0.0013395774522280083 0.0047047291188314355 0 -0.0013317912123914136 0.0047059506335636854 0 -0.0013457815090929602 0.0047023029231458516 0 -0.0013346770862429874 0.0047012969803830029 0 -0.0013395774522280083 0.0047047291188314355 0 -0.0013346770862429874 0.0047012969803830029 0 -0.0013265176333587796 0.004703485603335395 0 -0.001324431597008794 0.0046997899941360593 0 -0.0013346770862429874 0.0047012969803830029 0 -0.0013265176333587796 0.004703485603335395 0 -0.0013317912123914136 0.0047059506335636854 0 -0.0013416398066671456 0.0046976010451876072 0 -0.0013346770862429874 0.0047012969803830029 0 -0.0013318932448319193 0.0046970926185862238 0 -0.0013346770862429874 0.0047012969803830029 0 -0.0013318932448319193 0.0046970926185862238 0 -0.001324431597008794 0.0046997899941360593 0 -0.0013326189476289656 0.00469622725648216 0 -0.0013318932448319193 0.0046970926185862238 0 -0.001324431597008794 0.0046997899941360593 0 -0.0013113479993631073 0.0046993198432303419 0 -0.0013326189476289656 0.00469622725648216 0 -0.001324431597008794 0.0046997899941360593 0 -0.0013113479993631073 0.0046993198432303419 0 -0.001324431597008794 0.0046997899941360593 0 -0.0013164374816884471 0.0047040806311195076 0 -0.0013265176333587796 0.004703485603335395 0 -0.001324431597008794 0.0046997899941360593 0 -0.0013164374816884471 0.0047040806311195076 0 -0.0013265176333587796 0.004703485603335395 0 -0.0013164374816884471 0.0047040806311195076 0 -0.0013236154387994508 0.0047075690137516569 0 -0.0013164374816884471 0.0047040806311195076 0 -0.001309458478032173 0.0047068965104968344 0 -0.0013167065881530917 0.0047086072102422048 0 -0.0013164374816884471 0.0047040806311195076 0 -0.0013167065881530917 0.0047086072102422048 0 -0.0013236154387994508 0.0047075690137516569 0 -0.0013167065881530917 0.0047086072102422048 0 -0.0013203261720770051 0.0047107680755147634 0 -0.0013236154387994508 0.0047075690137516569 0 -0.001309458478032173 0.0047068965104968344 0 -0.0013167065881530917 0.0047086072102422048 0 -0.0013103740341327791 0.004710967664785912 0 -0.0013167065881530917 0.0047086072102422048 0 -0.0013203261720770051 0.0047107680755147634 0 -0.0013103740341327791 0.004710967664785912 0 -0.0013203261720770051 0.0047107680755147634 0 -0.0013138635747259231 0.0047132654715510442 0 -0.0013103740341327791 0.004710967664785912 0 -0.0013203261720770051 0.0047107680755147634 0 -0.0013138635747259231 0.0047132654715510442 0 -0.0013231489909439262 0.0047100397442714501 0 -0.0013271913478045219 0.0047095928765812723 0 -0.001327216871480915 0.0047083403098533315 0 -0.0013231489909439262 0.0047100397442714501 0 -0.0013203261720770051 0.0047107680755147634 0 -0.0013271913478045219 0.0047095928765812723 0 -0.0013231489909439262 0.0047100397442714501 0 -0.0013271913478045219 0.0047095928765812723 0 -0.0013236154387994508 0.0047075690137516569 0 -0.0013317912123914136 0.0047059506335636854 0 -0.0013203261720770051 0.0047107680755147634 0 -0.0013271913478045219 0.0047095928765812723 0 -0.0013236154387994508 0.0047075690137516569 0 -0.0013265176333587796 0.004703485603335395 0 -0.0013236154387994508 0.0047075690137516569 0 -0.0013317912123914136 0.0047059506335636854 0 -0.0013271913478045219 0.0047095928765812723 0 -0.0013317912123914136 0.0047059506335636854 0 -0.0013361223571096469 0.0047065617588248655 0 -0.0013395774522280083 0.0047047291188314355 0 -0.0013317912123914136 0.0047059506335636854 0 -0.0013361223571096469 0.0047065617588248655 0 -0.0013477150253061606 0.004706558001714994 0 -0.0013395774522280083 0.0047047291188314355 0 -0.0013361223571096469 0.0047065617588248655 0 -0.0013477150253061606 0.004706558001714994 0 -0.0013361223571096469 0.0047065617588248655 0 -0.0013471800740040012 0.0047042594966433069 0 -0.0013361223571096469 0.0047065617588248655 0 -0.0013471800740040012 0.0047042594966433069 0 -0.0013395985165563515 0.004705247253555981 0 -0.0013471800740040012 0.0047042594966433069 0 -0.0013395985165563515 0.004705247253555981 0 -0.0013574697658578563 0.0047024503751843024 0 -0.0013395985165563515 0.004705247253555981 0 -0.001330433522914936 0.0047089178942240628 0 -0.0013250048953076523 0.0047128055332951056 0 -0.0013395985165563515 0.004705247253555981 0 -0.0013574697658578563 0.0047024503751843024 0 -0.001355007720228456 0.0047086094665573361 0 -0.0013271913478045219 0.0047095928765812723 0 -0.0013361223571096469 0.0047065617588248655 0 -0.001330433522914936 0.0047089178942240628 0 -0.0013361223571096469 0.0047065617588248655 0 -0.0013395985165563515 0.004705247253555981 0 -0.001330433522914936 0.0047089178942240628 0 -0.0013271913478045219 0.0047095928765812723 0 -0.001330433522914936 0.0047089178942240628 0 -0.001327216871480915 0.0047083403098533315 0 -0.001327216871480915 0.0047083403098533315 0 -0.0013250048953076523 0.0047128055332951056 0 -0.0013228871105036169 0.0046924318453511749 0 -0.001330433522914936 0.0047089178942240628 0 -0.001327216871480915 0.0047083403098533315 0 -0.0013250048953076523 0.0047128055332951056 0 -0.001327216871480915 0.0047083403098533315 0 -0.0013228871105036169 0.0046924318453511749 0 -0.0013270272306227498 0.0047023189388082885 0 -0.0013248747565430203 0.0047125428046678516 0 -0.0013105612656527856 0.0047129775849701575 0 -0.0013250048953076523 0.0047128055332951056 0 -0.001355007720228456 0.0047086094665573361 0 -0.001361162494875346 0.0047338597079421216 0 -0.0013395985165563515 0.004705247253555981 0 -0.0013250048953076523 0.0047128055332951056 0 -0.001355007720228456 0.0047086094665573361 0 -0.0013250048953076523 0.0047128055332951056 0 -0.001302296415671897 0.0046808012081264597 0 -0.0013228871105036169 0.0046924318453511749 0 -0.001302296415671897 0.0046808012081264597 0 -0.0012758984726089942 0.0046888718715942931 0 -0.0012792846237291062 0.0046544271602966068 0 -0.0013250048953076523 0.0047128055332951056 0 -0.001302296415671897 0.0046808012081264597 0 -0.0012758984726089942 0.0046888718715942931 0 -0.001302296415671897 0.0046808012081264597 0 -0.0013105330906126901 0.0046733126227873059 0 -0.0013228871105036169 0.0046924318453511749 0 -0.001302296415671897 0.0046808012081264597 0 -0.0013105330906126901 0.0046733126227873059 0 -0.0012969679413472423 0.0046592387522887942 0 -0.0013228871105036169 0.0046924318453511749 0 -0.0013269269510264375 0.0046887322818478655 0 -0.0013270272306227498 0.0047023189388082885 0 -0.0013105330906126901 0.0046733126227873059 0 -0.0013228871105036169 0.0046924318453511749 0 -0.0013210828339948514 0.0046780724540926005 0 -0.0013228871105036169 0.0046924318453511749 0 -0.0013269269510264375 0.0046887322818478655 0 -0.0013210828339948514 0.0046780724540926005 0 -0.0013269269510264375 0.0046887322818478655 0 -0.0013283171964695733 0.0046941145915175026 0 -0.0013297035234939212 0.00468101392708287 0 -0.0013269269510264375 0.0046887322818478655 0 -0.0013283171964695733 0.0046941145915175026 0 -0.0013270272306227498 0.0047023189388082885 0 -0.0010257077477232039 0.0044650076875957199 0 -0.0011639921580883169 0.0046845813923215773 0 -0.0013283171964695733 0.0046941145915175026 0 -0.0013270272306227498 0.0047023189388082885 0 -0.0013219774755623068 0.0047091546223832379 0 -0.0013283171964695733 0.0046941145915175026 0 -0.0013290304610739147 0.0046914145584434873 0 -0.0013219774755623068 0.0047091546223832379 0 -0.00089667181433329983 0.0044734264612800098 0 -0.0010031502517764926 0.0044860631825361019 0 -0.00097484900097539865 0.0046070050878484585 0 -0.0013138635747259231 0.0047132654715510442 0 -0.0013231489909439262 0.0047100397442714501 0 -0.0013219774755623068 0.0047091546223832379 0 -0.0013231489909439262 0.0047100397442714501 0 -0.0013270272306227498 0.0047023189388082885 0 -0.0013219774755623068 0.0047091546223832379 0 -0.001327216871480915 0.0047083403098533315 0 -0.0013231489909439262 0.0047100397442714501 0 -0.0013270272306227498 0.0047023189388082885 0 -0.0020712210802847236 0.0045099716306670626 0 -0.0021745905248610337 0.0043032095422222963 0 -0.0028127958419253453 0.003928431127845437 0 -0.0029303739823680407 0.0041305098518504427 0 -0.0028590140971534164 0.0041268214647352496 0 -0.0028777342413058983 0.0041238489696943346 0 -0.0029270090912070696 0.004126442065427248 0 -0.0029198380483387017 0.0039465827814995037 0 -0.0028207634623034156 0.0038508174116001306 0 -0.0026373723371926703 0.0045312682684558511 0 -0.0026373723371926703 0.0045312682684558511 0 -0.0020712210802847236 0.0045099716306670626 0 -0.0024973857970978391 0.0047452582723974002 0 -0.0024288666654616107 0.0046319807666865068 0 -0.0022161485348134733 0.0047367883808558716 0 -0.0026373723371926703 0.0045312682684558511 0 -0.0025811659988438417 0.0049903593883243256 0 -0.0028102288740271572 0.0048606784787095913 0 -0.0025811659988438417 0.0049903593883243256 0 -0.0026373723371926703 0.0045312682684558511 0 -0.0028102288740271572 0.0048606784787095913 0 -0.002564099391648231 0.0048752756910305619 0 -0.0028011286489260578 0.0048819843345803918 0 -0.0025224113695300312 0.0048062684876755031 0 -0.0028938370793499522 0.0059018604184043182 0 -0.0026849733959798377 0.0058452222749137165 0 -0.0026001027757235006 0.0059228965964415728 0 -0.0026849733959798377 0.0058452222749137165 0 -0.002612411007766944 0.0058613202004359861 0 -0.0026001027757235006 0.0059228965964415728 0 -0.0026230042760857462 0.0058220222354603305 0 -0.002612411007766944 0.0058613202004359861 0 -0.0025670585965759667 0.0058630565541986351 0 -0.0026230042760857462 0.0058220222354603305 0 -0.0026849733959798377 0.0058452222749137165 0 -0.002612411007766944 0.0058613202004359861 0 -0.0024786754238839584 0.0053955965036110781 0 -0.0021764743529596865 0.0053679680152636574 0 -0.002612411007766944 0.0058613202004359861 0 -0.0026001027757235006 0.0059228965964415728 0 -0.0025670585965759667 0.0058630565541986351 0 -0.0027338458818318696 0.0059470073620619618 0 -0.0026158174757707846 0.005878533034601785 0 -0.0026353159395338492 0.0059131984167665706 0 -0.0024786754238839584 0.0053955965036110781 0 -0.0020992371636573111 0.0050954682731379642 0 -0.0025811659988438417 0.0049903593883243256 0 -0.0020871211170994351 0.0048471095350556539 0 -0.0024288666654616107 0.0046319807666865068 0 -0.0022036114103363381 0.0045705039639833663 0 -0.0022161485348134733 0.0047367883808558716 0 -0.002401145217519109 0.0049618525407603351 0 -0.0024771196908550219 0.0050871397116148513 0 -0.0022915657004270494 0.0050365511496057612 0 -0.0024786754238839584 0.0053955965036110781 0 -0.0025811659988438417 0.0049903593883243256 0 -0.0015872371075279783 0.0046839038280980239 0 -0.0015266622013371881 0.0046681882876101321 0 -0.0015892053884408953 0.0047134602121513764 0 -0.0020871211170994351 0.0048471095350556539 0 -0.0020712210802847236 0.0045099716306670626 0 -0.0020871211170994351 0.0048471095350556539 0 -0.0020992371636573111 0.0050954682731379642 0 -0.0020871211170994351 0.0048471095350556539 0 -0.0015216923784272492 0.0047941270779009318 0 -0.0014127323029291608 0.0047403017354580509 0 -0.0014029300952470717 0.0047339825973081329 0 -0.0014040399825137988 0.0047462950724008277 0 -0.0014127323029291608 0.0047403017354580509 0 -0.0014234309984379201 0.0047480471336092686 0 -0.0014040399825137988 0.0047462950724008277 0 -0.0020992371636573111 0.0050954682731379642 0 -0.0015216923784272492 0.0047941270779009318 0 -0.00215100603114887 0.0050046391270639487 0 -0.0021392286210957122 0.0048470130829821687 0 -0.0015800912016798111 0.0048469553917870377 0 -0.0021350126330126388 0.005216881174771414 0 -0.0021965500143002652 0.0052167745578328628 0 -0.0022047468439406466 0.0053353157408273762 0 -0.0014127323029291608 0.0047403017354580509 0 -0.0014234309984379201 0.0047480471336092686 0 -0.0014197437200458901 0.0047333450364340354 0 -0.002401145217519109 0.0049618525407603351 0 -0.0022915657004270494 0.0050365511496057612 0 -0.0022859011143544243 0.0049619562912165587 0 -0.0020992371636573111 0.0050954682731379642 0 -0.0021764743529596865 0.0053679680152636574 0 -0.0014127323029291608 0.0047403017354580509 0 -0.0014197437200458901 0.0047333450364340354 0 -0.0014029300952470717 0.0047339825973081329 0 -0.0013921093497176393 0.0047210733732730263 0 -0.0014197437200458901 0.0047333450364340354 0 -0.0014029300952470717 0.0047339825973081329 0 -0.0013921093497176393 0.0047210733732730263 0 -0.0014029300952470717 0.0047339825973081329 0 -0.0013895549518684377 0.0047285893235557716 0 -0.0014029300952470717 0.0047339825973081329 0 -0.0014040399825137988 0.0047462950724008277 0 -0.0013895549518684377 0.0047285893235557716 0 -0.0015266622013371881 0.0046681882876101321 0 -0.0015892053884408953 0.0047134602121513764 0 -0.0014730846479151746 0.0047076758679436507 0 -0.0020712210802847236 0.0045099716306670626 0 -0.0013526292987604102 0.0046848722427328604 0 -0.0014220683067569225 0.0046869929871852824 0 -0.0014048169192857512 0.004700795264272202 0 -0.0014172645756000593 0.0047101000447797373 0 -0.0014220683067569225 0.0046869929871852824 0 -0.0014048169192857512 0.004700795264272202 0 -0.0014008310102648727 0.004686949925923483 0 -0.0014048169192857512 0.004700795264272202 0 -0.0013896498953480155 0.0046976239743389487 0 -0.001390380324046641 0.0047065794714829289 0 -0.0013896498953480155 0.0046976239743389487 0 -0.0013740078994215427 0.0047022198479343049 0 -0.001390380324046641 0.0047065794714829289 0 -0.0013896498953480155 0.0046976239743389487 0 -0.0013779620858430149 0.0046923391196427248 0 -0.0014008310102648727 0.004686949925923483 0 -0.0013896498953480155 0.0046976239743389487 0 -0.0013779620858430149 0.0046923391196427248 0 -0.0013740078994215427 0.0047022198479343049 0 -0.0014127709941216065 0.004693792466570825 0 -0.0013526292987604102 0.0046848722427328604 0 -0.0014048169192857512 0.004700795264272202 0 -0.0013896498953480155 0.0046976239743389487 0 -0.0014008310102648727 0.004686949925923483 0 -0.0015216923784272492 0.0047941270779009318 0 -0.0013702793854161669 0.0046975397565697206 0 -0.0013976909164706624 0.0047337785250092888 0 -0.0013723473877853504 0.0047252494958729069 0 -0.0013681475263440323 0.0047294448162177975 0 -0.0015216923784272492 0.0047941270779009318 0 -0.0013331829026404886 0.0047163444844194194 0 -0.0014040399825137988 0.0047462950724008277 0 -0.0013895549518684377 0.0047285893235557716 0 -0.0013723473877853504 0.0047252494958729069 0 -0.0015266622013371881 0.0046681882876101321 0 -0.0014730846479151746 0.0047076758679436507 0 -0.0013880964923543467 0.0046731003554683981 0 -0.0013782059442348465 0.0047191802695088908 0 -0.0013895549518684377 0.0047285893235557716 0 -0.0013723473877853504 0.0047252494958729069 0 -0.001366880837345281 0.0047160157218841718 0 -0.0013723473877853504 0.0047252494958729069 0 -0.0013614733925715113 0.004717742286341235 0 -0.0013723473877853504 0.0047252494958729069 0 -0.0013681475263440323 0.0047294448162177975 0 -0.0013614733925715113 0.004717742286341235 0 -0.001366880837345281 0.0047160157218841718 0 -0.0013782059442348465 0.0047191802695088908 0 -0.0013723473877853504 0.0047252494958729069 0 -0.0013779620858430149 0.0046923391196427248 0 -0.0014730846479151746 0.0047076758679436507 0 -0.0013880964923543467 0.0046731003554683981 0 -0.0013471800740040012 0.0047042594966433069 0 -0.0013681475263440323 0.0047294448162177975 0 -0.0013614733925715113 0.004717742286341235 0 -0.0013576011861814008 0.0047037708339486579 0 -0.0013702793854161669 0.0046975397565697206 0 -0.0013471800740040012 0.0047042594966433069 0 -0.0013779620858430149 0.0046923391196427248 0 -0.0013880964923543467 0.0046731003554683981 0 -0.0013573394468252191 0.0047116035176906724 0 -0.001366880837345281 0.0047160157218841718 0 -0.0013614733925715113 0.004717742286341235 0 -0.0013573394468252191 0.0047116035176906724 0 -0.0013477150253061606 0.004706558001714994 0 -0.0013471800740040012 0.0047042594966433069 0 -0.0013573394468252191 0.0047116035176906724 0 -0.0013471800740040012 0.0047042594966433069 0 -0.0013614733925715113 0.004717742286341235 0 -0.0013471800740040012 0.0047042594966433069 0 -0.0013779620858430149 0.0046923391196427248 0 -0.0013574697658578563 0.0047024503751843024 0 -0.0013779620858430149 0.0046923391196427248 0 -0.0013574697658578563 0.0047024503751843024 0 -0.0013740078994215427 0.0047022198479343049 0 -0.0013574697658578563 0.0047024503751843024 0 -0.0013740078994215427 0.0047022198479343049 0 -0.001355007720228456 0.0047086094665573361 0 -0.001355007720228456 0.0047086094665573361 0 -0.0013757737879286855 0.0047157060299066198 0 -0.001361162494875346 0.0047338597079421216 0 -0.0013740078994215427 0.0047022198479343049 0 -0.001355007720228456 0.0047086094665573361 0 -0.0013757737879286855 0.0047157060299066198 0 -0.0013757737879286855 0.0047157060299066198 0 -0.001361162494875346 0.0047338597079421216 0 -0.0014038891756827372 0.0047211268664744165 0 -0.0013105612656527856 0.0047129775849701575 0 -0.00140353279192202 0.0046416396504861592 0 -0.0014038891756827372 0.0047211268664744165 0 -0.0014139638925924573 0.0047032579666746507 0 -0.0014192741353192266 0.00470423003567518 0 -0.001361162494875346 0.0047338597079421216 0 -0.0014038891756827372 0.0047211268664744165 0 -0.001394374251125347 0.0047560809445341065 0 -0.001397757946677451 0.0047480185594881803 0 -0.00140353279192202 0.0046416396504861592 0 -0.0013757737879286855 0.0047157060299066198 0 -0.0014038891756827372 0.0047211268664744165 0 -0.001390380324046641 0.0047065794714829289 0 -0.0014038891756827372 0.0047211268664744165 0 -0.001390380324046641 0.0047065794714829289 0 -0.0014064542003147805 0.004712352831202588 0 -0.0013740078994215427 0.0047022198479343049 0 -0.0013757737879286855 0.0047157060299066198 0 -0.001390380324046641 0.0047065794714829289 0 -0.0014048169192857512 0.004700795264272202 0 -0.001390380324046641 0.0047065794714829289 0 -0.0014064542003147805 0.004712352831202588 0 -0.0014048169192857512 0.004700795264272202 0 -0.0014064542003147805 0.004712352831202588 0 -0.0014172645756000593 0.0047101000447797373 0 -0.0014064542003147805 0.004712352831202588 0 -0.0014092522798982105 0.0047131554701999364 0 -0.0014172645756000593 0.0047101000447797373 0 -0.0014038891756827372 0.0047211268664744165 0 -0.0014064542003147805 0.004712352831202588 0 -0.0014092522798982105 0.0047131554701999364 0 -0.0014038891756827372 0.0047211268664744165 0 -0.0014092522798982105 0.0047131554701999364 0 -0.0014139638925924573 0.0047032579666746507 0 -0.0014092522798982105 0.0047131554701999364 0 -0.0014075550444206757 0.0047064075708836252 0 -0.0014172645756000593 0.0047101000447797373 0 -0.0014092522798982105 0.0047131554701999364 0 -0.0014107096183767758 0.0047050662392971289 0 -0.0014139638925924573 0.0047032579666746507 0 -0.0014092522798982105 0.0047131554701999364 0 -0.0014075550444206757 0.0047064075708836252 0 -0.0014107096183767758 0.0047050662392971289 0 -0.0021632179257126453 0.0042637544153809404 0 -0.0021745905248610337 0.0043032095422222963 0 -0.0029065650747490688 0.0037761179621640835 0 -0.0028527771954891582 0.0038600591587232311 0 -0.0029198380483387017 0.0039465827814995037 0 -0.0028080102816813715 0.0037964061011018487 0 -0.0029065650747490688 0.0037761179621640835 0 -0.0028527771954891582 0.0038600591587232311 0 -0.0027764338088074052 0.0039240971187243789 0 -0.0028527771954891582 0.0038600591587232311 0 -0.0029198380483387017 0.0039465827814995037 0 -0.0027764338088074052 0.0039240971187243789 0 -0.0028777342413058983 0.0041238489696943346 0 -0.0029198380483387017 0.0039465827814995037 0 -0.0028112860484386217 0.0036874296609667617 0 -0.0028769243374530723 0.0036232274750446578 0 -0.0028199645808475258 0.0035152965134614624 0 -0.0028828367450684164 0.0035704276306943485 0 -0.0028769243374530723 0.0036232274750446578 0 -0.0028199645808475258 0.0035152965134614624 0 -0.0020268181520649168 0.0039015417801336527 0 -0.0020203333697714557 0.0038261201372463611 0 -0.0019195493074563249 0.0038125990359140871 0 -0.0028828367450684164 0.0035704276306943485 0 -0.0028769243374530723 0.0036232274750446578 0 -0.0028877212792701766 0.0036251432836157263 0 -0.0022002897521921391 0.0035413995169825815 0 -0.0020799158862169916 0.0040670812751511815 0 -0.0021801653040365797 0.0040614329969762995 0 -0.0020799158862169916 0.0040670812751511815 0 -0.0028112860484386217 0.0036874296609667617 0 -0.0028769243374530723 0.0036232274750446578 0 -0.0028888551570072584 0.0036252872535005695 0 -0.0028112860484386217 0.0036874296609667617 0 -0.0029065650747490688 0.0037761179621640835 0 -0.0028888551570072584 0.0036252872535005695 0 -0.0021632179257126453 0.0042637544153809404 0 -0.0020799158862169916 0.0040670812751511815 0 -0.0014075550444206757 0.0047064075708836252 0 -0.0014064561914671164 0.0046814133666209529 0 -0.0014118658426159657 0.0046965739141097427 0 -0.0028080102816813715 0.0037964061011018487 0 -0.0028112860484386217 0.0036874296609667617 0 -0.0029065650747490688 0.0037761179621640835 0 -0.0014075550444206757 0.0047064075708836252 0 -0.0014118658426159657 0.0046965739141097427 0 -0.0014107096183767758 0.0047050662392971289 0 -0.0014118658426159657 0.0046965739141097427 0 -0.0014107096183767758 0.0047050662392971289 0 -0.0014139638925924573 0.0047032579666746507 0 -0.0016663368446141614 0.0039682497086388872 0 -0.0014983089058506389 0.0044724469423619278 0 -0.0014118658426159657 0.0046965739141097427 0 -0.0014139638925924573 0.0047032579666746507 0 -0.0014183221074114472 0.0046964403694275576 0 -0.0014118658426159657 0.0046965739141097427 0 -0.001413919267466205 0.0046850447901918852 0 -0.0014183221074114472 0.0046964403694275576 0 -0.0016663368446141614 0.0039682497086388872 0 -0.0016430885968728515 0.0039457257256057194 0 -0.00157797003846286 0.0040981800917908465 0 -0.00159837805974443 0.0041017462053805813 0 -0.0015933936073857448 0.0041135199738741848 0 -0.0017074867963163618 0.0033673427893366539 0 -0.0017978297694331055 0.0034497087177516902 0 -0.0018500656778904722 0.0033633934903789229 0 -0.0017978297694331055 0.0034497087177516902 0 -0.0018500656778904722 0.0033633934903789229 0 -0.0019054224354796835 0.0034662733684797265 0 -0.0020799158862169916 0.0040670812751511815 0 -0.0016663368446141614 0.0039682497086388872 0 -0.0014064561914671164 0.0046814133666209529 0 -0.0014118658426159657 0.0046965739141097427 0 -0.001413919267466205 0.0046850447901918852 0 -0.0022002897521921391 0.0035413995169825815 0 -0.0016663368446141614 0.0039682497086388872 0 -0.0016430885968728515 0.0039457257256057194 0 -0.0017173675319751183 0.003162306254915349 0 -0.0018500656778904722 0.0033633934903789229 0 -0.0019054224354796835 0.0034662733684797265 0 -0.0019723605595168337 0.0033082445375886469 0 -0.0015506194031075255 0.0039754109572782605 0 -0.0016959205089103701 0.0034590288143817541 0 -0.0015695551186427276 0.0034010380017581976 0 -0.0015506194031075255 0.0039754109572782605 0 -0.0013361418654472372 0.0039437318437566486 0 -0.0015695551186427276 0.0034010380017581976 0 -0.001369414648649031 0.0042304004905726108 0 -0.0016430885968728515 0.0039457257256057194 0 -0.0015685905823344321 0.0042831178783915378 0 -0.0014632512373493767 0.0042675120133825037 0 -0.0014204239836517604 0.0043667017949554684 0 -0.0016430885968728515 0.0039457257256057194 0 -0.0014983089058506389 0.0044724469423619278 0 -0.0014279616313935973 0.0046460471228260284 0 -0.0014983089058506389 0.0044724469423619278 0 -0.0014139638925924573 0.0047032579666746507 0 -0.0014155019974402899 0.0046993861571652824 0 -0.0014192741353192266 0.00470423003567518 0 -0.0014983089058506389 0.0044724469423619278 0 -0.00140353279192202 0.0046416396504861592 0 -0.0012496802578027687 0.0046282167047481939 0 -0.0012426913680373623 0.0046586494723170986 0 -0.0012587150702235664 0.0046472862067057545 0 -0.0015685905823344321 0.0042831178783915378 0 -0.0014204239836517604 0.0043667017949554684 0 -0.0015200679823873184 0.0044546362397839545 0 -0.001369414648649031 0.0042304004905726108 0 -0.00140353279192202 0.0046416396504861592 0 -0.0012190413683947406 0.0046003086150165507 0 -0.0012477837940858393 0.0044732584998440992 0 -0.0012792846237291062 0.0046544271602966068 0 -0.0012653750007939214 0.0046371835884731665 0 -0.0012924960201749058 0.0046423838816795219 0 -0.0012496802578027687 0.0046282167047481939 0 -0.0012587150702235664 0.0046472862067057545 0 -0.0012684116849036098 0.0046305380725346155 0 -0.0012477837940858393 0.0044732584998440992 0 -0.0012536559645592283 0.0046207355543063594 0 -0.0012758984726089942 0.0046888718715942931 0 -0.0012426913680373623 0.0046586494723170986 0 -0.0012587150702235664 0.0046472862067057545 0 -0.0012587150702235664 0.0046472862067057545 0 -0.0012792846237291062 0.0046544271602966068 0 -0.0012653750007939214 0.0046371835884731665 0 -0.0012758984726089942 0.0046888718715942931 0 -0.0012587150702235664 0.0046472862067057545 0 -0.0012792846237291062 0.0046544271602966068 0 -0.001369414648649031 0.0042304004905726108 0 -0.0013065569358031086 0.0034415357943015697 0 -0.0012477837940858393 0.0044732584998440992 0 -0.0010466438673185107 0.0040400388676056203 0 -0.0011081019799862948 0.0045833078483376111 0 -0.0011641861523321395 0.004483076568482158 0 -0.0011806393975077999 0.0045541336399539641 0 -0.0011081019799862948 0.0045833078483376111 0 -0.0012234767663584377 0.0046020527816649373 0 -0.0011806393975077999 0.0045541336399539641 0 -0.0011369226816577331 0.0041467439578404272 0 -0.0012454181186386645 0.0040275555204853011 0 -0.0012161735901397536 0.0038622300651821075 0 -0.0011369226816577331 0.0041467439578404272 0 -0.0012503137227167396 0.0041635515387785527 0 -0.0012454181186386645 0.0040275555204853011 0 -0.001369414648649031 0.0042304004905726108 0 -0.0012477837940858393 0.0044732584998440992 0 -0.0012454181186386645 0.0040275555204853011 0 -0.0013780297175873513 0.0039376779969643961 0 -0.0012161735901397536 0.0038622300651821075 0 -0.0012503137227167396 0.0041635515387785527 0 -0.0012454181186386645 0.0040275555204853011 0 -0.0013780297175873513 0.0039376779969643961 0 -0.00081720228783253705 0.0034659082420920488 0 -0.00092325671040388319 0.0033932774963025629 0 -0.00086950937733047077 0.0032737279469893851 0 -0.0014176375253407774 0.0032484454472171058 0 -0.0014913486448672748 0.0029768575371848832 0 -0.0013426860809411484 0.0032137380425858631 0 -0.0013065569358031086 0.0034415357943015697 0 -0.0011708012781789221 0.003149017897995389 0 -0.00094098219002906262 0.0035239864973607427 0 -0.00081720228783253705 0.0034659082420920488 0 -0.00092325671040388319 0.0033932774963025629 0 -0.0010466438673185107 0.0040400388676056203 0 -0.0013065569358031086 0.0034415357943015697 0 -0.0013065569358031086 0.0034415357943015697 0 -0.0017173675319751183 0.003162306254915349 0 -0.0014913486448672748 0.0029768575371848832 0 -0.0014806007157934615 0.0028835032430895953 0 -0.0013426860809411484 0.0032137380425858631 0 -0.001688999553817385 0.002558996022822173 0 -0.0017173675319751183 0.003162306254915349 0 -0.0011708012781789221 0.003149017897995389 0 -0.0014627632937142061 0.0027573836953836885 0 -0.0014913486448672748 0.0029768575371848832 0 -0.0014806007157934615 0.0028835032430895953 0 -0.0015552821702631038 0.0027020203603862975 0 -0.00086950937733047077 0.0032737279469893851 0 -0.00095627459692080034 0.0033036682784299966 0 -0.0009914743617581317 0.0032062150644649886 0 -0.00092325671040388319 0.0033932774963025629 0 -0.00086950937733047077 0.0032737279469893851 0 -0.00095627459692080034 0.0033036682784299966 0 -0.00086950937733047077 0.0032737279469893851 0 -0.0009914743617581317 0.0032062150644649886 0 -0.00091714673091617153 0.0030818010610765144 0 -0.0019030537536319622 0.0024114452003419478 0 -0.0018265517560336984 0.0023993509025614836 0 -0.0018092936364425176 0.0024550539967178237 0 -0.0019030537536319622 0.0024114452003419478 0 -0.0018092936364425176 0.0024550539967178237 0 -0.0018597250378417558 0.0025102466954026754 0 -0.0018265517560336984 0.0023993509025614836 0 -0.0018092936364425176 0.0024550539967178237 0 -0.0017725363415668168 0.0024021152367959234 0 -0.0018265517560336984 0.0023993509025614836 0 -0.0017725363415668168 0.0024021152367959234 0 -0.0017979286113366155 0.0023828114816388363 0 -0.0017173675319751183 0.003162306254915349 0 -0.0017874413050960258 0.0028396605618214834 0 -0.0018092936364425176 0.0024550539967178237 0 -0.0018597250378417558 0.0025102466954026754 0 -0.0017915129804350948 0.0024674525570731387 0 -0.0018500656778904722 0.0033633934903789229 0 -0.0019723605595168337 0.0033082445375886469 0 -0.0018338134796626602 0.0032420520569070013 0 -0.0017074867963163618 0.0033673427893366539 0 -0.0018500656778904722 0.0033633934903789229 0 -0.0018338134796626602 0.0032420520569070013 0 -0.0018092936364425176 0.0024550539967178237 0 -0.0017915129804350948 0.0024674525570731387 0 -0.0017793701531596559 0.0024529282961522365 0 -0.0017915129804350948 0.0024674525570731387 0 -0.0017793701531596559 0.0024529282961522365 0 -0.0017628717188961013 0.0024517569977491006 0 -0.0018092936364425176 0.0024550539967178237 0 -0.0017793701531596559 0.0024529282961522365 0 -0.0017653091189911709 0.00244046699192983 0 -0.0018092936364425176 0.0024550539967178237 0 -0.0017725363415668168 0.0024021152367959234 0 -0.0016996395361146876 0.0023944194918841455 0 -0.0017427606623243341 0.0024424392813563009 0 -0.0019064390056482332 0.0024017372211653999 0 -0.0017874413050960258 0.0028396605618214834 0 -0.0020429083516174118 0.0027016360800348554 0 -0.0017725363415668168 0.0024021152367959234 0 -0.0016996395361146876 0.0023944194918841455 0 -0.0017433613581866775 0.0023878361890724764 0 -0.0024908345491417554 0.0027471553970072268 0 -0.0023419462926980027 0.0026785693241297196 0 -0.0022621280480399266 0.0031739520463866422 0 -0.0026886407660067523 0.0024453736403456158 0 -0.0027490194122845538 0.0033113605916296712 0 -0.0017793701531596559 0.0024529282961522365 0 -0.0017671907567523599 0.0024470127393420738 0 -0.0017628717188961013 0.0024517569977491006 0 -0.0017793701531596559 0.0024529282961522365 0 -0.0017671907567523599 0.0024470127393420738 0 -0.0017653091189911709 0.00244046699192983 0 -0.0017671907567523599 0.0024470127393420738 0 -0.0017628717188961013 0.0024517569977491006 0 -0.0017620237096302391 0.0024432408037829544 0 -0.0020429083516174118 0.0027016360800348554 0 -0.0021381163622877794 0.0024456444309515534 0 -0.0017671907567523599 0.0024470127393420738 0 -0.0017620237096302391 0.0024432408037829544 0 -0.0017653091189911709 0.00244046699192983 0 -0.0021381163622877794 0.0024456444309515534 0 -0.0021384750588935614 0.0023529684390650599 0 -0.0021125146595263708 0.0024173761910619993 0 -0.0021482824376036175 0.0023969830311477663 0 -0.0021094782641777709 0.0023760532731823512 0 -0.0021381163622877794 0.0024456444309515534 0 -0.0019064390056482332 0.0024017372211653999 0 -0.0019064390056482332 0.0024017372211653999 0 -0.0018683333850971883 0.0024149353496728068 0 -0.0025216649986439677 0.0023808650945146555 0 -0.0025103982977465818 0.0024241777203721617 0 -0.0025050101692811002 0.0023247678577503249 0 -0.0026886407660067523 0.0024453736403456158 0 -0.0026782770141315915 0.0022662234951832949 0 -0.0025639121453326472 0.0023934911589196719 0 -0.0025216649986439677 0.0023808650945146555 0 -0.0025103982977465818 0.0024241777203721617 0 -0.0025639121453326472 0.0023934911589196719 0 -0.0025216649986439677 0.0023808650945146555 0 -0.0025611141841285524 0.0023552850204326702 0 -0.0021381163622877794 0.0024456444309515534 0 -0.0026886407660067523 0.0024453736403456158 0 -0.0021918255697011934 0.0025128733769175129 0 -0.0021955959222701607 0.0025617466567070635 0 -0.0022432963177508158 0.0025354004713187953 0 -0.0020429083516174118 0.0027016360800348554 0 -0.0026886407660067523 0.0024453736403456158 0 -0.0025381051702231035 0.0034172099261267253 0 -0.0024908345491417554 0.0027471553970072268 0 -0.0022621280480399266 0.0031739520463866422 0 -0.0017074867963163618 0.0033673427893366539 0 -0.0018338134796626602 0.0032420520569070013 0 -0.0016949620996360203 0.0031741525637368558 0 -0.0022002897521921391 0.0035413995169825815 0 -0.0020429083516174118 0.0027016360800348554 0 -0.0022002897521921391 0.0035413995169825815 0 -0.0027490194122845538 0.0033113605916296712 0 -0.00026010846478324666 0.003896882584312629 0 -0.00036919852776027011 0.0038476934044192582 0 -0.00033698221813531303 0.0037105690477784313 0 -0.0014503236332555959 0.004406231190170121 0 -0.0014152789030334445 0.0045757204083261603 0 -0.0012332861355799326 0.0043210198515317997 0 -0.00039366852655219189 0.0039355541002044575 0 -0.00048415687713599667 0.0038457701303898965 0 -0.00047970215295199209 0.0039948429178460337 0 -0.00026010846478324666 0.003896882584312629 0 -0.00036919852776027011 0.0038476934044192582 0 -0.00039366852655219189 0.0039355541002044575 0 -0.00036919852776027011 0.0038476934044192582 0 -0.00039366852655219189 0.0039355541002044575 0 -0.00048415687713599667 0.0038457701303898965 0 -0.0010257077477232039 0.0044650076875957199 0 -0.00070004279627699216 0.0042786328934263755 0 -0.00026010846478324666 0.003896882584312629 0 -0.00039366852655219189 0.0039355541002044575 0 -0.00038102356119036612 0.0040831089730058367 0 -0.00038102356119036612 0.0040831089730058367 0 -0.00047970215295199209 0.0039948429178460337 0 -0.00054883627780428666 0.0040960993439972792 0 -0.00039366852655219189 0.0039355541002044575 0 -0.00038102356119036612 0.0040831089730058367 0 -0.00047970215295199209 0.0039948429178460337 0 -0.0015883868973454863 0.0047030202019626502 0 -0.0014152789030334445 0.0045757204083261603 0 -0.0013718019855674948 0.0046437960443741965 0 -0.00084592995218894242 0.0041312250664509893 0 -0.0010257077477232039 0.0044650076875957199 0 -0.0010257077477232039 0.0044650076875957199 0 -0.001438197873375258 0.0046789602700779151 0 -0.0013283171964695733 0.0046941145915175026 0 -0.0013290304610739147 0.0046914145584434873 0 -0.0013297035234939212 0.00468101392708287 0 -0.0014503236332555959 0.004406231190170121 0 -0.0015883868973454863 0.0047030202019626502 0 -0.0014152789030334445 0.0045757204083261603 0 -0.0014152789030334445 0.0045757204083261603 0 -0.0013718019855674948 0.0046437960443741965 0 -0.0013379959303057058 0.0046206650384256242 0 -0.0014152789030334445 0.0045757204083261603 0 -0.0013379959303057058 0.0046206650384256242 0 -0.0012924546209694746 0.0045469254264359155 0 -0.0013297035234939212 0.00468101392708287 0 -0.0013210828339948514 0.0046780724540926005 0 -0.0013076096794839174 0.0046486223304600055 0 -0.001438197873375258 0.0046789602700779151 0 -0.0012766500369627975 0.0046473310682135453 0 -0.0013379959303057058 0.0046206650384256242 0 -0.0012234767663584377 0.0046020527816649373 0 -0.0012924546209694746 0.0045469254264359155 0 -0.0013379959303057058 0.0046206650384256242 0 -0.0013076096794839174 0.0046486223304600055 0 -0.0012924960201749058 0.0046423838816795219 0 -0.0013335018904794642 0.0046242497602595771 0 -0.0012536559645592283 0.0046207355543063594 0 -0.0013718019855674948 0.0046437960443741965 0 -0.0013379959303057058 0.0046206650384256242 0 -0.0013076096794839174 0.0046486223304600055 0 -0.0013269269510264375 0.0046887322818478655 0 -0.0013297035234939212 0.00468101392708287 0 -0.0013210828339948514 0.0046780724540926005 0 -0.0013105330906126901 0.0046733126227873059 0 -0.0013210828339948514 0.0046780724540926005 0 -0.0013076096794839174 0.0046486223304600055 0 -0.001302296415671897 0.0046808012081264597 0 -0.0012792846237291062 0.0046544271602966068 0 -0.0012969679413472423 0.0046592387522887942 0 -0.0013105330906126901 0.0046733126227873059 0 -0.0012969679413472423 0.0046592387522887942 0 -0.0013076096794839174 0.0046486223304600055 0 -0.0012969679413472423 0.0046592387522887942 0 -0.0013076096794839174 0.0046486223304600055 0 -0.0012924960201749058 0.0046423838816795219 0 -0.0012792846237291062 0.0046544271602966068 0 -0.0012969679413472423 0.0046592387522887942 0 -0.0012924960201749058 0.0046423838816795219 0 -0.0010466438673185107 0.0040400388676056203 0 -0.0011689944007097931 0.0045057118133191186 0 -0.0012234767663584377 0.0046020527816649373 0 -0.0011806393975077999 0.0045541336399539641 0 -0.0012924546209694746 0.0045469254264359155 0 -0.0011641861523321395 0.004483076568482158 0 -0.0011806393975077999 0.0045541336399539641 0 -0.0012924546209694746 0.0045469254264359155 0 -0.00067414008127385423 0.0042468598119361723 0 -0.0010491583851192036 0.0044201530154822817 0 -0.0010060339211503894 0.0041574786699380781 0 -0.001395484049683199 0.0045682227520764031 0 -0.0011689944007097931 0.0045057118133191186 0 -0.0014152789030334445 0.0045757204083261603 0 -0.0010491583851192036 0.0044201530154822817 0 -0.0012332861355799326 0.0043210198515317997 0 -0.0010491583851192036 0.0044201530154822817 0 -0.0012332861355799326 0.0043210198515317997 0 -0.0010060339211503894 0.0041574786699380781 0 -0.0010060339211503894 0.0041574786699380781 0 -0.0012398673189741114 0.0040186055354592045 0 -0.00084442732056920066 0.003943299423917356 0 -0.0012332861355799326 0.0043210198515317997 0 -0.0010060339211503894 0.0041574786699380781 0 -0.0012398673189741114 0.0040186055354592045 0 -0.00094098219002906262 0.0035239864973607427 0 -0.00092325671040388319 0.0033932774963025629 0 -0.0010408091038715678 0.0033418134204812751 0 -0.0010466438673185107 0.0040400388676056203 0 -0.00094697274664492528 0.0036322217377813448 0 -0.00067414008127385423 0.0042468598119361723 0 -0.0010060339211503894 0.0041574786699380781 0 -0.00084442732056920066 0.003943299423917356 0 -0.00092325671040388319 0.0033932774963025629 0 -0.0010408091038715678 0.0033418134204812751 0 -0.00095627459692080034 0.0033036682784299966 0 -0.0010408091038715678 0.0033418134204812751 0 -0.0009914743617581317 0.0032062150644649886 0 -0.001138783823447273 0.0031612739435564969 0 -0.00094697274664492528 0.0036322217377813448 0 -0.00087032943902960475 0.0033353534202614421 0 -0.0010408091038715678 0.0033418134204812751 0 -0.00095627459692080034 0.0033036682784299966 0 -0.0009914743617581317 0.0032062150644649886 0 -0.00065854767739575602 0.0038768391906027228 0 -0.00087032943902960475 0.0033353534202614421 0 -0.00013238620347004687 0.0036905862617390944 0 -0.0002171050711491628 0.0035739542482752782 0 -9.9026575186463644e-06 0.0034757933454427209 0 -0.0012398673189741114 0.0040186055354592045 0 -0.00084442732056920066 0.003943299423917356 0 -0.0010170727873971865 0.0036351161562956005 0 -0.0002171050711491628 0.0035739542482752782 0 -0.00015487703366090527 0.0034394746372358957 0 -9.9026575186463644e-06 0.0034757933454427209 0 -0.0002171050711491628 0.0035739542482752782 0 -0.00033698221813531303 0.0037105690477784313 0 -0.00032921207649039508 0.0034967677386116731 0 -0.0002171050711491628 0.0035739542482752782 0 -0.00032921207649039508 0.0034967677386116731 0 -0.00015487703366090527 0.0034394746372358957 0 -0.00084592995218894242 0.0041312250664509893 0 -0.00065854767739575602 0.0038768391906027228 0 -0.0014503236332555959 0.004406231190170121 0 -0.0012332861355799326 0.0043210198515317997 0 -0.0012398673189741114 0.0040186055354592045 0 -0.00013238620347004687 0.0036905862617390944 0 -0.0002171050711491628 0.0035739542482752782 0 -0.00033698221813531303 0.0037105690477784313 0 -0.00026010846478324666 0.003896882584312629 0 -0.00013238620347004687 0.0036905862617390944 0 -0.00033698221813531303 0.0037105690477784313 0 -0.00033698221813531303 0.0037105690477784313 0 -0.00054811489414478463 0.0036230103759384603 0 -0.00048415687713599667 0.0038457701303898965 0 -0.00036919852776027011 0.0038476934044192582 0 -0.00033698221813531303 0.0037105690477784313 0 -0.00048415687713599667 0.0038457701303898965 0 -0.00032921207649039508 0.0034967677386116731 0 -0.00054811489414478463 0.0036230103759384603 0 -0.0004425826559779889 0.0033261798960005605 0 -0.00033698221813531303 0.0037105690477784313 0 -0.00032921207649039508 0.0034967677386116731 0 -0.00054811489414478463 0.0036230103759384603 0 -0.00054811489414478463 0.0036230103759384603 0 -0.00063979386807029798 0.0038007830215586436 0 -0.0007501414292779815 0.0036200343182588328 0 -0.00055341005389146491 0.0036216163534415133 0 -0.00076293064765980674 0.0035478813218387042 0 -0.00054811489414478463 0.0036230103759384603 0 -0.00078631734764088681 0.0034734251818208718 0 -0.00064199854649093732 0.0033167652195964449 0 -0.00063979386807029798 0.0038007830215586436 0 -0.0007501414292779815 0.0036200343182588328 0 -0.00077389163902504357 0.0037762426558079075 0 -0.00054811489414478463 0.0036230103759384603 0 -0.00063979386807029798 0.0038007830215586436 0 -0.00048415687713599667 0.0038457701303898965 0 -0.00084941480214871371 0.0036800251220407607 0 -0.00093429527656275829 0.0037464757799204667 0 -0.00093745096594609638 0.0035807626410981068 0 -0.0007501414292779815 0.0036200343182588328 0 -0.00084941480214871371 0.0036800251220407607 0 -0.00077389163902504357 0.0037762426558079075 0 -0.0007501414292779815 0.0036200343182588328 0 -0.00084941480214871371 0.0036800251220407607 0 -0.00093745096594609638 0.0035807626410981068 0 -0.00084941480214871371 0.0036800251220407607 0 -0.00077389163902504357 0.0037762426558079075 0 -0.00093429527656275829 0.0037464757799204667 0 -0.00077389163902504357 0.0037762426558079075 0 -0.00093429527656275829 0.0037464757799204667 0 -0.00098861684061022606 0.0039492102482977659 0 -0.00077389163902504357 0.0037762426558079075 0 -0.00085640665409019421 0.0040193137372519722 0 -0.00098861684061022606 0.0039492102482977659 0 -0.00076951519442780515 0.0038057575633913378 0 -0.00072837294978619958 0.0039040334930526589 0 -0.00077389163902504357 0.0037762426558079075 0 -0.00085640665409019421 0.0040193137372519722 0 -0.00072119516051752407 0.0039653679365245194 0 -0.00085640665409019421 0.0040193137372519722 0 -0.00068197458876527309 0.004141488263320307 0 -0.00084942635740128112 0.0041595010946960387 0 -0.00085640665409019421 0.0040193137372519722 0 -0.00072119516051752407 0.0039653679365245194 0 -0.00068197458876527309 0.004141488263320307 0 -0.00085640665409019421 0.0040193137372519722 0 -0.00084942635740128112 0.0041595010946960387 0 -0.0010116882755554803 0.0041774813037542711 0 -0.00085640665409019421 0.0040193137372519722 0 -0.0010116882755554803 0.0041774813037542711 0 -0.00098861684061022606 0.0039492102482977659 0 -0.00063979386807029798 0.0038007830215586436 0 -0.00048415687713599667 0.0038457701303898965 0 -0.00060271398809577984 0.0039658909631495928 0 -0.00048415687713599667 0.0038457701303898965 0 -0.00060271398809577984 0.0039658909631495928 0 -0.00047970215295199209 0.0039948429178460337 0 -0.00063979386807029798 0.0038007830215586436 0 -0.00077389163902504357 0.0037762426558079075 0 -0.00074997689980098672 0.0039248617491780859 0 -0.00063979386807029798 0.0038007830215586436 0 -0.00074997689980098672 0.0039248617491780859 0 -0.00060271398809577984 0.0039658909631495928 0 -0.00072837294978619958 0.0039040334930526589 0 -0.0009348930714703018 0.0043681715248972599 0 -0.00070004279627699216 0.0042786328934263755 0 -0.0009348930714703018 0.0043681715248972599 0 -0.00074997689980098672 0.0039248617491780859 0 -0.00060271398809577984 0.0039658909631495928 0 -0.00071196217981042969 0.004111882952852421 0 -0.00060271398809577984 0.0039658909631495928 0 -0.00054883627780428666 0.0040960993439972792 0 -0.00071196217981042969 0.004111882952852421 0 -0.00060271398809577984 0.0039658909631495928 0 -0.00047970215295199209 0.0039948429178460337 0 -0.00054883627780428666 0.0040960993439972792 0 -0.0010031502517764926 0.0044860631825361019 0 -0.0010430108564748295 0.004552761563380631 0 -0.00097484900097539865 0.0046070050878484585 0 -0.00097484900097539865 0.0046070050878484585 0 -0.0010833631056378632 0.0046198713948800967 0 -0.0010552774626302924 0.0047412618106048065 0 -0.0010430108564748295 0.004552761563380631 0 -0.00097484900097539865 0.0046070050878484585 0 -0.0010833631056378632 0.0046198713948800967 0 -0.0011639921580883169 0.0046845813923215773 0 -0.0011820793488971477 0.0047164707191468935 0 -0.0012652596857709569 0.0047535518639990598 0 -0.001238919169704034 0.0047551898741987949 0 -0.0012571609584113405 0.004727401731009241 0 -0.0011806040047515451 0.004732271033198278 0 -0.0011820793488971477 0.0047164707191468935 0 -0.0010031502517764926 0.0044860631825361019 0 -0.0010430108564748295 0.004552761563380631 0 -0.0011105969359645708 0.0044984205041434539 0 -0.0010430108564748295 0.004552761563380631 0 -0.0010833631056378632 0.0046198713948800967 0 -0.0011105969359645708 0.0044984205041434539 0 -0.0012652596857709569 0.0047535518639990598 0 -0.001253245545542329 0.0047862770190345511 0 -0.001238919169704034 0.0047551898741987949 0 -0.0011806040047515451 0.004732271033198278 0 -0.0009348930714703018 0.0043681715248972599 0 -0.0009348930714703018 0.0043681715248972599 0 -0.001044368578602291 0.004484406893644044 0 -0.001253245545542329 0.0047862770190345511 0 -0.0012176686270616451 0.0047843794006882144 0 -0.001238919169704034 0.0047551898741987949 0 -0.0012176686270616451 0.0047843794006882144 0 -0.0012043365091561277 0.0047533098553660452 0 -0.001238919169704034 0.0047551898741987949 0 -0.001044368578602291 0.004484406893644044 0 -0.0010890855051529388 0.0043290778986430599 0 -0.0012176686270616451 0.0047843794006882144 0 -0.0012043365091561277 0.0047533098553660452 0 -0.0011796264331219791 0.0047802362041649621 0 -0.0012043365091561277 0.0047533098553660452 0 -0.0011701649817605151 0.0047342587854308409 0 -0.0011796264331219791 0.0047802362041649621 0 -0.0012043365091561277 0.0047533098553660452 0 -0.001238919169704034 0.0047551898741987949 0 -0.0012318230455195854 0.0047231930759691022 0 -0.001238919169704034 0.0047551898741987949 0 -0.0012318230455195854 0.0047231930759691022 0 -0.0012571609584113405 0.004727401731009241 0 -0.0012318230455195854 0.0047231930759691022 0 -0.0012015259196009891 0.0047009320645119354 0 -0.0012316183684096284 0.0046960984082332685 0 -0.0012318230455195854 0.0047231930759691022 0 -0.0012560053579783086 0.0047117719752247014 0 -0.0012571609584113405 0.004727401731009241 0 -0.0012043365091561277 0.0047533098553660452 0 -0.0012015259196009891 0.0047009320645119354 0 -0.0011701649817605151 0.0047342587854308409 0 -0.0012043365091561277 0.0047533098553660452 0 -0.0012318230455195854 0.0047231930759691022 0 -0.0012015259196009891 0.0047009320645119354 0 -0.0012041607631558115 0.0046732632507545963 0 -0.0012015259196009891 0.0047009320645119354 0 -0.0011528389911599928 0.0046442200991907781 0 -0.0012041607631558115 0.0046732632507545963 0 -0.0012015259196009891 0.0047009320645119354 0 -0.0012316183684096284 0.0046960984082332685 0 -0.0012318230455195854 0.0047231930759691022 0 -0.0012316183684096284 0.0046960984082332685 0 -0.0012560053579783086 0.0047117719752247014 0 -0.0012316183684096284 0.0046960984082332685 0 -0.0012560994887538984 0.0046997133296901158 0 -0.0012560053579783086 0.0047117719752247014 0 -0.0012747323844267469 0.004698534695868407 0 -0.0012560994887538984 0.0046997133296901158 0 -0.0012706856336544999 0.004705171747667351 0 -0.0012560994887538984 0.0046997133296901158 0 -0.0012560053579783086 0.0047117719752247014 0 -0.0012706856336544999 0.004705171747667351 0 -0.0012560053579783086 0.0047117719752247014 0 -0.0012768730222763162 0.0047134296369787335 0 -0.0012706856336544999 0.004705171747667351 0 -0.0012768730222763162 0.0047134296369787335 0 -0.0012706856336544999 0.004705171747667351 0 -0.001288619791270636 0.0047064367950555549 0 -0.0012768730222763162 0.0047134296369787335 0 -0.001288619791270636 0.0047064367950555549 0 -0.0012932236606588425 0.0047135164081441036 0 -0.0012747323844267469 0.004698534695868407 0 -0.0012706856336544999 0.004705171747667351 0 -0.001288619791270636 0.0047064367950555549 0 -0.0012985805820577216 0.0047032581244646297 0 -0.001288619791270636 0.0047064367950555549 0 -0.0013018576401873779 0.0047071757622828888 0 -0.0012985805820577216 0.0047032581244646297 0 -0.001309458478032173 0.0047068965104968344 0 -0.0013018576401873779 0.0047071757622828888 0 -0.0013018576401873779 0.0047071757622828888 0 -0.0013103740341327791 0.004710967664785912 0 -0.0012999225305111647 0.0047106490516357529 0 -0.001309458478032173 0.0047068965104968344 0 -0.0013018576401873779 0.0047071757622828888 0 -0.0013103740341327791 0.004710967664785912 0 -0.0013103740341327791 0.004710967664785912 0 -0.0012999225305111647 0.0047106490516357529 0 -0.0013035630110292042 0.0047145932551268021 0 -0.001288619791270636 0.0047064367950555549 0 -0.0013018576401873779 0.0047071757622828888 0 -0.0012999225305111647 0.0047106490516357529 0 -0.001288619791270636 0.0047064367950555549 0 -0.0012999225305111647 0.0047106490516357529 0 -0.0012932236606588425 0.0047135164081441036 0 -0.0012999225305111647 0.0047106490516357529 0 -0.0012932236606588425 0.0047135164081441036 0 -0.0013035630110292042 0.0047145932551268021 0 -0.0013138635747259231 0.0047132654715510442 0 -0.0013219774755623068 0.0047091546223832379 0 -0.0012966354694919047 0.0047182177858104387 0 -0.0012932236606588425 0.0047135164081441036 0 -0.0013035630110292042 0.0047145932551268021 0 -0.0012966354694919047 0.0047182177858104387 0 -0.0013138635747259231 0.0047132654715510442 0 -0.0013035630110292042 0.0047145932551268021 0 -0.0012966354694919047 0.0047182177858104387 0 -0.0013138635747259231 0.0047132654715510442 0 -0.0013103740341327791 0.004710967664785912 0 -0.0013035630110292042 0.0047145932551268021 0 -0.0012652596857709569 0.0047535518639990598 0 -0.0012571609584113405 0.004727401731009241 0 -0.0012787148781739279 0.0047219360584064129 0 -0.0012560053579783086 0.0047117719752247014 0 -0.0012768730222763162 0.0047134296369787335 0 -0.0012571609584113405 0.004727401731009241 0 -0.0012768730222763162 0.0047134296369787335 0 -0.0012571609584113405 0.004727401731009241 0 -0.0012787148781739279 0.0047219360584064129 0 -0.0012768730222763162 0.0047134296369787335 0 -0.0012932236606588425 0.0047135164081441036 0 -0.0012966354694919047 0.0047182177858104387 0 -0.0012396503591435726 0.0047351050334196653 0 -0.0011820793488971477 0.0047164707191468935 0 -0.0012603565737849638 0.0045153229980419715 0 -0.0013433601721410489 0.0044479813980701898 0 -0.0012103275878742323 0.0043497669397655047 0 -0.0011254453119978974 0.0040592751170739861 0 -0.001192341957583612 0.0040420813852076872 0 -0.0011309303991261575 0.004017993445934352 0 -0.0013413558242681956 0.0042731141507517719 0 -0.0012509526625651996 0.0042427757693363297 0 -0.0011460472773946789 0.003975320370915943 0 -0.001192341957583612 0.0040420813852076872 0 -0.0011309303991261575 0.004017993445934352 0 -0.0013458545366261555 0.0045866905528641347 0 -0.0012603565737849638 0.0045153229980419715 0 -0.0013433601721410489 0.0044479813980701898 0 -0.0012548259247578779 0.0045993372036766123 0 -0.0013458545366261555 0.0045866905528641347 0 -0.0012603565737849638 0.0045153229980419715 0 -0.0012475092504377391 0.0046249067376052961 0 -0.001259699541889095 0.004525153371359553 0 -0.0012404552286113854 0.004660937689878188 0 -0.0012603565737849638 0.0045153229980419715 0 -0.0011528389911599928 0.0046442200991907781 0 -0.0012603565737849638 0.0045153229980419715 0 -0.0011528389911599928 0.0046442200991907781 0 -0.0011637457925158764 0.0044569698962559001 0 -0.0011528389911599928 0.0046442200991907781 0 -0.0010386364472719086 0.0043873343214090596 0 -0.0011637457925158764 0.0044569698962559001 0 -0.0011427362581893493 0.004620388119992695 0 -0.0011103636408069323 0.0045913573246859161 0 -0.0012015259196009891 0.0047009320645119354 0 -0.0011528389911599928 0.0046442200991907781 0 -0.0011701649817605151 0.0047342587854308409 0 -0.0012603565737849638 0.0045153229980419715 0 -0.0011637457925158764 0.0044569698962559001 0 -0.0012103275878742323 0.0043497669397655047 0 -0.0011637457925158764 0.0044569698962559001 0 -0.0012103275878742323 0.0043497669397655047 0 -0.001114775966221818 0.0042930143011364521 0 -0.0012103275878742323 0.0043497669397655047 0 -0.001114775966221818 0.0042930143011364521 0 -0.0011418874526201398 0.0041729522440285879 0 -0.0010386364472719086 0.0043873343214090596 0 -0.0011637457925158764 0.0044569698962559001 0 -0.001114775966221818 0.0042930143011364521 0 -0.0010386364472719086 0.0043873343214090596 0 -0.001114775966221818 0.0042930143011364521 0 -0.0010077012398287493 0.004161104649804348 0 -0.0011103636408069323 0.0045913573246859161 0 -0.0010890855051529388 0.0043290778986430599 0 -0.0010890855051529388 0.0043290778986430599 0 -0.0010945024421492549 0.0041670482528936986 0 -0.001114775966221818 0.0042930143011364521 0 -0.0010077012398287493 0.004161104649804348 0 -0.0011418874526201398 0.0041729522440285879 0 -0.0010125885268486953 0.0041670761674456186 0 -0.0011418874526201398 0.0041729522440285879 0 -0.0011282425962395614 0.0040628078860787441 0 -0.0012103275878742323 0.0043497669397655047 0 -0.0011418874526201398 0.0041729522440285879 0 -0.0012402294403408131 0.0041666788399513464 0 -0.0011418874526201398 0.0041729522440285879 0 -0.0012402294403408131 0.0041666788399513464 0 -0.0011910069966903575 0.0041297878065443792 0 -0.0012402294403408131 0.0041666788399513464 0 -0.0011859783200686425 0.0041326547674022411 0 -0.0012323739933262194 0.0041122044537745747 0 -0.0012402294403408131 0.0041666788399513464 0 -0.0012323739933262194 0.0041122044537745747 0 -0.0011910069966903575 0.0041297878065443792 0 -0.0012509526625651996 0.0042427757693363297 0 -0.0012470830766289933 0.0041734654233670605 0 -0.001192341957583612 0.0040420813852076872 0 -0.0012402294403408131 0.0041666788399513464 0 -0.001171788961307943 0.0041012943182100027 0 -0.0013433601721410489 0.0044479813980701898 0 -0.0012103275878742323 0.0043497669397655047 0 -0.0012402294403408131 0.0041666788399513464 0 -0.0011254453119978974 0.0040592751170739861 0 -0.001192341957583612 0.0040420813852076872 0 -0.001171788961307943 0.0041012943182100027 0 -0.0011254453119978974 0.0040592751170739861 0 -0.001130217440288378 0.0040982410589854518 0 -0.001171788961307943 0.0041012943182100027 0 -0.001130217440288378 0.0040982410589854518 0 -0.001171788961307943 0.0041012943182100027 0 -0.0011859783200686425 0.0041326547674022411 0 -0.001130217440288378 0.0040982410589854518 0 -0.0011309635142610329 0.0041289291234004261 0 -0.0011859783200686425 0.0041326547674022411 0 -0.0012402294403408131 0.0041666788399513464 0 -0.001171788961307943 0.0041012943182100027 0 -0.0011859783200686425 0.0041326547674022411 0 -0.0011309635142610329 0.0041289291234004261 0 -0.0011859783200686425 0.0041326547674022411 0 -0.0011715782740564346 0.0041357142301423353 0 -0.0011715782740564346 0.0041357142301423353 0 -0.0012323739933262194 0.0041122044537745747 0 -0.0011543127129810169 0.0041828462819346922 0 -0.0011859783200686425 0.0041326547674022411 0 -0.0011715782740564346 0.0041357142301423353 0 -0.0012323739933262194 0.0041122044537745747 0 -0.0012323739933262194 0.0041122044537745747 0 -0.0011479970321737456 0.0039364901970481191 0 -0.0012942122770543294 0.0038701144004893431 0 -0.0012337572683573125 0.0041116878738221927 0 -0.0012457876924679052 0.0040138749895465668 0 -0.0012323739933262194 0.0041122044537745747 0 -0.0011543127129810169 0.0041828462819346922 0 -0.0011953313527113027 0.0041988632957659132 0 -0.0011301571012639284 0.0041520088195069575 0 -0.0011715782740564346 0.0041357142301423353 0 -0.0011543127129810169 0.0041828462819346922 0 -0.0010125885268486953 0.0041670761674456186 0 -0.0011282425962395614 0.0040628078860787441 0 -0.00098861684061022606 0.0039492102482977659 0 -0.0010890855051529388 0.0043290778986430599 0 -0.0009679393812924024 0.0038902728787007543 0 -0.0011418874526201398 0.0041729522440285879 0 -0.0011910069966903575 0.0041297878065443792 0 -0.0011282425962395614 0.0040628078860787441 0 -0.0012323739933262194 0.0041122044537745747 0 -0.0011282425962395614 0.0040628078860787441 0 -0.0011479970321737456 0.0039364901970481191 0 -0.0012323739933262194 0.0041122044537745747 0 -0.0011910069966903575 0.0041297878065443792 0 -0.0011282425962395614 0.0040628078860787441 0 -0.0011282425962395614 0.0040628078860787441 0 -0.0011479970321737456 0.0039364901970481191 0 -0.00098861684061022606 0.0039492102482977659 0 -0.0011479970321737456 0.0039364901970481191 0 -0.00098861684061022606 0.0039492102482977659 0 -0.0010894277628310833 0.0037580712881750008 0 -0.00093429527656275829 0.0037464757799204667 0 -0.00098861684061022606 0.0039492102482977659 0 -0.0010894277628310833 0.0037580712881750008 0 -0.0011479970321737456 0.0039364901970481191 0 -0.0010894277628310833 0.0037580712881750008 0 -0.0012942122770543294 0.0038701144004893431 0 -0.001166928736031638 0.0036478992185770341 0 -0.0010894277628310833 0.0037580712881750008 0 -0.0012942122770543294 0.0038701144004893431 0 -0.001166928736031638 0.0036478992185770341 0 -0.0010894277628310833 0.0037580712881750008 0 -0.00093745096594609638 0.0035807626410981068 0 -0.00093429527656275829 0.0037464757799204667 0 -0.0010894277628310833 0.0037580712881750008 0 -0.00093745096594609638 0.0035807626410981068 0 -0.001137327771635988 0.0042320507939751584 0 -0.0011543127129810169 0.0041828462819346922 0 -0.0011953313527113027 0.0041988632957659132 0 -0.0012457876924679052 0.0040138749895465668 0 -0.0012289928374681692 0.0040302377144431668 0 -0.001166928736031638 0.0036478992185770341 0 -0.0012942122770543294 0.0038701144004893431 0 -0.0013134225177536681 0.0036565882415449985 0 -0.001137327771635988 0.0042320507939751584 0 -0.0011953313527113027 0.0041988632957659132 0 -0.0011736082420951124 0.0042414686586982366 0 -0.001137327771635988 0.0042320507939751584 0 -0.0011736082420951124 0.0042414686586982366 0 -0.0011374582180749496 0.0042653287126840547 0 -0.0011736082420951124 0.0042414686586982366 0 -0.0011637124339780351 0.0042733856776217653 0 -0.0011374582180749496 0.0042653287126840547 0 -0.001166928736031638 0.0036478992185770341 0 -0.0013134225177536681 0.0036565882415449985 0 -0.0012499939789381836 0.003548407799400665 0 -0.0012289928374681692 0.0040302377144431668 0 -0.0013329154338550752 0.0035089986608938142 0 -0.0013134225177536681 0.0036565882415449985 0 -0.0012499939789381836 0.003548407799400665 0 -0.0013373422741725541 0.0034495171146350467 0 -0.0013329154338550752 0.0035089986608938142 0 -0.0012357282101348979 0.0033553409508379319 0 -0.0012499939789381836 0.003548407799400665 0 -0.0013373422741725541 0.0034495171146350467 0 -0.0011302055910031455 0.003521184174708738 0 -0.0015593485694242962 0.0031556603397910749 0 -0.00127845765770768 0.0032562434911574583 0 -0.0014038589241111483 0.0030567928254396455 0 -0.0015324961760901136 0.003117738032191598 0 -0.0014909152180937579 0.0030307995271491271 0 -0.0013923921766740568 0.0030330633530126876 0 -0.0013329154338550752 0.0035089986608938142 0 -0.0013917833940700365 0.0030417086145515548 0 -0.0015324961760901136 0.003117738032191598 0 -0.0016349654976410657 0.0030804409769798714 0 -0.0014909152180937579 0.0030307995271491271 0 -0.0012052510132944752 0.0034689556502137788 0 -0.0010936765682005261 0.0035074832601549632 0 -0.0010428845847821563 0.0033728353908834413 0 -0.0013329154338550752 0.0035089986608938142 0 -0.0011823773478090475 0.0030384141760827874 0 -0.0013329154338550752 0.0035089986608938142 0 -0.0011460348978782238 0.0038713041057197388 0 -0.001166928736031638 0.0036478992185770341 0 -0.0011302055910031455 0.003521184174708738 0 -0.00093745096594609638 0.0035807626410981068 0 -0.0012357282101348979 0.0033553409508379319 0 -0.00097002572193208129 0.0034759688349287167 0 -0.001166928736031638 0.0036478992185770341 0 -0.0012499939789381836 0.003548407799400665 0 -0.0011302055910031455 0.003521184174708738 0 -0.00127845765770768 0.0032562434911574583 0 -0.0011313553705950567 0.0031197294461132504 0 -0.0014038589241111483 0.0030567928254396455 0 -0.00127845765770768 0.0032562434911574583 0 -0.0011313553705950567 0.0031197294461132504 0 -0.0010188501769077827 0.0033597549280846239 0 -0.0011313553705950567 0.0031197294461132504 0 -0.0010906058055467783 0.0029321070988060035 0 -0.0012413635113855748 0.0029498693700691762 0 -0.0011313553705950567 0.0031197294461132504 0 -0.0012413635113855748 0.0029498693700691762 0 -0.0014038589241111483 0.0030567928254396455 0 -0.0012597689228974799 0.002960830716599232 0 -0.0013917833940700365 0.0030417086145515548 0 -0.0012413635113855748 0.0029498693700691762 0 -0.0013826157295008744 0.0029171779156856089 0 -0.0013923921766740568 0.0030330633530126876 0 -0.0013834517659781257 0.0027671023447453902 0 -0.0012310017401186099 0.0028137036837803621 0 -0.0012080232392646796 0.0025768517806667745 0 -0.0013826157295008744 0.0029171779156856089 0 -0.0013834517659781257 0.0027671023447453902 0 -0.0012310017401186099 0.0028137036837803621 0 -0.0012413635113855748 0.0029498693700691762 0 -0.0013826157295008744 0.0029171779156856089 0 -0.0012310017401186099 0.0028137036837803621 0 -0.0012310017401186099 0.0028137036837803621 0 -0.0010795238707159655 0.0027649591979539059 0 -0.0012080232392646796 0.0025768517806667745 0 -0.0010906058055467783 0.0029321070988060035 0 -0.0012413635113855748 0.0029498693700691762 0 -0.0012310017401186099 0.0028137036837803621 0 -0.0010906058055467783 0.0029321070988060035 0 -0.0012310017401186099 0.0028137036837803621 0 -0.0010795238707159655 0.0027649591979539059 0 -0.0012924771549734074 0.0025887115936309695 0 -0.0012859560229409428 0.0025841770631618577 0 -0.0012958136567895963 0.0025767920924720613 0 -0.0016349654976410657 0.0030804409769798714 0 -0.0014909152180937579 0.0030307995271491271 0 -0.0015132956714465175 0.0029336636272276717 0 -0.0011823773478090475 0.0030384141760827874 0 -0.0014165752858050936 0.0027516346340561988 0 -0.0013826157295008744 0.0029171779156856089 0 -0.0014909152180937579 0.0030307995271491271 0 -0.0013923921766740568 0.0030330633530126876 0 -0.0013826157295008744 0.0029171779156856089 0 -0.0014909152180937579 0.0030307995271491271 0 -0.0015132956714465175 0.0029336636272276717 0 -0.0012643876381398221 0.0025791967604505608 0 -0.0012859560229409428 0.0025841770631618577 0 -0.0012899162523188081 0.0025656195066090844 0 -0.0013157758173954527 0.0026704262727548209 0 -0.0014165752858050936 0.0027516346340561988 0 -0.0013826157295008744 0.0029171779156856089 0 -0.0013834517659781257 0.0027671023447453902 0 -0.0015132956714465175 0.0029336636272276717 0 -0.0012859560229409428 0.0025841770631618577 0 -0.0012958136567895963 0.0025767920924720613 0 -0.0012899162523188081 0.0025656195066090844 0 -0.0012958136567895963 0.0025767920924720613 0 -0.0012899162523188081 0.0025656195066090844 0 -0.0013073034899827951 0.002552280916146375 0 -0.0013060804656267655 0.0024958467127677211 0 -0.0012899162523188081 0.0025656195066090844 0 -0.0013073034899827951 0.002552280916146375 0 -0.00067205292142203169 0.001477398548398266 0 -0.00055230230409396449 0.0014658000349446704 0 -0.00071383667720119174 0.00159803437560841 0 -0.00067205292142203169 0.001477398548398266 0 -0.00055230230409396449 0.0014658000349446704 0 -0.00055873066113611267 0.0013225474220317341 0 -0.00089221918386678581 0.0019421580556579592 0 -0.0011032217419098662 0.0021284035138868966 0 -0.0013060804656267655 0.0024958467127677211 0 -0.0012899162523188081 0.0025656195066090844 0 -0.0012592842399142305 0.0025521809521246385 0 -0.0012643876381398221 0.0025791967604505608 0 -0.0012899162523188081 0.0025656195066090844 0 -0.0012592842399142305 0.0025521809521246385 0 -0.0012643876381398221 0.0025791967604505608 0 -0.0012080232392646796 0.0025768517806667745 0 -0.0012592842399142305 0.0025521809521246385 0 -0.0013157758173954527 0.0026704262727548209 0 -0.0012208656066042085 0.0025816316239821199 0 -0.0010795238707159655 0.0027649591979539059 0 -0.0012080232392646796 0.0025768517806667745 0 -0.0010554907388063523 0.0025977583088459925 0 -0.0010554907388063523 0.0025977583088459925 0 -0.0011882118002017974 0.0024824712505440573 0 -0.00097064007583540668 0.0024647608722763222 0 -0.0011882118002017974 0.0024824712505440573 0 -0.0010646390389437955 0.0023416729211292973 0 -0.00097064007583540668 0.0024647608722763222 0 -0.0012080232392646796 0.0025768517806667745 0 -0.0010554907388063523 0.0025977583088459925 0 -0.0011882118002017974 0.0024824712505440573 0 -0.0013060804656267655 0.0024958467127677211 0 -0.0011882118002017974 0.0024824712505440573 0 -0.0012227961423313034 0.0023531554977510097 0 -0.0013060804656267655 0.0024958467127677211 0 -0.0012592842399142305 0.0025521809521246385 0 -0.0011882118002017974 0.0024824712505440573 0 -0.0012080232392646796 0.0025768517806667745 0 -0.0012592842399142305 0.0025521809521246385 0 -0.0011882118002017974 0.0024824712505440573 0 -0.00039116563835153554 0.0013315743062729062 0 -0.00034512120692608449 0.0012288415156211125 0 -0.00055873066113611267 0.0013225474220317341 0 -0.0012227961423313034 0.0023531554977510097 0 -0.0010646390389437955 0.0023416729211292973 0 -0.0010498538797554765 0.0021753999036430564 0 -0.0011882118002017974 0.0024824712505440573 0 -0.0012227961423313034 0.0023531554977510097 0 -0.0010646390389437955 0.0023416729211292973 0 -0.00028256129735344527 0.00032599492404375083 0 -1.2102886771618664e-05 -0.00069131834050970942 0 -5.6888339162832389e-05 -0.00012692373480220967 0 -7.1400524503833013e-05 -0.00012334078344730673 0 -7.9430956611441567e-05 -0.00014571853550997632 0 -0.00039116563835153554 0.0013315743062729062 0 -0.00031978355055481368 0.0012400632253500782 0 -0.00022725612346448512 0.0011889123884830787 0 -0.00085722595718445039 0.0019784252443364788 0 -0.00060529418031440678 0.00082620448169969899 0 -0.00031978355055481368 0.0012400632253500782 0 -0.00024380992405986007 0.0011822791157538265 0 -0.0003458650962472311 0.0012266743414913693 0 -0.00014798985278949235 0.00067384214378581769 0 -0.00016079361032746283 0.00058050631046176269 0 -0.00028256129735344527 0.00032599492404375083 0 -0.00016079361032746283 0.00058050631046176269 0 -0.00031978355055481368 0.0012400632253500782 0 -0.00024380992405986007 0.0011822791157538265 0 -0.00022725612346448512 0.0011889123884830787 0 0.00014854962042960926 -0.0010780917926858206 0 0.00018873793911483637 -0.0010940736666149992 0 0.00015793537767687455 -0.0011314382802650469 0 -0.00028256129735344527 0.00032599492404375083 0 -0.0002380539926975995 3.8865037471126287e-05 0 -0.00054347421707705626 0.0002426164535469231 0 -0.00047884659900025061 0.0002690326361390781 0 -0.00034765107611741731 0.0001663453660083717 0 -0.00028256129735344527 0.00032599492404375083 0 -0.00060529418031440678 0.00082620448169969899 0 -0.00016079361032746283 0.00058050631046176269 0 -0.00030837548894339304 0.00086620251796613889 0 -0.00016079361032746283 0.00058050631046176269 0 -2.2621111394735537e-05 8.9612735242514571e-05 0 -7.1400524503833013e-05 -0.00012334078344730673 0 -9.5458149812964937e-05 -0.00014498907399023976 0 -7.9430956611441567e-05 -0.00014571853550997632 0 -0.00039116563835153554 0.0013315743062729062 0 -0.00031978355055481368 0.0012400632253500782 0 -0.00034512120692608449 0.0012288415156211125 0 4.550768276560093e-05 0.00034540688859748914 0 3.1565536446992005e-05 0.00035289111455551875 0 3.5744899871756011e-05 0.00033447244260860698 0 2.5544357998312535e-05 0.00033828876777500775 0 3.1565536446992005e-05 0.00035289111455551875 0 3.5744899871756011e-05 0.00033447244260860698 0 2.5544357998312535e-05 0.00033828876777500775 0 3.1565536446992005e-05 0.00035289111455551875 0 1.3551765719271819e-05 0.00035235844466565628 0 3.1565536446992005e-05 0.00035289111455551875 0 1.3551765719271819e-05 0.00035235844466565628 0 7.5647052468656333e-06 0.00037032343509039463 0 -0.00067205292142203169 0.001477398548398266 0 -0.00055873066113611267 0.0013225474220317341 0 -0.00077243014120498418 0.0014073916743710174 0 -0.00030837548894339304 0.00086620251796613889 0 -0.0001765483984061872 0.00093756352665785609 0 -0.00089221918386678581 0.0019421580556579592 0 -0.00085722595718445039 0.0019784252443364788 0 -0.00055230230409396449 0.0014658000349446704 0 -0.00039116563835153554 0.0013315743062729062 0 -0.00055873066113611267 0.0013225474220317341 0 -0.0006030344242394242 0.00077420726440189714 0 -0.00060494766280559491 0.00077245117872354872 0 -0.00060339792032057364 0.00076785493634472018 0 -0.0006030344242394242 0.00077420726440189714 0 -0.00060494766280559491 0.00077245117872354872 0 -0.00061220837303557285 0.00077222190265609247 0 -0.00062345733729589044 0.0015165050111323383 0 -0.00056662306171762866 0.0018907460702436813 0 -0.00061144008987652743 0.00077234589869613446 0 -0.00060494766280559491 0.00077245117872354872 0 -0.00061220837303557285 0.00077222190265609247 0 -0.00061144008987652743 0.00077234589869613446 0 -0.00061220837303557285 0.00077222190265609247 0 -0.00061351429442587334 0.00077222647433364158 0 -0.00056662306171762866 0.0018907460702436813 0 -0.00049806836913272336 0.0016481413532692516 0 -0.00061144008987652743 0.00077234589869613446 0 -0.00060494766280559491 0.00077245117872354872 0 -0.00061195531764828654 0.00077292139934629343 0 -0.00060494766280559491 0.00077245117872354872 0 -0.00061195531764828654 0.00077292139934629343 0 -0.00060062473893103595 0.00077017901326155349 0 -0.00061195531764828654 0.00077292139934629343 0 -0.00060062473893103595 0.00077017901326155349 0 -0.00061010483823398709 0.00077657648415371382 0 -0.0006030344242394242 0.00077420726440189714 0 -0.00060339792032057364 0.00076785493634472018 0 -0.00061047066036678166 0.0007695100201801574 0 -0.00060062473893103595 0.00077017901326155349 0 -0.00060339792032057364 0.00076785493634472018 0 -0.00059969210082690019 0.00075565750942279536 0 -0.00060494766280559491 0.00077245117872354872 0 -0.00060062473893103595 0.00077017901326155349 0 -0.00060339792032057364 0.00076785493634472018 0 -0.00061047066036678166 0.0007695100201801574 0 -0.00061413893339482537 0.00076065258496647837 0 -0.000609180572124293 0.00075482806393757684 0 -0.00060339792032057364 0.00076785493634472018 0 -0.00061047066036678166 0.0007695100201801574 0 -0.000609180572124293 0.00075482806393757684 0 -0.0010646390389437955 0.0023416729211292973 0 -0.0010498538797554765 0.0021753999036430564 0 -0.00085177615131744593 0.002247923813991329 0 -0.00060529418031440678 0.00082620448169969899 0 -0.00074316193425286951 0.0015676257455816936 0 -0.00061541562517573346 0.00076216495797324984 0 -0.00061047066036678166 0.0007695100201801574 0 -0.00061413893339482537 0.00076065258496647837 0 -0.00060529418031440678 0.00082620448169969899 0 -0.0002380539926975995 3.8865037471126287e-05 0 -0.0010646390389437955 0.0023416729211292973 0 -0.00085177615131744593 0.002247923813991329 0 -0.00097064007583540668 0.0024647608722763222 0 -0.00062345733729589044 0.0015165050111323383 0 -0.00074316193425286951 0.0015676257455816936 0 -0.00085177615131744593 0.002247923813991329 0 -0.00077409882239808765 0.0024865743030604609 0 -0.00097064007583540668 0.0024647608722763222 0 -0.00063834402147815649 0.0023247150067695218 0 -0.00085177615131744593 0.002247923813991329 0 -0.00077409882239808765 0.0024865743030604609 0 -0.00077409882239808765 0.0024865743030604609 0 -0.00097064007583540668 0.0024647608722763222 0 -0.00087030135121543811 0.00269070625157146 0 -0.0010554907388063523 0.0025977583088459925 0 -0.00097064007583540668 0.0024647608722763222 0 -0.00087030135121543811 0.00269070625157146 0 -0.0010795238707159655 0.0027649591979539059 0 -0.0010554907388063523 0.0025977583088459925 0 -0.00087030135121543811 0.00269070625157146 0 -0.00077409882239808765 0.0024865743030604609 0 -0.00087030135121543811 0.00269070625157146 0 -0.00053666605190048281 0.0026949488496873699 0 -0.00063834402147815649 0.0023247150067695218 0 -0.00077409882239808765 0.0024865743030604609 0 -0.00058583721830810149 0.0024993015664420467 0 -0.00077409882239808765 0.0024865743030604609 0 -0.00058583721830810149 0.0024993015664420467 0 -0.00053666605190048281 0.0026949488496873699 0 -0.00063834402147815649 0.0023247150067695218 0 -0.00058583721830810149 0.0024993015664420467 0 -0.00041868352982601573 0.0024099323161185203 0 -0.00056662306171762866 0.0018907460702436813 0 -0.00057523567487195585 0.0028710355787748549 0 -0.00058583721830810149 0.0024993015664420467 0 -0.00041868352982601573 0.0024099323161185203 0 -0.00053666605190048281 0.0026949488496873699 0 -0.00050491295543584496 0.0025751546766508522 0 -0.00060742431800269684 0.0027912310110855504 0 -0.00042705030828349319 0.0027428915390558493 0 -0.00060742431800269684 0.0027912310110855504 0 -0.00072514483776455212 0.0030536208425770389 0 -0.00050870954377123321 0.0030708425726562053 0 -0.00087030135121543811 0.00269070625157146 0 -0.00053666605190048281 0.0026949488496873699 0 -0.00065842318387715102 0.0029909462358686956 0 -0.00057523567487195585 0.0028710355787748549 0 -0.0006879275234224167 0.0029960430716877672 0 -0.0010795238707159655 0.0027649591979539059 0 -0.00087030135121543811 0.00269070625157146 0 -0.00093876960300743652 0.0028679582711517927 0 -0.0010906058055467783 0.0029321070988060035 0 -0.0010795238707159655 0.0027649591979539059 0 -0.00093876960300743652 0.0028679582711517927 0 -0.00087030135121543811 0.00269070625157146 0 -0.00065842318387715102 0.0029909462358686956 0 -0.00093876960300743652 0.0028679582711517927 0 -0.00065842318387715102 0.0029909462358686956 0 -0.00093876960300743652 0.0028679582711517927 0 -0.00096348393847332651 0.0030389330943018759 0 -0.00065842318387715102 0.0029909462358686956 0 -0.00096348393847332651 0.0030389330943018759 0 -0.0009385709786522029 0.0032122929553277902 0 -0.0011313553705950567 0.0031197294461132504 0 -0.0010906058055467783 0.0029321070988060035 0 -0.00096348393847332651 0.0030389330943018759 0 -0.0010906058055467783 0.0029321070988060035 0 -0.00093876960300743652 0.0028679582711517927 0 -0.00096348393847332651 0.0030389330943018759 0 -0.0011313553705950567 0.0031197294461132504 0 -0.0009385709786522029 0.0032122929553277902 0 -0.0010188501769077827 0.0033597549280846239 0 -0.0011313553705950567 0.0031197294461132504 0 -0.00096348393847332651 0.0030389330943018759 0 -0.0009385709786522029 0.0032122929553277902 0 -0.00065842318387715102 0.0029909462358686956 0 -0.0009385709786522029 0.0032122929553277902 0 -0.00081713800088849178 0.0033139753621170441 0 -0.00076293064765980674 0.0035478813218387042 0 -0.00097002572193208129 0.0034759688349287167 0 -0.00078631734764088681 0.0034734251818208718 0 -0.00081713800088849178 0.0033139753621170441 0 -0.0010188501769077827 0.0033597549280846239 0 -0.0009385709786522029 0.0032122929553277902 0 -0.00081713800088849178 0.0033139753621170441 0 -0.0010188501769077827 0.0033597549280846239 0 -0.00072514483776455212 0.0030536208425770389 0 -0.00050870954377123321 0.0030708425726562053 0 -0.00064199854649093732 0.0033167652195964449 0 -0.00050870954377123321 0.0030708425726562053 0 -0.00064199854649093732 0.0033167652195964449 0 -0.0004425826559779889 0.0033261798960005605 0 -0.0006879275234224167 0.0029960430716877672 0 -0.00081408512834571175 0.0033109204965170941 0 -0.00072514483776455212 0.0030536208425770389 0 -0.00081713800088849178 0.0033139753621170441 0 -0.00064199854649093732 0.0033167652195964449 0 -0.00078631734764088681 0.0034734251818208718 0 -0.00081713800088849178 0.0033139753621170441 0 -0.00064199854649093732 0.0033167652195964449 0 -0.00054811489414478463 0.0036230103759384603 0 -0.00064199854649093732 0.0033167652195964449 0 -0.0004425826559779889 0.0033261798960005605 0 -0.00032921207649039508 0.0034967677386116731 0 -0.0004425826559779889 0.0033261798960005605 0 -0.00025813260460864652 0.0032953309395100331 0 -0.00050870954377123321 0.0030708425726562053 0 -0.0004425826559779889 0.0033261798960005605 0 -0.00036465132369392005 0.0031520859298364637 0 -0.0004425826559779889 0.0033261798960005605 0 -0.00036465132369392005 0.0031520859298364637 0 -0.00025813260460864652 0.0032953309395100331 0 -0.00036465132369392005 0.0031520859298364637 0 -0.00025813260460864652 0.0032953309395100331 0 -0.00020084197432039631 0.0031187419905396485 0 -0.00025813260460864652 0.0032953309395100331 0 -8.1730014897893146e-05 0.0033254667569381081 0 -0.00020084197432039631 0.0031187419905396485 0 -0.00025813260460864652 0.0032953309395100331 0 -0.00015487703366090527 0.0034394746372358957 0 -8.1730014897893146e-05 0.0033254667569381081 0 -0.00032921207649039508 0.0034967677386116731 0 -0.00025813260460864652 0.0032953309395100331 0 -0.00015487703366090527 0.0034394746372358957 0 -0.00015487703366090527 0.0034394746372358957 0 -9.9026575186463644e-06 0.0034757933454427209 0 -9.0175412456451165e-05 0.0033353606064980886 0 -0.0010958041542118273 0.0031175292082642274 0 -0.0011598555143277401 0.0030061731856833953 0 -0.0010133212332292221 0.002967095586428675 0 -0.00087032943902960475 0.0033353534202614421 0 -0.00035048318193334503 0.0032013138587172513 0 -0.00020405940292852223 0.0033672843982332722 0 -0.00035048318193334503 0.0032013138587172513 0 -0.00087032943902960475 0.0033353534202614421 0 -0.001044371858833175 0.0029499390416711044 0 -0.001138783823447273 0.0031612739435564969 0 -0.0010051438478737586 0.0030788777085709513 0 -0.0010133212332292221 0.002967095586428675 0 -0.0009914743617581317 0.0032062150644649886 0 -0.0010051438478737586 0.0030788777085709513 0 -0.00091714673091617153 0.0030818010610765144 0 -0.0009914743617581317 0.0032062150644649886 0 -0.001138783823447273 0.0031612739435564969 0 -0.0010051438478737586 0.0030788777085709513 0 -0.0010051438478737586 0.0030788777085709513 0 -0.00096193891815492532 0.0029818190160859001 0 -0.00091714673091617153 0.0030818010610765144 0 -0.0010051438478737586 0.0030788777085709513 0 -0.0010133212332292221 0.002967095586428675 0 -0.00096193891815492532 0.0029818190160859001 0 -0.0010133212332292221 0.002967095586428675 0 -0.00096193891815492532 0.0029818190160859001 0 -0.0010396877573796077 0.0028058305970045595 0 -0.0019328930049447401 0.0023120282760808511 0 -0.0019543863895634043 0.0022354419594315723 0 -0.0019117296479768972 0.0022539921898474848 0 -0.0015256150617925803 0.0025880079640005229 0 -0.00092896299262766038 0.0026536664654278315 0 -0.0011598555143277401 0.0030061731856833953 0 -0.0010133212332292221 0.002967095586428675 0 -0.0010396877573796077 0.0028058305970045595 0 -0.00025697278317516047 0.003042802726507355 0 -0.00023699941325527576 0.0029550050811777591 0 -0.00019061611622322544 0.0029376759676465335 0 -0.00035048318193334503 0.0032013138587172513 0 -0.000236700638604832 0.0030483802722531361 0 -0.00025697278317516047 0.003042802726507355 0 -0.00023699941325527576 0.0029550050811777591 0 -0.00029982794077634914 0.0029622494160115027 0 -0.00035048318193334503 0.0032013138587172513 0 -0.00092896299262766038 0.0026536664654278315 0 -0.00023699941325527576 0.0029550050811777591 0 -0.00025716164034961258 0.0029077702834999206 0 -0.00029982794077634914 0.0029622494160115027 0 -0.00023699941325527576 0.0029550050811777591 0 -0.00025716164034961258 0.0029077702834999206 0 -0.00019594204663591131 0.0029232066145355269 0 -0.00025716164034961258 0.0029077702834999206 0 -0.00019594204663591131 0.0029232066145355269 0 -0.00019486316669929004 0.0028488066723742836 0 -0.0019543863895634043 0.0022354419594315723 0 -0.0019242104985897196 0.0021853291107618062 0 -0.0019117296479768972 0.0022539921898474848 0 -0.00023699941325527576 0.0029550050811777591 0 -0.00019061611622322544 0.0029376759676465335 0 -0.00019594204663591131 0.0029232066145355269 0 -0.00092896299262766038 0.0026536664654278315 0 -0.00080394430678817344 0.0027985771857409673 0 -0.00092896299262766038 0.0026536664654278315 0 -0.0011095615523988153 0.0025831256545151143 0 -0.00019032981988688911 0.0029379069554638058 0 -0.00019594204663591131 0.0029232066145355269 0 -0.00015186594321812662 0.0028695720621170618 0 -0.00015186594321812662 0.0028695720621170618 0 -0.00019486316669929004 0.0028488066723742836 0 -0.00011923351820728394 0.0028025661802686831 0 -0.00019594204663591131 0.0029232066145355269 0 -0.00015186594321812662 0.0028695720621170618 0 -0.00019486316669929004 0.0028488066723742836 0 -0.00019486316669929004 0.0028488066723742836 0 -0.00026161583311614669 0.0028446230242379837 0 -0.00020954610650407006 0.0027513761579606227 0 -0.00025716164034961258 0.0029077702834999206 0 -0.00019486316669929004 0.0028488066723742836 0 -0.00026161583311614669 0.0028446230242379837 0 -0.00025716164034961258 0.0029077702834999206 0 -0.00026161583311614669 0.0028446230242379837 0 -0.00034526483435115009 0.0029097134761084872 0 -0.00026161583311614669 0.0028446230242379837 0 -0.00034526483435115009 0.0029097134761084872 0 -0.00031575729402629979 0.0027870534506643481 0 -0.00060742431800269684 0.0027912310110855504 0 -0.00050870954377123321 0.0030708425726562053 0 -0.00034526483435115009 0.0029097134761084872 0 -0.00050870954377123321 0.0030708425726562053 0 -0.00036465132369392005 0.0031520859298364637 0 -0.00034526483435115009 0.0029097134761084872 0 -0.00033857107823790495 0.0029147761178064994 0 -0.000236700638604832 0.0030483802722531361 0 -0.00036465132369392005 0.0031520859298364637 0 -0.00034526483435115009 0.0029097134761084872 0 -0.00020084197432039631 0.0031187419905396485 0 -0.00025716164034961258 0.0029077702834999206 0 -0.00034526483435115009 0.0029097134761084872 0 -0.00029982794077634914 0.0029622494160115027 0 -0.0019749600274894018 0.0022714862549886154 0 -0.0021838209934361415 0.0022120793912464459 0 -0.0025411989128875847 0.002195141590012641 0 -0.0021838209934361415 0.0022120793912464459 0 -0.0028327880580088366 0.0021632288742352256 0 -0.0028208673332308543 0.0022785003689082366 0 -0.0029273239468318225 0.0021961093012546132 0 -0.0017079334529108161 0.0022444429743506949 0 -0.0016748784844109984 0.0022966943100352589 0 -0.0016692773331664897 0.0022029957176262103 0 -0.0022631360060472289 0.0022535165747628251 0 -0.0022729395329535687 0.0022588299012118135 0 -0.0022654055402850115 0.0021958726686970077 0 -0.0017079334529108161 0.0022444429743506949 0 -0.0016748784844109984 0.0022966943100352589 0 -0.0017320668308726096 0.0022963718615756161 0 -0.0019749600274894018 0.0022714862549886154 0 -0.0021384750588935614 0.0023529684390650599 0 -0.0016748784844109984 0.0022966943100352589 0 -0.001683016248606579 0.0023856592281742161 0 -0.0017061977432295088 0.0023408167656533119 0 -0.0025411989128875847 0.002195141590012641 0 -0.0026782770141315915 0.0022662234951832949 0 -0.0028327880580088366 0.0021632288742352256 0 -0.0028424662763596102 0.002043992542860066 0 -0.0028987516610722475 0.0021311616126162888 0 -0.0022729395329535687 0.0022588299012118135 0 -0.0022587709742036416 0.0023137425730643253 0 -0.0022784565429052857 0.0023246631864947105 0 -0.0022631360060472289 0.0022535165747628251 0 -0.0022729395329535687 0.0022588299012118135 0 -0.0022587709742036416 0.0023137425730643253 0 -0.0025216649986439677 0.0023808650945146555 0 -0.0025050101692811002 0.0023247678577503249 0 -0.0025611141841285524 0.0023552850204326702 0 -0.0026782770141315915 0.0022662234951832949 0 -0.0021384750588935614 0.0023529684390650599 0 -0.0017111946663024321 0.002387970683979689 0 -0.0017061977432295088 0.0023408167656533119 0 -0.0017262005966975917 0.0023633118408464058 0 -0.0017111946663024321 0.002387970683979689 0 -0.001683016248606579 0.0023856592281742161 0 -0.0017061977432295088 0.0023408167656533119 0 -0.0016996395361146876 0.0023944194918841455 0 -0.0017111946663024321 0.002387970683979689 0 -0.0017433613581866775 0.0023878361890724764 0 -0.0019064390056482332 0.0024017372211653999 0 -0.0021384750588935614 0.0023529684390650599 0 -0.001699812609880412 0.0023946128637971557 0 -0.0017111946663024321 0.002387970683979689 0 -0.001683016248606579 0.0023856592281742161 0 -0.0016748784844109984 0.0022966943100352589 0 -0.0017061977432295088 0.0023408167656533119 0 -0.0017320668308726096 0.0022963718615756161 0 -0.0017061977432295088 0.0023408167656533119 0 -0.0017512572247567499 0.0023456130432927651 0 -0.0017262005966975917 0.0023633118408464058 0 -0.0017512572247567499 0.0023456130432927651 0 -0.0017787616631372461 0.0023028671834224535 0 -0.0017320668308726096 0.0022963718615756161 0 -0.0017061977432295088 0.0023408167656533119 0 -0.0017512572247567499 0.0023456130432927651 0 -0.0017320668308726096 0.0022963718615756161 0 -0.0017512572247567499 0.0023456130432927651 0 -0.0017262005966975917 0.0023633118408464058 0 -0.0017433613581866775 0.0023878361890724764 0 -0.0017512572247567499 0.0023456130432927651 0 -0.0017433613581866775 0.0023878361890724764 0 -0.0017742024053218855 0.0023740639171117425 0 -0.0017111946663024321 0.002387970683979689 0 -0.0017262005966975917 0.0023633118408464058 0 -0.0017433613581866775 0.0023878361890724764 0 -0.0017512572247567499 0.0023456130432927651 0 -0.0017742024053218855 0.0023740639171117425 0 -0.0018043639973341875 0.0023515325968882861 0 -0.0017725363415668168 0.0024021152367959234 0 -0.0017742024053218855 0.0023740639171117425 0 -0.0017979286113366155 0.0023828114816388363 0 -0.0017725363415668168 0.0024021152367959234 0 -0.0017433613581866775 0.0023878361890724764 0 -0.0017742024053218855 0.0023740639171117425 0 -0.0017742024053218855 0.0023740639171117425 0 -0.0018043639973341875 0.0023515325968882861 0 -0.0017979286113366155 0.0023828114816388363 0 -0.0017512572247567499 0.0023456130432927651 0 -0.0017787616631372461 0.0023028671834224535 0 -0.0018043639973341875 0.0023515325968882861 0 -0.0017787616631372461 0.0023028671834224535 0 -0.0017721256517201978 0.0022459275006616966 0 -0.0018234120706066867 0.0022901950049801817 0 -0.0017787616631372461 0.0023028671834224535 0 -0.0017320668308726096 0.0022963718615756161 0 -0.0017721256517201978 0.0022459275006616966 0 -0.0017079334529108161 0.0022444429743506949 0 -0.0017320668308726096 0.0022963718615756161 0 -0.0017721256517201978 0.0022459275006616966 0 -0.0017721256517201978 0.0022459275006616966 0 -0.0018234120706066867 0.0022901950049801817 0 -0.0018390891474734535 0.0022064071879882448 0 -0.0018234120706066867 0.0022901950049801817 0 -0.0018753122650117099 0.0022781061371894436 0 -0.0018390891474734535 0.0022064071879882448 0 -0.0018234120706066867 0.0022901950049801817 0 -0.0018666052166294146 0.002344111342839056 0 -0.0018753122650117099 0.0022781061371894436 0 -0.0018234120706066867 0.0022901950049801817 0 -0.0018043639973341875 0.0023515325968882861 0 -0.0018666052166294146 0.002344111342839056 0 -0.0019030537536319622 0.0024114452003419478 0 -0.0018265517560336984 0.0023993509025614836 0 -0.0018666052166294146 0.002344111342839056 0 -0.0017787616631372461 0.0023028671834224535 0 -0.0018234120706066867 0.0022901950049801817 0 -0.0018043639973341875 0.0023515325968882861 0 -0.0018265517560336984 0.0023993509025614836 0 -0.0018043639973341875 0.0023515325968882861 0 -0.0018666052166294146 0.002344111342839056 0 -0.0018265517560336984 0.0023993509025614836 0 -0.0018043639973341875 0.0023515325968882861 0 -0.0017979286113366155 0.0023828114816388363 0 -0.0019328930049447401 0.0023120282760808511 0 -0.0018666052166294146 0.002344111342839056 0 -0.0019209026554734025 0.0023556044360884933 0 -0.0019030537536319622 0.0024114452003419478 0 -0.0018666052166294146 0.002344111342839056 0 -0.0019209026554734025 0.0023556044360884933 0 -0.001688999553817385 0.002558996022822173 0 -0.0014627632937142061 0.0027573836953836885 0 -0.0015256150617925803 0.0025880079640005229 0 -0.0014627632937142061 0.0027573836953836885 0 -0.0019328930049447401 0.0023120282760808511 0 -0.0018753122650117099 0.0022781061371894436 0 -0.0019117296479768972 0.0022539921898474848 0 -0.0019328930049447401 0.0023120282760808511 0 -0.0018666052166294146 0.002344111342839056 0 -0.0018753122650117099 0.0022781061371894436 0 -0.0019242104985897196 0.0021853291107618062 0 -0.0019117296479768972 0.0022539921898474848 0 -0.0018799031243184518 0.0022113419929260256 0 -0.0018753122650117099 0.0022781061371894436 0 -0.0019117296479768972 0.0022539921898474848 0 -0.0018799031243184518 0.0022113419929260256 0 -0.0018823217069698266 0.0022323427753992878 0 -0.0018983287048084411 0.0022865931732942509 0 -0.0019242104985897196 0.0021853291107618062 0 -0.0018799031243184518 0.0022113419929260256 0 -0.0018868831222614167 0.0021272603441435038 0 -0.0018983287048084411 0.0022865931732942509 0 -0.0014814078950162559 0.0014983605658008454 0 -0.0011095615523988153 0.0025831256545151143 0 -0.0014814078950162559 0.0014983605658008454 0 -0.0019085837409993315 0.0021593342784278491 0 -0.0017913967687467872 0.0021002522657149209 0 -0.001929972931915864 0.0020412742016694949 0 -0.0021085080002495264 0.0012379254172580761 0 -0.0014814078950162559 0.0014983605658008454 0 -0.0022999147333324587 0.00049396190517103948 0 -0.0022300514951585529 0.00058313897864049034 0 -0.0021239587291391024 0.0005514687073482125 0 -0.0019085837409993315 0.0021593342784278491 0 -0.0018390891474734535 0.0022064071879882448 0 -0.0017913967687467872 0.0021002522657149209 0 -0.0018753122650117099 0.0022781061371894436 0 -0.0019085837409993315 0.0021593342784278491 0 -0.0018390891474734535 0.0022064071879882448 0 -0.0018390891474734535 0.0022064071879882448 0 -0.0017846574891529185 0.0021851899263947787 0 -0.0017913967687467872 0.0021002522657149209 0 -0.0017721256517201978 0.0022459275006616966 0 -0.0018390891474734535 0.0022064071879882448 0 -0.0017846574891529185 0.0021851899263947787 0 -0.0017363735368419234 0.0021869266656835431 0 -0.0017913967687467872 0.0021002522657149209 0 -0.0016684631025203911 0.002158912560122577 0 -0.0017721256517201978 0.0022459275006616966 0 -0.0017846574891529185 0.0021851899263947787 0 -0.0017363735368419234 0.0021869266656835431 0 -0.0017079334529108161 0.0022444429743506949 0 -0.0017721256517201978 0.0022459275006616966 0 -0.0017363735368419234 0.0021869266656835431 0 -0.0017846574891529185 0.0021851899263947787 0 -0.0017363735368419234 0.0021869266656835431 0 -0.0017913967687467872 0.0021002522657149209 0 -0.0022999147333324587 0.00049396190517103948 0 -0.0023737990125474251 0.00053350259578856273 0 -0.0024523967122455788 0.00047541167711362176 0 -0.0021085080002495264 0.0012379254172580761 0 -0.0023406127514660176 0.0014838385582123799 0 -0.0022999147333324587 0.00049396190517103948 0 -0.0023737990125474251 0.00053350259578856273 0 -0.0023033528791358603 0.00060466770858416598 0 -0.0023737990125474251 0.00053350259578856273 0 -0.0024493805975147778 0.00051624944269537839 0 -0.0024523967122455788 0.00047541167711362176 0 -0.0022999147333324587 0.00049396190517103948 0 -0.0024523967122455788 0.00047541167711362176 0 -0.0024505989248343137 0.00045441179997348627 0 -0.0023737990125474251 0.00053350259578856273 0 -0.0024493805975147778 0.00051624944269537839 0 -0.0024519774087720971 0.00055634190951749172 0 -0.0024493805975147778 0.00051624944269537839 0 -0.0024743917053557459 0.00049865060317463253 0 -0.0024918958075028689 0.0005183828631814874 0 -0.0024493805975147778 0.00051624944269537839 0 -0.0024519774087720971 0.00055634190951749172 0 -0.0024918958075028689 0.0005183828631814874 0 -0.0024493805975147778 0.00051624944269537839 0 -0.0024743917053557459 0.00049865060317463253 0 -0.0024523967122455788 0.00047541167711362176 0 -0.0023406127514660176 0.0014838385582123799 0 -0.0021838209934361415 0.0022120793912464459 0 -0.0016736552995554033 0.0021760630289273781 0 -0.0016684631025203911 0.002158912560122577 0 -0.0016735538659080364 0.0022001758244359574 0 -0.0024523967122455788 0.00047541167711362176 0 -0.0024516623898331188 0.00046054206342822164 0 -0.0025028954353924753 0.00048514967364125539 0 -0.0016736552995554033 0.0021760630289273781 0 -0.0016684631025203911 0.002158912560122577 0 -0.0016990461234267567 0.0021924380545132213 0 -0.0023341286745679393 0.0010327493862150386 0 -0.0023406127514660176 0.0014838385582123799 0 -0.0017363735368419234 0.0021869266656835431 0 -0.0016684631025203911 0.002158912560122577 0 -0.0016990461234267567 0.0021924380545132213 0 -0.0017079334529108161 0.0022444429743506949 0 -0.0017363735368419234 0.0021869266656835431 0 -0.0016990461234267567 0.0021924380545132213 0 -0.0017079334529108161 0.0022444429743506949 0 -0.0016990461234267567 0.0021924380545132213 0 -0.0016692773331664897 0.0022029957176262103 0 -0.0016736552995554033 0.0021760630289273781 0 -0.0016990461234267567 0.0021924380545132213 0 -0.0016692773331664897 0.0022029957176262103 0 -0.0020820629154896728 0.0022134996416309591 0 -0.0021838209934361415 0.0022120793912464459 0 -0.0024362960898134303 0.00063303047528580597 0 -0.002455085754898903 0.00069930509389822275 0 -0.0024941192037982139 0.00064602065183072771 0 -0.0024362960898134303 0.00063303047528580597 0 -0.0024979117018224368 0.00059256723005618266 0 -0.0024941192037982139 0.00064602065183072771 0 -0.0024362960898134303 0.00063303047528580597 0 -0.0024519774087720971 0.00055634190951749172 0 -0.0024979117018224368 0.00059256723005618266 0 -0.0023737990125474251 0.00053350259578856273 0 -0.0024362960898134303 0.00063303047528580597 0 -0.0024519774087720971 0.00055634190951749172 0 -0.0023737990125474251 0.00053350259578856273 0 -0.0024362960898134303 0.00063303047528580597 0 -0.0023033528791358603 0.00060466770858416598 0 -0.0024362960898134303 0.00063303047528580597 0 -0.0023100430254062326 0.00063547631499284545 0 -0.002389159456007383 0.00068932428208979635 0 -0.0023642941494215353 0.00064738545049021089 0 -0.0024294293092647083 0.00065913344259933338 0 -0.0024362960898134303 0.00063303047528580597 0 -0.0023033528791358603 0.00060466770858416598 0 -0.0022617380833732468 0.00071730913589558402 0 -0.0022617380833732468 0.00071730913589558402 0 -0.0022067578730538859 0.00067883424306636219 0 -0.0020461908921518691 0.00077976578032245615 0 -0.0023033528791358603 0.00060466770858416598 0 -0.0022617380833732468 0.00071730913589558402 0 -0.0022067578730538859 0.00067883424306636219 0 -0.0022999147333324587 0.00049396190517103948 0 -0.0023033528791358603 0.00060466770858416598 0 -0.0022300514951585529 0.00058313897864049034 0 -0.0023033528791358603 0.00060466770858416598 0 -0.0022067578730538859 0.00067883424306636219 0 -0.0022300514951585529 0.00058313897864049034 0 -0.0022067578730538859 0.00067883424306636219 0 -0.0022300514951585529 0.00058313897864049034 0 -0.0021239587291391024 0.0005514687073482125 0 -0.0022633849090171131 0.0004084140597014466 0 -0.0014814078950162559 0.0014983605658008454 0 -0.0014814078950162559 0.0014983605658008454 0 -0.001393453780002731 0.00059699606990049406 0 -0.0022067578730538859 0.00067883424306636219 0 -0.0020939892838509628 0.00053755318491757905 0 -0.0020730162073800246 0.00065674919856276333 0 -0.0024294293092647083 0.00065913344259933338 0 -0.0014745257364664267 0.00072661687878174054 0 -0.0022067578730538859 0.00067883424306636219 0 -0.0020730162073800246 0.00065674919856276333 0 -0.0020461908921518691 0.00077976578032245615 0 -0.001393453780002731 0.00059699606990049406 0 -0.0014745257364664267 0.00072661687878174054 0 -0.0023100430254062326 0.00063547631499284545 0 -0.0022448888217801301 0.00070723447798663698 0 -0.0021653305302733118 0.00066055036191649144 0 -0.0022448888217801301 0.00070723447798663698 0 -0.0021653305302733118 0.00066055036191649144 0 -0.0021485164559555789 0.00073948463516588191 0 -0.0022448888217801301 0.00070723447798663698 0 -0.0022571443789864069 0.00079754760025734384 0 -0.0021485164559555789 0.00073948463516588191 0 -0.0022571443789864069 0.00079754760025734384 0 -0.0021485164559555789 0.00073948463516588191 0 -0.002128814283187916 0.00081471183789472894 0 -0.0022448888217801301 0.00070723447798663698 0 -0.0022571443789864069 0.00079754760025734384 0 -0.0023165653940808439 0.00072169401844494343 0 -0.0022571443789864069 0.00079754760025734384 0 -0.0023165653940808439 0.00072169401844494343 0 -0.0023787777112216782 0.00077852079549704909 0 -0.002374892359590004 -0.0002629607309859802 0 -0.0024502775268848689 -0.00027973882930235766 0 -0.0023100430254062326 0.00063547631499284545 0 -0.0022448888217801301 0.00070723447798663698 0 -0.0023165653940808439 0.00072169401844494343 0 -0.0023165653940808439 0.00072169401844494343 0 -0.002389159456007383 0.00068932428208979635 0 -0.0023787777112216782 0.00077852079549704909 0 -0.0023100430254062326 0.00063547631499284545 0 -0.0023165653940808439 0.00072169401844494343 0 -0.002389159456007383 0.00068932428208979635 0 -0.0023787777112216782 0.00077852079549704909 0 -0.002455085754898903 0.00069930509389822275 0 -0.0024935141261712892 0.00076776472919623116 0 -0.002560525504379455 -0.0013432297173461508 0 -0.0026313493585106533 -0.0010952543048333993 0 -0.0029022611884279743 -0.0014031740312441703 0 -0.0024502775268848689 -0.00027973882930235766 0 -0.0026591429834087188 -0.00029949365581608396 0 -0.0024362960898134303 0.00063303047528580597 0 -0.002389159456007383 0.00068932428208979635 0 -0.002455085754898903 0.00069930509389822275 0 -0.002389159456007383 0.00068932428208979635 0 -0.0023787777112216782 0.00077852079549704909 0 -0.002455085754898903 0.00069930509389822275 0 -0.00063093677493152793 0.00077171300282806747 0 -0.00063805270128968286 0.00077457209927035925 0 -0.00063142147687448094 0.00077057422002036662 0 -0.00063093677493152793 0.00077171300282806747 0 -0.00063142147687448094 0.00077057422002036662 0 -0.00062175561251583806 0.00077133201906840355 0 -0.00050491295543584496 0.0025751546766508522 0 -0.00033012850875809057 0.0026684974222569743 0 -0.00042705030828349319 0.0027428915390558493 0 -0.00061333290798745591 0.00077147649640936012 0 -0.00063093677493152793 0.00077171300282806747 0 -0.00062175561251583806 0.00077133201906840355 0 -0.00056662306171762866 0.0018907460702436813 0 -0.00053855478045917353 0.00167475812614826 0 -0.00060742431800269684 0.0027912310110855504 0 -0.00034526483435115009 0.0029097134761084872 0 -0.00042705030828349319 0.0027428915390558493 0 -0.00033012850875809057 0.0026684974222569743 0 -0.00031575729402629979 0.0027870534506643481 0 -0.00020954610650407006 0.0027513761579606227 0 -0.00034526483435115009 0.0029097134761084872 0 -0.00042705030828349319 0.0027428915390558493 0 -0.00031575729402629979 0.0027870534506643481 0 -0.00033012850875809057 0.0026684974222569743 0 -0.00042705030828349319 0.0027428915390558493 0 -0.00031575729402629979 0.0027870534506643481 0 -0.00026161583311614669 0.0028446230242379837 0 -0.00031575729402629979 0.0027870534506643481 0 -0.00020954610650407006 0.0027513761579606227 0 -0.00066078730793082984 0.00077993546848961098 0 -0.00065533068256827694 0.00077862723453469749 0 -0.00064265101335110218 0.00077732822645769676 0 -0.00019486316669929004 0.0028488066723742836 0 -0.00011923351820728394 0.0028025661802686831 0 -0.00020954610650407006 0.0027513761579606227 0 -0.0014814078950162559 0.0014983605658008454 0 -0.00018436353553431475 0.0018470605243734639 0 -0.00065533068256827694 0.00077862723453469749 0 -0.00064265101335110218 0.00077732822645769676 0 -0.00064582348893976738 0.00077752532509378245 0 -0.00065533068256827694 0.00077862723453469749 0 -0.0006535655973904386 0.00078006295131689254 0 -0.00064582348893976738 0.00077752532509378245 0 -0.00064265101335110218 0.00077732822645769676 0 -0.00064582348893976738 0.00077752532509378245 0 -0.00063805270128968286 0.00077457209927035925 0 -0.00053855478045917353 0.00167475812614826 0 -0.00018436353553431475 0.0018470605243734639 0 -0.00063093677493152793 0.00077171300282806747 0 -0.00064265101335110218 0.00077732822645769676 0 -0.00063805270128968286 0.00077457209927035925 0 -0.00064582348893976738 0.00077752532509378245 0 -0.00063805270128968286 0.00077457209927035925 0 -0.00064199430803753863 0.00077793846165585693 0 -0.00066986416154680094 0.0007474578257920956 0 -0.00065993785519755446 0.00077375656115765583 0 -0.00063762284272182474 0.00076708021164746318 0 -0.0005260895333376878 0.00079617891639463534 0 -0.00068464778894373861 0.00075543728633717887 0 -0.00063805270128968286 0.00077457209927035925 0 -0.00064199430803753863 0.00077793846165585693 0 -0.00063762284272182474 0.00076708021164746318 0 -0.00066986416154680094 0.0007474578257920956 0 -0.00069648249995363709 0.00076620731286259713 0 -0.00065993785519755446 0.00077375656115765583 0 -0.0006535655973904386 0.00078006295131689254 0 -0.00064582348893976738 0.00077752532509378245 0 -0.00064199430803753863 0.00077793846165585693 0 -0.0014745257364664267 0.00072661687878174054 0 -0.0013919583339082424 0.0008870994161828122 0 -0.0014745257364664267 0.00072661687878174054 0 -0.0005260895333376878 0.00079617891639463534 0 -0.00070739944836889382 0.00073663399500375473 0 -0.00066986416154680094 0.0007474578257920956 0 -0.00069648249995363709 0.00076620731286259713 0 -0.0013919583339082424 0.0008870994161828122 0 -0.0013520562168856346 -0.00011920291266003786 0 -0.00069648249995363709 0.00076620731286259713 0 -0.00065993785519755446 0.00077375656115765583 0 -0.00068873159641843064 0.00078722152229503399 0 -0.00065993785519755446 0.00077375656115765583 0 -0.00063550535568949302 0.00077535203548639484 0 -0.0006384233152293713 0.000789058994171891 0 -0.00065993785519755446 0.00077375656115765583 0 -0.00063550535568949302 0.00077535203548639484 0 -0.00063762284272182474 0.00076708021164746318 0 -0.00063550535568949302 0.00077535203548639484 0 -0.00062444168570651424 0.00077174221072097448 0 -0.00062228876098509788 0.0007777820362642791 0 -0.00063550535568949302 0.00077535203548639484 0 -0.00062228876098509788 0.0007777820362642791 0 -0.0006384233152293713 0.000789058994171891 0 -0.00063550535568949302 0.00077535203548639484 0 -0.00063762284272182474 0.00076708021164746318 0 -0.00062444168570651424 0.00077174221072097448 0 -0.00063762284272182474 0.00076708021164746318 0 -0.00063142147687448094 0.00077057422002036662 0 -0.00062444168570651424 0.00077174221072097448 0 -0.00063142147687448094 0.00077057422002036662 0 -0.00062175561251583806 0.00077133201906840355 0 -0.00062444168570651424 0.00077174221072097448 0 -0.00063805270128968286 0.00077457209927035925 0 -0.00063762284272182474 0.00076708021164746318 0 -0.00063142147687448094 0.00077057422002036662 0 -0.00061333290798745591 0.00077147649640936012 0 -0.00061683583258619913 0.00077186003632377306 0 -0.00062175561251583806 0.00077133201906840355 0 -0.00061683583258619913 0.00077186003632377306 0 -0.00062175561251583806 0.00077133201906840355 0 -0.00061719960984776519 0.00077202347312712379 0 -0.00061144008987652743 0.00077234589869613446 0 -0.00061449131623296733 0.00077214369262852689 0 -0.00061351429442587334 0.00077222647433364158 0 -0.00061449131623296733 0.00077214369262852689 0 -0.00061351429442587334 0.00077222647433364158 0 -0.00061683583258619913 0.00077186003632377306 0 -0.00061449131623296733 0.00077214369262852689 0 -0.00061683583258619913 0.00077186003632377306 0 -0.00061719960984776519 0.00077202347312712379 0 -0.00061333290798745591 0.00077147649640936012 0 -0.00061351429442587334 0.00077222647433364158 0 -0.00061683583258619913 0.00077186003632377306 0 -0.00062175561251583806 0.00077133201906840355 0 -0.00062444168570651424 0.00077174221072097448 0 -0.00061719960984776519 0.00077202347312712379 0 -0.00061144008987652743 0.00077234589869613446 0 -0.00061195531764828654 0.00077292139934629343 0 -0.00061719960984776519 0.00077202347312712379 0 -0.00061195531764828654 0.00077292139934629343 0 -0.00062444168570651424 0.00077174221072097448 0 -0.00061719960984776519 0.00077202347312712379 0 -0.00061144008987652743 0.00077234589869613446 0 -0.00061449131623296733 0.00077214369262852689 0 -0.00061719960984776519 0.00077202347312712379 0 -0.00061195531764828654 0.00077292139934629343 0 -0.00062444168570651424 0.00077174221072097448 0 -0.00062228876098509788 0.0007777820362642791 0 -0.00061195531764828654 0.00077292139934629343 0 -0.00062228876098509788 0.0007777820362642791 0 -0.00061010483823398709 0.00077657648415371382 0 -0.00062228876098509788 0.0007777820362642791 0 -0.00061151246855127258 0.00078239690452867807 0 -0.0006384233152293713 0.000789058994171891 0 -0.00049062120182495074 0.00011932613793879627 0 -0.00047917549266234834 -1.3550556992729433e-06 0 -0.00054961650095004615 0.00092877116921962573 0 -0.00049062120182495074 0.00011932613793879627 0 -0.00062228876098509788 0.0007777820362642791 0 -0.00061169720027576995 0.00078126042681303271 0 -0.00061010483823398709 0.00077657648415371382 0 -0.00018551225294931032 -0.0012243857388428332 0 -0.00027520672443987756 -0.001244661464561246 0 -0.00041802341193850344 -0.00077811993177095593 0 -0.00054451316443941602 -0.0006882363958551199 0 -0.00038388789341083524 -0.0007379149092080514 0 -0.00019217376426335377 -0.0017665826439594958 0 -5.6381026455067772e-05 -0.0017701729148302768 0 -0.00026398018682422062 -0.0016945696357682594 0 -0.00041802341193850344 -0.00077811993177095593 0 -0.00054451316443941602 -0.0006882363958551199 0 -0.00058098467130147588 -0.00080460325438447852 0 -0.00054451316443941602 -0.0006882363958551199 0 -0.00058098467130147588 -0.00080460325438447852 0 -0.00062693264457171932 -0.00072966193933397545 0 -0.00047917549266234834 -1.3550556992729433e-06 0 -0.0013520562168856346 -0.00011920291266003786 0 -0.00065993785519755446 0.00077375656115765583 0 -0.0006384233152293713 0.000789058994171891 0 -0.00068873159641843064 0.00078722152229503399 0 -0.00058098467130147588 -0.00080460325438447852 0 -0.00074162030118420856 -0.00082776088730409964 0 -0.00062693264457171932 -0.00072966193933397545 0 -0.0013520562168856346 -0.00011920291266003786 0 -0.0012894922680982163 -0.00089628332227387978 0 -0.0018801320349594805 -0.0012157340657446764 0 -0.0018288135156288325 -0.00096314488016155256 0 -0.0020095320255231653 -0.0010606165608152459 0 -0.00074162030118420856 -0.00082776088730409964 0 -0.00071763861705264578 -0.00073344346559580363 0 -0.00062693264457171932 -0.00072966193933397545 0 -0.0012894922680982163 -0.00089628332227387978 0 -0.00090202811585735532 -0.0013483170925858122 0 -0.0018288135156288325 -0.00096314488016155256 0 -0.0019518199633611249 -0.00081820710869413924 0 -0.0017728422526048025 -0.0007098042904367509 0 -0.0018288135156288325 -0.00096314488016155256 0 -0.0019518199633611249 -0.00081820710869413924 0 -0.0020095320255231653 -0.0010606165608152459 0 -0.00054451316443941602 -0.0006882363958551199 0 -0.00062693264457171932 -0.00072966193933397545 0 -0.00069710048576934031 -0.00063928261205808664 0 -0.00071763861705264578 -0.00073344346559580363 0 -0.00062693264457171932 -0.00072966193933397545 0 -0.00069710048576934031 -0.00063928261205808664 0 -0.00018551225294931032 -0.0012243857388428332 0 -0.00090202811585735532 -0.0013483170925858122 0 -5.6381026455067772e-05 -0.0017701729148302768 0 0.00012543487937793422 -0.0018470887853982373 0 -4.3213727308750899e-05 -0.0019840023647955418 0 -0.0019518199633611249 -0.00081820710869413924 0 -0.0017728422526048025 -0.0007098042904367509 0 -0.0020533510799459068 -0.0006036650621001748 0 -0.00090202811585735532 -0.0013483170925858122 0 -0.0019630934227315281 -0.0012823199026819579 0 -0.00090202811585735532 -0.0013483170925858122 0 -0.00061077430259461529 -0.0020666486373783623 0 -0.0013796615006845211 -0.0021000700580137391 0 -0.0013271044248345629 -0.0018459975113942471 0 -0.0016170575076050791 -0.0020168061353032581 0 -0.0013271044248345629 -0.0018459975113942471 0 -0.0016170575076050791 -0.0020168061353032581 0 -0.0015626160166942872 -0.0017588011311159772 0 0.00012543487937793422 -0.0018470887853982373 0 9.7029019441580448e-05 -0.002005328086732339 0 -4.3213727308750899e-05 -0.0019840023647955418 0 -4.3213727308750899e-05 -0.0019840023647955418 0 -0.00019011778807341586 -0.001914728252094133 0 -0.00010028133471633178 -0.0021223956676358355 0 -0.00013574265349767733 -0.0020858113718681837 0 -0.00011722337377552476 -0.0020595111289048403 0 -0.00019217376426335377 -0.0017665826439594958 0 -0.00019011778807341586 -0.001914728252094133 0 -0.00026398018682422062 -0.0016945696357682594 0 -0.00019217376426335377 -0.0017665826439594958 0 -5.6381026455067772e-05 -0.0017701729148302768 0 -0.00019011778807341586 -0.001914728252094133 0 -5.6381026455067772e-05 -0.0017701729148302768 0 -4.3213727308750899e-05 -0.0019840023647955418 0 -0.00019011778807341586 -0.001914728252094133 0 -0.0026313493585106533 -0.0010952543048333993 0 -0.0026421418794468896 -0.00075863388517023126 0 -0.0028760136804423303 -0.00099206158331778625 0 -0.0026421418794468896 -0.00075863388517023126 0 -0.0028760136804423303 -0.00099206158331778625 0 -0.0030395923734320338 -0.00084216303645058229 0 -0.0026313493585106533 -0.0010952543048333993 0 -0.0028760136804423303 -0.00099206158331778625 0 -0.0029429291761992444 -0.0011632683579260983 0 -0.0026313493585106533 -0.0010952543048333993 0 -0.0029022611884279743 -0.0014031740312441703 0 -0.0029429291761992444 -0.0011632683579260983 0 -0.00221910281569395 -0.0012809210803872079 0 -0.002560525504379455 -0.0013432297173461508 0 -0.0026313493585106533 -0.0010952543048333993 0 -0.00221910281569395 -0.0012809210803872079 0 -0.0026313493585106533 -0.0010952543048333993 0 -0.0024005985303754214 -0.00093212420315162106 0 -0.0026313493585106533 -0.0010952543048333993 0 -0.0024005985303754214 -0.00093212420315162106 0 -0.0026421418794468896 -0.00075863388517023126 0 -0.0024005985303754214 -0.00093212420315162106 0 -0.0021540841643451075 -0.00090238189964244046 0 -0.0023170067161138647 -0.00073926266832058645 0 -0.00221910281569395 -0.0012809210803872079 0 -0.0024005985303754214 -0.00093212420315162106 0 -0.0021540841643451075 -0.00090238189964244046 0 -0.00221910281569395 -0.0012809210803872079 0 -0.0020095320255231653 -0.0010606165608152459 0 -0.0021540841643451075 -0.00090238189964244046 0 -0.00221910281569395 -0.0012809210803872079 0 -0.0018801320349594805 -0.0012157340657446764 0 -0.0020095320255231653 -0.0010606165608152459 0 -0.002374892359590004 -0.0002629607309859802 0 -0.0013520562168856346 -0.00011920291266003786 0 -0.0019518199633611249 -0.00081820710869413924 0 -0.0020095320255231653 -0.0010606165608152459 0 -0.0021540841643451075 -0.00090238189964244046 0 -0.0019518199633611249 -0.00081820710869413924 0 -0.0021540841643451075 -0.00090238189964244046 0 -0.0020533510799459068 -0.0006036650621001748 0 -0.0021540841643451075 -0.00090238189964244046 0 -0.0020533510799459068 -0.0006036650621001748 0 -0.0023170067161138647 -0.00073926266832058645 0 -0.0016170575076050791 -0.0020168061353032581 0 -0.0018614912414479585 -0.0019313442128776079 0 -0.0015626160166942872 -0.0017588011311159772 0 -0.0019630934227315281 -0.0012823199026819579 0 -0.002026253305911867 -0.0012076485129026053 0 -0.0020533510799459068 -0.0006036650621001748 0 -0.002336149922237689 -0.00049931583694596085 0 -0.0023170067161138647 -0.00073926266832058645 0 -0.002336149922237689 -0.00049931583694596085 0 -0.0023170067161138647 -0.00073926266832058645 0 -0.0026421418794468896 -0.00075863388517023126 0 -0.0024005985303754214 -0.00093212420315162106 0 -0.0023170067161138647 -0.00073926266832058645 0 -0.0026421418794468896 -0.00075863388517023126 0 -0.002026253305911867 -0.0012076485129026053 0 -0.0027588108220402839 -0.0015478421379083349 0 -0.002336149922237689 -0.00049931583694596085 0 -0.0026209102312434972 -0.00039626112526680091 0 -0.0026421418794468896 -0.00075863388517023126 0 -0.0026209102312434972 -0.00039626112526680091 0 -0.0026421418794468896 -0.00075863388517023126 0 -0.0029372682504099816 -0.00058123033921457588 0 -0.0035276354549286315 -0.0012547232830489993 0 -0.0039439988218334934 -0.0014904316032075123 0 -0.0039210622624270509 -0.0013250016599622094 0 -0.0035276354549286315 -0.0012547232830489993 0 -0.0039210622624270509 -0.0013250016599622094 0 -0.0038802799934831858 -0.0011948481519214462 0 -0.0027588108220402839 -0.0015478421379083349 0 -0.0034091056405051055 -0.00091817634951994558 0 -0.0028434189742523961 -0.0031325141409719631 0 -0.002747386223108416 -0.0034099134109315675 0 -0.0033031276511912276 -0.0035898990333750945 0 -0.0027588108220402839 -0.0015478421379083349 0 -0.0037817155037283929 -0.001978642193838098 0 -0.0027491680740498472 -0.0026843496070915822 0 -0.0027432082900211937 -0.0022492124494624954 0 -0.0033262157502647037 -0.0024427006062726201 0 -0.0026902936021177015 -0.0029393558094163237 0 -0.0037817155037283929 -0.001978642193838098 0 -0.0035276354549286315 -0.0012547232830489993 0 -0.0038802799934831858 -0.0011948481519214462 0 -0.0039755282950667079 -0.0010722714551939948 0 -0.0027588108220402839 -0.0015478421379083349 0 -0.0019356417075858221 -0.0021181271176866608 0 -0.0027491680740498472 -0.0026843496070915822 0 -0.0027432082900211937 -0.0022492124494624954 0 -0.0021691724056166631 -0.002347818165269939 0 -0.0018614912414479585 -0.0019313442128776079 0 -0.0021140559481637551 -0.0018382866142549342 0 -0.0018061308841888434 -0.0016669027317750091 0 -0.0026902936021177015 -0.0029393558094163237 0 -0.0021587770844652735 -0.0026293643376539043 0 -0.002747386223108416 -0.0034099134109315675 0 -0.0025171310580392701 -0.0031834659890141539 0 -0.0021891044332998577 -0.0032304862169868455 0 -0.0028434189742523961 -0.0031325141409719631 0 -0.002747386223108416 -0.0034099134109315675 0 -0.0025171310580392701 -0.0031834659890141539 0 -0.0027432082900211937 -0.0022492124494624954 0 -0.0021648249086719663 -0.0020601414045819046 0 -0.0021691724056166631 -0.002347818165269939 0 -0.0025171310580392701 -0.0031834659890141539 0 -0.0021891044332998577 -0.0032304862169868455 0 -0.002218835784239051 -0.0028859710377846844 0 -0.0018614912414479585 -0.0019313442128776079 0 -0.0018061308841888434 -0.0016669027317750091 0 -0.0015626160166942872 -0.0017588011311159772 0 -0.0018061308841888434 -0.0016669027317750091 0 -0.0015626160166942872 -0.0017588011311159772 0 -0.0015081743651092132 -0.0015064852408357037 0 -0.0019356417075858221 -0.0021181271176866608 0 -0.0016570782784069179 -0.0016386825401061196 0 -0.0021587770844652735 -0.0026293643376539043 0 -0.0017306459965136121 -0.0024651707402654865 0 -0.0021648249086719663 -0.0020601414045819046 0 -0.001584885207793127 -0.0020189988214266044 0 -0.0015817017813121879 -0.0018718438832597988 0 -0.0021648249086719663 -0.0020601414045819046 0 -0.0021691724056166631 -0.002347818165269939 0 -0.001584885207793127 -0.0020189988214266044 0 -0.0022700602553233336 -0.0034938842934863637 0 -0.0020036264167636263 -0.0032989283166621466 0 -0.0021891044332998577 -0.0032304862169868455 0 -0.002218835784239051 -0.0028859710377846844 0 -0.0016241982628507443 -0.003046965077885213 0 -0.002218835784239051 -0.0028859710377846844 0 -0.0016241982628507443 -0.003046965077885213 0 -0.0015851411818713769 -0.0026346431724574371 0 -0.0023872186386068575 -0.0041323311903896428 0 -0.0020012876194154994 -0.0040075434131607128 0 -0.0023139367322919779 -0.0037380479646429705 0 -0.0023872186386068575 -0.0041323311903896428 0 -0.0025703151785178694 -0.0038154394429734269 0 -0.0023139367322919779 -0.0037380479646429705 0 -0.0027224325731007503 -0.0037814823696509228 0 -0.0022700602553233336 -0.0034938842934863637 0 -0.0028434189742523961 -0.0031325141409719631 0 -0.0025171310580392701 -0.0031834659890141539 0 -0.002218835784239051 -0.0028859710377846844 0 -0.0027369221244238316 -0.0042445073574185043 0 -0.0023872186386068575 -0.0041323311903896428 0 -0.0026926094687686505 -0.0040021405187956986 0 -0.0026926094687686505 -0.0040021405187956986 0 -0.0027752587760006995 -0.0038168731154875411 0 -0.0025703151785178694 -0.0038154394429734269 0 -0.0023872186386068575 -0.0041323311903896428 0 -0.0026926094687686505 -0.0040021405187956986 0 -0.0025703151785178694 -0.0038154394429734269 0 -0.0026926094687686505 -0.0040021405187956986 0 -0.0029223014876700714 -0.0039652851761661145 0 -0.0027752587760006995 -0.0038168731154875411 0 -0.0027369221244238316 -0.0042445073574185043 0 -0.0026926094687686505 -0.0040021405187956986 0 -0.0029223014876700714 -0.0039652851761661145 0 -0.00010028133471633178 -0.0021223956676358355 0 6.5955615662011946e-05 -0.0021552031900698154 0 -6.5683480545458448e-05 -0.0022341787600764929 0 -0.00010028133471633178 -0.0021223956676358355 0 -6.5683480545458448e-05 -0.0022341787600764929 0 -0.00017281958415799888 -0.0022097918097960623 0 -0.00013140636818287658 -0.0020036942522155777 0 -0.00010028133471633178 -0.0021223956676358355 0 -0.00021790585803781897 -0.0021027745479539309 0 -4.3213727308750899e-05 -0.0019840023647955418 0 -0.00010028133471633178 -0.0021223956676358355 0 6.5955615662011946e-05 -0.0021552031900698154 0 9.7029019441580448e-05 -0.002005328086732339 0 -4.3213727308750899e-05 -0.0019840023647955418 0 6.5955615662011946e-05 -0.0021552031900698154 0 -0.00061077430259461529 -0.0020666486373783623 0 -0.00060298667650300045 -0.0017347042070910248 0 -0.0013271044248345629 -0.0018459975113942471 0 -0.0015626160166942872 -0.0017588011311159772 0 -0.0012735928710277684 -0.001594655729804294 0 -0.0015626160166942872 -0.0017588011311159772 0 -0.0015081743651092132 -0.0015064852408357037 0 -0.0012735928710277684 -0.001594655729804294 0 -0.0015081743651092132 -0.0015064852408357037 0 -0.0012735928710277684 -0.001594655729804294 0 -0.0012210966841215657 -0.0013546368374587655 0 6.5955615662011946e-05 -0.0021552031900698154 0 4.0092904318273438e-05 -0.0022823777374972507 0 -6.5683480545458448e-05 -0.0022341787600764929 0 -0.00060298667650300045 -0.0017347042070910248 0 -0.00035775805144476637 -0.0024302912088205817 0 -0.00035775805144476637 -0.0024302912088205817 0 -0.0017306459965136121 -0.0024651707402654865 0 -0.0016570782784069179 -0.0016386825401061196 0 -0.00035775805144476637 -0.0024302912088205817 0 -0.001584885207793127 -0.0020189988214266044 0 -0.00096480881315029086 -0.0016912778760601393 0 -0.0015817017813121879 -0.0018718438832597988 0 -0.0010554292815734953 -0.0028584003384889678 0 -0.0016241982628507443 -0.003046965077885213 0 -0.0015851411818713769 -0.0026346431724574371 0 -0.0020036264167636263 -0.0032989283166621466 0 -0.00021618049002054466 -0.0034940581527903884 0 -0.00035775805144476637 -0.0024302912088205817 0 -0.00021618049002054466 -0.0034940581527903884 0 -0.0010554292815734953 -0.0028584003384889678 0 -0.0015851411818713769 -0.0026346431724574371 0 -0.00094673077406542754 -0.0023829317328224143 0 -0.0020012876194154994 -0.0040075434131607128 0 -0.001582447040288605 -0.0038576615852968514 0 -0.0017979875205398788 -0.0037161517764950488 0 -0.00035775805144476637 -0.0024302912088205817 0 0.0010696581584667684 -0.0033451295628805391 0 -0.00035775805144476637 -0.0024302912088205817 0 0.00060794964869482441 -0.002819687874239116 0 0.0011880483910343019 -0.0035998149300097682 0 0.0011922007188113473 -0.003605172732535611 0 0.0012086668310606714 -0.0036058841385763866 0 -7.0172216787296968e-05 -0.002984532527712028 0 0.00070564872054589066 -0.0027266667010810864 0 0.00062571635198698211 -0.0025805632072911197 0 0.0011985747412704222 -0.0035705215613738152 0 0.0011880483910343019 -0.0035998149300097682 0 0.0012086668310606714 -0.0036058841385763866 0 4.0092904318273438e-05 -0.0022823777374972507 0 -6.5683480545458448e-05 -0.0022341787600764929 0 -0.00010984408843560022 -0.0023373906391797616 0 0.0012547660770307987 -0.0033296861623728648 0 0.0011537522437945326 -0.0032844307207723707 0 0.0011272753956290305 -0.0031018262791524553 0 0.00060794964869482441 -0.002819687874239116 0 0.00047529939882680512 -0.0026580027784003503 0 -6.5683480545458448e-05 -0.0022341787600764929 0 -0.00010984408843560022 -0.0023373906391797616 0 -0.00017281958415799888 -0.0022097918097960623 0 0.0012312025784350557 -0.0033389057828811966 0 0.0012547660770307987 -0.0033296861623728648 0 0.0011537522437945326 -0.0032844307207723707 0 0.0012312025784350557 -0.0033389057828811966 0 0.0012831506687914886 -0.0033834035592343842 0 0.0011215805328182781 -0.0033867865797772064 0 0.0012312025784350557 -0.0033389057828811966 0 0.0011215805328182781 -0.0033867865797772064 0 0.0011537522437945326 -0.0032844307207723707 0 0.0012312025784350557 -0.0033389057828811966 0 0.0012536273253708158 -0.0033305909486693237 0 0.0012831506687914886 -0.0033834035592343842 0 0.00060794964869482441 -0.002819687874239116 0 0.0010696581584667684 -0.0033451295628805391 0 0.00070584444654346742 -0.0028287573471372988 0 0.00060794964869482441 -0.002819687874239116 0 0.0011806139963946925 -0.0035786882252692208 0 0.0011922007188113473 -0.003605172732535611 0 0.0011629599049583607 -0.0036371218125093555 0 0.0010696581584667684 -0.0033451295628805391 0 0.0011386251603626018 -0.0034775186954062302 0 0.0012831506687914886 -0.0033834035592343842 0 0.0011215805328182781 -0.0033867865797772064 0 0.0010861359501245624 -0.0035219607166520352 0 0.0011215805328182781 -0.0033867865797772064 0 0.00098882629769713121 -0.0034086842839584934 0 0.0010861359501245624 -0.0035219607166520352 0 0.0011215805328182781 -0.0033867865797772064 0 0.00098882629769713121 -0.0034086842839584934 0 0.0010329518146538293 -0.0032657247282170268 0 0.0011215805328182781 -0.0033867865797772064 0 0.0011537522437945326 -0.0032844307207723707 0 0.0010329518146538293 -0.0032657247282170268 0 0.00098882629769713121 -0.0034086842839584934 0 0.00088427273241504969 -0.0032928965627554169 0 0.00083989251791041504 -0.0034312848911296182 0 0.00098882629769713121 -0.0034086842839584934 0 0.00088427273241504969 -0.0032928965627554169 0 0.0010329518146538293 -0.0032657247282170268 0 0.00088427273241504969 -0.0032928965627554169 0 0.00093301483124318975 -0.0031227018809931104 0 0.00075779797337101155 -0.0032032194701226428 0 0.00088427273241504969 -0.0032928965627554169 0 0.00093301483124318975 -0.0031227018809931104 0 0.0010329518146538293 -0.0032657247282170268 0 0.0011537522437945326 -0.0032844307207723707 0 0.0010329518146538293 -0.0032657247282170268 0 0.0011272753956290305 -0.0031018262791524553 0 0.00093301483124318975 -0.0031227018809931104 0 0.0010329518146538293 -0.0032657247282170268 0 0.0011272753956290305 -0.0031018262791524553 0 0.00047529939882680512 -0.0026580027784003503 0 0.00038068997502699829 -0.002494777701445342 0 0.00093301483124318975 -0.0031227018809931104 0 0.0011272753956290305 -0.0031018262791524553 0 0.001001059974987349 -0.0028819839078915352 0 -0.00010028133471633178 -0.0021223956676358355 0 -0.00017281958415799888 -0.0022097918097960623 0 -0.00021790585803781897 -0.0021027745479539309 0 0.00093301483124318975 -0.0031227018809931104 0 0.00085910039683422879 -0.0029718033465504366 0 0.001001059974987349 -0.0028819839078915352 0 0.00085910039683422879 -0.0029718033465504366 0 0.001001059974987349 -0.0028819839078915352 0 0.00074905292217810086 -0.0028447385787478468 0 0.00061435716360760289 -0.0029256794407967884 0 0.00074905292217810086 -0.0028447385787478468 0 0.00053412424029768775 -0.0027988240079021343 0 0.00061435716360760289 -0.0029256794407967884 0 0.00074905292217810086 -0.0028447385787478468 0 0.00072349794027896106 -0.0030365396498930903 0 0.00085910039683422879 -0.0029718033465504366 0 0.00074905292217810086 -0.0028447385787478468 0 0.00072349794027896106 -0.0030365396498930903 0 0.00093301483124318975 -0.0031227018809931104 0 0.00085910039683422879 -0.0029718033465504366 0 0.00072349794027896106 -0.0030365396498930903 0 0.00061435716360760289 -0.0029256794407967884 0 0.00072349794027896106 -0.0030365396498930903 0 0.00054250224346778103 -0.0030605911516221433 0 0.00072349794027896106 -0.0030365396498930903 0 0.00063043140117591647 -0.003157355099761078 0 0.00054250224346778103 -0.0030605911516221433 0 0.00063043140117591647 -0.003157355099761078 0 0.00050129677858739977 -0.0032455323253280347 0 0.00054250224346778103 -0.0030605911516221433 0 0.00063043140117591647 -0.003157355099761078 0 0.00075779797337101155 -0.0032032194701226428 0 0.00063545466276031292 -0.0032860662614556204 0 0.00063043140117591647 -0.003157355099761078 0 0.00063545466276031292 -0.0032860662614556204 0 0.00050129677858739977 -0.0032455323253280347 0 0.00093301483124318975 -0.0031227018809931104 0 0.00072349794027896106 -0.0030365396498930903 0 0.00075779797337101155 -0.0032032194701226428 0 0.00072349794027896106 -0.0030365396498930903 0 0.00063043140117591647 -0.003157355099761078 0 0.00075779797337101155 -0.0032032194701226428 0 0.00088427273241504969 -0.0032928965627554169 0 0.00075779797337101155 -0.0032032194701226428 0 0.00074922515108136992 -0.0033434914795258228 0 0.00088427273241504969 -0.0032928965627554169 0 0.00074922515108136992 -0.0033434914795258228 0 0.00083989251791041504 -0.0034312848911296182 0 0.00075779797337101155 -0.0032032194701226428 0 0.00074922515108136992 -0.0033434914795258228 0 0.00063545466276031292 -0.0032860662614556204 0 0.00074922515108136992 -0.0033434914795258228 0 0.00063400820015517545 -0.0034163233180270762 0 0.00074197995367348505 -0.0034676021985370086 0 0.00074922515108136992 -0.0033434914795258228 0 0.00083989251791041504 -0.0034312848911296182 0 0.00074197995367348505 -0.0034676021985370086 0 0.0005632416891533645 -0.0033479326781273538 0 0.00063400820015517545 -0.0034163233180270762 0 0.0004853144990094583 -0.0034429758446655125 0 0.0005632416891533645 -0.0033479326781273538 0 0.00063545466276031292 -0.0032860662614556204 0 0.00063400820015517545 -0.0034163233180270762 0 0.0005632416891533645 -0.0033479326781273538 0 0.00063545466276031292 -0.0032860662614556204 0 0.00050129677858739977 -0.0032455323253280347 0 0.00074922515108136992 -0.0033434914795258228 0 0.00063545466276031292 -0.0032860662614556204 0 0.00063400820015517545 -0.0034163233180270762 0 0.00030494081382078655 -0.0032992452551272827 0 0.00050129677858739977 -0.0032455323253280347 0 0.0004853144990094583 -0.0034429758446655125 0 0.0005632416891533645 -0.0033479326781273538 0 0.00050129677858739977 -0.0032455323253280347 0 0.0004853144990094583 -0.0034429758446655125 0 0.0003595888609658078 -0.0033073508002413802 0 0.0005779690243345048 -0.0034569635854495256 0 0.00030494081382078655 -0.0032992452551272827 0 0.00038548601596120039 -0.0031333986434895428 0 0.00050129677858739977 -0.0032455323253280347 0 0.00030494081382078655 -0.0032992452551272827 0 0.00038548601596120039 -0.0031333986434895428 0 0.00026245570066979305 -0.0031391587746164569 0 0.00038548601596120039 -0.0031333986434895428 0 0.00050129677858739977 -0.0032455323253280347 0 0.00054250224346778103 -0.0030605911516221433 0 0.00016095849603987085 -0.0033783934946848776 0 6.7849881293331572e-05 -0.0031869282979197946 0 0.00041487960000815194 -0.0033162080065742548 0 0.00012587252528963372 -0.0033913083655297297 0 0.00044279158574999093 -0.0035424069738609399 0 0.00041487960000815194 -0.0033162080065742548 0 0.00012587252528963372 -0.0033913083655297297 0 0.00017316458004941286 -0.0031853505262123211 0 0.0003595888609658078 -0.0033073508002413802 0 0.00018519539076063081 -0.0031953099968172172 0 0.00030494081382078655 -0.0032992452551272827 0 0.00026245570066979305 -0.0031391587746164569 0 0.00017316458004941286 -0.0031853505262123211 0 0.00026245570066979305 -0.0031391587746164569 0 0.00017316458004941286 -0.0031853505262123211 0 0.00017599507473207003 -0.0030611064631080177 0 0.00017316458004941286 -0.0031853505262123211 0 9.9713440693922719e-05 -0.0030928556083653054 0 6.1530425009476264e-05 -0.003170114452954956 0 0.00012587252528963372 -0.0033913083655297297 0 0.00017316458004941286 -0.0031853505262123211 0 6.1530425009476264e-05 -0.003170114452954956 0 0.00017316458004941286 -0.0031853505262123211 0 0.00017599507473207003 -0.0030611064631080177 0 9.9713440693922719e-05 -0.0030928556083653054 0 0.00017599507473207003 -0.0030611064631080177 0 0.0001757156782150781 -0.00297790681034299 0 6.6201876355562715e-05 -0.0029807145021227086 0 0.00017599507473207003 -0.0030611064631080177 0 9.9713440693922719e-05 -0.0030928556083653054 0 6.6201876355562715e-05 -0.0029807145021227086 0 0.00026245570066979305 -0.0031391587746164569 0 0.00017599507473207003 -0.0030611064631080177 0 0.0002813800877391377 -0.003006664894570743 0 0.00017599507473207003 -0.0030611064631080177 0 0.0001757156782150781 -0.00297790681034299 0 0.0002813800877391377 -0.003006664894570743 0 0.00021555642658235152 -0.0029208672005761431 0 0.0001757156782150781 -0.00297790681034299 0 0.0002813800877391377 -0.003006664894570743 0 0.00014694237155661686 -0.0028559470158994247 0 0.0002813800877391377 -0.003006664894570743 0 0.00026291718096956831 -0.002879107021790916 0 0.00018700139195267627 -0.0028948523620762894 0 0.00026888443210987067 -0.0029923451084580941 0 0.00014694237155661686 -0.0028559470158994247 0 0.00026291718096956831 -0.002879107021790916 0 0.00017386213567696938 -0.0027519774718733473 0 0.0001757156782150781 -0.00297790681034299 0 0.00012585040114870716 -0.0029138618059668104 0 6.6201876355562715e-05 -0.0029807145021227086 0 0.00021555642658235152 -0.0029208672005761431 0 0.0001757156782150781 -0.00297790681034299 0 0.00012585040114870716 -0.0029138618059668104 0 0.00038548601596120039 -0.0031333986434895428 0 0.00054250224346778103 -0.0030605911516221433 0 0.00041133634828650705 -0.0029259745643051439 0 0.00038548601596120039 -0.0031333986434895428 0 0.00026245570066979305 -0.0031391587746164569 0 0.0002813800877391377 -0.003006664894570743 0 0.00038548601596120039 -0.0031333986434895428 0 0.0002813800877391377 -0.003006664894570743 0 0.00041133634828650705 -0.0029259745643051439 0 0.0002813800877391377 -0.003006664894570743 0 0.00026291718096956831 -0.002879107021790916 0 0.00041133634828650705 -0.0029259745643051439 0 0.00026291718096956831 -0.002879107021790916 0 0.00041133634828650705 -0.0029259745643051439 0 0.00031300512123687269 -0.0027895702483112681 0 0.00041133634828650705 -0.0029259745643051439 0 0.00053412424029768775 -0.0027988240079021343 0 0.00031300512123687269 -0.0027895702483112681 0 0.00061435716360760289 -0.0029256794407967884 0 0.00041133634828650705 -0.0029259745643051439 0 0.00053412424029768775 -0.0027988240079021343 0 0.00061435716360760289 -0.0029256794407967884 0 0.00054250224346778103 -0.0030605911516221433 0 0.00041133634828650705 -0.0029259745643051439 0 0.0004370494637491688 -0.0026699330802576592 0 0.00053412424029768775 -0.0027988240079021343 0 0.00031300512123687269 -0.0027895702483112681 0 0.0004370494637491688 -0.0026699330802576592 0 0.00053412424029768775 -0.0027988240079021343 0 0.00055156004309723085 -0.0026082405873000549 0 0.0004370494637491688 -0.0026699330802576592 0 0.00031300512123687269 -0.0027895702483112681 0 0.00027743207238190921 -0.0026248664747957188 0 0.00031300512123687269 -0.0027895702483112681 0 0.00027743207238190921 -0.0026248664747957188 0 0.00015613033452379157 -0.0027449074627938284 0 0.00027743207238190921 -0.0026248664747957188 0 0.00017591664104893391 -0.0024936172754494493 0 0.00046208420681739153 -0.0024462083681670286 0 0.0004370494637491688 -0.0026699330802576592 0 0.00027743207238190921 -0.0026248664747957188 0 0.00046208420681739153 -0.0024462083681670286 0 0.0004370494637491688 -0.0026699330802576592 0 0.00046208420681739153 -0.0024462083681670286 0 0.00055156004309723085 -0.0026082405873000549 0 0.00012585040114870716 -0.0029138618059668104 0 0.00014094375576118479 -0.0028176691625894277 0 5.0407400435391131e-05 -0.0028760347255550474 0 0.00021555642658235152 -0.0029208672005761431 0 0.00012585040114870716 -0.0029138618059668104 0 0.00014094375576118479 -0.0028176691625894277 0 0.00018700139195267627 -0.0028948523620762894 0 8.2917435056359339e-05 -0.0027223442048577178 0 8.2917435056359339e-05 -0.0027223442048577178 0 0.00015848798572604228 -0.0027464946070827434 0 0.00027743207238190921 -0.0026248664747957188 0 0.00015613033452379157 -0.0027449074627938284 0 9.8276461709549247e-05 -0.0026217750103234771 0 4.1699291870605923e-06 -0.0027016036104769766 0 0.00015613033452379157 -0.0027449074627938284 0 9.8276461709549247e-05 -0.0026217750103234771 0 0.00014694237155661686 -0.0028559470158994247 0 2.9789607169272812e-05 -0.0027127141344430081 0 0.00017386213567696938 -0.0027519774718733473 0 0.00026291718096956831 -0.002879107021790916 0 0.00031300512123687269 -0.0027895702483112681 0 0.00017386213567696938 -0.0027519774718733473 0 0.00029444723592240703 -0.0027841907013405084 0 0.00015848798572604228 -0.0027464946070827434 0 0.00027743207238190921 -0.0026248664747957188 0 9.8276461709549247e-05 -0.0026217750103234771 0 0.00017591664104893391 -0.0024936172754494493 0 9.8276461709549247e-05 -0.0026217750103234771 0 0.00017591664104893391 -0.0024936172754494493 0 -0.00012445939047382054 -0.0025430372483830131 0 4.5630555581560001e-05 -0.0018661534969919441 0 -9.192907083112629e-05 -0.0021821149207640212 0 4.1699291870605923e-06 -0.0027016036104769766 0 9.8276461709549247e-05 -0.0026217750103234771 0 -0.00012445939047382054 -0.0025430372483830131 0 8.2917435056359339e-05 -0.0027223442048577178 0 -9.192907083112629e-05 -0.0021821149207640212 0 -0.00011076160590103439 -0.0012846682869619894 0 -3.861035751023253e-05 -0.0013153051422920934 0 -0.00017965019721803203 -0.0013485187005179654 0 -0.00014968520780278744 -0.001256578770789756 0 -0.00011076160590103439 -0.0012846682869619894 0 -0.00017965019721803203 -0.0013485187005179654 0 -0.00014968520780278744 -0.001256578770789756 0 -0.00011076160590103439 -0.0012846682869619894 0 -7.4211516925435695e-05 -0.0012171214558626821 0 -3.861035751023253e-05 -0.0013153051422920934 0 -7.4211516925435695e-05 -0.0012171214558626821 0 7.2829958040802618e-05 -0.0012080614106774348 0 -0.00011076160590103439 -0.0012846682869619894 0 -3.861035751023253e-05 -0.0013153051422920934 0 -7.4211516925435695e-05 -0.0012171214558626821 0 -5.5637560689612384e-05 -0.00093082717546856943 0 -1.2102886771618664e-05 -0.00069131834050970942 0 -9.5458149812964937e-05 -0.00014498907399023976 0 -0.00010242374324166078 -0.00016354951916805826 0 -7.9430956611441567e-05 -0.00014571853550997632 0 -2.2621111394735537e-05 8.9612735242514571e-05 0 4.5501934258339423e-05 -0.00033112031503566722 0 2.5544357998312535e-05 0.00033828876777500775 0 2.2632029486578502e-05 0.00031690583584395923 0 1.4068821868277678e-05 0.00033446800122525534 0 -9.5458149812964937e-05 -0.00014498907399023976 0 -0.00010242374324166078 -0.00016354951916805826 0 -0.00011939899664700302 -0.00016581043396426842 0 2.5544357998312535e-05 0.00033828876777500775 0 3.5744899871756011e-05 0.00033447244260860698 0 2.2632029486578502e-05 0.00031690583584395923 0 -4.8970399255431051e-05 -0.0011630179126288045 0 -5.5637560689612384e-05 -0.00093082717546856943 0 -5.5637560689612384e-05 -0.00093082717546856943 0 4.5501934258339423e-05 -0.00033112031503566722 0 4.6008698154604743e-05 -0.0010650064609603674 0 6.5869539680601575e-05 -0.0010518515334868121 0 4.6586424980982904e-05 -0.0010533291994872438 0 0.00011849421049367195 -0.001280885502635167 0 7.2829958040802618e-05 -0.0012080614106774348 0 0.00014743753443016686 -0.0011875246819919724 0 0.00011849421049367195 -0.001280885502635167 0 0.00014743753443016686 -0.0011875246819919724 0 0.00020243626635944916 -0.0012018055189233203 0 -3.861035751023253e-05 -0.0013153051422920934 0 0.00011849421049367195 -0.001280885502635167 0 7.2829958040802618e-05 -0.0012080614106774348 0 4.5630555581560001e-05 -0.0018661534969919441 0 0.00035221043051869387 -0.0019118080458638801 0 -5.5637560689612384e-05 -0.00093082717546856943 0 5.1058613354202502e-05 -0.0012804004283942831 0 -0.00012026701625016055 -0.0011895903539667326 0 7.2829958040802618e-05 -0.0012080614106774348 0 1.80240842989423e-05 -0.0011374123393222205 0 7.2829958040802618e-05 -0.0012080614106774348 0 1.80240842989423e-05 -0.0011374123393222205 0 0.0001088640725059251 -0.0011478402776296417 0 0.00014854962042960926 -0.0010780917926858206 0 1.80240842989423e-05 -0.0011374123393222205 0 0.0001088640725059251 -0.0011478402776296417 0 7.2829958040802618e-05 -0.0012080614106774348 0 0.0001088640725059251 -0.0011478402776296417 0 0.00014743753443016686 -0.0011875246819919724 0 0.00014743753443016686 -0.0011875246819919724 0 0.00015793537767687455 -0.0011314382802650469 0 0.00019622579891513653 -0.0011493596007486656 0 0.00014854962042960926 -0.0010780917926858206 0 0.0001088640725059251 -0.0011478402776296417 0 0.00015793537767687455 -0.0011314382802650469 0 0.0001088640725059251 -0.0011478402776296417 0 0.00014743753443016686 -0.0011875246819919724 0 0.00015793537767687455 -0.0011314382802650469 0 -0.00028936230441735155 -0.00041365164365932876 0 -0.00023738723824021608 -0.00046305488551082955 0 -0.00015679511520385437 -0.00048125798796362239 0 0.00024786073483769951 -0.0011417992512003879 0 0.00020243626635944916 -0.0012018055189233203 0 0.00030359243004571084 -0.0012476406158137942 0 0.00018873793911483637 -0.0010940736666149992 0 0.00015793537767687455 -0.0011314382802650469 0 0.00019622579891513653 -0.0011493596007486656 0 0.00018873793911483637 -0.0010940736666149992 0 0.00019622579891513653 -0.0011493596007486656 0 0.00024786073483769951 -0.0011417992512003879 0 -0.0002380539926975995 3.8865037471126287e-05 0 -0.00045962386511912259 0.00022237718185566009 0 -0.0002380539926975995 3.8865037471126287e-05 0 -1.8186847710606137e-05 -0.00063872177752645465 0 -1.8186847710606137e-05 -0.00063872177752645465 0 -0.00021481715891492908 -0.00048598628986586931 0 0.00019622579891513653 -0.0011493596007486656 0 0.00024786073483769951 -0.0011417992512003879 0 0.00020243626635944916 -0.0012018055189233203 0 0.00014743753443016686 -0.0011875246819919724 0 0.00019622579891513653 -0.0011493596007486656 0 0.00020243626635944916 -0.0012018055189233203 0 0.00046208420681739153 -0.0024462083681670286 0 0.00073627081157668663 -0.0023917414390970215 0 0.00066758533375539436 -0.0025388275049162664 0 0.00035221043051869387 -0.0019118080458638801 0 0.00023192969985527624 -0.0014844275642744776 0 0.00011849421049367195 -0.001280885502635167 0 0.00020243626635944916 -0.0012018055189233203 0 0.00030359243004571084 -0.0012476406158137942 0 0.00023192969985527624 -0.0014844275642744776 0 0.00043228121994789471 -0.0021750630296390487 0 0.00073627081157668663 -0.0023917414390970215 0 0.00066758533375539436 -0.0025388275049162664 0 0.00081147701607009839 -0.0025297352310380368 0 -0.00022843464439950179 -0.00047464182767337795 0 -0.00018427623645635581 -0.00055588044202352479 0 -0.0001924151689081767 -0.00050287984311440633 0 -1.8186847710606137e-05 -0.00063872177752645465 0 0.00023192969985527624 -0.0014844275642744776 0 -0.00018427623645635581 -0.00055588044202352479 0 -0.0001924151689081767 -0.00050287984311440633 0 -0.00015679511520385437 -0.00048125798796362239 0 -0.00023738723824021608 -0.00046305488551082955 0 -0.0001924151689081767 -0.00050287984311440633 0 -0.00015679511520385437 -0.00048125798796362239 0 -0.00060339792032057364 0.00076785493634472018 0 -0.000609180572124293 0.00075482806393757684 0 -0.00059969210082690019 0.00075565750942279536 0 -0.00018427623645635581 -0.00055588044202352479 0 -0.00015679511520385437 -0.00048125798796362239 0 -4.361593590728816e-05 -0.00052587723104018135 0 -0.00045962386511912259 0.00022237718185566009 0 -0.0002536709985904304 -0.00041537211054896653 0 -0.000609180572124293 0.00075482806393757684 0 -0.00059969210082690019 0.00075565750942279536 0 -0.00059211252843933515 0.00073839075101848808 0 -0.00060062473893103595 0.00077017901326155349 0 -0.00059969210082690019 0.00075565750942279536 0 -0.00058270116271034414 0.00073938314079234103 0 -0.00060062473893103595 0.00077017901326155349 0 -0.00061010483823398709 0.00077657648415371382 0 -0.00060716662601781443 0.00078185004313165857 0 -0.00066497972857992946 0.0010127701959492654 0 -0.00048067968970815715 0.0001237899004359729 0 -0.00059969210082690019 0.00075565750942279536 0 -0.00059211252843933515 0.00073839075101848808 0 -0.00058270116271034414 0.00073938314079234103 0 -0.0002536709985904304 -0.00041537211054896653 0 -0.00048067968970815715 0.0001237899004359729 0 -0.00061169720027576995 0.00078126042681303271 0 -0.00061010483823398709 0.00077657648415371382 0 -0.00060716662601781443 0.00078185004313165857 0 -0.00049062120182495074 0.00011932613793879627 0 -0.00048067968970815715 0.0001237899004359729 0 -0.00027456080406189251 -0.00021776220390627214 0 -0.00041346130231270905 -0.00024428359657530254 0 -0.00038706356304089065 -0.00032630863844247525 0 0.00015586724808989104 -0.0015271895724940847 0 0.0002309078700014995 -0.0015673422051307141 0 0.00014027285658485379 -0.0016940576975373455 0 -0.00027456080406189251 -0.00021776220390627214 0 -0.00038706356304089065 -0.00032630863844247525 0 -0.00037817460718746426 -0.00035396150252693583 0 -0.00049062120182495074 0.00011932613793879627 0 -0.00027520672443987756 -0.001244661464561246 0 -0.00048067968970815715 0.0001237899004359729 0 -0.0002355237321966184 -0.00090083510180720503 0 -0.0002355237321966184 -0.00090083510180720503 0 -0.00027520672443987756 -0.001244661464561246 0 -0.0002536709985904304 -0.00041537211054896653 0 -0.0002355237321966184 -0.00090083510180720503 0 0.00015586724808989104 -0.0015271895724940847 0 0.00022657891929088063 -0.0015543311821505162 0 0.0002309078700014995 -0.0015673422051307141 0 -0.00031514394409928436 -0.00046861724291934209 0 -0.00046838605290279027 -0.00049703159136988632 0 -0.00049990827999170026 -0.00040067417965690687 0 -0.00027520672443987756 -0.001244661464561246 0 -6.2855814596057052e-05 -0.0018393911180006402 0 0.00015586724808989104 -0.0015271895724940847 0 0.00014027285658485379 -0.0016940576975373455 0 -1.9079389375463782e-05 -0.0016979130247034657 0 -8.3400123387677389e-05 -0.0015762986882690976 0 0.00015586724808989104 -0.0015271895724940847 0 -1.9079389375463782e-05 -0.0016979130247034657 0 0.00023192969985527624 -0.0014844275642744776 0 -0.0002536709985904304 -0.00041537211054896653 0 -0.00022312315328324985 -0.0019341692298419793 0 -0.0002080535077261396 -0.0020106548710477198 0 -0.00026923790227694388 -0.0020042023111897446 0 0.00014027285658485379 -0.0016940576975373455 0 4.7456261671136e-05 -0.0018227705408348943 0 -1.9079389375463782e-05 -0.0016979130247034657 0 -6.2855814596057052e-05 -0.0018393911180006402 0 0.00040231112405747559 -0.0023021756763408454 0 0.00040231112405747559 -0.0023021756763408454 0 0.00043228121994789471 -0.0021750630296390487 0 -0.00013140636818287658 -0.0020036942522155777 0 -0.00017031133590818422 -0.0018611191876544216 0 -0.00022312315328324985 -0.0019341692298419793 0 -0.00013140636818287658 -0.0020036942522155777 0 -0.00022312315328324985 -0.0019341692298419793 0 -0.0002080535077261396 -0.0020106548710477198 0 -0.00013574265349767733 -0.0020858113718681837 0 -0.00027520672443987756 -0.001244661464561246 0 -0.00013140636818287658 -0.0020036942522155777 0 -0.00021790585803781897 -0.0021027745479539309 0 -0.0002080535077261396 -0.0020106548710477198 0 0.001001059974987349 -0.0028819839078915352 0 0.00074905292217810086 -0.0028447385787478468 0 0.0008804619510716802 -0.0026647481209779457 0 0.00038068997502699829 -0.002494777701445342 0 0.00040231112405747559 -0.0023021756763408454 0 -0.00021790585803781897 -0.0021027745479539309 0 -0.0002080535077261396 -0.0020106548710477198 0 -0.00026923790227694388 -0.0020042023111897446 0 0.00074905292217810086 -0.0028447385787478468 0 0.00065701734330392454 -0.0026792611629633339 0 0.00076502428124170928 -0.0026466317342979362 0 0.00074905292217810086 -0.0028447385787478468 0 0.00088574142407646253 -0.0026671636021486016 0 0.00076502428124170928 -0.0026466317342979362 0 0.0008361077646245554 -0.0028874094759709836 0 0.00040231112405747559 -0.0023021756763408454 0 0.00053412424029768775 -0.0027988240079021343 0 0.00065701734330392454 -0.0026792611629633339 0 0.00055156004309723085 -0.0026082405873000549 0 0.00074905292217810086 -0.0028447385787478468 0 0.00053412424029768775 -0.0027988240079021343 0 0.00065701734330392454 -0.0026792611629633339 0 0.00065701734330392454 -0.0026792611629633339 0 0.00055156004309723085 -0.0026082405873000549 0 0.00066758533375539436 -0.0025388275049162664 0 0.00046208420681739153 -0.0024462083681670286 0 0.00055156004309723085 -0.0026082405873000549 0 0.00066758533375539436 -0.0025388275049162664 0 0.00065701734330392454 -0.0026792611629633339 0 0.00066758533375539436 -0.0025388275049162664 0 0.00076502428124170928 -0.0026466317342979362 0 0.00066758533375539436 -0.0025388275049162664 0 0.00081147701607009839 -0.0025297352310380368 0 0.00076502428124170928 -0.0026466317342979362 0 0.00088574142407646253 -0.0026671636021486016 0 0.00081147701607009839 -0.0025297352310380368 0 0.00076502428124170928 -0.0026466317342979362 0 -0.0051870833651458618 -0.001106045158465407 0 -0.0053168470995700687 -0.0010090638525079244 0 -0.0052441914663271076 -0.00092815929781088328 0 -0.0051870833651458618 -0.001106045158465407 0 -0.0052441914663271076 -0.00092815929781088328 0 -0.0051330716408940734 -0.00087823928410181884 0 -0.0051870833651458618 -0.001106045158465407 0 -0.0053585701117619278 -0.0011458205065197806 0 -0.0053168470995700687 -0.0010090638525079244 0 -0.0049999948247457047 -0.00096753921868254474 0 -0.0051870833651458618 -0.001106045158465407 0 -0.0051330716408940734 -0.00087823928410181884 0 -0.0049999945817794517 -0.0012432910524798107 0 -0.0051870833651458618 -0.001106045158465407 0 -0.0051378407928428602 -0.0013423853780302345 0 -0.0049999948247457047 -0.00096753921868254474 0 -0.0049999945817794517 -0.0012432910524798107 0 -0.0051870833651458618 -0.001106045158465407 0 -0.0051870833651458618 -0.001106045158465407 0 -0.0052890524425758647 -0.0012821586910249179 0 -0.0051378407928428602 -0.0013423853780302345 0 -0.0051870833651458618 -0.001106045158465407 0 -0.0053585701117619278 -0.0011458205065197806 0 -0.0052890524425758647 -0.0012821586910249179 0 -0.0053585701117619278 -0.0011458205065197806 0 -0.0054490177097659435 -0.0012722583573321026 0 -0.0052890524425758647 -0.0012821586910249179 0 -0.0053585701117619278 -0.0011458205065197806 0 -0.0054966812860934196 -0.001148312459530792 0 -0.0054490177097659435 -0.0012722583573321026 0 -0.0054966812860934196 -0.001148312459530792 0 -0.0055847707214168171 -0.0012623159012129885 0 -0.0054490177097659435 -0.0012722583573321026 0 -0.0054966812860934196 -0.001148312459530792 0 -0.0056114261831250742 -0.001145954611004893 0 -0.0055847707214168171 -0.0012623159012129885 0 -0.0055537233770121906 -0.0010127127268266284 0 -0.0054176029952135519 -0.0010519259002402183 0 -0.0054061828216193947 -0.00092736051081141455 0 -0.0054966812860934196 -0.001148312459530792 0 -0.0055537233770121906 -0.0010127127268266284 0 -0.0054176029952135519 -0.0010519259002402183 0 -0.0054966812860934196 -0.001148312459530792 0 -0.0055537233770121906 -0.0010127127268266284 0 -0.0056114261831250742 -0.001145954611004893 0 -0.0053585701117619278 -0.0011458205065197806 0 -0.0054176029952135519 -0.0010519259002402183 0 -0.0053168470995700687 -0.0010090638525079244 0 -0.0053585701117619278 -0.0011458205065197806 0 -0.0054966812860934196 -0.001148312459530792 0 -0.0054176029952135519 -0.0010519259002402183 0 -0.0054176029952135519 -0.0010519259002402183 0 -0.0053168470995700687 -0.0010090638525079244 0 -0.0054061828216193947 -0.00092736051081141455 0 -0.0054061828216193947 -0.00092736051081141455 0 -0.0055237054565070191 -0.0008504485802927821 0 -0.0053181859060199722 -0.00079468780734931617 0 -0.0053168470995700687 -0.0010090638525079244 0 -0.0054061828216193947 -0.00092736051081141455 0 -0.0053044889411540692 -0.0008653408311166135 0 -0.0052657195201303705 -0.00082717232179853784 0 -0.0052886575218371763 -0.00048738075253872663 0 -0.0054061828216193947 -0.00092736051081141455 0 -0.0053044889411540692 -0.0008653408311166135 0 -0.0053181859060199722 -0.00079468780734931617 0 -0.0055537233770121906 -0.0010127127268266284 0 -0.0054061828216193947 -0.00092736051081141455 0 -0.0055237054565070191 -0.0008504485802927821 0 -0.00536600259000416 0.00010939699208151605 0 -0.0054013144728243066 0.00010544932883825002 0 -0.0053768264317180358 8.5824885233090034e-05 0 -0.0053652726346780782 0.00012004147882049806 0 -0.00536600259000416 0.00010939699208151605 0 -0.0054013144728243066 0.00010544932883825002 0 -0.0053652726346780782 0.00012004147882049806 0 -0.00536600259000416 0.00010939699208151605 0 -0.0053229217691132449 0.0001046052468047615 0 -0.0054550303710411054 -0.00035224430834411504 0 -0.0052886575218371763 -0.00048738075253872663 0 -0.0052924619863904754 -0.00072446434765341622 0 -0.0051438339579533265 -0.00069984926687814816 0 -0.0052128504695521374 -0.00058853833430763496 0 -0.0053228181651433374 -0.00077513030738566452 0 -0.0051598666654564824 -0.00073661656319727836 0 -0.0052243465033685859 -0.00083669635270537755 0 -0.0052886575218371763 -0.00048738075253872663 0 -0.0051607157458851511 -0.00071952904333112699 0 -0.0051438339579533265 -0.00069984926687814816 0 -0.0052128504695521374 -0.00058853833430763496 0 -0.0051324166589884514 -0.00057593020963256532 0 -0.0053044889411540692 -0.0008653408311166135 0 -0.0052243465033685859 -0.00083669635270537755 0 -0.0052441914663271076 -0.00092815929781088328 0 -0.0053044889411540692 -0.0008653408311166135 0 -0.0053228181651433374 -0.00077513030738566452 0 -0.0052243465033685859 -0.00083669635270537755 0 -0.0051598666654564824 -0.00073661656319727836 0 -0.0052243465033685859 -0.00083669635270537755 0 -0.0051330716408940734 -0.00087823928410181884 0 -0.0052243465033685859 -0.00083669635270537755 0 -0.0052441914663271076 -0.00092815929781088328 0 -0.0051330716408940734 -0.00087823928410181884 0 -0.0053168470995700687 -0.0010090638525079244 0 -0.0053044889411540692 -0.0008653408311166135 0 -0.0052441914663271076 -0.00092815929781088328 0 -0.0049999948247457047 -0.00096753921868254474 0 -0.0051330716408940734 -0.00087823928410181884 0 -0.0049999941146530204 -0.0006917865182758451 0 -0.0051438339579533265 -0.00069984926687814816 0 -0.004999979052554929 -0.00069170545165448056 0 -0.0050712206841975844 -0.00062272002979839953 0 -0.0051607157458851511 -0.00071952904333112699 0 -0.0050000286527973285 -0.00069176385517727738 0 -0.0051598666654564824 -0.00073661656319727836 0 -0.0051330716408940734 -0.00087823928410181884 0 -0.0049999941146530204 -0.0006917865182758451 0 -0.0051438339579533265 -0.00069984926687814816 0 -0.0050712206841975844 -0.00062272002979839953 0 -0.0051324166589884514 -0.00057593020963256532 0 -0.004999979052554929 -0.00069170545165448056 0 -0.0050199138430751036 -0.00053047078656082505 0 -0.0049999865600692112 -0.00043523548204407492 0 -0.004999979052554929 -0.00069170545165448056 0 -0.0050712206841975844 -0.00062272002979839953 0 -0.0050199138430751036 -0.00053047078656082505 0 -0.0050199138430751036 -0.00053047078656082505 0 -0.0051324166589884514 -0.00057593020963256532 0 -0.0051584085016058087 -0.0004529414984095499 0 -0.0050712206841975844 -0.00062272002979839953 0 -0.0050199138430751036 -0.00053047078656082505 0 -0.0051324166589884514 -0.00057593020963256532 0 -0.0052128504695521374 -0.00058853833430763496 0 -0.0051584085016058087 -0.0004529414984095499 0 -0.005337074600745932 -0.00048407178744261961 0 -0.0052128504695521374 -0.00058853833430763496 0 -0.0051324166589884514 -0.00057593020963256532 0 -0.0051584085016058087 -0.0004529414984095499 0 -0.0052182828841996877 -0.00032794485497751868 0 -0.0051584085016058087 -0.0004529414984095499 0 -0.0050430528338592804 -0.00028491869510641204 0 -0.0052182828841996877 -0.00032794485497751868 0 -0.0051584085016058087 -0.0004529414984095499 0 -0.005337074600745932 -0.00048407178744261961 0 -0.0050199138430751036 -0.00053047078656082505 0 -0.0049999865600692112 -0.00043523548204407492 0 -0.0050773674725445956 -0.00027889777225453567 0 -0.0050199138430751036 -0.00053047078656082505 0 -0.0051584085016058087 -0.0004529414984095499 0 -0.0050430528338592804 -0.00028491869510641204 0 -0.005021549305580855 -0.00051203276872312275 0 -0.0050593205128660959 -0.00028842932649764602 0 -0.0049999865600692112 -0.00043523548204407492 0 -0.0050773674725445956 -0.00027889777225453567 0 -0.0050000076442571709 -0.00017868201855245815 0 -0.0050430528338592804 -0.00028491869510641204 0 -0.0051800529398775474 -0.0001860664647295357 0 -0.0050831919897017094 -4.5299088111550765e-05 0 -0.0050773674725445956 -0.00027889777225453567 0 -0.0050000076442571709 -0.00017868201855245815 0 -0.0051293470691202011 -2.5408905949817455e-05 0 -0.0052182828841996877 -0.00032794485497751868 0 -0.0050430528338592804 -0.00028491869510641204 0 -0.0051800529398775474 -0.0001860664647295357 0 -0.0051800529398775474 -0.0001860664647295357 0 -0.0050831919897017094 -4.5299088111550765e-05 0 -0.0052432238346748873 -6.3225688760948752e-05 0 -0.0052095372890640394 1.6527143664678603e-05 0 -0.0050831919897017094 -4.5299088111550765e-05 0 -0.0052432238346748873 -6.3225688760948752e-05 0 -0.0050593205128660959 -0.00028842932649764602 0 -0.0051132134711055635 -1.6874748172029875e-05 0 -0.0049999878324237003 9.3060910341643871e-05 0 -0.0050000031869565165 -0.00017868996537646 0 -0.0051256578805382426 -2.385232762651007e-05 0 -0.0050000350589011686 -0.00017864791375132508 0 -0.0051132134711055635 -1.6874748172029875e-05 0 -0.0053997004236043126 7.3862914614450296e-06 0 -0.0053946943755051983 3.7216056743374313e-05 0 -0.0053681471739358191 3.5202256772792996e-05 0 -0.0053866218163929136 1.6913929980524415e-05 0 -0.0053997004236043126 7.3862914614450296e-06 0 -0.0053946943755051983 3.7216056743374313e-05 0 -0.0053866218163929136 1.6913929980524415e-05 0 -0.0053231097555387179 -5.380829708810385e-05 0 -0.0053710734923886928 -0.00023124830383666064 0 -0.0051800529398775474 -0.0001860664647295357 0 -0.0052432238346748873 -6.3225688760948752e-05 0 -0.0053710734923886928 -0.00023124830383666064 0 -0.0053231097555387179 -5.380829708810385e-05 0 -0.0052432238346748873 -6.3225688760948752e-05 0 -0.0053710734923886928 -0.00023124830383666064 0 -0.0053895744375819822 1.2771750212873109e-05 0 -0.0053790854769246461 -0.00010603767346343484 0 -0.0052946285017270393 5.5155618632153401e-05 0 -0.0053231097555387179 -5.380829708810385e-05 0 -0.0052432238346748873 -6.3225688760948752e-05 0 -0.0052182828841996877 -0.00032794485497751868 0 -0.0051800529398775474 -0.0001860664647295357 0 -0.0053710734923886928 -0.00023124830383666064 0 -0.0053946943755051983 3.7216056743374313e-05 0 -0.0053741315092827322 6.164867120983213e-05 0 -0.0053681471739358191 3.5202256772792996e-05 0 -0.0053946943755051983 3.7216056743374313e-05 0 -0.0053741315092827322 6.164867120983213e-05 0 -0.0053954078367079343 7.3824698250567111e-05 0 -0.0052182828841996877 -0.00032794485497751868 0 -0.0053710734923886928 -0.00023124830383666064 0 -0.005337074600745932 -0.00048407178744261961 0 -0.0053790854769246461 -0.00010603767346343484 0 -0.005376798363994531 -0.00016567199707078937 0 -0.0052924619863904754 -0.00072446434765341622 0 -0.0052128504695521374 -0.00058853833430763496 0 -0.005337074600745932 -0.00048407178744261961 0 -0.0054013144728243066 0.00010544932883825002 0 -0.0053954078367079343 7.3824698250567111e-05 0 -0.0053768264317180358 8.5824885233090034e-05 0 -0.0052886575218371763 -0.00048738075253872663 0 -0.005376798363994531 -0.00016567199707078937 0 -0.0053741315092827322 6.164867120983213e-05 0 -0.0053954078367079343 7.3824698250567111e-05 0 -0.0053768264317180358 8.5824885233090034e-05 0 -0.0053741315092827322 6.164867120983213e-05 0 -0.0053768264317180358 8.5824885233090034e-05 0 -0.0053483759080587296 7.9926012769510215e-05 0 -0.00536600259000416 0.00010939699208151605 0 -0.0053768264317180358 8.5824885233090034e-05 0 -0.0053483759080587296 7.9926012769510215e-05 0 -0.0053642906771616513 0.0001083012032861573 0 -0.0053311451846076207 6.9190959738638571e-05 0 -0.0053741315092827322 6.164867120983213e-05 0 -0.0053483759080587296 7.9926012769510215e-05 0 -0.005314577415590052 5.4035349558419537e-05 0 -0.0053132061270031892 5.571080190276646e-05 0 -0.00525894058855997 5.0881948838127158e-05 0 -0.0052708363388820111 0.00010132822281503898 0 -0.0053132061270031892 5.571080190276646e-05 0 -0.0052666682222988438 1.2893998781534353e-05 0 -0.00525894058855997 5.0881948838127158e-05 0 -0.0053311451846076207 6.9190959738638571e-05 0 -0.0052896295329785395 3.2273096725669318e-05 0 -0.0053741315092827322 6.164867120983213e-05 0 -0.0053681471739358191 3.5202256772792996e-05 0 -0.005314577415590052 5.4035349558419537e-05 0 -0.005314577415590052 5.4035349558419537e-05 0 -0.0052999787126493079 3.883396431870103e-06 0 -0.0053413081769189182 5.2493415086571443e-06 0 -0.0053997004236043126 7.3862914614450296e-06 0 -0.0053681471739358191 3.5202256772792996e-05 0 -0.0053413081769189182 5.2493415086571443e-06 0 -0.0053681471739358191 3.5202256772792996e-05 0 -0.005314577415590052 5.4035349558419537e-05 0 -0.0053413081769189182 5.2493415086571443e-06 0 -0.0052142721495714184 -3.0276087869316003e-05 0 -0.0052180825089639549 3.3033588848271784e-06 0 -0.0052440346444928019 -1.1952358321771489e-05 0 -0.0052142721495714184 -3.0276087869316003e-05 0 -0.0052180825089639549 3.3033588848271784e-06 0 -0.0051934888009644783 -1.4508187841664626e-05 0 -0.0052666682222988438 1.2893998781534353e-05 0 -0.0052180825089639549 3.3033588848271784e-06 0 -0.0052440346444928019 -1.1952358321771489e-05 0 -0.005314577415590052 5.4035349558419537e-05 0 -0.0052999787126493079 3.883396431870103e-06 0 -0.0052440346444928019 -1.1952358321771489e-05 0 -0.0052896295329785395 3.2273096725669318e-05 0 -0.005247024795113805 -1.1218519442797137e-05 0 -0.0052666682222988438 1.2893998781534353e-05 0 -0.0052180825089639549 3.3033588848271784e-06 0 -0.0052189560656917778 3.3152781012685362e-05 0 -0.0052180825089639549 3.3033588848271784e-06 0 -0.0052189560656917778 3.3152781012685362e-05 0 -0.0051878832615820944 1.442054371146343e-05 0 -0.0052189560656917778 3.3152781012685362e-05 0 -0.0051898119750329917 7.5149416597734643e-05 0 -0.0051710938403117012 4.5585436571238353e-05 0 -0.0052666682222988438 1.2893998781534353e-05 0 -0.0052189560656917778 3.3152781012685362e-05 0 -0.00525894058855997 5.0881948838127158e-05 0 -0.00525894058855997 5.0881948838127158e-05 0 -0.0052322889634216115 7.5333205006263476e-05 0 -0.0052708363388820111 0.00010132822281503898 0 -0.0052189560656917778 3.3152781012685362e-05 0 -0.00525894058855997 5.0881948838127158e-05 0 -0.0052322889634216115 7.5333205006263476e-05 0 -0.0052189560656917778 3.3152781012685362e-05 0 -0.0052322889634216115 7.5333205006263476e-05 0 -0.0051898119750329917 7.5149416597734643e-05 0 -0.0052322889634216115 7.5333205006263476e-05 0 -0.0051898119750329917 7.5149416597734643e-05 0 -0.005201430277672333 0.00011750033288612002 0 -0.0051898119750329917 7.5149416597734643e-05 0 -0.005201430277672333 0.00011750033288612002 0 -0.0051667466954929868 0.00011269654679256636 0 -0.0055995293431151203 -0.00038246399791901542 0 -0.0055119925242966819 -0.00062847351434209696 0 -0.0059188329316379427 -0.00095531442651891228 0 -0.0060816708253800707 -0.0010047705770196722 0 -0.0060887787602006988 -0.00099004330621671856 0 -0.005201430277672333 0.00011750033288612002 0 -0.0052402318725428424 0.0001507670256123871 0 -0.005174943224478732 0.00016607685222518837 0 -0.005201430277672333 0.00011750033288612002 0 -0.005174943224478732 0.00016607685222518837 0 -0.0051713106984660638 0.00013681634555973214 0 -0.0052322889634216115 7.5333205006263476e-05 0 -0.005201430277672333 0.00011750033288612002 0 -0.0052708363388820111 0.00010132822281503898 0 -0.005201430277672333 0.00011750033288612002 0 -0.0052402318725428424 0.0001507670256123871 0 -0.0052708363388820111 0.00010132822281503898 0 -0.0052708363388820111 0.00010132822281503898 0 -0.0053229217691132449 0.0001046052468047615 0 -0.0053010357405479987 0.00013658383407689215 0 -0.0053132061270031892 5.571080190276646e-05 0 -0.0052708363388820111 0.00010132822281503898 0 -0.0053229217691132449 0.0001046052468047615 0 -0.00536600259000416 0.00010939699208151605 0 -0.0053132061270031892 5.571080190276646e-05 0 -0.0053229217691132449 0.0001046052468047615 0 -0.0054550303710411054 -0.00035224430834411504 0 -0.0055057875865948585 -0.00038700819208038235 0 -0.0053652726346780782 0.00012004147882049806 0 -0.0053229217691132449 0.0001046052468047615 0 -0.0053010357405479987 0.00013658383407689215 0 -0.0055537233770121906 -0.0010127127268266284 0 -0.0055237054565070191 -0.0008504485802927821 0 -0.0057244545389717903 -0.00090626762124404589 0 -0.0055995293431151203 -0.00038246399791901542 0 -0.0055057875865948585 -0.00038700819208038235 0 -0.0059188329316379427 -0.00095531442651891228 0 -0.0057244545389717903 -0.00090626762124404589 0 -0.005821897243966553 -0.001030713215675245 0 -0.0052402318725428424 0.0001507670256123871 0 -0.0052708363388820111 0.00010132822281503898 0 -0.0053010357405479987 0.00013658383407689215 0 -0.0057244545389717903 -0.00090626762124404589 0 -0.005821897243966553 -0.001030713215675245 0 -0.0057054760678642968 -0.0010758549325756996 0 -0.005821897243966553 -0.001030713215675245 0 -0.0057054760678642968 -0.0010758549325756996 0 -0.0058046808992833557 -0.0011672173226291917 0 -0.0055537233770121906 -0.0010127127268266284 0 -0.0057244545389717903 -0.00090626762124404589 0 -0.0057054760678642968 -0.0010758549325756996 0 -0.0055537233770121906 -0.0010127127268266284 0 -0.0057054760678642968 -0.0010758549325756996 0 -0.0056114261831250742 -0.001145954611004893 0 -0.0056114261831250742 -0.001145954611004893 0 -0.0055847707214168171 -0.0012623159012129885 0 -0.0057330808598030488 -0.0012459447434590909 0 -0.0057054760678642968 -0.0010758549325756996 0 -0.0056114261831250742 -0.001145954611004893 0 -0.0057330808598030488 -0.0012459447434590909 0 -0.0057054760678642968 -0.0010758549325756996 0 -0.0058046808992833557 -0.0011672173226291917 0 -0.0057330808598030488 -0.0012459447434590909 0 -0.0058046808992833557 -0.0011672173226291917 0 -0.0057330808598030488 -0.0012459447434590909 0 -0.0058403653338835867 -0.0013012900278434438 0 -0.0058046808992833557 -0.0011672173226291917 0 -0.0059067797236152936 -0.0012340683334441324 0 -0.0058403653338835867 -0.0013012900278434438 0 -0.0058046808992833557 -0.0011672173226291917 0 -0.0059067797236152936 -0.0012340683334441324 0 -0.0059434937557149873 -0.0011196856144245675 0 -0.0059067797236152936 -0.0012340683334441324 0 -0.0059154370623089141 -0.0013816485996228031 0 -0.0058403653338835867 -0.0013012900278434438 0 -0.0058079951119907316 -0.0017484443423638077 0 -0.0054675903320142976 -0.0016203090556807006 0 -0.0058726994486760567 -0.001352284057033954 0 -0.0059067797236152936 -0.0012340683334441324 0 -0.0060127589335014714 -0.0011996691209997564 0 -0.0059154370623089141 -0.0013816485996228031 0 -0.0058908819414805018 -0.001560133155591356 0 -0.0059309771403401202 -0.0013675693650613977 0 -0.0059067797236152936 -0.0012340683334441324 0 -0.0060127589335014714 -0.0011996691209997564 0 -0.0059434937557149873 -0.0011196856144245675 0 -0.0058079951119907316 -0.0017484443423638077 0 -0.0056253699899942696 -0.0020971917333961012 0 -0.0056327313146563862 -0.0018639498154622118 0 -0.0060241696274953389 -0.0010734441379809995 0 -0.0056068548389549677 -0.00099314043287589246 0 -0.0059188329316379427 -0.00095531442651891228 0 -0.005954407137407608 -0.0010731093805935483 0 -0.0060816708253800707 -0.0010047705770196722 0 -0.0060127589335014714 -0.0011996691209997564 0 -0.0059434937557149873 -0.0011196856144245675 0 -0.0060793947244650749 -0.001056592309315799 0 -0.0058908819414805018 -0.001560133155591356 0 -0.0056068548389549677 -0.00099314043287589246 0 -0.0059188329316379427 -0.00095531442651891228 0 -0.005821897243966553 -0.001030713215675245 0 -0.005954407137407608 -0.0010731093805935483 0 -0.005821897243966553 -0.001030713215675245 0 -0.0058046808992833557 -0.0011672173226291917 0 -0.005954407137407608 -0.0010731093805935483 0 -0.005787062026559135 -0.0011731487202693283 0 -0.0060241696274953389 -0.0010734441379809995 0 -0.0053430037888446335 -0.0019038999293302284 0 -0.0051935006457181909 -0.0020493025347508467 0 -0.0054944021767385481 -0.0019884966884840126 0 -0.0052057834499837433 -0.0015058433973375511 0 -0.0053678814966145677 -0.0008446838386630336 0 -0.0053430037888446335 -0.0019038999293302284 0 -0.0051935006457181909 -0.0020493025347508467 0 -0.0051359928805064263 -0.0019459927581468926 0 -0.0051935006457181909 -0.0020493025347508467 0 -0.0054944021767385481 -0.0019884966884840126 0 -0.005563829999114177 -0.002122081813504781 0 -0.0054944021767385481 -0.0019884966884840126 0 -0.0056253699899942696 -0.0020971917333961012 0 -0.0056327313146563862 -0.0018639498154622118 0 -0.0054944021767385481 -0.0019884966884840126 0 -0.0056253699899942696 -0.0020971917333961012 0 -0.005563829999114177 -0.002122081813504781 0 -0.0054944021767385481 -0.0019884966884840126 0 -0.0056327313146563862 -0.0018639498154622118 0 -0.0054914891439585955 -0.0018601552806807758 0 -0.0053430037888446335 -0.0019038999293302284 0 -0.0054944021767385481 -0.0019884966884840126 0 -0.0054914891439585955 -0.0018601552806807758 0 -0.0053430037888446335 -0.0019038999293302284 0 -0.0054914891439585955 -0.0018601552806807758 0 -0.0054675903320142976 -0.0016203090556807006 0 -0.0058079951119907316 -0.0017484443423638077 0 -0.0056327313146563862 -0.0018639498154622118 0 -0.0054675903320142976 -0.0016203090556807006 0 -0.0056327313146563862 -0.0018639498154622118 0 -0.0054914891439585955 -0.0018601552806807758 0 -0.0054675903320142976 -0.0016203090556807006 0 -0.0053430037888446335 -0.0019038999293302284 0 -0.0054675903320142976 -0.0016203090556807006 0 -0.0051359928805064263 -0.0019459927581468926 0 -0.0052622934104838955 -0.0019211083076325665 0 -0.0051359928805064263 -0.0019459927581468926 0 -0.0051474283524005539 -0.0018826828060437761 0 -0.0053699049718134622 -0.0017715625716082826 0 -0.0051532369970376871 -0.0019288591136215009 0 -0.0050355409326974304 -0.0019018969568631739 0 -0.0050228008069714064 -0.0019919227472403084 0 -0.0051359928805064263 -0.0019459927581468926 0 -0.0050355409326974304 -0.0019018969568631739 0 -0.0051359928805064263 -0.0019459927581468926 0 -0.0051474283524005539 -0.0018826828060437761 0 -0.005007996964110608 -0.002125011578502116 0 -0.0047939260696549767 -0.0012948691870252301 0 -0.0049676543632038916 -0.00203119304593992 0 -0.0048127137493593928 -0.0020625892024609279 0 -0.0048053064911899928 -0.0019130921050458842 0 -0.0049676543632038916 -0.00203119304593992 0 -0.0049573868615278337 -0.0022237624506346912 0 -0.0048127137493593928 -0.0020625892024609279 0 -0.0042355003556804657 -0.00038928954020531306 0 -0.0041192783866518924 -0.00043611297371538897 0 -0.0040845366043448534 -0.00036623718786516011 0 -0.0049573868615278337 -0.0022237624506346912 0 -0.0047308852672380969 -0.0021863247106755626 0 -0.0048127137493593928 -0.0020625892024609279 0 -0.0047939260696549767 -0.0012948691870252301 0 -0.0041920863228389685 -0.001217537798942213 0 -0.0050885947805483093 -0.00083277971731536907 0 -0.0050462827873288107 -0.00082932920427037748 0 -0.0050656845529976216 -0.00084795531096395539 0 -0.0051935006457181909 -0.0020493025347508467 0 -0.0050228008069714064 -0.0019919227472403084 0 -0.0051359928805064263 -0.0019459927581468926 0 -0.0052057834499837433 -0.0015058433973375511 0 -0.0047939260696549767 -0.0012948691870252301 0 -0.0050462827873288107 -0.00082932920427037748 0 -0.0050656845529976216 -0.00084795531096395539 0 -0.0050456868564493704 -0.00087216900561744575 0 -0.0050656845529976216 -0.00084795531096395539 0 -0.0050456868564493704 -0.00087216900561744575 0 -0.0050877145582643047 -0.00085924843627180304 0 -0.0042355003556804657 -0.00038928954020531306 0 -0.00416904285709344 -0.00048705977232331178 0 -0.0042393209140704187 -0.00058169391494598312 0 -0.0047939260696549767 -0.0012948691870252301 0 -0.0048134902587773287 -0.00035611732971253237 0 -0.00416904285709344 -0.00048705977232331178 0 -0.0042393209140704187 -0.00058169391494598312 0 -0.0040772824087184356 -0.00054547338361499739 0 -0.0042355003556804657 -0.00038928954020531306 0 -0.00416904285709344 -0.00048705977232331178 0 -0.0041192783866518924 -0.00043611297371538897 0 -0.004930710131617516 5.1033680822214974e-05 0 -0.0049314000161027344 2.7327565226956393e-05 0 -0.0048521067818427599 2.0431373225832602e-05 0 -0.0048134902587773287 -0.00035611732971253237 0 -0.0041447001361052524 4.2649080311462963e-05 0 -0.0049353588272993401 4.1524521202167414e-05 0 -0.0049314000161027344 2.7327565226956393e-05 0 -0.0049529363936280648 2.0195341298503452e-05 0 -0.0048134902587773287 -0.00035611732971253237 0 -0.0048657124459932895 4.2019794980952697e-06 0 -0.0048134902587773287 -0.00035611732971253237 0 -0.0050329294128520349 -0.00036352776664349358 0 -0.0049353588272993401 4.1524521202167414e-05 0 -0.0049745588115737288 2.8339418626820821e-05 0 -0.0049882895124434765 5.033731305839937e-05 0 -0.0049353588272993401 4.1524521202167414e-05 0 -0.0049745588115737288 2.8339418626820821e-05 0 -0.0049529363936280648 2.0195341298503452e-05 0 -0.0049955673030524766 2.7209608729788313e-05 0 -0.0050104084790943346 3.6219421592557834e-05 0 -0.0049980077213107616 4.1128377088275332e-06 0 -0.0050755792281884328 0.00017977185400226898 0 -0.0050200836358389126 1.8697454122511758e-06 0 -0.0049745588115737288 2.8339418626820821e-05 0 -0.0049955673030524766 2.7209608729788313e-05 0 -0.0049980077213107616 4.1128377088275332e-06 0 -0.0049955673030524766 2.7209608729788313e-05 0 -0.004999217996389649 4.0553146995034352e-05 0 -0.0050104084790943346 3.6219421592557834e-05 0 -0.0049745588115737288 2.8339418626820821e-05 0 -0.004999217996389649 4.0553146995034352e-05 0 -0.0049882895124434765 5.033731305839937e-05 0 -0.0049745588115737288 2.8339418626820821e-05 0 -0.0049955673030524766 2.7209608729788313e-05 0 -0.004999217996389649 4.0553146995034352e-05 0 -0.0050329294128520349 -0.00036352776664349358 0 -0.0053678814966145677 -0.0008446838386630336 0 -0.0050885947805483093 -0.00083277971731536907 0 -0.0050877145582643047 -0.00085924843627180304 0 -0.0051395339812850575 -0.00084023615498156953 0 -0.004999217996389649 4.0553146995034352e-05 0 -0.0049882895124434765 5.033731305839937e-05 0 -0.0050232501018334505 5.2068330650583238e-05 0 -0.0050885947805483093 -0.00083277971731536907 0 -0.0050656845529976216 -0.00084795531096395539 0 -0.0050877145582643047 -0.00085924843627180304 0 -0.0050261216436318723 5.1130428209620438e-05 0 -0.0050232501018334505 5.2068330650583238e-05 0 -0.0050104084790943346 3.6219421592557834e-05 0 -0.004999217996389649 4.0553146995034352e-05 0 -0.0050232501018334505 5.2068330650583238e-05 0 -0.0050104084790943346 3.6219421592557834e-05 0 -0.0055119925242966819 -0.00062847351434209696 0 -0.0050755792281884328 0.00017977185400226898 0 -0.005174943224478732 0.00016607685222518837 0 -0.0051713106984660638 0.00013681634555973214 0 -0.0051354280506842849 0.00012409889650598607 0 -0.0056929617013667388 -0.00087508786190198455 0 -0.0056350799181061175 -0.00098410845238284042 0 -0.0055065538689487454 -0.00096053060987685477 0 -0.0056068548389549677 -0.00099314043287589246 0 -0.0053678814966145677 -0.0008446838386630336 0 -0.0056068548389549677 -0.00099314043287589246 0 -0.0055119925242966819 -0.00062847351434209696 0 -0.0055119925242966819 -0.00062847351434209696 0 -0.0053678814966145677 -0.0008446838386630336 0 -0.0051713106984660638 0.00013681634555973214 0 -0.0051667466954929868 0.00011269654679256636 0 -0.0051354280506842849 0.00012409889650598607 0 -0.005201430277672333 0.00011750033288612002 0 -0.0051713106984660638 0.00013681634555973214 0 -0.0051667466954929868 0.00011269654679256636 0 -0.0051354280506842849 0.00012409889650598607 0 -0.0051369277272215958 9.1432049526103502e-05 0 -0.0050551510396244538 4.3154895345027035e-05 0 -0.0051667466954929868 0.00011269654679256636 0 -0.0051354280506842849 0.00012409889650598607 0 -0.0051369277272215958 9.1432049526103502e-05 0 -0.0051898119750329917 7.5149416597734643e-05 0 -0.0051667466954929868 0.00011269654679256636 0 -0.0051369277272215958 9.1432049526103502e-05 0 -0.0051369277272215958 9.1432049526103502e-05 0 -0.0050551510396244538 4.3154895345027035e-05 0 -0.005105711783869169 -3.4987176648616385e-06 0 -0.0051898119750329917 7.5149416597734643e-05 0 -0.0051369277272215958 9.1432049526103502e-05 0 -0.0051710938403117012 4.5585436571238353e-05 0 -0.0051365225716421192 8.433920948481298e-05 0 -0.0051352711810243347 3.9802748897424166e-05 0 -0.0049980077213107616 4.1128377088275332e-06 0 -0.0049913114970352454 -4.0687013891373659e-05 0 -0.0049646368523937499 -3.5704675456202771e-07 0 -0.0050200836358389126 1.8697454122511758e-06 0 -0.0049965022974107487 -3.0323183988734791e-05 0 -0.0050551510396244538 4.3154895345027035e-05 0 -0.0050563567142609938 -4.9452085197099809e-05 0 -0.005105711783869169 -3.4987176648616385e-06 0 -0.0050551510396244538 4.3154895345027035e-05 0 -0.0050563567142609938 -4.9452085197099809e-05 0 -0.0049913114970352454 -4.0687013891373659e-05 0 -0.0051352711810243347 3.9802748897424166e-05 0 -0.0051709215691715096 -9.7139282505833742e-05 0 -0.0050563567142609938 -4.9452085197099809e-05 0 -0.005105711783869169 -3.4987176648616385e-06 0 -0.0050905789053079797 -8.1668970413883464e-05 0 -0.0052189560656917778 3.3152781012685362e-05 0 -0.0051710938403117012 4.5585436571238353e-05 0 -0.0051878832615820944 1.442054371146343e-05 0 -0.0050905789053079797 -8.1668970413883464e-05 0 -0.0050131799990715308 -8.6867405392657276e-05 0 -0.0050913192745368234 -0.00014697018047783242 0 -0.0050563567142609938 -4.9452085197099809e-05 0 -0.0050905789053079797 -8.1668970413883464e-05 0 -0.0050131799990715308 -8.6867405392657276e-05 0 -0.0050563567142609938 -4.9452085197099809e-05 0 -0.0050131799990715308 -8.6867405392657276e-05 0 -0.0049913114970352454 -4.0687013891373659e-05 0 -0.0044664881060816836 0.00022332347927014388 0 -0.0047023165220278704 0.00021714602932054478 0 -0.0039898256640850073 0.00053858084296319034 0 -0.0039907454333070165 0.00052817824158047299 0 -0.0040095791266932532 0.00053023276936157147 0 -0.0052180825089639549 3.3033588848271784e-06 0 -0.0051878832615820944 1.442054371146343e-05 0 -0.0051934888009644783 -1.4508187841664626e-05 0 -0.0051709215691715096 -9.7139282505833742e-05 0 -0.0047023165220278704 0.00021714602932054478 0 -0.0035046583003452885 0.0017170694024662243 0 -0.0034304070108097263 0.0016169650097180239 0 -0.0035553918876283352 0.0015600137736587489 0 -0.0038061509540236122 0.0010382576840694139 0 -0.0033208446624489545 0.0011745055762317391 0 -0.0035588130536772038 0.0011246795825223053 0 -0.0038061509540236122 0.0010382576840694139 0 -0.0039898256640850073 0.00053858084296319034 0 -0.0039907454333070165 0.00052817824158047299 0 -0.0039735814426996091 0.00053248827825961155 0 -0.0039898256640850073 0.00053858084296319034 0 -0.0039735814426996091 0.00053248827825961155 0 -0.0039705703816473783 0.00053887252594684459 0 -0.0039898256640850073 0.00053858084296319034 0 -0.0039705703816473783 0.00053887252594684459 0 -0.0039727821967803535 0.00054292579390910825 0 -0.0039735814426996091 0.00053248827825961155 0 -0.0039705703816473783 0.00053887252594684459 0 -0.0039600693215692219 0.00053795148947925156 0 -0.0039705703816473783 0.00053887252594684459 0 -0.0039727821967803535 0.00054292579390910825 0 -0.00395908079501117 0.00054100041331102302 0 -0.0044664881060816836 0.00022332347927014388 0 -0.0044954257673884999 0.00028812537425833669 0 -0.0050131799990715308 -8.6867405392657276e-05 0 -0.0049261021787510339 -2.9338037726655675e-05 0 -0.0049913114970352454 -4.0687013891373659e-05 0 -0.0049261021787510339 -2.9338037726655675e-05 0 -0.0049913114970352454 -4.0687013891373659e-05 0 -0.0049646368523937499 -3.5704675456202771e-07 0 -0.0049261021787510339 -2.9338037726655675e-05 0 -0.0049646368523937499 -3.5704675456202771e-07 0 -0.0049280840318648737 2.5533470812947346e-06 0 -0.0049646368523937499 -3.5704675456202771e-07 0 -0.0049529363936280648 2.0195341298503452e-05 0 -0.0049280840318648737 2.5533470812947346e-06 0 -0.0049745588115737288 2.8339418626820821e-05 0 -0.0049980077213107616 4.1128377088275332e-06 0 -0.0049646368523937499 -3.5704675456202771e-07 0 -0.0049745588115737288 2.8339418626820821e-05 0 -0.0049646368523937499 -3.5704675456202771e-07 0 -0.0049529363936280648 2.0195341298503452e-05 0 -0.0049314000161027344 2.7327565226956393e-05 0 -0.0049280840318648737 2.5533470812947346e-06 0 -0.0048521067818427599 2.0431373225832602e-05 0 -0.0044954257673884999 0.00028812537425833669 0 -0.0041447001361052524 4.2649080311462963e-05 0 -0.0049261021787510339 -2.9338037726655675e-05 0 -0.0049280840318648737 2.5533470812947346e-06 0 -0.0048521067818427599 2.0431373225832602e-05 0 -0.0049314000161027344 2.7327565226956393e-05 0 -0.0049529363936280648 2.0195341298503452e-05 0 -0.0049280840318648737 2.5533470812947346e-06 0 -0.0031897767311131874 0.00047655494206997012 0 -0.0033700398530736395 0.00037087753423003145 0 -0.0039727821967803535 0.00054292579390910825 0 -0.0039605939265646593 0.00054396999695077199 0 -0.00395908079501117 0.00054100041331102302 0 -0.0039605939265646593 0.00054396999695077199 0 -0.0039563901349493977 0.00054317166154135583 0 -0.00395908079501117 0.00054100041331102302 0 -0.0041447001361052524 4.2649080311462963e-05 0 -0.0031897767311131874 0.00047655494206997012 0 -0.002674978624514609 0.00052557233623237091 0 -0.0026295727238886068 0.00050711764418143949 0 -0.0026239177728795983 0.00055019958387224875 0 -0.0031897767311131874 0.00047655494206997012 0 -0.0025970192124892938 0.00041110137486489285 0 -0.002678443918546491 0.00052813287473102942 0 -0.0026295727238886068 0.00050711764418143949 0 -0.0026558433987642128 0.00046693131933423935 0 -0.0026558433987642128 0.00046693131933423935 0 -0.0026487960680662893 0.00040393615996872189 0 -0.0026091697492047162 0.00045964566936170133 0 -0.0026558433987642128 0.00046693131933423935 0 -0.002706140161269494 0.00044857598938075722 0 -0.0026487960680662893 0.00040393615996872189 0 -0.002678443918546491 0.00052813287473102942 0 -0.0026558433987642128 0.00046693131933423935 0 -0.002706140161269494 0.00044857598938075722 0 -0.0026295727238886068 0.00050711764418143949 0 -0.0026558433987642128 0.00046693131933423935 0 -0.0026091697492047162 0.00045964566936170133 0 -0.0039705703816473783 0.00053887252594684459 0 -0.00395908079501117 0.00054100041331102302 0 -0.0039600693215692219 0.00053795148947925156 0 -0.0033700398530736395 0.00037087753423003145 0 -0.0033208446624489545 0.0011745055762317391 0 -0.002706140161269494 0.00044857598938075722 0 -0.0027365840766445269 0.0003791914432697394 0 -0.0026487960680662893 0.00040393615996872189 0 -0.0033208446624489545 0.0011745055762317391 0 -0.002812614856435101 0.0013454456921070286 0 -0.0031942147900608773 0.0022134771546660423 0 -0.0031482678318149136 0.0022199344914643235 0 -0.0031603780797181424 0.0022041370278277398 0 -0.0031346943704242489 0.0022061149254499739 0 -0.0031430042995677691 0.0022044702930114068 0 -0.0031361667424961346 0.002207755139678138 0 -0.0031482678318149136 0.0022199344914643235 0 -0.0031346943704242489 0.0022061149254499739 0 -0.003146969542282595 0.0022053983243667239 0 -0.003146969542282595 0.0022053983243667239 0 -0.0031430042995677691 0.0022044702930114068 0 -0.0031506595327661039 0.002200253467162773 0 -0.0031346943704242489 0.0022061149254499739 0 -0.003146969542282595 0.0022053983243667239 0 -0.0031430042995677691 0.0022044702930114068 0 -0.0031482678318149136 0.0022199344914643235 0 -0.003146969542282595 0.0022053983243667239 0 -0.0031603780797181424 0.0022041370278277398 0 -0.003146969542282595 0.0022053983243667239 0 -0.0031603780797181424 0.0022041370278277398 0 -0.0031506595327661039 0.002200253467162773 0 -0.0031603780797181424 0.0022041370278277398 0 -0.0031506595327661039 0.002200253467162773 0 -0.0031610437026231768 0.002190616724580147 0 -0.0031506595327661039 0.002200253467162773 0 -0.003151073304050915 0.0022010175956004826 0 -0.0031610437026231768 0.002190616724580147 0 -0.0031430042995677691 0.0022044702930114068 0 -0.0031506595327661039 0.002200253467162773 0 -0.0031470042082753155 0.0022023130129153524 0 -0.0031506595327661039 0.002200253467162773 0 -0.0031470042082753155 0.0022023130129153524 0 -0.003151073304050915 0.0022010175956004826 0 -0.0031470042082753155 0.0022023130129153524 0 -0.003151073304050915 0.0022010175956004826 0 -0.0031545381866013764 0.0022002803596320253 0 -0.0031514991410419488 0.0022119947102144117 0 -0.003151073304050915 0.0022010175956004826 0 -0.0031545381866013764 0.0022002803596320253 0 -0.0031437974922548018 0.0022165295553535354 0 -0.003151073304050915 0.0022010175956004826 0 -0.0031610437026231768 0.002190616724580147 0 -0.0031740215056779843 0.0021618040780552903 0 -0.0031580193953085049 0.0021984586515797935 0 -0.0033745966632994745 0.0020658786659508294 0 -0.0033208446624489545 0.0011745055762317391 0 -0.0032716542707135025 0.0021177562159417082 0 -0.0031942147900608773 0.0022134771546660423 0 -0.0031610437026231768 0.002190616724580147 0 -0.0031942147900608773 0.0022134771546660423 0 -0.0031603780797181424 0.0022041370278277398 0 -0.0031610437026231768 0.002190616724580147 0 -0.0026782770141315915 0.0022662234951832949 0 -0.0030961065006722579 0.0021706529263581251 0 -0.0030769280012484484 0.0021777718222078272 0 -0.0031038632102058455 0.0021990686845299551 0 -0.0031310055324248079 0.0022024859263238459 0 -0.0030772170395360387 0.0021995205642249371 0 -0.0031263035857597514 0.0022142506953796493 0 -0.0031038632102058455 0.0021990686845299551 0 -0.0028424662763596102 0.002043992542860066 0 -0.0029872277313917595 0.0021180000240849021 0 -0.0028987516610722475 0.0021311616126162888 0 -0.0026886407660067523 0.0024453736403456158 0 -0.0032552009316857483 0.0021607667305365134 0 -0.0031263035857597514 0.0022142506953796493 0 -0.0031038632102058455 0.0021990686845299551 0 -0.0031310055324248079 0.0022024859263238459 0 -0.0030769280012484484 0.0021777718222078272 0 -0.0030772170395360387 0.0021995205642249371 0 -0.0031038632102058455 0.0021990686845299551 0 -0.0031310055324248079 0.0022024859263238459 0 -0.0031545381866013764 0.0022002803596320253 0 -0.0031408774107475296 0.00220539290825974 0 -0.0031470042082753155 0.0022023130129153524 0 -0.0031545381866013764 0.0022002803596320253 0 -0.0031408774107475296 0.00220539290825974 0 -0.0031470042082753155 0.0022023130129153524 0 -0.0031408774107475296 0.00220539290825974 0 -0.0031361667424961346 0.002207755139678138 0 -0.0031408774107475296 0.00220539290825974 0 -0.0031361667424961346 0.002207755139678138 0 -0.0031336797997010444 0.0022082561640512388 0 -0.0031430042995677691 0.0022044702930114068 0 -0.0031470042082753155 0.0022023130129153524 0 -0.0031361667424961346 0.002207755139678138 0 -0.0031263035857597514 0.0022142506953796493 0 -0.0031310055324248079 0.0022024859263238459 0 -0.0031336797997010444 0.0022082561640512388 0 -0.0031263035857597514 0.0022142506953796493 0 -0.0031361667424961346 0.002207755139678138 0 -0.0031336797997010444 0.0022082561640512388 0 -0.0031310055324248079 0.0022024859263238459 0 -0.0031408774107475296 0.00220539290825974 0 -0.0031336797997010444 0.0022082561640512388 0 -0.002812614856435101 0.0013454456921070286 0 -0.0028444127506089471 0.0013269011923320031 0 -0.0031482678318149136 0.0022199344914643235 0 -0.0030397173341380141 0.0022056611560558126 0 -0.0029882059641196152 0.0022776097546665891 0 -0.0031346943704242489 0.0022061149254499739 0 -0.0029872277313917595 0.0021180000240849021 0 -0.0030397173341380141 0.0022056611560558126 0 -0.0031137968782186491 0.0021972757792705013 0 -0.0030961065006722579 0.0021706529263581251 0 -0.0031346943704242489 0.0022061149254499739 0 -0.0031263035857597514 0.0022142506953796493 0 -0.0031361667424961346 0.002207755139678138 0 -0.0031482678318149136 0.0022199344914643235 0 -0.0031346943704242489 0.0022061149254499739 0 -0.0030397173341380141 0.0022056611560558126 0 -0.0030397173341380141 0.0022056611560558126 0 -0.0029273239468318225 0.0021961093012546132 0 -0.0029882059641196152 0.0022776097546665891 0 -0.0029872277313917595 0.0021180000240849021 0 -0.0028987516610722475 0.0021311616126162888 0 -0.0029273239468318225 0.0021961093012546132 0 -0.0029872277313917595 0.0021180000240849021 0 -0.0030397173341380141 0.0022056611560558126 0 -0.0029273239468318225 0.0021961093012546132 0 -0.0028327880580088366 0.0021632288742352256 0 -0.0028987516610722475 0.0021311616126162888 0 -0.0029273239468318225 0.0021961093012546132 0 -0.0024516623898331188 0.00046054206342822164 0 -0.0025531673320374629 0.00043097691543740699 0 -0.0025028954353924753 0.00048514967364125539 0 -0.0028208673332308543 0.0022785003689082366 0 -0.0029273239468318225 0.0021961093012546132 0 -0.0029882059641196152 0.0022776097546665891 0 -0.0023406127514660176 0.0014838385582123799 0 -0.0028444127506089471 0.0013269011923320031 0 -0.0028241656294387628 0.00233686625840246 0 -0.0028208673332308543 0.0022785003689082366 0 -0.0029882059641196152 0.0022776097546665891 0 -0.0025531673320374629 0.00043097691543740699 0 -0.0025666695501868906 0.00049160034026516112 0 -0.0025028954353924753 0.00048514967364125539 0 -0.0026487960680662893 0.00040393615996872189 0 -0.0025531673320374629 0.00043097691543740699 0 -0.0026091697492047162 0.00045964566936170133 0 -0.0025531673320374629 0.00043097691543740699 0 -0.0026091697492047162 0.00045964566936170133 0 -0.0025666695501868906 0.00049160034026516112 0 -0.0026295727238886068 0.00050711764418143949 0 -0.0026091697492047162 0.00045964566936170133 0 -0.0025666695501868906 0.00049160034026516112 0 -0.0025666695501868906 0.00049160034026516112 0 -0.0025752638490841792 0.0005428428283754291 0 -0.0025309421932096718 0.00052186062297529892 0 -0.0026295727238886068 0.00050711764418143949 0 -0.0025666695501868906 0.00049160034026516112 0 -0.0025752638490841792 0.0005428428283754291 0 -0.0026295727238886068 0.00050711764418143949 0 -0.0025752638490841792 0.0005428428283754291 0 -0.0026239177728795983 0.00055019958387224875 0 -0.0024743917053557459 0.00049865060317463253 0 -0.0024523967122455788 0.00047541167711362176 0 -0.0025028954353924753 0.00048514967364125539 0 -0.0025028954353924753 0.00048514967364125539 0 -0.0025309421932096718 0.00052186062297529892 0 -0.0024918958075028689 0.0005183828631814874 0 -0.0024743917053557459 0.00049865060317463253 0 -0.0025028954353924753 0.00048514967364125539 0 -0.0024918958075028689 0.0005183828631814874 0 -0.0025666695501868906 0.00049160034026516112 0 -0.0025028954353924753 0.00048514967364125539 0 -0.0025309421932096718 0.00052186062297529892 0 -0.0025309421932096718 0.00052186062297529892 0 -0.0024945971909725926 0.00055365798502118597 0 -0.002530171407117714 0.00055736350190247386 0 -0.0025752638490841792 0.0005428428283754291 0 -0.0025309421932096718 0.00052186062297529892 0 -0.002530171407117714 0.00055736350190247386 0 -0.0024519774087720971 0.00055634190951749172 0 -0.0024918958075028689 0.0005183828631814874 0 -0.0024945971909725926 0.00055365798502118597 0 -0.0025309421932096718 0.00052186062297529892 0 -0.0024918958075028689 0.0005183828631814874 0 -0.0024945971909725926 0.00055365798502118597 0 -0.0024945971909725926 0.00055365798502118597 0 -0.002530171407117714 0.00055736350190247386 0 -0.0024979117018224368 0.00059256723005618266 0 -0.0024519774087720971 0.00055634190951749172 0 -0.0024945971909725926 0.00055365798502118597 0 -0.0024979117018224368 0.00059256723005618266 0 -0.002530171407117714 0.00055736350190247386 0 -0.0024979117018224368 0.00059256723005618266 0 -0.0025497226897419024 0.00058282273946693732 0 -0.0024979117018224368 0.00059256723005618266 0 -0.002536895099770503 0.00061907669251684311 0 -0.0025497226897419024 0.00058282273946693732 0 -0.002536895099770503 0.00061907669251684311 0 -0.0024941192037982139 0.00064602065183072771 0 -0.0025309685560351049 0.00067701716894995767 0 -0.002536895099770503 0.00061907669251684311 0 -0.0025817243241745081 0.00064138405020137187 0 -0.0025309685560351049 0.00067701716894995767 0 -0.0024979117018224368 0.00059256723005618266 0 -0.002536895099770503 0.00061907669251684311 0 -0.0024941192037982139 0.00064602065183072771 0 -0.0026618870377041856 0.00053018756140075878 0 -0.0027551663195943404 0.00059150089862591989 0 -0.0026465184388407533 0.0006536326856105395 0 -0.0025357727112654332 0.00066085163054125284 0 -0.0025713590993382144 0.00063830736440401116 0 -0.002536895099770503 0.00061907669251684311 0 -0.0025817243241745081 0.00064138405020137187 0 -0.0025872364948382538 0.00058698368151686325 0 -0.0025357727112654332 0.00066085163054125284 0 -0.0032260417814765586 0.00013471197365194 0 -0.0025817243241745081 0.00064138405020137187 0 -0.0025872364948382538 0.00058698368151686325 0 -0.0026512758449642351 0.0005900494590235177 0 -0.002536895099770503 0.00061907669251684311 0 -0.0025872364948382538 0.00058698368151686325 0 -0.0025497226897419024 0.00058282273946693732 0 -0.0025752638490841792 0.0005428428283754291 0 -0.0025872364948382538 0.00058698368151686325 0 -0.0025497226897419024 0.00058282273946693732 0 -0.0025752638490841792 0.0005428428283754291 0 -0.002530171407117714 0.00055736350190247386 0 -0.0025497226897419024 0.00058282273946693732 0 -0.0025752638490841792 0.0005428428283754291 0 -0.0025872364948382538 0.00058698368151686325 0 -0.0026239177728795983 0.00055019958387224875 0 -0.0035549563212192489 0.00016984859507142958 0 -0.0034635773380310877 0.00012887135433946881 0 -0.0034060297508622288 0.00029585327018850465 0 -0.0031897767311131874 0.00047655494206997012 0 -0.0032260417814765586 0.00013471197365194 0 -0.002674978624514609 0.00052557233623237091 0 -0.0026239177728795983 0.00055019958387224875 0 -0.0026512758449642351 0.0005900494590235177 0 -0.0025872364948382538 0.00058698368151686325 0 -0.0026239177728795983 0.00055019958387224875 0 -0.0026512758449642351 0.0005900494590235177 0 -0.0041447001361052524 4.2649080311462963e-05 0 -0.0032260417814765586 0.00013471197365194 0 -0.0040612559622554634 -0.00066139402821899554 0 -0.0039528421802750334 -0.0005746894520721219 0 -0.0040772824087184356 -0.00054547338361499739 0 -0.0042393209140704187 -0.00058169391494598312 0 -0.0040612559622554634 -0.00066139402821899554 0 -0.0040772824087184356 -0.00054547338361499739 0 -0.0040772824087184356 -0.00054547338361499739 0 -0.0041192783866518924 -0.00043611297371538897 0 -0.0040049786811948603 -0.0004284673778828283 0 -0.00416904285709344 -0.00048705977232331178 0 -0.0040772824087184356 -0.00054547338361499739 0 -0.0041192783866518924 -0.00043611297371538897 0 -0.0026618870377041856 0.00053018756140075878 0 -0.0028349226797312584 0.00037689207785684427 0 -0.0027551663195943404 0.00059150089862591989 0 -0.0032260417814765586 0.00013471197365194 0 -0.0033179374449745147 0.00014494660299965313 0 -0.0039528421802750334 -0.0005746894520721219 0 -0.0040049786811948603 -0.0004284673778828283 0 -0.0039000149230235506 -0.00043885178173733234 0 -0.0039528421802750334 -0.0005746894520721219 0 -0.0040772824087184356 -0.00054547338361499739 0 -0.0040049786811948603 -0.0004284673778828283 0 -0.0040049786811948603 -0.0004284673778828283 0 -0.0040715042435649426 -0.00033726539890053847 0 -0.0038448788777712089 -0.00029442752948646985 0 -0.0040049786811948603 -0.0004284673778828283 0 -0.0039000149230235506 -0.00043885178173733234 0 -0.0038448788777712089 -0.00029442752948646985 0 -0.0041920863228389685 -0.001217537798942213 0 -0.0031642713823052228 -0.00049886365451587986 0 -0.0039791104436695717 -0.00027025086447409304 0 -0.0041920863228389685 -0.001217537798942213 0 -0.0041192783866518924 -0.00043611297371538897 0 -0.0040049786811948603 -0.0004284673778828283 0 -0.0040715042435649426 -0.00033726539890053847 0 -0.0041920863228389685 -0.001217537798942213 0 -0.0041124844980423647 -0.0017622275507306563 0 -0.0047308852672380969 -0.0021863247106755626 0 -0.0048127137493593928 -0.0020625892024609279 0 -0.0046346587766652536 -0.0020099356877232412 0 -0.0048127137493593928 -0.0020625892024609279 0 -0.0046346587766652536 -0.0020099356877232412 0 -0.0048053064911899928 -0.0019130921050458842 0 -0.0036437891651280351 -0.0015420358640875797 0 -0.0033572274444907241 -0.0013297830517856317 0 -0.0032440497427441545 -0.0014703229300405359 0 -0.0036437891651280351 -0.0015420358640875797 0 -0.0035094721271353756 -0.001280844697068347 0 -0.0033572274444907241 -0.0013297830517856317 0 -0.0032373466581311272 -0.0014575727207265608 0 -0.0031788236055187886 -0.0012818759999094229 0 -0.0029022611884279743 -0.0014031740312441703 0 -0.0033572274444907241 -0.0013297830517856317 0 -0.0032440497427441545 -0.0014703229300405359 0 -0.0031788236055187886 -0.0012818759999094229 0 -0.0031642713823052228 -0.00049886365451587986 0 -0.003299534600304882 -0.0015257364117219144 0 -0.0031642713823052228 -0.00049886365451587986 0 -0.0026591429834087188 -0.00029949365581608396 0 -0.0031788236055187886 -0.0012818759999094229 0 -0.0029022611884279743 -0.0014031740312441703 0 -0.0029429291761992444 -0.0011632683579260983 0 -0.0026764464287104424 0.00075372143950039371 0 -0.0024935141261712892 0.00076776472919623116 0 -0.0025309685560351049 0.00067701716894995767 0 -0.002455085754898903 0.00069930509389822275 0 -0.0024935141261712892 0.00076776472919623116 0 -0.0025309685560351049 0.00067701716894995767 0 -0.002455085754898903 0.00069930509389822275 0 -0.0024941192037982139 0.00064602065183072771 0 -0.0025309685560351049 0.00067701716894995767 0 -0.0026764464287104424 0.00075372143950039371 0 -0.0025309685560351049 0.00067701716894995767 0 -0.0026465184388407533 0.0006536326856105395 0 -0.0026618870377041856 0.00053018756140075878 0 -0.0025309685560351049 0.00067701716894995767 0 -0.0026465184388407533 0.0006536326856105395 0 -0.0033179374449745147 0.00014494660299965313 0 -0.0031642713823052228 -0.00049886365451587986 0 -0.0027551663195943404 0.00059150089862591989 0 -0.0026764464287104424 0.00075372143950039371 0 -0.0026465184388407533 0.0006536326856105395 0 -0.0030395923734320338 -0.00084216303645058229 0 -0.0031245888777172376 -0.0010431052420033168 0 -0.0032521777073753161 -0.00076884827529493478 0 -0.0031245888777172376 -0.0010431052420033168 0 -0.0033777675376411493 -0.0010238925137490613 0 -0.0032521777073753161 -0.00076884827529493478 0 -0.0039146511329745714 -0.0013550111725144139 0 -0.004064495094549184 -0.0014007182982390049 0 -0.0028760136804423303 -0.00099206158331778625 0 -0.0030395923734320338 -0.00084216303645058229 0 -0.0031245888777172376 -0.0010431052420033168 0 -0.0031788236055187886 -0.0012818759999094229 0 -0.0029429291761992444 -0.0011632683579260983 0 -0.0031245888777172376 -0.0010431052420033168 0 -0.0028760136804423303 -0.00099206158331778625 0 -0.0029429291761992444 -0.0011632683579260983 0 -0.0031245888777172376 -0.0010431052420033168 0 -0.0031788236055187886 -0.0012818759999094229 0 -0.0031245888777172376 -0.0010431052420033168 0 -0.0033777675376411493 -0.0010238925137490613 0 -0.0033572274444907241 -0.0013297830517856317 0 -0.0031788236055187886 -0.0012818759999094229 0 -0.0033777675376411493 -0.0010238925137490613 0 -0.0046346587766652536 -0.0020099356877232412 0 -0.0046675389597126086 -0.0017715900329045998 0 -0.0045268092338535317 -0.0018235070138631739 0 -0.0035094721271353756 -0.001280844697068347 0 -0.0033572274444907241 -0.0013297830517856317 0 -0.0033777675376411493 -0.0010238925137490613 0 -0.0041124844980423647 -0.0017622275507306563 0 -0.0039146511329745714 -0.0013550111725144139 0 -0.0046346587766652536 -0.0020099356877232412 0 -0.0048053064911899928 -0.0019130921050458842 0 -0.0046675389597126086 -0.0017715900329045998 0 -0.0048053064911899928 -0.0019130921050458842 0 -0.0048223867540553144 -0.001775363132389402 0 -0.0046675389597126086 -0.0017715900329045998 0 -0.0048223867540553144 -0.001775363132389402 0 -0.0046675389597126086 -0.0017715900329045998 0 -0.0046922975527584274 -0.0016118723314275277 0 -0.0048223867540553144 -0.001775363132389402 0 -0.0046922975527584274 -0.0016118723314275277 0 -0.0048719958943212373 -0.0016369426161707927 0 -0.0046675389597126086 -0.0017715900329045998 0 -0.0046922975527584274 -0.0016118723314275277 0 -0.0043609626597109928 -0.0016428163033771728 0 -0.0047851966728118915 -0.0018536167880433877 0 -0.004064495094549184 -0.0014007182982390049 0 -0.0046675389597126086 -0.0017715900329045998 0 -0.0045268092338535317 -0.0018235070138631739 0 -0.0044191586922693021 -0.0016110493084884278 0 -0.0046922975527584274 -0.0016118723314275277 0 -0.0045393002144501014 -0.0014745886842975502 0 -0.0043609626597109928 -0.0016428163033771728 0 -0.0045393002144501014 -0.0014745886842975502 0 -0.0043744270255282706 -0.0014323566754290277 0 -0.0043609626597109928 -0.0016428163033771728 0 -0.0046922975527584274 -0.0016118723314275277 0 -0.0047769858533235673 -0.0014019727638003834 0 -0.0048719958943212373 -0.0016369426161707927 0 -0.0046922975527584274 -0.0016118723314275277 0 -0.0047769858533235673 -0.0014019727638003834 0 -0.0045393002144501014 -0.0014745886842975502 0 -0.0049913441232448631 -0.0017045760775206097 0 -0.0047699348559143376 -0.0016804133186233642 0 -0.0048716888552701254 -0.0016147670920320049 0 -0.0048657268951929813 -0.0015593750336850487 0 -0.0046640192742635166 -0.0013885539252748483 0 -0.0047769858533235673 -0.0014019727638003834 0 -0.0045393002144501014 -0.0014745886842975502 0 -0.0044275676909081643 -0.0012428912304339522 0 -0.0045393002144501014 -0.0014745886842975502 0 -0.0044275676909081643 -0.0012428912304339522 0 -0.0043744270255282706 -0.0014323566754290277 0 -0.0044275676909081643 -0.0012428912304339522 0 -0.0041659129984236267 -0.0013551990851301771 0 -0.0043744270255282706 -0.0014323566754290277 0 -0.0044275676909081643 -0.0012428912304339522 0 -0.0041659129984236267 -0.0013551990851301771 0 -0.0040479579568662664 -0.0011989995545578678 0 -0.0042648701082596283 -0.0014972391781409419 0 -0.004064495094549184 -0.0014007182982390049 0 -0.004064495094549184 -0.0014007182982390049 0 -0.0034091056405051055 -0.00091817634951994558 0 -0.0041659129984236267 -0.0013551990851301771 0 -0.0043744270255282706 -0.0014323566754290277 0 -0.0043609626597109928 -0.0016428163033771728 0 -0.0041659129984236267 -0.0013551990851301771 0 -0.0043375897777335921 -0.0017183909317137138 0 -0.0039439988218334934 -0.0014904316032075123 0 -0.0030395923734320338 -0.00084216303645058229 0 -0.0032521777073753161 -0.00076884827529493478 0 -0.0029372682504099816 -0.00058123033921457588 0 -0.0026421418794468896 -0.00075863388517023126 0 -0.0030395923734320338 -0.00084216303645058229 0 -0.0029372682504099816 -0.00058123033921457588 0 -0.0041659129984236267 -0.0013551990851301771 0 -0.0039439988218334934 -0.0014904316032075123 0 -0.0039210622624270509 -0.0013250016599622094 0 -0.0041659129984236267 -0.0013551990851301771 0 -0.0039210622624270509 -0.0013250016599622094 0 -0.0040479579568662664 -0.0011989995545578678 0 -0.0039210622624270509 -0.0013250016599622094 0 -0.0038802799934831858 -0.0011948481519214462 0 -0.0040479579568662664 -0.0011989995545578678 0 -0.0038802799934831858 -0.0011948481519214462 0 -0.0040479579568662664 -0.0011989995545578678 0 -0.0039794187217401409 -0.0010749189327836155 0 -0.0040656911209482546 -0.0012920261407261856 0 -0.0037817155037283929 -0.001978642193838098 0 -0.0044437835004239911 -0.0016004733491934067 0 -0.0046240152874574784 -0.0015779282751583372 0 -0.0045334382491579138 -0.0014831631773379323 0 -0.0037817155037283929 -0.001978642193838098 0 -0.0037270820085308631 -0.0031710188197501235 0 -0.0044275676909081643 -0.0012428912304339522 0 -0.0040479579568662664 -0.0011989995545578678 0 -0.0039794187217401409 -0.0010749189327836155 0 -0.0047699348559143376 -0.0016804133186233642 0 -0.0044437835004239911 -0.0016004733491934067 0 -0.0046240152874574784 -0.0015779282751583372 0 -0.0046640192742635166 -0.0013885539252748483 0 -0.0037817155037283929 -0.001978642193838098 0 -0.0047699348559143376 -0.0016804133186233642 0 -0.0046240152874574784 -0.0015779282751583372 0 -0.0046915328487233416 -0.001538191960232054 0 -0.0045550651795712967 -0.0019395861775872423 0 -0.0037270820085308631 -0.0031710188197501235 0 -0.0046240152874574784 -0.0015779282751583372 0 -0.0046844920998919438 -0.0015415637336406497 0 -0.0045334382491579138 -0.0014831631773379323 0 -0.0046859917458249205 -0.0017637208840541477 0 -0.0045550651795712967 -0.0019395861775872423 0 -0.0030683630637141674 -0.0043610385584887381 0 -0.0030292909750425324 -0.0041491833278167502 0 -0.0032408508235855752 -0.0041296598454996182 0 -0.0037270820085308631 -0.0031710188197501235 0 -0.003739741957442515 -0.0036123217208442996 0 -0.0042958042097345607 -0.0029338294699786773 0 -0.0042908300850097135 -0.0029356378854298302 0 -0.0042957689214108566 -0.0029364542544024581 0 -0.0028434189742523961 -0.0031325141409719631 0 -0.0033031276511912276 -0.0035898990333750945 0 -0.0034657533707439601 -0.0033765978886109425 0 -0.0027369221244238316 -0.0042445073574185043 0 -0.0030683630637141674 -0.0043610385584887381 0 -0.0030292909750425324 -0.0041491833278167502 0 -0.0027224325731007503 -0.0037814823696509228 0 -0.0037270820085308631 -0.0031710188197501235 0 -0.0027369221244238316 -0.0042445073574185043 0 -0.0030292909750425324 -0.0041491833278167502 0 -0.0029223014876700714 -0.0039652851761661145 0 -0.0030292909750425324 -0.0041491833278167502 0 -0.0032408508235855752 -0.0041296598454996182 0 -0.0031455025019880528 -0.0039004000225938166 0 -0.0032408508235855752 -0.0041296598454996182 0 -0.0031455025019880528 -0.0039004000225938166 0 -0.0034099997246362177 -0.0038956698066202264 0 -0.0031455025019880528 -0.0039004000225938166 0 -0.0029223014876700714 -0.0039652851761661145 0 -0.0029543554790142168 -0.0036788577761323136 0 -0.0030292909750425324 -0.0041491833278167502 0 -0.0031455025019880528 -0.0039004000225938166 0 -0.0029223014876700714 -0.0039652851761661145 0 -0.0042999175917498109 -0.0029384671342729779 0 -0.0043022336399799431 -0.0029341143923874847 0 -0.0043012883997211922 -0.0029372714532737727 0 -0.003739741957442515 -0.0036123217208442996 0 -0.003835482871587967 -0.0034273163206000297 0 -0.0042957689214108566 -0.0029364542544024581 0 -0.0042999175917498109 -0.0029384671342729779 0 -0.0043022336399799431 -0.0029341143923874847 0 -0.0042957689214108566 -0.0029364542544024581 0 -0.0043022336399799431 -0.0029341143923874847 0 -0.0043020366548969001 -0.0029327614402798107 0 -0.0043022336399799431 -0.0029341143923874847 0 -0.0043020366548969001 -0.0029327614402798107 0 -0.0043058295316590802 -0.0029304557030299075 0 -0.004921219456666826 -0.0014827228017160127 0 -0.0050328207025110887 -0.0014897848249075993 0 -0.0050748400362486514 -0.0014023091120089507 0 -0.0045427279128076974 -0.0022582358224652647 0 -0.0049743358147769619 -0.0022271308923262592 0 -0.004921219456666826 -0.0014827228017160127 0 -0.0050220824816162007 -0.0015774314594848412 0 -0.0050328207025110887 -0.0014897848249075993 0 -0.0045550651795712967 -0.0019395861775872423 0 -0.0045427279128076974 -0.0022582358224652647 0 -0.0042958042097345607 -0.0029338294699786773 0 -0.0042957689214108566 -0.0029364542544024581 0 -0.0043020366548969001 -0.0029327614402798107 0 -0.0047699348559143376 -0.0016804133186233642 0 -0.0046915328487233416 -0.001538191960232054 0 -0.0048716888552701254 -0.0016147670920320049 0 -0.0045550651795712967 -0.0019395861775872423 0 -0.0048607730100330071 -0.0016048259756222807 0 -0.0047625390936835276 -0.0015741313814598098 0 -0.004921219456666826 -0.0014827228017160127 0 -0.0048716888552701254 -0.0016147670920320049 0 -0.004921219456666826 -0.0014827228017160127 0 -0.0048716888552701254 -0.0016147670920320049 0 -0.0050220824816162007 -0.0015774314594848412 0 -0.0049913441232448631 -0.0017045760775206097 0 -0.0048716888552701254 -0.0016147670920320049 0 -0.0050220824816162007 -0.0015774314594848412 0 -0.0050220824816162007 -0.0015774314594848412 0 -0.0051485668164599806 -0.0016040443347534209 0 -0.0051125056207729485 -0.0014928739485117986 0 -0.0050220824816162007 -0.0015774314594848412 0 -0.0051485668164599806 -0.0016040443347534209 0 -0.0050788217652818603 -0.001651154308041806 0 -0.0051485668164599806 -0.0016040443347534209 0 -0.0051822802893489624 -0.0015272569749621189 0 -0.005251633379687556 -0.0015836991409269843 0 -0.0051485668164599806 -0.0016040443347534209 0 -0.0051822802893489624 -0.0015272569749621189 0 -0.0051125056207729485 -0.0014928739485117986 0 -0.0051822802893489624 -0.0015272569749621189 0 -0.0051591240090372399 -0.0014546653551299792 0 -0.005221975748738221 -0.0014722965248579354 0 -0.0051822802893489624 -0.0015272569749621189 0 -0.0051125056207729485 -0.0014928739485117986 0 -0.0051591240090372399 -0.0014546653551299792 0 -0.0050220824816162007 -0.0015774314594848412 0 -0.0051125056207729485 -0.0014928739485117986 0 -0.0050328207025110887 -0.0014897848249075993 0 -0.005001170785167223 -0.0013018435528237571 0 -0.0049743358147769619 -0.0022271308923262592 0 -0.0051125056207729485 -0.0014928739485117986 0 -0.0050328207025110887 -0.0014897848249075993 0 -0.0050748400362486514 -0.0014023091120089507 0 -0.0051125056207729485 -0.0014928739485117986 0 -0.0050942162833873634 -0.001438372367116855 0 -0.0051591240090372399 -0.0014546653551299792 0 -0.0050942162833873634 -0.001438372367116855 0 -0.0051591240090372399 -0.0014546653551299792 0 -0.0051960254934527265 -0.001382027871416652 0 -0.0051591240090372399 -0.0014546653551299792 0 -0.0051960254934527265 -0.001382027871416652 0 -0.005221975748738221 -0.0014722965248579354 0 -0.0052442424876401805 -0.0028620204045790979 0 -0.0053197028096176584 -0.002822114097547459 0 -0.0052716497762242869 -0.0028089428944633554 0 -0.0049743358147769619 -0.0022271308923262592 0 -0.0053048923946109588 -0.0020358222512805537 0 -0.0053197028096176584 -0.002822114097547459 0 -0.0052716497762242869 -0.0028089428944633554 0 -0.005319370187295479 -0.0027754097314371959 0 -0.0052442424876401805 -0.0028620204045790979 0 -0.0052716497762242869 -0.0028089428944633554 0 -0.0052219906074361527 -0.0028114983951366009 0 -0.0049743358147769619 -0.0022271308923262592 0 -0.004797770799494787 -0.0029464649029952036 0 -0.0043022336399799431 -0.0029341143923874847 0 -0.0043058295316590802 -0.0029304557030299075 0 -0.0043012883997211922 -0.0029372714532737727 0 -0.0053249068803136413 -0.0014069799519401233 0 -0.0053104450761036846 -0.0013707699044882532 0 -0.0052677018204204274 -0.0013864844492389528 0 -0.0053249068803136413 -0.0014069799519401233 0 -0.0052677018204204274 -0.0013864844492389528 0 -0.0052730577145004894 -0.0014366077616004738 0 -0.0053249068803136413 -0.0014069799519401233 0 -0.0053466999992760654 -0.0013690928227183031 0 -0.0053104450761036846 -0.0013707699044882532 0 -0.0053466999992760654 -0.0013690928227183031 0 -0.0053104450761036846 -0.0013707699044882532 0 -0.0052974651720942758 -0.0013307449035186855 0 -0.0053104450761036846 -0.0013707699044882532 0 -0.0052677018204204274 -0.0013864844492389528 0 -0.0052974651720942758 -0.0013307449035186855 0 -0.0053048923946109588 -0.0020358222512805537 0 -0.0053921317757282088 -0.0024181187245398278 0 -0.0051960254934527265 -0.001382027871416652 0 -0.0052677018204204274 -0.0013864844492389528 0 -0.0052730577145004894 -0.0014366077616004738 0 -0.0051960254934527265 -0.001382027871416652 0 -0.0052677018204204274 -0.0013864844492389528 0 -0.0052974651720942758 -0.0013307449035186855 0 -0.0051960254934527265 -0.001382027871416652 0 -0.005221975748738221 -0.0014722965248579354 0 -0.0052730577145004894 -0.0014366077616004738 0 -0.0053249068803136413 -0.0014069799519401233 0 -0.0052730577145004894 -0.0014366077616004738 0 -0.0053282468332481025 -0.0014713081867054015 0 -0.005221975748738221 -0.0014722965248579354 0 -0.0052730577145004894 -0.0014366077616004738 0 -0.0053282468332481025 -0.0014713081867054015 0 -0.005221975748738221 -0.0014722965248579354 0 -0.0053282468332481025 -0.0014713081867054015 0 -0.0053184223579559936 -0.0015368533884137906 0 -0.0051822802893489624 -0.0015272569749621189 0 -0.005221975748738221 -0.0014722965248579354 0 -0.005251633379687556 -0.0015836991409269843 0 -0.005221975748738221 -0.0014722965248579354 0 -0.0053184223579559936 -0.0015368533884137906 0 -0.005251633379687556 -0.0015836991409269843 0 -0.0051485668164599806 -0.0016040443347534209 0 -0.005251633379687556 -0.0015836991409269843 0 -0.0052213521097272701 -0.0016628628742346029 0 -0.0053184223579559936 -0.0015368533884137906 0 -0.005251633379687556 -0.0015836991409269843 0 -0.0053730147046064901 -0.0015942901787188658 0 -0.005251633379687556 -0.0015836991409269843 0 -0.0053272857243135017 -0.0016675594151847131 0 -0.0053730147046064901 -0.0015942901787188658 0 -0.0053272857243135017 -0.0016675594151847131 0 -0.0052522047734898094 -0.0017015032132236024 0 -0.0052213521097272701 -0.0016628628742346029 0 -0.0053272857243135017 -0.0016675594151847131 0 -0.0052522047734898094 -0.0017015032132236024 0 -0.005403509333141261 -0.0017288562693838472 0 -0.0052522047734898094 -0.0017015032132236024 0 -0.0052213521097272701 -0.0016628628742346029 0 -0.0051448470803164975 -0.0017103969401954251 0 -0.0052385346432769842 -0.0016940926124479456 0 -0.0050955014415849532 -0.0016309370744575747 0 -0.0052522047734898094 -0.0017015032132236024 0 -0.0050499295241794671 -0.001553152134250434 0 -0.0051525674418699064 -0.0017724916363664718 0 -0.005251633379687556 -0.0015836991409269843 0 -0.0053272857243135017 -0.0016675594151847131 0 -0.0052213521097272701 -0.0016628628742346029 0 -0.0051485668164599806 -0.0016040443347534209 0 -0.0050788217652818603 -0.001651154308041806 0 -0.0051448470803164975 -0.0017103969401954251 0 -0.0051485668164599806 -0.0016040443347534209 0 -0.0052213521097272701 -0.0016628628742346029 0 -0.0051448470803164975 -0.0017103969401954251 0 -0.0049913441232448631 -0.0017045760775206097 0 -0.0050220824816162007 -0.0015774314594848412 0 -0.0050788217652818603 -0.001651154308041806 0 -0.0049913441232448631 -0.0017045760775206097 0 -0.0050788217652818603 -0.001651154308041806 0 -0.0051448470803164975 -0.0017103969401954251 0 -0.0048657268951929813 -0.0015593750336850487 0 -0.0050955014415849532 -0.0016309370744575747 0 -0.0048719958943212373 -0.0016369426161707927 0 -0.0050499295241794671 -0.001553152134250434 0 -0.0049956372978951996 -0.0018149602567180975 0 -0.0047769858533235673 -0.0014019727638003834 0 -0.0048719958943212373 -0.0016369426161707927 0 -0.0050499295241794671 -0.001553152134250434 0 -0.0050499295241794671 -0.001553152134250434 0 -0.0049956372978951996 -0.0018149602567180975 0 -0.0051525674418699064 -0.0017724916363664718 0 -0.0048223867540553144 -0.001775363132389402 0 -0.0048719958943212373 -0.0016369426161707927 0 -0.0049956372978951996 -0.0018149602567180975 0 -0.005007996964110608 -0.002125011578502116 0 -0.0049971059478757657 -0.0017627469101729547 0 -0.0049676543632038916 -0.00203119304593992 0 -0.0048053064911899928 -0.0019130921050458842 0 -0.0049956372978951996 -0.0018149602567180975 0 -0.0048053064911899928 -0.0019130921050458842 0 -0.0048223867540553144 -0.001775363132389402 0 -0.0049956372978951996 -0.0018149602567180975 0 -0.0049956372978951996 -0.0018149602567180975 0 -0.0051474283524005539 -0.0018826828060437761 0 -0.0051525674418699064 -0.0017724916363664718 0 -0.0050355409326974304 -0.0019018969568631739 0 -0.0049956372978951996 -0.0018149602567180975 0 -0.0051474283524005539 -0.0018826828060437761 0 -0.0051474283524005539 -0.0018826828060437761 0 -0.0052765158591339392 -0.001817217570945802 0 -0.0051525674418699064 -0.0017724916363664718 0 -0.0052622934104838955 -0.0019211083076325665 0 -0.0051474283524005539 -0.0018826828060437761 0 -0.0052765158591339392 -0.001817217570945802 0 -0.0052622934104838955 -0.0019211083076325665 0 -0.0052765158591339392 -0.001817217570945802 0 -0.00540842720553876 -0.0018617602230982565 0 -0.0053699049718134622 -0.0017715625716082826 0 -0.0056357589266583441 -0.0016145455378524646 0 -0.0052522047734898094 -0.0017015032132236024 0 -0.0052765158591339392 -0.001817217570945802 0 -0.0053684947714189588 -0.0017900160959147594 0 -0.0052522047734898094 -0.0017015032132236024 0 -0.0053684947714189588 -0.0017900160959147594 0 -0.005403509333141261 -0.0017288562693838472 0 -0.0052522047734898094 -0.0017015032132236024 0 -0.0052765158591339392 -0.001817217570945802 0 -0.0051525674418699064 -0.0017724916363664718 0 -0.0054481874434336684 -0.0017837959277633454 0 -0.00540842720553876 -0.0018617602230982565 0 -0.0055612785084797655 -0.0017873964887672922 0 -0.0056357589266583441 -0.0016145455378524646 0 -0.0056960743195294929 -0.0016259167058981206 0 -0.0054481874434336684 -0.0017837959277633454 0 -0.0055612785084797655 -0.0017873964887672922 0 -0.0054903578291733233 -0.0017487664835707313 0 -0.0055612785084797655 -0.0017873964887672922 0 -0.0055754005838165735 -0.0017589754671143406 0 -0.0054903578291733233 -0.0017487664835707313 0 -0.0054481874434336684 -0.0017837959277633454 0 -0.0054903578291733233 -0.0017487664835707313 0 -0.005403509333141261 -0.0017288562693838472 0 -0.0054481874434336684 -0.0017837959277633454 0 -0.0053684947714189588 -0.0017900160959147594 0 -0.005403509333141261 -0.0017288562693838472 0 -0.0052765158591339392 -0.001817217570945802 0 -0.0053684947714189588 -0.0017900160959147594 0 -0.00540842720553876 -0.0018617602230982565 0 -0.0054481874434336684 -0.0017837959277633454 0 -0.0053684947714189588 -0.0017900160959147594 0 -0.00540842720553876 -0.0018617602230982565 0 -0.0058079951119907316 -0.0017484443423638077 0 -0.0058726994486760567 -0.001352284057033954 0 -0.0059154370623089141 -0.0013816485996228031 0 -0.0058726994486760567 -0.001352284057033954 0 -0.0059154370623089141 -0.0013816485996228031 0 -0.0058655250358350475 -0.0013955458458161682 0 -0.0058726994486760567 -0.001352284057033954 0 -0.0058655250358350475 -0.0013955458458161682 0 -0.0058445000357691913 -0.0014665257198415039 0 -0.0059154370623089141 -0.0013816485996228031 0 -0.0058655250358350475 -0.0013955458458161682 0 -0.0058403653338835867 -0.0013012900278434438 0 -0.0058655250358350475 -0.0013955458458161682 0 -0.0058403653338835867 -0.0013012900278434438 0 -0.0057989514250409383 -0.0013523772344182696 0 -0.0057330808598030488 -0.0012459447434590909 0 -0.0058403653338835867 -0.0013012900278434438 0 -0.0057989514250409383 -0.0013523772344182696 0 -0.0057330808598030488 -0.0012459447434590909 0 -0.0057989514250409383 -0.0013523772344182696 0 -0.0057007674582084424 -0.0013548324133978984 0 -0.0057989514250409383 -0.0013523772344182696 0 -0.0057007674582084424 -0.0013548324133978984 0 -0.0057825359620912141 -0.001411347675342859 0 -0.0058655250358350475 -0.0013955458458161682 0 -0.0057989514250409383 -0.0013523772344182696 0 -0.0057825359620912141 -0.001411347675342859 0 -0.0055847707214168171 -0.0012623159012129885 0 -0.0057330808598030488 -0.0012459447434590909 0 -0.0057007674582084424 -0.0013548324133978984 0 -0.0055847707214168171 -0.0012623159012129885 0 -0.0057007674582084424 -0.0013548324133978984 0 -0.0055802512133882546 -0.0013720469147148154 0 -0.0057007674582084424 -0.0013548324133978984 0 -0.0055802512133882546 -0.0013720469147148154 0 -0.0057040206475902442 -0.0014682297635821222 0 -0.0055802512133882546 -0.0013720469147148154 0 -0.0057040206475902442 -0.0014682297635821222 0 -0.0055381581004116109 -0.0014832594768426181 0 -0.0057040206475902442 -0.0014682297635821222 0 -0.0056619936739708493 -0.0016154873842467903 0 -0.0055381581004116109 -0.0014832594768426181 0 -0.0057040206475902442 -0.0014682297635821222 0 -0.0057825359620912141 -0.001411347675342859 0 -0.0058445000357691913 -0.0014665257198415039 0 -0.0056960743195294929 -0.0016259167058981206 0 -0.0056143468848422031 -0.0016924013846609297 0 -0.0057040206475902442 -0.0014682297635821222 0 -0.0058445000357691913 -0.0014665257198415039 0 -0.0056619936739708493 -0.0016154873842467903 0 -0.0058655250358350475 -0.0013955458458161682 0 -0.0057825359620912141 -0.001411347675342859 0 -0.0058445000357691913 -0.0014665257198415039 0 -0.0057007674582084424 -0.0013548324133978984 0 -0.0057040206475902442 -0.0014682297635821222 0 -0.0057825359620912141 -0.001411347675342859 0 -0.0056093483147496084 -0.0018100356576915392 0 -0.0055754005838165735 -0.0017589754671143406 0 -0.005571016906985987 -0.00176532751056453 0 -0.0056093483147496084 -0.0018100356576915392 0 -0.0055754005838165735 -0.0017589754671143406 0 -0.005693989212737516 -0.001877413369225386 0 -0.0055841403243789556 -0.0017683058626053046 0 -0.0056074294004694646 -0.0017566740248679497 0 -0.0055612785084797655 -0.0017873964887672922 0 -0.0055754005838165735 -0.0017589754671143406 0 -0.005571016906985987 -0.00176532751056453 0 -0.005571016906985987 -0.00176532751056453 0 -0.0055678367630228875 -0.0019332272910574963 0 -0.0054263048325397982 -0.0018467486144450186 0 -0.0056093483147496084 -0.0018100356576915392 0 -0.005571016906985987 -0.00176532751056453 0 -0.0055678367630228875 -0.0019332272910574963 0 -0.0056093483147496084 -0.0018100356576915392 0 -0.005693989212737516 -0.001877413369225386 0 -0.0055678367630228875 -0.0019332272910574963 0 -0.0054610431575757862 -0.0016716689162655737 0 -0.0053730147046064901 -0.0015942901787188658 0 -0.0054555367658871683 -0.0015807461008208086 0 -0.0055264308893140492 -0.0016250854658974433 0 -0.0054610431575757862 -0.0016716689162655737 0 -0.0054555367658871683 -0.0015807461008208086 0 -0.0055754005838165735 -0.0017589754671143406 0 -0.0055264308893140492 -0.0016250854658974433 0 -0.0054610431575757862 -0.0016716689162655737 0 -0.0054610431575757862 -0.0016716689162655737 0 -0.0054903578291733233 -0.0017487664835707313 0 -0.005403509333141261 -0.0017288562693838472 0 -0.0055754005838165735 -0.0017589754671143406 0 -0.0054610431575757862 -0.0016716689162655737 0 -0.0054903578291733233 -0.0017487664835707313 0 -0.0053272857243135017 -0.0016675594151847131 0 -0.0054610431575757862 -0.0016716689162655737 0 -0.005403509333141261 -0.0017288562693838472 0 -0.0053272857243135017 -0.0016675594151847131 0 -0.0054610431575757862 -0.0016716689162655737 0 -0.0053730147046064901 -0.0015942901787188658 0 -0.0053730147046064901 -0.0015942901787188658 0 -0.0054555367658871683 -0.0015807461008208086 0 -0.0054106456518114403 -0.0015113018172991262 0 -0.0053184223579559936 -0.0015368533884137906 0 -0.0053730147046064901 -0.0015942901787188658 0 -0.0054106456518114403 -0.0015113018172991262 0 -0.0055264308893140492 -0.0016250854658974433 0 -0.0054555367658871683 -0.0015807461008208086 0 -0.005499088298267416 -0.0015350701466670914 0 -0.0054555367658871683 -0.0015807461008208086 0 -0.0054106456518114403 -0.0015113018172991262 0 -0.005499088298267416 -0.0015350701466670914 0 -0.0054106456518114403 -0.0015113018172991262 0 -0.0054876410836534658 -0.0014478223587121714 0 -0.005499088298267416 -0.0015350701466670914 0 -0.0053282468332481025 -0.0014713081867054015 0 -0.0053184223579559936 -0.0015368533884137906 0 -0.0054106456518114403 -0.0015113018172991262 0 -0.0053282468332481025 -0.0014713081867054015 0 -0.0054106456518114403 -0.0015113018172991262 0 -0.0053992624131700565 -0.0014121356789616275 0 -0.0053249068803136413 -0.0014069799519401233 0 -0.0053282468332481025 -0.0014713081867054015 0 -0.0053992624131700565 -0.0014121356789616275 0 -0.0054106456518114403 -0.0015113018172991262 0 -0.0053992624131700565 -0.0014121356789616275 0 -0.0054876410836534658 -0.0014478223587121714 0 -0.0053992624131700565 -0.0014121356789616275 0 -0.0054824883527523106 -0.0013607901912649153 0 -0.0053926130912535734 -0.0013447815602370544 0 -0.0053992624131700565 -0.0014121356789616275 0 -0.0054876410836534658 -0.0014478223587121714 0 -0.0054824883527523106 -0.0013607901912649153 0 -0.0053466999992760654 -0.0013690928227183031 0 -0.0053992624131700565 -0.0014121356789616275 0 -0.0053926130912535734 -0.0013447815602370544 0 -0.0053249068803136413 -0.0014069799519401233 0 -0.0053466999992760654 -0.0013690928227183031 0 -0.0053992624131700565 -0.0014121356789616275 0 -0.0055482578349634075 -0.002482717517462514 0 -0.0056843755922258233 -0.0023833029213774317 0 -0.0055931865772034847 -0.0022857649661826465 0 -0.0055482578349634075 -0.002482717517462514 0 -0.0055889597544838262 -0.0025221788952341736 0 -0.0056507430900591092 -0.0025633812524354497 0 -0.0056843755922258233 -0.0023833029213774317 0 -0.0057885592965696512 -0.0022795830964134128 0 -0.0058005472089408122 -0.0024845412693609535 0 -0.0055482578349634075 -0.002482717517462514 0 -0.0056843755922258233 -0.0023833029213774317 0 -0.0058005472089408122 -0.0024845412693609535 0 -0.0056424148848598938 -0.0017889719878517237 0 -0.0055568383517874556 -0.0022891799088226345 0 -0.0056274704585931616 -0.0025557651988028225 0 -0.0055568383517874556 -0.0022891799088226345 0 -0.0056843755922258233 -0.0023833029213774317 0 -0.0057885592965696512 -0.0022795830964134128 0 -0.0055931865772034847 -0.0022857649661826465 0 -0.0057885592965696512 -0.0022795830964134128 0 -0.0055931865772034847 -0.0022857649661826465 0 -0.005617183706927425 -0.002109371727864213 0 -0.005617183706927425 -0.002109371727864213 0 -0.0055678367630228875 -0.0019332272910574963 0 -0.0054803040931326961 -0.0021304672215973776 0 -0.0055931865772034847 -0.0022857649661826465 0 -0.005617183706927425 -0.002109371727864213 0 -0.0054803040931326961 -0.0021304672215973776 0 -0.0056424148848598938 -0.0017889719878517237 0 -0.0056259564510015223 -0.0018187707616394361 0 -0.0057885592965696512 -0.0022795830964134128 0 -0.005617183706927425 -0.002109371727864213 0 -0.00575313085559439 -0.0020652501861436936 0 -0.0056074294004694646 -0.0017566740248679497 0 -0.0056259564510015223 -0.0018187707616394361 0 -0.005617183706927425 -0.002109371727864213 0 -0.00575313085559439 -0.0020652501861436936 0 -0.0055678367630228875 -0.0019332272910574963 0 -0.005693989212737516 -0.001877413369225386 0 -0.00575313085559439 -0.0020652501861436936 0 -0.0055678367630228875 -0.0019332272910574963 0 -0.0055678367630228875 -0.0019332272910574963 0 -0.0054020503975135293 -0.0019835107608515349 0 -0.0054803040931326961 -0.0021304672215973776 0 -0.0054020503975135293 -0.0019835107608515349 0 -0.0052591468623544016 -0.0019236508629902665 0 -0.0054263048325397982 -0.0018467486144450186 0 -0.0054020503975135293 -0.0019835107608515349 0 -0.0053165703758951488 -0.0021426067373019339 0 -0.0052591468623544016 -0.0019236508629902665 0 -0.0054020503975135293 -0.0019835107608515349 0 -0.0053165703758951488 -0.0021426067373019339 0 -0.0054803040931326961 -0.0021304672215973776 0 -0.0055931865772034847 -0.0022857649661826465 0 -0.0054803040931326961 -0.0021304672215973776 0 -0.0054466049841814454 -0.0023167849515280787 0 -0.0053165703758951488 -0.0021426067373019339 0 -0.0054803040931326961 -0.0021304672215973776 0 -0.0054466049841814454 -0.0023167849515280787 0 -0.0053165703758951488 -0.0021426067373019339 0 -0.0054466049841814454 -0.0023167849515280787 0 -0.0053025912872461311 -0.0023632884368239345 0 -0.0054466049841814454 -0.0023167849515280787 0 -0.0053025912872461311 -0.0023632884368239345 0 -0.00543563292395408 -0.0024516765284693254 0 -0.0053025912872461311 -0.0023632884368239345 0 -0.00543563292395408 -0.0024516765284693254 0 -0.0053654857789173062 -0.0025624342499814771 0 -0.0053025912872461311 -0.0023632884368239345 0 -0.0052069360622529846 -0.0025193328872255933 0 -0.0053654857789173062 -0.0025624342499814771 0 -0.0055482578349634075 -0.002482717517462514 0 -0.0055931865772034847 -0.0022857649661826465 0 -0.0054466049841814454 -0.0023167849515280787 0 -0.0055482578349634075 -0.002482717517462514 0 -0.0054466049841814454 -0.0023167849515280787 0 -0.00543563292395408 -0.0024516765284693254 0 -0.0055482578349634075 -0.002482717517462514 0 -0.00543563292395408 -0.0024516765284693254 0 -0.0054822011854960984 -0.0025764368810111339 0 -0.0049999838679201276 -0.0023463304122737852 0 -0.0052069360622529846 -0.0025193328872255933 0 -0.0049999842824306985 -0.0026220871442425909 0 -0.0049999838679201276 -0.0023463304122737852 0 -0.0051663156726158279 -0.0022506505415335067 0 -0.0052069360622529846 -0.0025193328872255933 0 -0.0053025912872461311 -0.0023632884368239345 0 -0.0051663156726158279 -0.0022506505415335067 0 -0.0052069360622529846 -0.0025193328872255933 0 -0.0053165703758951488 -0.0021426067373019339 0 -0.0053025912872461311 -0.0023632884368239345 0 -0.0051663156726158279 -0.0022506505415335067 0 -0.0049999838679201276 -0.0023463304122737852 0 -0.0051663156726158279 -0.0022506505415335067 0 -0.004999989484036951 -0.0020705797862153033 0 -0.0051663156726158279 -0.0022506505415335067 0 -0.004999989484036951 -0.0020705797862153033 0 -0.0051632551811232955 -0.0020603066768838463 0 -0.0053165703758951488 -0.0021426067373019339 0 -0.0051663156726158279 -0.0022506505415335067 0 -0.0051632551811232955 -0.0020603066768838463 0 -0.0053165703758951488 -0.0021426067373019339 0 -0.0051632551811232955 -0.0020603066768838463 0 -0.0052591468623544016 -0.0019236508629902665 0 -0.004999989484036951 -0.0020705797862153033 0 -0.0051632551811232955 -0.0020603066768838463 0 -0.004999983539186661 -0.0017948155934877945 0 -0.0051632551811232955 -0.0020603066768838463 0 -0.0052591468623544016 -0.0019236508629902665 0 -0.004999983539186661 -0.0017948155934877945 0 -0.004999983539186661 -0.0017948155934877945 0 -0.0052253404661285622 -0.0016743735626225968 0 -0.0049999945885742031 -0.001519042489717175 0 -0.0052253404661285622 -0.0016743735626225968 0 -0.0053995680631897013 -0.0015692658318315685 0 -0.0052364490943282637 -0.0014668467484588673 0 -0.0052591468623544016 -0.0019236508629902665 0 -0.004999983539186661 -0.0017948155934877945 0 -0.0052253404661285622 -0.0016743735626225968 0 -0.0052591468623544016 -0.0019236508629902665 0 -0.0052253404661285622 -0.0016743735626225968 0 -0.0054724080928838185 -0.0017626124192245836 0 -0.0052688705828984285 -0.0019183448264278955 0 -0.0054446872022900633 -0.0018065735307916824 0 -0.0055678367630228875 -0.0019332272910574963 0 -0.0054020503975135293 -0.0019835107608515349 0 -0.0054263048325397982 -0.0018467486144450186 0 -0.0054724080928838185 -0.0017626124192245836 0 -0.0055186950185703697 -0.0016071806481672236 0 -0.0053995680631897013 -0.0015692658318315685 0 -0.0056619936739708493 -0.0016154873842467903 0 -0.0055186950185703697 -0.0016071806481672236 0 -0.0055381581004116109 -0.0014832594768426181 0 -0.0056143468848422031 -0.0016924013846609297 0 -0.0054446872022900633 -0.0018065735307916824 0 -0.0056619936739708493 -0.0016154873842467903 0 -0.0054724080928838185 -0.0017626124192245836 0 -0.0055186950185703697 -0.0016071806481672236 0 -0.0052253404661285622 -0.0016743735626225968 0 -0.0054724080928838185 -0.0017626124192245836 0 -0.0053995680631897013 -0.0015692658318315685 0 -0.0053995680631897013 -0.0015692658318315685 0 -0.0054176326141739889 -0.0014068648190824862 0 -0.0052364490943282637 -0.0014668467484588673 0 -0.0053995680631897013 -0.0015692658318315685 0 -0.0055381581004116109 -0.0014832594768426181 0 -0.0054176326141739889 -0.0014068648190824862 0 -0.0055802512133882546 -0.0013720469147148154 0 -0.0055381581004116109 -0.0014832594768426181 0 -0.0054176326141739889 -0.0014068648190824862 0 -0.0055186950185703697 -0.0016071806481672236 0 -0.0053995680631897013 -0.0015692658318315685 0 -0.0055381581004116109 -0.0014832594768426181 0 -0.0055802512133882546 -0.0013720469147148154 0 -0.0054490177097659435 -0.0012722583573321026 0 -0.0054176326141739889 -0.0014068648190824862 0 -0.0055847707214168171 -0.0012623159012129885 0 -0.0055802512133882546 -0.0013720469147148154 0 -0.0054490177097659435 -0.0012722583573321026 0 -0.0054490177097659435 -0.0012722583573321026 0 -0.0054176326141739889 -0.0014068648190824862 0 -0.0052890524425758647 -0.0012821586910249179 0 -0.0054176326141739889 -0.0014068648190824862 0 -0.0052890524425758647 -0.0012821586910249179 0 -0.0052364490943282637 -0.0014668467484588673 0 -0.0052890524425758647 -0.0012821586910249179 0 -0.0051378407928428602 -0.0013423853780302345 0 -0.0052364490943282637 -0.0014668467484588673 0 -0.0049999945817794517 -0.0012432910524798107 0 -0.0051378407928428602 -0.0013423853780302345 0 -0.0049999945885742031 -0.001519042489717175 0 -0.0051378407928428602 -0.0013423853780302345 0 -0.0049999945885742031 -0.001519042489717175 0 -0.0052364490943282637 -0.0014668467484588673 0 -0.0052253404661285622 -0.0016743735626225968 0 -0.0049999945885742031 -0.001519042489717175 0 -0.0052364490943282637 -0.0014668467484588673 0 -0.0051690561267063078 -0.0036350882962283442 0 -0.0053870235226702807 -0.0035633498034035654 0 -0.0052423529593203632 -0.0033739673996134741 0 -0.0049999896563877721 -0.0034493592964987508 0 -0.0051690561267063078 -0.0036350882962283442 0 -0.0052423529593203632 -0.0033739673996134741 0 -0.0049999896563877721 -0.0034493592964987508 0 -0.0049999895431435057 -0.0037251264444310237 0 -0.0051690561267063078 -0.0036350882962283442 0 -0.0049999895431435057 -0.0037251264444310237 0 -0.0051690561267063078 -0.0036350882962283442 0 -0.0051278995836277572 -0.0038473823734167674 0 -0.0051690561267063078 -0.0036350882962283442 0 -0.0053870235226702807 -0.0035633498034035654 0 -0.0052693153140840852 -0.0038288864460111578 0 -0.0054067674533488964 -0.0035432774842027266 0 -0.0053037707323789476 -0.0038958335444707376 0 -0.0055024229577287686 -0.0036799143811518656 0 -0.0053870235226702807 -0.0035633498034035654 0 -0.0053706981938499423 -0.0037884915692872273 0 -0.0055024229577287686 -0.0036799143811518656 0 -0.0055574780325906951 -0.0035445728661271858 0 -0.0053870235226702807 -0.0035633498034035654 0 -0.0055574780325906951 -0.0035445728661271858 0 -0.0053870235226702807 -0.0035633498034035654 0 -0.0054986390658422661 -0.0033964002735476563 0 -0.0053870235226702807 -0.0035633498034035654 0 -0.0054986390658422661 -0.0033964002735476563 0 -0.0052423529593203632 -0.0033739673996134741 0 -0.0054986390658422661 -0.0033964002735476563 0 -0.0053930016049158272 -0.0032248279481063807 0 -0.0052423529593203632 -0.0033739673996134741 0 -0.0054986390658422661 -0.0033964002735476563 0 -0.0055316809739059504 -0.0031887604956093892 0 -0.0053930016049158272 -0.0032248279481063807 0 -0.0055316809739059504 -0.0031887604956093892 0 -0.0053930016049158272 -0.0032248279481063807 0 -0.0054386975280159887 -0.003016371296298604 0 -0.0053930016049158272 -0.0032248279481063807 0 -0.0052524218557883995 -0.0031464436029467044 0 -0.0054386975280159887 -0.003016371296298604 0 -0.0053930016049158272 -0.0032248279481063807 0 -0.0052524218557883995 -0.0031464436029467044 0 -0.0052423529593203632 -0.0033739673996134741 0 -0.0052524218557883995 -0.0031464436029467044 0 -0.0052423529593203632 -0.0033739673996134741 0 -0.0049999873755596407 -0.0031736035410257703 0 -0.0049999896563877721 -0.0034493592964987508 0 -0.0052423529593203632 -0.0033739673996134741 0 -0.0049999873755596407 -0.0031736035410257703 0 -0.0049999873755596407 -0.0031736035410257703 0 -0.0052046655601258223 -0.0029304891227394225 0 -0.004999984033875601 -0.002897845739932685 0 -0.0052524218557883995 -0.0031464436029467044 0 -0.0049999873755596407 -0.0031736035410257703 0 -0.0052046655601258223 -0.0029304891227394225 0 -0.0052046655601258223 -0.0029304891227394225 0 -0.0051854591624283632 -0.002748818988412104 0 -0.0053702654950532726 -0.0028314055521162325 0 -0.0052046655601258223 -0.0029304891227394225 0 -0.004999984033875601 -0.002897845739932685 0 -0.0051854591624283632 -0.002748818988412104 0 -0.004999984033875601 -0.002897845739932685 0 -0.0051854591624283632 -0.002748818988412104 0 -0.0049999842824306985 -0.0026220871442425909 0 -0.0051854591624283632 -0.002748818988412104 0 -0.0052069360622529846 -0.0025193328872255933 0 -0.0053225109924794579 -0.0026936494288646007 0 -0.0051854591624283632 -0.002748818988412104 0 -0.0052069360622529846 -0.0025193328872255933 0 -0.0049999842824306985 -0.0026220871442425909 0 -0.0054822011854960984 -0.0025764368810111339 0 -0.0053654857789173062 -0.0025624342499814771 0 -0.0054360719207697363 -0.002695488705536694 0 -0.00543563292395408 -0.0024516765284693254 0 -0.0054822011854960984 -0.0025764368810111339 0 -0.0053654857789173062 -0.0025624342499814771 0 -0.0052069360622529846 -0.0025193328872255933 0 -0.0053654857789173062 -0.0025624342499814771 0 -0.0053225109924794579 -0.0026936494288646007 0 -0.0053654857789173062 -0.0025624342499814771 0 -0.0053225109924794579 -0.0026936494288646007 0 -0.0054360719207697363 -0.002695488705536694 0 -0.0051854591624283632 -0.002748818988412104 0 -0.0053225109924794579 -0.0026936494288646007 0 -0.0053702654950532726 -0.0028314055521162325 0 -0.0053225109924794579 -0.0026936494288646007 0 -0.0054360719207697363 -0.002695488705536694 0 -0.0053702654950532726 -0.0028314055521162325 0 -0.0054360719207697363 -0.002695488705536694 0 -0.0055010900141143496 -0.0028242637681420912 0 -0.0053702654950532726 -0.0028314055521162325 0 -0.0054822011854960984 -0.0025764368810111339 0 -0.0054360719207697363 -0.002695488705536694 0 -0.0055538375730543659 -0.0026911262448308954 0 -0.0054360719207697363 -0.002695488705536694 0 -0.0055010900141143496 -0.0028242637681420912 0 -0.0055538375730543659 -0.0026911262448308954 0 -0.0055010900141143496 -0.0028242637681420912 0 -0.0054386975280159887 -0.003016371296298604 0 -0.0055912881495852945 -0.0029139188942205936 0 -0.0055010900141143496 -0.0028242637681420912 0 -0.0053702654950532726 -0.0028314055521162325 0 -0.0054386975280159887 -0.003016371296298604 0 -0.0052046655601258223 -0.0029304891227394225 0 -0.0053702654950532726 -0.0028314055521162325 0 -0.0054386975280159887 -0.003016371296298604 0 -0.0052524218557883995 -0.0031464436029467044 0 -0.0052046655601258223 -0.0029304891227394225 0 -0.0054386975280159887 -0.003016371296298604 0 -0.0055316809739059504 -0.0031887604956093892 0 -0.0054386975280159887 -0.003016371296298604 0 -0.0056773703111281104 -0.0030691902962985814 0 -0.0054386975280159887 -0.003016371296298604 0 -0.0056773703111281104 -0.0030691902962985814 0 -0.0055912881495852945 -0.0029139188942205936 0 -0.0056773703111281104 -0.0030691902962985814 0 -0.0058224763746849637 -0.0029476486911479793 0 -0.0058945685716941202 -0.0031711019688647826 0 -0.0056773703111281104 -0.0030691902962985814 0 -0.0058224763746849637 -0.0029476486911479793 0 -0.0056926244229520955 -0.0028877097614226944 0 -0.0058224763746849637 -0.0029476486911479793 0 -0.0056926244229520955 -0.0028877097614226944 0 -0.0057299009987966153 -0.0027161878686302486 0 -0.0055489118407822009 -0.0026494271691888845 0 -0.0055718906315064829 -0.0026669416121904458 0 -0.0055646223805155591 -0.0026781227724946661 0 -0.0056851893910547339 -0.0027985828268813034 0 -0.005650323799095444 -0.0026911503377725584 0 -0.0056773703111281104 -0.0030691902962985814 0 -0.0056926244229520955 -0.0028877097614226944 0 -0.0055912881495852945 -0.0029139188942205936 0 -0.0056926244229520955 -0.0028877097614226944 0 -0.0055912881495852945 -0.0029139188942205936 0 -0.0056175809224203377 -0.0028026011627694338 0 -0.0055010900141143496 -0.0028242637681420912 0 -0.0055912881495852945 -0.0029139188942205936 0 -0.0056175809224203377 -0.0028026011627694338 0 -0.0055010900141143496 -0.0028242637681420912 0 -0.0055538375730543659 -0.0026911262448308954 0 -0.0056175809224203377 -0.0028026011627694338 0 -0.0055538375730543659 -0.0026911262448308954 0 -0.0057299009987966153 -0.0027161878686302486 0 -0.0055760820362512455 -0.0025934753748187798 0 -0.0055538375730543659 -0.0026911262448308954 0 -0.0056175809224203377 -0.0028026011627694338 0 -0.0057299009987966153 -0.0027161878686302486 0 -0.0056926244229520955 -0.0028877097614226944 0 -0.0056175809224203377 -0.0028026011627694338 0 -0.0057299009987966153 -0.0027161878686302486 0 -0.0055718906315064829 -0.0026669416121904458 0 -0.0056008770114823678 -0.0026125647483641007 0 -0.0055646223805155591 -0.0026781227724946661 0 -0.0055961370907006043 -0.0025414667101696076 0 -0.005650323799095444 -0.0026911503377725584 0 -0.0055889597544838262 -0.0025221788952341736 0 -0.0056507430900591092 -0.0025633812524354497 0 -0.0056008770114823678 -0.0026125647483641007 0 -0.0055889597544838262 -0.0025221788952341736 0 -0.0055718906315064829 -0.0026669416121904458 0 -0.0056008770114823678 -0.0026125647483641007 0 -0.0056507430900591092 -0.0025633812524354497 0 -0.0056008770114823678 -0.0026125647483641007 0 -0.0055646223805155591 -0.0026781227724946661 0 -0.0055889597544838262 -0.0025221788952341736 0 -0.0057299009987966153 -0.0027161878686302486 0 -0.0055760820362512455 -0.0025934753748187798 0 -0.0055482578349634075 -0.002482717517462514 0 -0.0054822011854960984 -0.0025764368810111339 0 -0.0055760820362512455 -0.0025934753748187798 0 -0.0055482578349634075 -0.002482717517462514 0 -0.0055889597544838262 -0.0025221788952341736 0 -0.0055760820362512455 -0.0025934753748187798 0 -0.0054822011854960984 -0.0025764368810111339 0 -0.0055538375730543659 -0.0026911262448308954 0 -0.0055760820362512455 -0.0025934753748187798 0 -0.005453567939017836 -0.002739959601572339 0 -0.0054766498126745241 -0.0027767460537597788 0 -0.0054073338445234168 -0.0027645392400124785 0 -0.005453567939017836 -0.002739959601572339 0 -0.0054766498126745241 -0.0027767460537597788 0 -0.0055080700589396521 -0.0027294772342780224 0 -0.0055568383517874556 -0.0022891799088226345 0 -0.0054118815024424101 -0.0020202700715904859 0 -0.0055568383517874556 -0.0022891799088226345 0 -0.0055860911059748934 -0.0028348651935688187 0 -0.0055623929925111013 -0.0027884130555375793 0 -0.0054766498126745241 -0.0027767460537597788 0 -0.0055080700589396521 -0.0027294772342780224 0 -0.0055623929925111013 -0.0027884130555375793 0 -0.0055080700589396521 -0.0027294772342780224 0 -0.0055646223805155591 -0.0026781227724946661 0 -0.0055080700589396521 -0.0027294772342780224 0 -0.0055646223805155591 -0.0026781227724946661 0 -0.0055040414714152049 -0.0026796406030636334 0 -0.0055040414714152049 -0.0026796406030636334 0 -0.0054788618155291961 -0.0027121257815259786 0 -0.0054483052013576932 -0.0026960962288316136 0 -0.0055080700589396521 -0.0027294772342780224 0 -0.0055040414714152049 -0.0026796406030636334 0 -0.0054788618155291961 -0.0027121257815259786 0 -0.005453567939017836 -0.002739959601572339 0 -0.0055080700589396521 -0.0027294772342780224 0 -0.0054788618155291961 -0.0027121257815259786 0 -0.005453567939017836 -0.002739959601572339 0 -0.0054788618155291961 -0.0027121257815259786 0 -0.0054483052013576932 -0.0026960962288316136 0 -0.0055040414714152049 -0.0026796406030636334 0 -0.0054483052013576932 -0.0026960962288316136 0 -0.005448584232024053 -0.0026563345735519813 0 -0.0055040414714152049 -0.0026796406030636334 0 -0.005448584232024053 -0.0026563345735519813 0 -0.0054884045704148912 -0.0026384813376139045 0 -0.0055489118407822009 -0.0026494271691888845 0 -0.0055040414714152049 -0.0026796406030636334 0 -0.0054884045704148912 -0.0026384813376139045 0 -0.0055489118407822009 -0.0026494271691888845 0 -0.0055646223805155591 -0.0026781227724946661 0 -0.0055040414714152049 -0.0026796406030636334 0 -0.0056851893910547339 -0.0027985828268813034 0 -0.0056899787791870309 -0.0028916293118382928 0 -0.0055489118407822009 -0.0026494271691888845 0 -0.0054884045704148912 -0.0026384813376139045 0 -0.0055000559454183445 -0.0025967264297446701 0 -0.0054884045704148912 -0.0026384813376139045 0 -0.0054414596672467796 -0.0026129784007108115 0 -0.0055000559454183445 -0.0025967264297446701 0 -0.005448584232024053 -0.0026563345735519813 0 -0.0054884045704148912 -0.0026384813376139045 0 -0.0054414596672467796 -0.0026129784007108115 0 -0.0054414596672467796 -0.0026129784007108115 0 -0.0054392770500823343 -0.0025780991130397368 0 -0.0055000559454183445 -0.0025967264297446701 0 -0.0054392770500823343 -0.0025780991130397368 0 -0.0054603507304549657 -0.0025624663767977989 0 -0.005416258505120064 -0.0025574139726887361 0 -0.0054392770500823343 -0.0025780991130397368 0 -0.0054603507304549657 -0.0025624663767977989 0 -0.0055000559454183445 -0.0025967264297446701 0 -0.0057944506469191394 -0.0029234711625330673 0 -0.0056899787791870309 -0.0028916293118382928 0 -0.0059579347275563709 -0.0033821597504285822 0 -0.0058945685716941202 -0.0031711019688647826 0 -0.0058101037515315189 -0.0033739853823251957 0 -0.0056773703111281104 -0.0030691902962985814 0 -0.0058945685716941202 -0.0031711019688647826 0 -0.0056823577425417328 -0.0032804073498371839 0 -0.0055316809739059504 -0.0031887604956093892 0 -0.0056773703111281104 -0.0030691902962985814 0 -0.0056823577425417328 -0.0032804073498371839 0 -0.0054986390658422661 -0.0033964002735476563 0 -0.0055316809739059504 -0.0031887604956093892 0 -0.0056823577425417328 -0.0032804073498371839 0 -0.0054986390658422661 -0.0033964002735476563 0 -0.0056823577425417328 -0.0032804073498371839 0 -0.0056867247189654052 -0.0034585669419014741 0 -0.0056823577425417328 -0.0032804073498371839 0 -0.0058101037515315189 -0.0033739853823251957 0 -0.0056867247189654052 -0.0034585669419014741 0 -0.0058945685716941202 -0.0031711019688647826 0 -0.0056823577425417328 -0.0032804073498371839 0 -0.0058101037515315189 -0.0033739853823251957 0 -0.0058101037515315189 -0.0033739853823251957 0 -0.0056867247189654052 -0.0034585669419014741 0 -0.0058268687970877732 -0.0035422373738206265 0 -0.0056867247189654052 -0.0034585669419014741 0 -0.0056593002025848429 -0.0036289113367356878 0 -0.0058268687970877732 -0.0035422373738206265 0 -0.0055574780325906951 -0.0035445728661271858 0 -0.0054986390658422661 -0.0033964002735476563 0 -0.0056867247189654052 -0.0034585669419014741 0 -0.0055574780325906951 -0.0035445728661271858 0 -0.0056867247189654052 -0.0034585669419014741 0 -0.0056593002025848429 -0.0036289113367356878 0 -0.0055024229577287686 -0.0036799143811518656 0 -0.0055574780325906951 -0.0035445728661271858 0 -0.0056593002025848429 -0.0036289113367356878 0 -0.0056593002025848429 -0.0036289113367356878 0 -0.0058268687970877732 -0.0035422373738206265 0 -0.0057901031779659905 -0.0037144750610745127 0 -0.0059883439446904744 -0.0036092653672888872 0 -0.0057941592359734111 -0.0039877970322875333 0 -0.005414771907535967 -0.0039330313593474277 0 -0.0059883439446904744 -0.0036092653672888872 0 -0.0058268687970877732 -0.0035422373738206265 0 -0.0057901031779659905 -0.0037144750610745127 0 -0.0059585847888542539 -0.0036298268412852724 0 -0.0056225074698784596 -0.0037929553264177307 0 -0.0035680237520663563 -0.0033424189202653988 0 -0.0036442230650270448 -0.003372302359617278 0 -0.0035948032009732109 -0.003536935996650367 0 -0.0048695957724284207 -0.0034852408427055812 0 -0.0049931829426458577 -0.004396968687754404 0 -0.0059883439446904744 -0.0036092653672888872 0 -0.0060506596992848652 -0.0036045498484883979 0 -0.0057941592359734111 -0.0039877970322875333 0 -0.0048695957724284207 -0.0034852408427055812 0 -0.0040137700411965503 -0.0042374721866071646 0 -0.0048695957724284207 -0.0034852408427055812 0 -0.0045196904932550651 -0.0028301589876181502 0 -0.0054603507304549657 -0.0025624663767977989 0 -0.0054370714808534455 -0.0025453775678499838 0 -0.005416258505120064 -0.0025574139726887361 0 -0.0057944506469191394 -0.0029234711625330673 0 -0.0048695957724284207 -0.0034852408427055812 0 -0.0059579347275563709 -0.0033821597504285822 0 -0.0059883439446904744 -0.0036092653672888872 0 -0.0060506596992848652 -0.0036045498484883979 0 -0.0059579347275563709 -0.0033821597504285822 0 -0.0059883439446904744 -0.0036092653672888872 0 -0.0058268687970877732 -0.0035422373738206265 0 -0.0059579347275563709 -0.0033821597504285822 0 -0.0058101037515315189 -0.0033739853823251957 0 -0.0058268687970877732 -0.0035422373738206265 0 -0.003711724016596727 -0.0032603899232380631 0 -0.0036826545357132512 -0.0032501214270963001 0 -0.0037010409377800329 -0.0032963133866904144 0 -0.0037102424675903461 -0.0032774477337829955 0 -0.0037049889724229687 -0.0033123780211029106 0 -0.003711724016596727 -0.0032603899232380631 0 -0.0037010409377800329 -0.0032963133866904144 0 -0.003740427175173023 -0.0033482196906729511 0 -0.003711724016596727 -0.0032603899232380631 0 -0.0037050771922754935 -0.0032594993767369111 0 -0.0036995237841380645 -0.0032576577380413123 0 -0.003711724016596727 -0.0032603899232380631 0 -0.003670146746645449 -0.0032811693398752352 0 -0.0037050771922754935 -0.0032594993767369111 0 -0.003711724016596727 -0.0032603899232380631 0 -0.0036995237841380645 -0.0032576577380413123 0 -0.0036983218167151444 -0.00325593647063645 0 -0.0035680237520663563 -0.0033424189202653988 0 -0.0036826545357132512 -0.0032501214270963001 0 -0.0036673314323525971 -0.0033174723396514607 0 -0.0036826545357132512 -0.0032501214270963001 0 -0.0036673314323525971 -0.0033174723396514607 0 -0.0037010409377800329 -0.0032963133866904144 0 -0.0036673314323525971 -0.0033174723396514607 0 -0.0037010409377800329 -0.0032963133866904144 0 -0.0036918628152213385 -0.0033479171892303022 0 -0.0035680237520663563 -0.0033424189202653988 0 -0.0036673314323525971 -0.0033174723396514607 0 -0.0036442230650270448 -0.003372302359617278 0 -0.0036673314323525971 -0.0033174723396514607 0 -0.0036918628152213385 -0.0033479171892303022 0 -0.0036442230650270448 -0.003372302359617278 0 -0.0036918628152213385 -0.0033479171892303022 0 -0.0036442230650270448 -0.003372302359617278 0 -0.0036989144721287968 -0.003415683604566306 0 -0.0036918628152213385 -0.0033479171892303022 0 -0.0036989144721287968 -0.003415683604566306 0 -0.003740427175173023 -0.0033482196906729511 0 -0.0036989144721287968 -0.003415683604566306 0 -0.003740427175173023 -0.0033482196906729511 0 -0.0037314089031680198 -0.0034484402546053118 0 -0.003670146746645449 -0.0032811693398752352 0 -0.0037046641123416706 -0.0033562434291947892 0 -0.0036333632550999656 -0.0033797191575260926 0 -0.0037049889724229687 -0.0033123780211029106 0 -0.0036563364428597077 -0.003467149635434005 0 -0.003670146746645449 -0.0032811693398752352 0 -0.0037050771922754935 -0.0032594993767369111 0 -0.0037046641123416706 -0.0033562434291947892 0 -0.0037010409377800329 -0.0032963133866904144 0 -0.0036918628152213385 -0.0033479171892303022 0 -0.003740427175173023 -0.0033482196906729511 0 -0.0036882613394082745 -0.0032515524124851996 0 -0.0036744075775226033 -0.0032431955173420012 0 -0.0036831662020687518 -0.0032204896952865705 0 -0.0037050771922754935 -0.0032594993767369111 0 -0.0037969282944611276 -0.0034028978683964769 0 -0.0037046641123416706 -0.0033562434291947892 0 -0.0037104932073489904 -0.0032985617818751312 0 -0.0037569425412113011 -0.0032131732668125366 0 -0.0037050771922754935 -0.0032594993767369111 0 -0.0036882613394082745 -0.0032515524124851996 0 -0.0036831662020687518 -0.0032204896952865705 0 -0.0036882613394082745 -0.0032515524124851996 0 -0.0036744075775226033 -0.0032431955173420012 0 -0.0036774128544869436 -0.0032520639792236144 0 -0.0036616384753997201 -0.0032318675822717437 0 -0.0036744075775226033 -0.0032431955173420012 0 -0.0036831662020687518 -0.0032204896952865705 0 -0.0036616384753997201 -0.0032318675822717437 0 -0.0036744075775226033 -0.0032431955173420012 0 -0.0036609317566655536 -0.0032509794456645372 0 -0.0036609317566655536 -0.0032509794456645372 0 -0.0036739292357038291 -0.0032562041977436834 0 -0.0036608014226782301 -0.0032617094782770232 0 -0.0036609317566655536 -0.0032509794456645372 0 -0.0036774128544869436 -0.0032520639792236144 0 -0.0036739292357038291 -0.0032562041977436834 0 -0.0036744075775226033 -0.0032431955173420012 0 -0.0036609317566655536 -0.0032509794456645372 0 -0.0036774128544869436 -0.0032520639792236144 0 -0.0036774128544869436 -0.0032520639792236144 0 -0.0036739292357038291 -0.0032562041977436834 0 -0.0036881656571449398 -0.0032561243135665338 0 -0.0036739292357038291 -0.0032562041977436834 0 -0.0036881656571449398 -0.0032561243135665338 0 -0.0036815795867407813 -0.0032566118539389928 0 -0.0036882613394082745 -0.0032515524124851996 0 -0.0036881656571449398 -0.0032561243135665338 0 -0.0036995237841380645 -0.0032576577380413123 0 -0.0037050771922754935 -0.0032594993767369111 0 -0.0036882613394082745 -0.0032515524124851996 0 -0.0036995237841380645 -0.0032576577380413123 0 -0.0036882613394082745 -0.0032515524124851996 0 -0.0036774128544869436 -0.0032520639792236144 0 -0.0036881656571449398 -0.0032561243135665338 0 -0.0036881656571449398 -0.0032561243135665338 0 -0.0036995237841380645 -0.0032576577380413123 0 -0.0036983218167151444 -0.00325593647063645 0 -0.0036983218167151444 -0.00325593647063645 0 -0.0036897032755603808 -0.0032519190089638958 0 -0.0037085885816431248 -0.0032469463382267796 0 -0.0036881656571449398 -0.0032561243135665338 0 -0.0036983218167151444 -0.00325593647063645 0 -0.0036815795867407813 -0.0032566118539389928 0 -0.0036983218167151444 -0.00325593647063645 0 -0.0036815795867407813 -0.0032566118539389928 0 -0.0036897032755603808 -0.0032519190089638958 0 -0.0036815795867407813 -0.0032566118539389928 0 -0.0036670464045455795 -0.0032590598870841036 0 -0.0036608014226782301 -0.0032617094782770232 0 -0.0036739292357038291 -0.0032562041977436834 0 -0.0036815795867407813 -0.0032566118539389928 0 -0.0036608014226782301 -0.0032617094782770232 0 -0.0036815795867407813 -0.0032566118539389928 0 -0.0036670464045455795 -0.0032590598870841036 0 -0.0036897032755603808 -0.0032519190089638958 0 -0.0036670464045455795 -0.0032590598870841036 0 -0.0036897032755603808 -0.0032519190089638958 0 -0.0036626633311831365 -0.0032498647442896771 0 -0.0036670464045455795 -0.0032590598870841036 0 -0.0036626633311831365 -0.0032498647442896771 0 -0.0036479440253363391 -0.0032736690681384843 0 -0.0036897032755603808 -0.0032519190089638958 0 -0.0037184058094767618 -0.0032758634409794222 0 -0.0036626633311831365 -0.0032498647442896771 0 -0.0036897032755603808 -0.0032519190089638958 0 -0.0037085885816431248 -0.0032469463382267796 0 -0.0037184058094767618 -0.0032758634409794222 0 -0.0045403066767783747 -0.002928234797236503 0 -0.0045059093482395464 -0.0029615838465387261 0 -0.003711724016596727 -0.0032603899232380631 0 -0.0036983218167151444 -0.00325593647063645 0 -0.0037085885816431248 -0.0032469463382267796 0 -0.003711724016596727 -0.0032603899232380631 0 -0.0036826545357132512 -0.0032501214270963001 0 -0.0037085885816431248 -0.0032469463382267796 0 -0.0045196904932550651 -0.0028301589876181502 0 -0.0045403066767783747 -0.002928234797236503 0 -0.0054392770500823343 -0.0025780991130397368 0 -0.005416258505120064 -0.0025574139726887361 0 -0.0053710274305561285 -0.0025845609342480939 0 -0.0054414596672467796 -0.0026129784007108115 0 -0.0054392770500823343 -0.0025780991130397368 0 -0.0053710274305561285 -0.0025845609342480939 0 -0.0054414596672467796 -0.0026129784007108115 0 -0.0053710274305561285 -0.0025845609342480939 0 -0.0053913920774733282 -0.0026409094097271713 0 -0.005448584232024053 -0.0026563345735519813 0 -0.0054414596672467796 -0.0026129784007108115 0 -0.0053913920774733282 -0.0026409094097271713 0 -0.0053710274305561285 -0.0025845609342480939 0 -0.0053913920774733282 -0.0026409094097271713 0 -0.0053125849152104096 -0.0026311789031515172 0 -0.0053913920774733282 -0.0026409094097271713 0 -0.0053521048079301931 -0.0026832505509141753 0 -0.005408074892804096 -0.0026772329408780975 0 -0.0053913920774733282 -0.0026409094097271713 0 -0.0053521048079301931 -0.0026832505509141753 0 -0.0053125849152104096 -0.0026311789031515172 0 -0.0053521048079301931 -0.0026832505509141753 0 -0.005408074892804096 -0.0026772329408780975 0 -0.0053990360704455672 -0.0027145255580891771 0 -0.005448584232024053 -0.0026563345735519813 0 -0.0053913920774733282 -0.0026409094097271713 0 -0.005408074892804096 -0.0026772329408780975 0 -0.0054483052013576932 -0.0026960962288316136 0 -0.005448584232024053 -0.0026563345735519813 0 -0.005408074892804096 -0.0026772329408780975 0 -0.0054483052013576932 -0.0026960962288316136 0 -0.005408074892804096 -0.0026772329408780975 0 -0.0053990360704455672 -0.0027145255580891771 0 -0.005453567939017836 -0.002739959601572339 0 -0.0053990360704455672 -0.0027145255580891771 0 -0.0053899883562513367 -0.0027461634745016518 0 -0.005453567939017836 -0.002739959601572339 0 -0.0054483052013576932 -0.0026960962288316136 0 -0.0053990360704455672 -0.0027145255580891771 0 -0.0053521048079301931 -0.0026832505509141753 0 -0.0053563957797290668 -0.0027373892827953885 0 -0.0053070362019937275 -0.0027324229703500533 0 -0.0053521048079301931 -0.0026832505509141753 0 -0.0053990360704455672 -0.0027145255580891771 0 -0.0053563957797290668 -0.0027373892827953885 0 -0.0053990360704455672 -0.0027145255580891771 0 -0.0053563957797290668 -0.0027373892827953885 0 -0.0053899883562513367 -0.0027461634745016518 0 -0.0053563957797290668 -0.0027373892827953885 0 -0.0053719096714693916 -0.0027750196053133057 0 -0.0053899883562513367 -0.0027461634745016518 0 -0.0053197028096176584 -0.002822114097547459 0 -0.0053719096714693916 -0.0027750196053133057 0 -0.0053979833148247855 -0.0027772369438629884 0 -0.0053563957797290668 -0.0027373892827953885 0 -0.0053719096714693916 -0.0027750196053133057 0 -0.005319370187295479 -0.0027754097314371959 0 -0.0053563957797290668 -0.0027373892827953885 0 -0.005319370187295479 -0.0027754097314371959 0 -0.0053070362019937275 -0.0027324229703500533 0 -0.0053197028096176584 -0.002822114097547459 0 -0.0053719096714693916 -0.0027750196053133057 0 -0.005319370187295479 -0.0027754097314371959 0 -0.0053466999992760654 -0.0013690928227183031 0 -0.0053926130912535734 -0.0013447815602370544 0 -0.0052974651720942758 -0.0013307449035186855 0 -0.0054118815024424101 -0.0020202700715904859 0 -0.0053921317757282088 -0.0024181187245398278 0 -0.005453567939017836 -0.002739959601572339 0 -0.0053993141144469767 -0.0027781920582184328 0 -0.0053899883562513367 -0.0027461634745016518 0 -0.0054024972809508867 -0.0025607837033033102 0 -0.0053921317757282088 -0.0024181187245398278 0 -0.0053964526694711577 -0.0027734929594147037 0 -0.0053921317757282088 -0.0024181187245398278 0 -0.0053719096714693916 -0.0027750196053133057 0 -0.0053993141144469767 -0.0027781920582184328 0 -0.0053899883562513367 -0.0027461634745016518 0 -0.0052219906074361527 -0.0028114983951366009 0 -0.0052610457752471761 -0.0027637352245201397 0 -0.0051949758919665823 -0.002758632848818617 0 -0.0052716497762242869 -0.0028089428944633554 0 -0.0052219906074361527 -0.0028114983951366009 0 -0.0052610457752471761 -0.0027637352245201397 0 -0.0052716497762242869 -0.0028089428944633554 0 -0.0052610457752471761 -0.0027637352245201397 0 -0.005319370187295479 -0.0027754097314371959 0 -0.0052610457752471761 -0.0027637352245201397 0 -0.005319370187295479 -0.0027754097314371959 0 -0.0053070362019937275 -0.0027324229703500533 0 -0.0053521048079301931 -0.0026832505509141753 0 -0.0053070362019937275 -0.0027324229703500533 0 -0.0052515709802358704 -0.0026919550247942237 0 -0.0052610457752471761 -0.0027637352245201397 0 -0.0053070362019937275 -0.0027324229703500533 0 -0.0052515709802358704 -0.0026919550247942237 0 -0.0052610457752471761 -0.0027637352245201397 0 -0.0052515709802358704 -0.0026919550247942237 0 -0.0051949758919665823 -0.002758632848818617 0 -0.0044932181305196986 -0.0030220270408344171 0 -0.0040970859237484912 -0.0032106917211707419 0 -0.0036487557527305255 -0.0034025499053751389 0 -0.0037184058094767618 -0.0032758634409794222 0 -0.0035857414227335183 -0.0033224398904058185 0 -0.0044932181305196986 -0.0030220270408344171 0 -0.0045059093482395464 -0.0029615838465387261 0 -0.0053521048079301931 -0.0026832505509141753 0 -0.0052515709802358704 -0.0026919550247942237 0 -0.0053125849152104096 -0.0026311789031515172 0 -0.0035857414227335183 -0.0033224398904058185 0 -0.0036626633311831365 -0.0032498647442896771 0 -0.0035252536998407681 -0.0032208826334024685 0 -0.0037184058094767618 -0.0032758634409794222 0 -0.0035857414227335183 -0.0033224398904058185 0 -0.0036626633311831365 -0.0032498647442896771 0 -0.0035857414227335183 -0.0033224398904058185 0 -0.0035252536998407681 -0.0032208826334024685 0 -0.0033912535923823176 -0.0032553918045897029 0 -0.0033582763701173802 -0.0031977199801213503 0 -0.0032533383917397705 -0.0033926921746085313 0 -0.0031916367855262433 -0.0032429974006240574 0 -0.0033582763701173802 -0.0031977199801213503 0 -0.003467448210059682 -0.0034257470010824963 0 -0.0032533383917397705 -0.0033926921746085313 0 -0.0033758538854221721 -0.0032132310909644872 0 -0.0034384317084880708 -0.0034689562780778815 0 -0.0036487557527305255 -0.0034025499053751389 0 -0.0035857414227335183 -0.0033224398904058185 0 -0.0034885256525984442 -0.0034056603836514787 0 -0.0035857414227335183 -0.0033224398904058185 0 -0.0033912535923823176 -0.0032553918045897029 0 -0.0034885256525984442 -0.0034056603836514787 0 -0.0036487557527305255 -0.0034025499053751389 0 -0.0034885256525984442 -0.0034056603836514787 0 -0.0035517371055624725 -0.0035349734993865606 0 -0.0034384317084880708 -0.0034689562780778815 0 -0.0040970859237484912 -0.0032106917211707419 0 -0.003467448210059682 -0.0034257470010824963 0 -0.0032446857708346168 -0.0036396887216563691 0 -0.0032533383917397705 -0.0033926921746085313 0 -0.003467448210059682 -0.0034257470010824963 0 -0.0035738260961154021 -0.0036683418294853275 0 -0.0032446857708346168 -0.0036396887216563691 0 -0.0034099997246362177 -0.0038956698066202264 0 -0.0035738260961154021 -0.0036683418294853275 0 -0.0032446857708346168 -0.0036396887216563691 0 -0.0042999175917498109 -0.0029384671342729779 0 -0.0043012883997211922 -0.0029372714532737727 0 -0.0042994572377553246 -0.0029442540015198887 0 -0.003835482871587967 -0.0034273163206000297 0 -0.0040970859237484912 -0.0032106917211707419 0 -0.004797770799494787 -0.0029464649029952036 0 -0.0040970859237484912 -0.0032106917211707419 0 -0.0031455025019880528 -0.0039004000225938166 0 -0.0029543554790142168 -0.0036788577761323136 0 -0.0032446857708346168 -0.0036396887216563691 0 -0.0031455025019880528 -0.0039004000225938166 0 -0.0034099997246362177 -0.0038956698066202264 0 -0.0032446857708346168 -0.0036396887216563691 0 -0.0032446857708346168 -0.0036396887216563691 0 -0.0030798687871503791 -0.0035190478548131547 0 -0.0032533383917397705 -0.0033926921746085313 0 -0.0029543554790142168 -0.0036788577761323136 0 -0.0032446857708346168 -0.0036396887216563691 0 -0.0030798687871503791 -0.0035190478548131547 0 -0.0029543554790142168 -0.0036788577761323136 0 -0.0030798687871503791 -0.0035190478548131547 0 -0.0028833647637175976 -0.0034270956973093489 0 -0.0030988717695521386 -0.0033586196635814491 0 -0.0029978739616693612 -0.0032396776005303731 0 -0.0028833647637175976 -0.0034270956973093489 0 -0.0030798687871503791 -0.0035190478548131547 0 -0.0030988717695521386 -0.0033586196635814491 0 -0.0028833647637175976 -0.0034270956973093489 0 -0.0030798687871503791 -0.0035190478548131547 0 -0.0032533383917397705 -0.0033926921746085313 0 -0.0030988717695521386 -0.0033586196635814491 0 -0.0032533383917397705 -0.0033926921746085313 0 -0.0030988717695521386 -0.0033586196635814491 0 -0.0031916367855262433 -0.0032429974006240574 0 -0.0030988717695521386 -0.0033586196635814491 0 -0.0031916367855262433 -0.0032429974006240574 0 -0.0029978739616693612 -0.0032396776005303731 0 -0.0031916367855262433 -0.0032429974006240574 0 -0.0029978739616693612 -0.0032396776005303731 0 -0.0031842588787809488 -0.0030871721111367348 0 -0.0033582763701173802 -0.0031977199801213503 0 -0.0031916367855262433 -0.0032429974006240574 0 -0.0031842588787809488 -0.0030871721111367348 0 -0.0029978739616693612 -0.0032396776005303731 0 -0.0031842588787809488 -0.0030871721111367348 0 -0.0028582179278912228 -0.0030782504161420486 0 -0.0031704658766766613 -0.0030843591529197425 0 -0.0029007622547966047 -0.0031129613025182852 0 -0.0030554649566706706 -0.0029873481805246151 0 -0.0031842588787809488 -0.0030871721111367348 0 -0.0029660606682269217 -0.0031360375076337605 0 -0.0031631817744641444 -0.0029918422627118 0 -0.003280430261527792 -0.0030270747690016018 0 -0.0031921677478521865 -0.0028778553587603135 0 -0.0030554649566706706 -0.0029873481805246151 0 -0.0031631817744641444 -0.0029918422627118 0 -0.0031921677478521865 -0.0028778553587603135 0 -0.0031631817744641444 -0.0029918422627118 0 -0.0031842588787809488 -0.0030871721111367348 0 -0.003280430261527792 -0.0030270747690016018 0 -0.0030554649566706706 -0.0029873481805246151 0 -0.0031631817744641444 -0.0029918422627118 0 -0.0031842588787809488 -0.0030871721111367348 0 -0.0033758538854221721 -0.0032132310909644872 0 -0.003289361293596537 -0.0030435986884714251 0 -0.0033912535923823176 -0.0032553918045897029 0 -0.003280430261527792 -0.0030270747690016018 0 -0.0034485211419391809 -0.0030358746364212612 0 -0.0033582763701173802 -0.0031977199801213503 0 -0.0031842588787809488 -0.0030871721111367348 0 -0.003280430261527792 -0.0030270747690016018 0 -0.0036552117834924946 -0.0032417178209504967 0 -0.0035466638045384092 -0.0031558923524651014 0 -0.0035252536998407681 -0.0032208826334024685 0 -0.0033912535923823176 -0.0032553918045897029 0 -0.0034485211419391809 -0.0030358746364212612 0 -0.0036626633311831365 -0.0032498647442896771 0 -0.0035252536998407681 -0.0032208826334024685 0 -0.0034485211419391809 -0.0030358746364212612 0 -0.0036479440253363391 -0.0032736690681384843 0 -0.0036608014226782301 -0.0032617094782770232 0 -0.0036372686429887295 -0.0032610703216089877 0 -0.0036670464045455795 -0.0032590598870841036 0 -0.0036479440253363391 -0.0032736690681384843 0 -0.0036608014226782301 -0.0032617094782770232 0 -0.0036479440253363391 -0.0032736690681384843 0 -0.0036372686429887295 -0.0032610703216089877 0 -0.0035956910106047339 -0.0032737815183805224 0 -0.003280430261527792 -0.0030270747690016018 0 -0.0034485211419391809 -0.0030358746364212612 0 -0.0031921677478521865 -0.0028778553587603135 0 -0.0035466638045384092 -0.0031558923524651014 0 -0.0033877568272530599 -0.0030812636239431058 0 -0.0036372686429887295 -0.0032610703216089877 0 -0.0036203753782823229 -0.0032460835064581383 0 -0.0035956910106047339 -0.0032737815183805224 0 -0.0036372686429887295 -0.0032610703216089877 0 -0.0036421733666275047 -0.0032402091578637104 0 -0.0036203753782823229 -0.0032460835064581383 0 -0.0036609317566655536 -0.0032509794456645372 0 -0.0036372686429887295 -0.0032610703216089877 0 -0.0036421733666275047 -0.0032402091578637104 0 -0.0036609317566655536 -0.0032509794456645372 0 -0.0036608014226782301 -0.0032617094782770232 0 -0.0036372686429887295 -0.0032610703216089877 0 -0.0036616384753997201 -0.0032318675822717437 0 -0.0036609317566655536 -0.0032509794456645372 0 -0.0036421733666275047 -0.0032402091578637104 0 -0.0036203753782823229 -0.0032460835064581383 0 -0.0035971742578814175 -0.0032221812593432463 0 -0.0036264826470004778 -0.0032282416997019923 0 -0.0036421733666275047 -0.0032402091578637104 0 -0.0036203753782823229 -0.0032460835064581383 0 -0.0036264826470004778 -0.0032282416997019923 0 -0.0035864285647380441 -0.0032458551608694859 0 -0.0035638725633670627 -0.0032265586867433098 0 -0.0035971742578814175 -0.0032221812593432463 0 -0.0036203753782823229 -0.0032460835064581383 0 -0.0035864285647380441 -0.0032458551608694859 0 -0.0035971742578814175 -0.0032221812593432463 0 -0.0035332641879318874 -0.0032041191478315006 0 -0.0035638725633670627 -0.0032265586867433098 0 -0.0035307034951672454 -0.0032577875924924295 0 -0.0035864285647380441 -0.0032458551608694859 0 -0.0035638725633670627 -0.0032265586867433098 0 -0.0035307034951672454 -0.0032577875924924295 0 -0.0030554649566706706 -0.0029873481805246151 0 -0.0031921677478521865 -0.0028778553587603135 0 -0.0029885614974803115 -0.0027560911352439823 0 -0.0033877568272530599 -0.0030812636239431058 0 -0.0033003437719922829 -0.0029625779290243402 0 -0.0035864285647380441 -0.0032458551608694859 0 -0.0035956910106047339 -0.0032737815183805224 0 -0.0035307034951672454 -0.0032577875924924295 0 -0.0036203753782823229 -0.0032460835064581383 0 -0.0035864285647380441 -0.0032458551608694859 0 -0.0035956910106047339 -0.0032737815183805224 0 -0.003543780818536112 -0.0032327850338807027 0 -0.0035971742578814175 -0.0032221812593432463 0 -0.0035808944270540903 -0.0031886514330980607 0 -0.0035971742578814175 -0.0032221812593432463 0 -0.0036209542582868732 -0.0032093641850465446 0 -0.0035808944270540903 -0.0031886514330980607 0 -0.003543780818536112 -0.0032327850338807027 0 -0.0035808944270540903 -0.0031886514330980607 0 -0.0035175955414032366 -0.0031928243837826675 0 -0.0035518474921738784 -0.003196063761295163 0 -0.0035332641879318874 -0.0032041191478315006 0 -0.0035638725633670627 -0.0032265586867433098 0 -0.0035518474921738784 -0.003196063761295163 0 -0.0035638725633670627 -0.0032265586867433098 0 -0.0035971742578814175 -0.0032221812593432463 0 -0.003592717574509444 -0.0031905090170988087 0 -0.0035745428736121817 -0.0032228384509410796 0 -0.0035971742578814175 -0.0032221812593432463 0 -0.0036264826470004778 -0.0032282416997019923 0 -0.0036209542582868732 -0.0032093641850465446 0 -0.0036616384753997201 -0.0032318675822717437 0 -0.0036421733666275047 -0.0032402091578637104 0 -0.0036454394307480387 -0.0032199826420365027 0 -0.0036421733666275047 -0.0032402091578637104 0 -0.0036264826470004778 -0.0032282416997019923 0 -0.0036454394307480387 -0.0032199826420365027 0 -0.0036264826470004778 -0.0032282416997019923 0 -0.0036454394307480387 -0.0032199826420365027 0 -0.0036209542582868732 -0.0032093641850465446 0 -0.0036454394307480387 -0.0032199826420365027 0 -0.0036449070294870016 -0.0032046581917619709 0 -0.0036595117634148308 -0.003213891122881664 0 -0.0036449070294870016 -0.0032046581917619709 0 -0.003624935794883035 -0.0031894325366881608 0 -0.0036615218467274191 -0.0031932251808381093 0 -0.0036454394307480387 -0.0032199826420365027 0 -0.0036449070294870016 -0.0032046581917619709 0 -0.0036209542582868732 -0.0032093641850465446 0 -0.0036449070294870016 -0.0032046581917619709 0 -0.0036209542582868732 -0.0032093641850465446 0 -0.003624935794883035 -0.0031894325366881608 0 -0.0036209542582868732 -0.0032093641850465446 0 -0.003624935794883035 -0.0031894325366881608 0 -0.0035808944270540903 -0.0031886514330980607 0 -0.0031759454437441099 -0.0045449947542119196 0 -0.0031938670102755317 -0.0046160436608156819 0 -0.0032426410209443111 -0.0045486142248701879 0 -0.0033616425531244067 -0.0038674901398180654 0 -0.0034941030000301115 -0.0038103807399111037 0 -0.0031759454437441099 -0.0045449947542119196 0 -0.0031379410823637269 -0.0046068394552891126 0 -0.0031072867305462623 -0.0045402672670337898 0 -0.0033616425531244067 -0.0038674901398180654 0 -0.0034898449737829902 -0.0039230589347511637 0 -0.0031759454437441099 -0.0045449947542119196 0 -0.0031379410823637269 -0.0046068394552891126 0 -0.0031938670102755317 -0.0046160436608156819 0 -0.0031379410823637269 -0.0046068394552891126 0 -0.0031482051411931096 -0.0046290121850310444 0 -0.0031938670102755317 -0.0046160436608156819 0 -0.0035550314297083906 -0.0044759841450649988 0 -0.0035822360862332726 -0.0045282879496959484 0 -0.003481801488137053 -0.0044235930841812435 0 -0.0033949973798363246 -0.0046448864603709835 0 -0.0035026614745315792 -0.0046527546660509057 0 -0.0033584228560945939 -0.0046414069356374285 0 -0.0033949973798363246 -0.0046448864603709835 0 -0.0031482051411931096 -0.0046290121850310444 0 -0.0031938670102755317 -0.0046160436608156819 0 -0.0031694970245577489 -0.0046724142129229351 0 -0.0031938670102755317 -0.0046160436608156819 0 -0.0032606968442590064 -0.0046116224101879601 0 -0.0032125978756844991 -0.0046748053004567669 0 -0.0028709956362426613 -0.0051812346555725241 0 -0.0029667846539065011 -0.0052130839004166504 0 -0.0031938670102755317 -0.0046160436608156819 0 -0.0032426410209443111 -0.0045486142248701879 0 -0.0032606968442590064 -0.0046116224101879601 0 -0.0034941030000301115 -0.0038103807399111037 0 -0.0030437026447878044 -0.0045020599764965131 0 -0.0028709956362426613 -0.0051812346555725241 0 -0.0030437026447878044 -0.0045020599764965131 0 -0.0032426410209443111 -0.0045486142248701879 0 -0.0032606968442590064 -0.0046116224101879601 0 -0.0033063619979206253 -0.0045502151049105384 0 -0.0025784267568015567 -0.0055735620978641133 0 -0.0024689812115301097 -0.0055470483977432539 0 -0.0024703435429441617 -0.0056941478291572525 0 -0.0025784267568015567 -0.0055735620978641133 0 -0.0025822495678003037 -0.0054468280168839195 0 -0.0024689812115301097 -0.0055470483977432539 0 -0.0026460845427023301 -0.005479707414329996 0 -0.0025706330169894833 -0.0053660478910263192 0 -0.0024829129725522812 -0.0054520370032187975 0 -0.0025822495678003037 -0.0054468280168839195 0 -0.0024689812115301097 -0.0055470483977432539 0 -0.0024829129725522812 -0.0054520370032187975 0 -0.0025784477757872931 -0.0054563268571988788 0 -0.0025133796253400871 -0.0054553216132527576 0 -0.0025784267568015567 -0.0055735620978641133 0 -0.0025822495678003037 -0.0054468280168839195 0 -0.0026887491473964222 -0.0054474798764773801 0 -0.0025784477757872931 -0.0054563268571988788 0 -0.0029667846539065011 -0.0052130839004166504 0 -0.0026460845427023301 -0.005479707414329996 0 -0.0027344676442031036 -0.0053291012563946704 0 -0.0025706330169894833 -0.0053660478910263192 0 -0.0026460845427023301 -0.005479707414329996 0 -0.0027344676442031036 -0.0053291012563946704 0 -0.0028084820893313129 -0.0054904403354672617 0 -0.0025706330169894833 -0.0053660478910263192 0 -0.0024504648122124317 -0.0053246171569276612 0 -0.0024829129725522812 -0.0054520370032187975 0 -0.0027344676442031036 -0.0053291012563946704 0 -0.0025706330169894833 -0.0053660478910263192 0 -0.0025593352420267318 -0.0052327908463384188 0 -0.0025706330169894833 -0.0053660478910263192 0 -0.0025593352420267318 -0.0052327908463384188 0 -0.0024504648122124317 -0.0053246171569276612 0 -0.0027344676442031036 -0.0053291012563946704 0 -0.0025593352420267318 -0.0052327908463384188 0 -0.002688975044737015 -0.0051467454883216673 0 -0.0027344676442031036 -0.0053291012563946704 0 -0.002688975044737015 -0.0051467454883216673 0 -0.0028809087081446139 -0.0051691355468581508 0 -0.002688975044737015 -0.0051467454883216673 0 -0.0027595660152540196 -0.0049999918460925446 0 -0.0028809087081446139 -0.0051691355468581508 0 -0.0025593352420267318 -0.0052327908463384188 0 -0.002688975044737015 -0.0051467454883216673 0 -0.0025097720380393451 -0.004999992853541759 0 -0.002688975044737015 -0.0051467454883216673 0 -0.0027595660152540196 -0.0049999918460925446 0 -0.0025097720380393451 -0.004999992853541759 0 -0.0030093604106361861 -0.0049999927337857335 0 -0.0028809087081446139 -0.0051691355468581508 0 -0.0031068210835652637 -0.005168141845331653 0 -0.0027595660152540196 -0.0049999918460925446 0 -0.0030093604106361861 -0.0049999927337857335 0 -0.0028809087081446139 -0.0051691355468581508 0 -0.0027344676442031036 -0.0053291012563946704 0 -0.0028809087081446139 -0.0051691355468581508 0 -0.0029554540947343624 -0.0053297977908887545 0 -0.0031927808524769602 -0.0051118311906262585 0 -0.0031173069334312327 -0.0052071211937544199 0 -0.0032358034852404977 -0.005192787863562638 0 -0.0028809087081446139 -0.0051691355468581508 0 -0.0031068210835652637 -0.005168141845331653 0 -0.0029554540947343624 -0.0053297977908887545 0 -0.0031540336725809888 -0.0051321907645337124 0 -0.0030202433303210181 -0.0052988415552503694 0 -0.0031731932964627948 -0.0052575349714628402 0 -0.0031173069334312327 -0.0052071211937544199 0 -0.0032358034852404977 -0.005192787863562638 0 -0.0031731932964627948 -0.0052575349714628402 0 -0.0031173069334312327 -0.0052071211937544199 0 -0.0031064740348124139 -0.0052782728313040322 0 -0.0031173069334312327 -0.0052071211937544199 0 -0.0030421262592144728 -0.005297094526999363 0 -0.0031064740348124139 -0.0052782728313040322 0 -0.0030202433303210181 -0.0052988415552503694 0 -0.0029667846539065011 -0.0052130839004166504 0 -0.0027344676442031036 -0.0053291012563946704 0 -0.0029554540947343624 -0.0053297977908887545 0 -0.0028084820893313129 -0.0054904403354672617 0 -0.0031938670102755317 -0.0046160436608156819 0 -0.0032125978756844991 -0.0046748053004567669 0 -0.0031694970245577489 -0.0046724142129229351 0 -0.0029667846539065011 -0.0052130839004166504 0 -0.003241431964483424 -0.0049743931451006725 0 -0.0030421262592144728 -0.005297094526999363 0 -0.0031064740348124139 -0.0052782728313040322 0 -0.0031188448639189958 -0.0052990713202209407 0 -0.0032529966818011192 -0.0051051907970487698 0 -0.003241431964483424 -0.0049743931451006725 0 -0.0031731932964627948 -0.0052575349714628402 0 -0.0031192366478839605 -0.0053010674296617736 0 -0.0032755934317025776 -0.0053098203399603887 0 -0.003241431964483424 -0.0049743931451006725 0 -0.0033782109823666927 -0.0050380962631646712 0 -0.0034655719401528637 -0.0048020462990624926 0 -0.0034560115779606816 -0.0047891998529328936 0 -0.0034882499243095648 -0.0047905996468585949 0 -0.0031731932964627948 -0.0052575349714628402 0 -0.0031064740348124139 -0.0052782728313040322 0 -0.0031192366478839605 -0.0053010674296617736 0 -0.0033949973798363246 -0.0046448864603709835 0 -0.003241431964483424 -0.0049743931451006725 0 -0.0033782109823666927 -0.0050380962631646712 0 -0.0035374350878017899 -0.0052146491381453181 0 -0.0034882499243095648 -0.0047905996468585949 0 -0.0035166602031246517 -0.0047939476092222991 0 -0.0035041468880618381 -0.0048062269496256423 0 -0.0032755934317025776 -0.0053098203399603887 0 -0.0032358034852404977 -0.005192787863562638 0 -0.0033799251449947473 -0.0051685175292910807 0 -0.0032755934317025776 -0.0053098203399603887 0 -0.0033799251449947473 -0.0051685175292910807 0 -0.0034336435483225246 -0.0053151047880984825 0 -0.0031731932964627948 -0.0052575349714628402 0 -0.0032755934317025776 -0.0053098203399603887 0 -0.0032358034852404977 -0.005192787863562638 0 -0.0031927808524769602 -0.0051118311906262585 0 -0.0032358034852404977 -0.005192787863562638 0 -0.0032831189011019541 -0.005099154487760685 0 -0.0032358034852404977 -0.005192787863562638 0 -0.0032831189011019541 -0.005099154487760685 0 -0.0033799251449947473 -0.0051685175292910807 0 -0.0033419689260584013 -0.0049999646997424584 0 -0.0034118147051853363 -0.0052583208599972673 0 -0.0033418398917763777 -0.0050000082828520389 0 -0.0032831189011019541 -0.005099154487760685 0 -0.0033799251449947473 -0.0051685175292910807 0 -0.0033418398917763777 -0.0050000082828520389 0 -0.0032593067910909293 -0.0049999860098039013 0 -0.0032831189011019541 -0.005099154487760685 0 -0.0031540336725809888 -0.0051321907645337124 0 -0.003259143618627054 -0.0050000345539445669 0 -0.0030093604106361861 -0.0049999927337857335 0 -0.0031068210835652637 -0.005168141845331653 0 -0.0032591626860206118 -0.0049999999808130096 0 -0.0031927808524769602 -0.0051118311906262585 0 -0.0032593067910909293 -0.0049999860098039013 0 -0.0032831189011019541 -0.005099154487760685 0 -0.0036338970960079196 -0.0049999990886467598 0 -0.0034465343092973202 -0.0052669749999011209 0 -0.0036464109562680605 -0.005321309820106865 0 -0.0036338970960079196 -0.0049999990886467598 0 -0.0036464109562680605 -0.005321309820106865 0 -0.0038420730233834507 -0.0052703605169665095 0 -0.0033419848790382624 -0.0049999961279872914 0 -0.0036338970960079196 -0.0049999990886467598 0 -0.0034465343092973202 -0.0052669749999011209 0 -0.0034118147051853363 -0.0052583208599972673 0 -0.0035374350878017899 -0.0052146491381453181 0 -0.0034465343092973202 -0.0052669749999011209 0 -0.0036464109562680605 -0.005321309820106865 0 -0.003546205953299035 -0.0055276318502053261 0 -0.0037881375442988686 -0.0051802967814969297 0 -0.0037554046675889519 -0.0050853055347347201 0 -0.003668847071783856 -0.0051775982851162139 0 -0.0035374350878017899 -0.0052146491381453181 0 -0.0038679929964945581 -0.0053354105186042495 0 -0.0036464109562680605 -0.005321309820106865 0 -0.003546205953299035 -0.0055276318502053261 0 -0.0037631148098965115 -0.0055346397524332572 0 -0.0038991841326311101 -0.0052312313853889207 0 -0.0038679929964945581 -0.0053354105186042495 0 -0.0036947644244047536 -0.0050837085807429443 0 -0.0037554046675889519 -0.0050853055347347201 0 -0.003668847071783856 -0.0051775982851162139 0 -0.0036272890442055391 -0.004913321410457543 0 -0.0038061112231179677 -0.0048644846325695346 0 -0.0036947644244047536 -0.0050837085807429443 0 -0.0037554046675889519 -0.0050853055347347201 0 -0.0037223239111496501 -0.0049873201063616555 0 -0.003522806072674892 -0.0048077903975442052 0 -0.0035302787705345047 -0.0048214331301007904 0 -0.0035196665429924421 -0.0048164562539408278 0 -0.0041161812215862814 -0.0053221291619934804 0 -0.0041141902283982606 -0.0053216880838422341 0 -0.0041183081563385023 -0.0053222902247958576 0 -0.0038991841326311101 -0.0052312313853889207 0 -0.0038061112231179677 -0.0048644846325695346 0 -0.0035302787705345047 -0.0048214331301007904 0 -0.0035296763396958936 -0.0048238834036444661 0 -0.0035196665429924421 -0.0048164562539408278 0 -0.0038061112231179677 -0.0048644846325695346 0 -0.0037542562440430628 -0.0044802670932836382 0 -0.0037542562440430628 -0.0044802670932836382 0 -0.0039591628499338069 -0.004678027034888687 0 -0.0037534202225151816 -0.0046709432115924652 0 -0.0037930857263429119 -0.0045317029902800579 0 -0.003703331789039927 -0.0045317719860512879 0 -0.0041141902283982606 -0.0053216880838422341 0 -0.004114041398250866 -0.0053227422946752678 0 -0.0041183081563385023 -0.0053222902247958576 0 -0.0038061112231179677 -0.0048644846325695346 0 -0.0039591628499338069 -0.004678027034888687 0 -0.0035196665429924421 -0.0048164562539408278 0 -0.0035041468880618381 -0.0048062269496256423 0 -0.0035047856140830915 -0.0048169275099838272 0 -0.0035296763396958936 -0.0048238834036444661 0 -0.00351236126768069 -0.0048237137624558366 0 -0.0035196665429924421 -0.0048164562539408278 0 -0.0037542562440430628 -0.0044802670932836382 0 -0.0035524885679562349 -0.0044716573623579834 0 -0.00351236126768069 -0.0048237137624558366 0 -0.0035196665429924421 -0.0048164562539408278 0 -0.0035047856140830915 -0.0048169275099838272 0 -0.0035166602031246517 -0.0047939476092222991 0 -0.003522806072674892 -0.0048077903975442052 0 -0.0035041468880618381 -0.0048062269496256423 0 -0.003522806072674892 -0.0048077903975442052 0 -0.0035196665429924421 -0.0048164562539408278 0 -0.0035041468880618381 -0.0048062269496256423 0 -0.0035374350878017899 -0.0052146491381453181 0 -0.0036272890442055391 -0.004913321410457543 0 -0.0035041468880618381 -0.0048062269496256423 0 -0.0034842097539842386 -0.0048033939279635779 0 -0.0034940301902812586 -0.0048129342411473222 0 -0.0034882499243095648 -0.0047905996468585949 0 -0.0035041468880618381 -0.0048062269496256423 0 -0.0034842097539842386 -0.0048033939279635779 0 -0.0034655719401528637 -0.0048020462990624926 0 -0.0034842097539842386 -0.0048033939279635779 0 -0.0034817675818548935 -0.0048131856997384792 0 -0.0034655719401528637 -0.0048020462990624926 0 -0.0034882499243095648 -0.0047905996468585949 0 -0.0034842097539842386 -0.0048033939279635779 0 -0.0034842097539842386 -0.0048033939279635779 0 -0.0034817675818548935 -0.0048131856997384792 0 -0.0034940301902812586 -0.0048129342411473222 0 -0.0035550314297083906 -0.0044759841450649988 0 -0.003481801488137053 -0.0044235930841812435 0 -0.0034723647827808301 -0.0043190226798207705 0 -0.0033584228560945939 -0.0046414069356374285 0 -0.0034898449737829902 -0.0039230589347511637 0 -0.0034817675818548935 -0.0048131856997384792 0 -0.0034940301902812586 -0.0048129342411473222 0 -0.003495911939315807 -0.0048228919648812601 0 -0.003481801488137053 -0.0044235930841812435 0 -0.0034723647827808301 -0.0043190226798207705 0 -0.0033833217599480293 -0.0043184038993787028 0 -0.0034898449737829902 -0.0039230589347511637 0 -0.0036439089940183177 -0.0042071391588068439 0 -0.0035026614745315792 -0.0046527546660509057 0 -0.0036439089940183177 -0.0042071391588068439 0 -0.00351236126768069 -0.0048237137624558366 0 -0.0035047856140830915 -0.0048169275099838272 0 -0.003495911939315807 -0.0048228919648812601 0 -0.0035524885679562349 -0.0044716573623579834 0 -0.0036439089940183177 -0.0042071391588068439 0 -0.0035041468880618381 -0.0048062269496256423 0 -0.0035047856140830915 -0.0048169275099838272 0 -0.0034940301902812586 -0.0048129342411473222 0 -0.0035047856140830915 -0.0048169275099838272 0 -0.0034940301902812586 -0.0048129342411473222 0 -0.003495911939315807 -0.0048228919648812601 0 -0.0036439089940183177 -0.0042071391588068439 0 -0.0037081661566455162 -0.0037108365045651938 0 -0.0036662013021713422 -0.0041195153721086189 0 -0.0038434660743210136 -0.0041192357882678431 0 -0.0037066657958768272 -0.003977481498431727 0 -0.0038047326105268694 -0.0035710695224674127 0 -0.0038008893058432713 -0.0035044250464421 0 -0.0037162758237701153 -0.0034719189969638397 0 -0.0038008893058432713 -0.0035044250464421 0 -0.0037969282944611276 -0.0034028978683964769 0 -0.0037162758237701153 -0.0034719189969638397 0 -0.0038872008720626191 -0.0035720837386626586 0 -0.0038008893058432713 -0.0035044250464421 0 -0.0037969282944611276 -0.0034028978683964769 0 -0.0036615218467274191 -0.0031932251808381093 0 -0.0036595117634148308 -0.003213891122881664 0 -0.0036831662020687518 -0.0032204896952865705 0 -0.0034898449737829902 -0.0039230589347511637 0 -0.0037569425412113011 -0.0032131732668125366 0 -0.0036449070294870016 -0.0032046581917619709 0 -0.0036615218467274191 -0.0031932251808381093 0 -0.0036595117634148308 -0.003213891122881664 0 -0.0038872008720626191 -0.0035720837386626586 0 -0.0038047326105268694 -0.0035710695224674127 0 -0.0038008893058432713 -0.0035044250464421 0 -0.0036616384753997201 -0.0032318675822717437 0 -0.0036595117634148308 -0.003213891122881664 0 -0.0036831662020687518 -0.0032204896952865705 0 -0.0036616384753997201 -0.0032318675822717437 0 -0.0036454394307480387 -0.0032199826420365027 0 -0.0036595117634148308 -0.003213891122881664 0 -0.0037969282944611276 -0.0034028978683964769 0 -0.0037046641123416706 -0.0033562434291947892 0 -0.0037162758237701153 -0.0034719189969638397 0 -0.0037046641123416706 -0.0033562434291947892 0 -0.0036333632550999656 -0.0033797191575260926 0 -0.0037162758237701153 -0.0034719189969638397 0 -0.0036563364428597077 -0.003467149635434005 0 -0.0037081661566455162 -0.0037108365045651938 0 -0.0036989144721287968 -0.003415683604566306 0 -0.0037707089192915121 -0.0034800547975916822 0 -0.0035948032009732109 -0.003536935996650367 0 -0.0036442230650270448 -0.003372302359617278 0 -0.0036989144721287968 -0.003415683604566306 0 -0.0035948032009732109 -0.003536935996650367 0 -0.0036929247907547813 -0.0034562750410729575 0 -0.0036563364428597077 -0.003467149635434005 0 -0.0037010840326214939 -0.0037852833553920096 0 -0.0037707089192915121 -0.0034800547975916822 0 -0.0035948032009732109 -0.003536935996650367 0 -0.0039591628499338069 -0.004678027034888687 0 -0.0040137700411965503 -0.0042374721866071646 0 -0.0037542562440430628 -0.0044802670932836382 0 -0.0036563364428597077 -0.003467149635434005 0 -0.0037010840326214939 -0.0037852833553920096 0 -0.0036788678743910606 -0.0037858095322051877 0 -0.0035948032009732109 -0.003536935996650367 0 -0.0046440385111496986 -0.0052787919542698 0 -0.0044456357836533877 -0.0051528736968578064 0 -0.0045420466840251977 -0.004890834063929453 0 -0.0034866706210273011 -0.0041211327629663624 0 -0.0036662013021713422 -0.0041195153721086189 0 -0.0037066657958768272 -0.003977481498431727 0 -0.0034866706210273011 -0.0041211327629663624 0 -0.0035664574696068789 -0.0038333886968248076 0 -0.0037066657958768272 -0.003977481498431727 0 -0.0044456357836533877 -0.0051528736968578064 0 -0.004159433022846281 -0.0052030217749595813 0 -0.0043396890217238162 -0.0052678707453093082 0 -0.0042056527701844239 -0.0052107879116026221 0 -0.004624063813863195 -0.0048413247073065832 0 -0.0044456357836533877 -0.0051528736968578064 0 -0.0043177626505394385 -0.0049559919765109414 0 -0.003962625403302617 -0.005057506889246585 0 -0.004159433022846281 -0.0052030217749595813 0 -0.0041563597359689118 -0.005284984929767006 0 -0.0043396890217238162 -0.0052678707453093082 0 -0.0046440385111496986 -0.0052787919542698 0 -0.0044456357836533877 -0.0051528736968578064 0 -0.0043396890217238162 -0.0052678707453093082 0 -0.0044456357836533877 -0.0051528736968578064 0 -0.0043177626505394385 -0.0049559919765109414 0 -0.0045420466840251977 -0.004890834063929453 0 -0.0044022605027777082 -0.0044531838638206247 0 -0.0045420466840251977 -0.004890834063929453 0 -0.0041742843296145972 -0.0047663298003359908 0 -0.0043177626505394385 -0.0049559919765109414 0 -0.0045420466840251977 -0.004890834063929453 0 -0.0041742843296145972 -0.0047663298003359908 0 -0.0043177626505394385 -0.0049559919765109414 0 -0.0041742843296145972 -0.0047663298003359908 0 -0.003962625403302617 -0.005057506889246585 0 -0.0057941592359734111 -0.0039877970322875333 0 -0.005414771907535967 -0.0039330313593474277 0 -0.005499185288020395 -0.0043765979541581538 0 -0.0049931829426458577 -0.004396968687754404 0 -0.004624063813863195 -0.0048413247073065832 0 -0.005414771907535967 -0.0039330313593474277 0 -0.0048421097268017497 -0.0042624770801201299 0 -0.005499185288020395 -0.0043765979541581538 0 -0.0056225074698784596 -0.0037929553264177307 0 -0.0051850397189515274 -0.0042294286328526829 0 -0.0055024229577287686 -0.0036799143811518656 0 -0.0056593002025848429 -0.0036289113367356878 0 -0.0055893770347016959 -0.0038287529244514697 0 -0.0056593002025848429 -0.0036289113367356878 0 -0.0057901031779659905 -0.0037144750610745127 0 -0.0055893770347016959 -0.0038287529244514697 0 -0.0047927411964319979 -0.0047361958221231433 0 -0.0047916730605851738 -0.0047494278829999159 0 -0.0048107145396839085 -0.0047420118153196807 0 -0.0051850397189515274 -0.0042294286328526829 0 -0.004624063813863195 -0.0048413247073065832 0 -0.0047916730605851738 -0.0047494278829999159 0 -0.0048107145396839085 -0.0047420118153196807 0 -0.0047970457097061244 -0.0047626018522798639 0 -0.004159433022846281 -0.0052030217749595813 0 -0.0041563597359689118 -0.005284984929767006 0 -0.0041351727438915659 -0.0053432986565402187 0 -0.004624063813863195 -0.0048413247073065832 0 -0.0044410260722702599 -0.0050531010153465044 0 -0.0041563597359689118 -0.005284984929767006 0 -0.0041445173732432665 -0.005326324470418321 0 -0.0041393732970420793 -0.0053172200807727011 0 -0.0041563597359689118 -0.005284984929767006 0 -0.0041445173732432665 -0.005326324470418321 0 -0.0041351727438915659 -0.0053432986565402187 0 -0.0047916730605851738 -0.0047494278829999159 0 -0.0047970457097061244 -0.0047626018522798639 0 -0.0047812661176860217 -0.0047551987476203011 0 -0.0041351727438915659 -0.0053432986565402187 0 -0.0041651933809639516 -0.0053394515028874065 0 -0.0041849747264589175 -0.005336543627060918 0 -0.0044410260722702599 -0.0050531010153465044 0 -0.0045049810537724144 -0.0052012278827716146 0 -0.0041351727438915659 -0.0053432986565402187 0 -0.0041651933809639516 -0.0053394515028874065 0 -0.0041425692285131282 -0.0053398752785543211 0 -0.0041445173732432665 -0.005326324470418321 0 -0.0041425692285131282 -0.0053398752785543211 0 -0.0041294654494900915 -0.0053286503972977736 0 -0.0041445173732432665 -0.005326324470418321 0 -0.0041351727438915659 -0.0053432986565402187 0 -0.0041425692285131282 -0.0053398752785543211 0 -0.0041651933809639516 -0.0053394515028874065 0 -0.0041425692285131282 -0.0053398752785543211 0 -0.0041388603329435428 -0.0053352100040416177 0 -0.0041425692285131282 -0.0053398752785543211 0 -0.0041156542385862591 -0.0053367797812893941 0 -0.0041388603329435428 -0.0053352100040416177 0 -0.0041425692285131282 -0.0053398752785543211 0 -0.0041156542385862591 -0.0053367797812893941 0 -0.0041294654494900915 -0.0053286503972977736 0 -0.0041156542385862591 -0.0053367797812893941 0 -0.0041062878907484552 -0.0053276205882682604 0 -0.0040792744283078093 -0.0053363215487885708 0 -0.0041156542385862591 -0.0053367797812893941 0 -0.0041294654494900915 -0.0053286503972977736 0 -0.0041062878907484552 -0.0053276205882682604 0 -0.0041294654494900915 -0.0053286503972977736 0 -0.0041214412390558671 -0.0053219364449612018 0 -0.0041062878907484552 -0.0053276205882682604 0 -0.0041245502715410356 -0.0052842118117444742 0 -0.0043201608172482586 -0.0053317925931028924 0 -0.0041563597359689118 -0.005284984929767006 0 -0.0041393732970420793 -0.0053172200807727011 0 -0.0041269069588014433 -0.0053267596412393831 0 -0.0041445173732432665 -0.005326324470418321 0 -0.0041294654494900915 -0.0053286503972977736 0 -0.0041393732970420793 -0.0053172200807727011 0 -0.0041294654494900915 -0.0053286503972977736 0 -0.0041393732970420793 -0.0053172200807727011 0 -0.0041214412390558671 -0.0053219364449612018 0 -0.0041393732970420793 -0.0053172200807727011 0 -0.0041269069588014433 -0.0053267596412393831 0 -0.0041214412390558671 -0.0053219364449612018 0 -0.0041161812215862814 -0.0053221291619934804 0 -0.0041183081563385023 -0.0053222902247958576 0 -0.0041214412390558671 -0.0053219364449612018 0 -0.0039591628499338069 -0.004678027034888687 0 -0.0043201608172482586 -0.0053317925931028924 0 -0.004114041398250866 -0.0053227422946752678 0 -0.0041183081563385023 -0.0053222902247958576 0 -0.0041269069588014433 -0.0053267596412393831 0 -0.0041183081563385023 -0.0053222902247958576 0 -0.0041269069588014433 -0.0053267596412393831 0 -0.0041214412390558671 -0.0053219364449612018 0 -0.0041161812215862814 -0.0053221291619934804 0 -0.0041062878907484552 -0.0053276205882682604 0 -0.0041096842521762258 -0.0053370121416544923 0 -0.0041161812215862814 -0.0053221291619934804 0 -0.0041214412390558671 -0.0053219364449612018 0 -0.0041062878907484552 -0.0053276205882682604 0 -0.0038679929964945581 -0.0053354105186042495 0 -0.0041246403214884146 -0.0053388280941613023 0 -0.0041062878907484552 -0.0053276205882682604 0 -0.0041096842521762258 -0.0053370121416544923 0 -0.0040792744283078093 -0.0053363215487885708 0 -0.0041156542385862591 -0.0053367797812893941 0 -0.0040792744283078093 -0.0053363215487885708 0 -0.0041388603329435428 -0.0053352100040416177 0 -0.0040792744283078093 -0.0053363215487885708 0 -0.0041201758296469894 -0.0052807265423306139 0 -0.0041388603329435428 -0.0053352100040416177 0 -0.0040792744283078093 -0.0053363215487885708 0 -0.0039817503449033594 -0.0052103709931780014 0 -0.0041201758296469894 -0.0052807265423306139 0 -0.0036464109562680605 -0.005321309820106865 0 -0.0037631148098965115 -0.0055346397524332572 0 -0.0038420730233834507 -0.0052703605169665095 0 -0.0038679929964945581 -0.0053354105186042495 0 -0.0039112866778749714 -0.0052546946804884415 0 -0.0039995216117436096 -0.0053360301454939314 0 -0.0040792744283078093 -0.0053363215487885708 0 -0.0039817503449033594 -0.0052103709931780014 0 -0.0039817503449033594 -0.0052103709931780014 0 -0.0041063178731167603 -0.0051562112916886046 0 -0.0041201758296469894 -0.0052807265423306139 0 -0.0039817503449033594 -0.0052103709931780014 0 -0.0039260090580532014 -0.0050000256513980917 0 -0.0041063178731167603 -0.0051562112916886046 0 -0.0039260090580532014 -0.0050000256513980917 0 -0.0041684041681342978 -0.0049999722384449522 0 -0.0041063178731167603 -0.0051562112916886046 0 -0.0039112866778749714 -0.0052546946804884415 0 -0.0039258365937488689 -0.0049999915168494839 0 -0.0036338970960079196 -0.0049999990886467598 0 -0.0038420730233834507 -0.0052703605169665095 0 -0.0039258055642399977 -0.0049999956312791263 0 -0.0042526151119651407 -0.0051109750196719267 0 -0.0043654684742453261 -0.0051780013381577871 0 -0.0044110534571036352 -0.0049999781492837516 0 -0.0042526151119651407 -0.0051109750196719267 0 -0.0041684041681342978 -0.0049999722384449522 0 -0.0044110534571036352 -0.0049999781492837516 0 -0.0042526151119651407 -0.0051109750196719267 0 -0.0041684041681342978 -0.0049999722384449522 0 -0.0041063178731167603 -0.0051562112916886046 0 -0.0042526151119651407 -0.0051109750196719267 0 -0.0041063178731167603 -0.0051562112916886046 0 -0.0042244525608466062 -0.0052295438986328961 0 -0.0041063178731167603 -0.0051562112916886046 0 -0.0042244525608466062 -0.0052295438986328961 0 -0.0041201758296469894 -0.0052807265423306139 0 -0.0042526151119651407 -0.0051109750196719267 0 -0.0042244525608466062 -0.0052295438986328961 0 -0.0043654684742453261 -0.0051780013381577871 0 -0.0042244525608466062 -0.0052295438986328961 0 -0.0041994791626171774 -0.0053339960885276276 0 -0.0043522408414202107 -0.0052911441000275481 0 -0.0042244525608466062 -0.0052295438986328961 0 -0.0043522408414202107 -0.0052911441000275481 0 -0.0043654684742453261 -0.0051780013381577871 0 -0.0042244525608466062 -0.0052295438986328961 0 -0.0041201758296469894 -0.0052807265423306139 0 -0.0041994791626171774 -0.0053339960885276276 0 -0.0041201758296469894 -0.0052807265423306139 0 -0.0041388603329435428 -0.0053352100040416177 0 -0.0041994791626171774 -0.0053339960885276276 0 -0.0041651933809639516 -0.0053394515028874065 0 -0.0041388603329435428 -0.0053352100040416177 0 -0.0041994791626171774 -0.0053339960885276276 0 -0.0041994791626171774 -0.0053339960885276276 0 -0.0043873453153060642 -0.0054577090145347786 0 -0.0043522408414202107 -0.0052911441000275481 0 -0.0041587464914812416 -0.0053514119133520506 0 -0.0045049810537724144 -0.0052012278827716146 0 -0.0041651933809639516 -0.0053394515028874065 0 -0.0041994791626171774 -0.0053339960885276276 0 -0.0041849747264589175 -0.005336543627060918 0 -0.0043873453153060642 -0.0054577090145347786 0 -0.0043522408414202107 -0.0052911441000275481 0 -0.0044814390089860561 -0.00534235313154685 0 -0.0045587613714965954 -0.0052741549314043162 0 -0.0045600888305910373 -0.0052707140258521183 0 -0.0045711318389356648 -0.0052775501404316782 0 -0.0045049810537724144 -0.0052012278827716146 0 -0.0045058702742233137 -0.0053202523424228853 0 -0.00520680333593558 -0.0045851708791803053 0 -0.0051070220353169864 -0.0044373083827852601 0 -0.0052600996751136445 -0.0043606083726618139 0 -0.0048818171383475332 -0.0049532433587653642 0 -0.0049488558462559467 -0.0046844204780563297 0 -0.0045737410110142842 -0.0052728347216262081 0 -0.0045600888305910373 -0.0052707140258521183 0 -0.0045711318389356648 -0.0052775501404316782 0 -0.0045737410110142842 -0.0052728347216262081 0 -0.0045741665095050555 -0.005223488822648812 0 -0.0045891924158061228 -0.0051820931145858465 0 -0.0048818171383475332 -0.0049532433587653642 0 -0.0048066701034956173 -0.0049812637840756435 0 -0.00520680333593558 -0.0045851708791803053 0 -0.0050394338846398703 -0.004842743320601443 0 -0.0050554879431343328 -0.0046701981680109805 0 -0.0045737410110142842 -0.0052728347216262081 0 -0.0045741665095050555 -0.005223488822648812 0 -0.0045600888305910373 -0.0052707140258521183 0 -0.0045741665095050555 -0.005223488822648812 0 -0.0044814390089860561 -0.00534235313154685 0 -0.0044549124468798206 -0.0052361757313616397 0 -0.0045736066247853632 -0.005228480244722486 0 -0.0045058702742233137 -0.0053202523424228853 0 -0.0043522408414202107 -0.0052911441000275481 0 -0.0044549124468798206 -0.0052361757313616397 0 -0.0043654684742453261 -0.0051780013381577871 0 -0.0043522408414202107 -0.0052911441000275481 0 -0.0044814390089860561 -0.00534235313154685 0 -0.0044549124468798206 -0.0052361757313616397 0 -0.0044549124468798206 -0.0052361757313616397 0 -0.0043654684742453261 -0.0051780013381577871 0 -0.0044860350297491183 -0.0051477581204355492 0 -0.0045741665095050555 -0.005223488822648812 0 -0.0044860350297491183 -0.0051477581204355492 0 -0.0045891924158061228 -0.0051820931145858465 0 -0.0045741665095050555 -0.005223488822648812 0 -0.0044549124468798206 -0.0052361757313616397 0 -0.0044860350297491183 -0.0051477581204355492 0 -0.0048066701034956173 -0.0049812637840756435 0 -0.0046537507029115761 -0.0049999365402554584 0 -0.0044860350297491183 -0.0051477581204355492 0 -0.0045891924158061228 -0.0051820931145858465 0 -0.0046535760886714456 -0.0049999864939342872 0 -0.0043654684742453261 -0.0051780013381577871 0 -0.0044860350297491183 -0.0051477581204355492 0 -0.0044110534571036352 -0.0049999781492837516 0 -0.0044860350297491183 -0.0051477581204355492 0 -0.0046535760886714456 -0.0049999864939342872 0 -0.0044110534571036352 -0.0049999781492837516 0 -0.0049996488920681309 -0.0049998841951506938 0 -0.0049444701913670284 -0.0049002033717945688 0 -0.0049998179254219224 -0.0045802438268048723 0 -0.0046547386877595909 -0.0049997472138408553 0 -0.0049996488920681309 -0.0049998841951506938 0 -0.0049444701913670284 -0.0049002033717945688 0 -0.0050394338846398703 -0.004842743320601443 0 -0.0046547386877595909 -0.0049997472138408553 0 -0.0049444701913670284 -0.0049002033717945688 0 -0.0050394338846398703 -0.004842743320601443 0 -0.0049444701913670284 -0.0049002033717945688 0 -0.0050554879431343328 -0.0046701981680109805 0 -0.0049998179254219224 -0.0045802438268048723 0 -0.0050554879431343328 -0.0046701981680109805 0 -0.0051070220353169864 -0.0044373083827852601 0 -0.0049444701913670284 -0.0049002033717945688 0 -0.0049998179254219224 -0.0045802438268048723 0 -0.0050554879431343328 -0.0046701981680109805 0 -0.00520680333593558 -0.0045851708791803053 0 -0.0050554879431343328 -0.0046701981680109805 0 -0.0051070220353169864 -0.0044373083827852601 0 -0.0049998179254219224 -0.0045802438268048723 0 -0.0051070220353169864 -0.0044373083827852601 0 -0.0050343783285350299 -0.0041314026403244586 0 -0.0051070220353169864 -0.0044373083827852601 0 -0.0050343783285350299 -0.0041314026403244586 0 -0.0051365680143998357 -0.0042551881567578749 0 -0.0049998179254219224 -0.0045802438268048723 0 -0.0050343783285350299 -0.0041314026403244586 0 -0.0049999868073718184 -0.0040009317165927063 0 -0.0050327051883224212 -0.0041423365912823433 0 -0.0051885931242268658 -0.0042327396508818806 0 -0.0052214239679139558 -0.0042123122215403895 0 -0.005000031634780292 -0.0040008578957485136 0 -0.0050343783285350299 -0.0041314026403244586 0 -0.0051980737384935806 -0.0041686591860827611 0 -0.0049999868073718184 -0.0040009317165927063 0 -0.0050343783285350299 -0.0041314026403244586 0 -0.0051901214022641116 -0.0042256057725184818 0 -0.0051980737384935806 -0.0041686591860827611 0 -0.0052372224901698593 -0.00414746142388598 0 -0.0051980737384935806 -0.0041686591860827611 0 -0.0049999868073718184 -0.0040009317165927063 0 -0.0052310659044946467 -0.0041519415374448101 0 -0.0051980737384935806 -0.0041686591860827611 0 -0.005260987442565414 -0.0042197131978422868 0 -0.0051901214022641116 -0.0042256057725184818 0 -0.0051980737384935806 -0.0041686591860827611 0 -0.005260987442565414 -0.0042197131978422868 0 -0.0052214239679139558 -0.0042123122215403895 0 -0.00522386309544722 -0.0041994291219945908 0 -0.0051901214022641116 -0.0042256057725184818 0 -0.005260987442565414 -0.0042197131978422868 0 -0.0053237316901729777 -0.0043051694268032171 0 -0.0051885931242268658 -0.0042327396508818806 0 -0.0049488558462559467 -0.0046844204780563297 0 -0.0051070220353169864 -0.0044373083827852601 0 -0.0051365680143998357 -0.0042551881567578749 0 -0.0052600996751136445 -0.0043606083726618139 0 -0.0047651057208495757 -0.0047734290984176803 0 -0.0047794313587707403 -0.004769292208687919 0 -0.0047663600168944102 -0.0047607547244079484 0 -0.0047590236756087116 -0.0047501425640157358 0 -0.0049634388996616747 -0.0045395798366132892 0 -0.005260987442565414 -0.0042197131978422868 0 -0.0053237316901729777 -0.0043051694268032171 0 -0.0053298230701394811 -0.0042059612044946654 0 -0.0049488558462559467 -0.0046844204780563297 0 -0.0049634388996616747 -0.0045395798366132892 0 -0.0047970457097061244 -0.0047626018522798639 0 -0.004781293391000088 -0.0047865000601632823 0 -0.0047794313587707403 -0.004769292208687919 0 -0.004781293391000088 -0.0047865000601632823 0 -0.0047651057208495757 -0.0047734290984176803 0 -0.0047794313587707403 -0.004769292208687919 0 -0.0045049810537724144 -0.0052012278827716146 0 -0.0049488558462559467 -0.0046844204780563297 0 -0.0047794313587707403 -0.004769292208687919 0 -0.0047812661176860217 -0.0047551987476203011 0 -0.0047690505990848637 -0.0047597032936954921 0 -0.0047970457097061244 -0.0047626018522798639 0 -0.0047794313587707403 -0.004769292208687919 0 -0.0047812661176860217 -0.0047551987476203011 0 -0.0047812661176860217 -0.0047551987476203011 0 -0.0047690505990848637 -0.0047597032936954921 0 -0.0047705288088981685 -0.0047474731223274983 0 -0.0052310659044946467 -0.0041519415374448101 0 -0.005260987442565414 -0.0042197131978422868 0 -0.0053298230701394811 -0.0042059612044946654 0 -0.0052214239679139558 -0.0042123122215403895 0 -0.0049634388996616747 -0.0045395798366132892 0 -0.0049634388996616747 -0.0045395798366132892 0 -0.0050713393647913701 -0.0043609610005706659 0 -0.0052214239679139558 -0.0042123122215403895 0 -0.0050713393647913701 -0.0043609610005706659 0 -0.0051038438849101454 -0.004365467996946655 0 -0.0050708607189417498 -0.0043504488532971203 0 -0.0050691751495942515 -0.0043852826351097138 0 -0.0053754736328232048 -0.0040485033651039594 0 -0.0053138493651651193 -0.0039246893262440243 0 -0.0053881416730527567 -0.003852303297598187 0 -0.0053754736328232048 -0.0040485033651039594 0 -0.0053138493651651193 -0.0039246893262440243 0 -0.0052211858332714316 -0.0039664900642898777 0 -0.0050713393647913701 -0.0043609610005706659 0 -0.0053037707323789476 -0.0038958335444707376 0 -0.0050810878296847382 -0.0042708676054848032 0 -0.005135647455293854 -0.0042392146708366656 0 -0.005086327625697511 -0.0041886497335858136 0 -0.0050713393647913701 -0.0043609610005706659 0 -0.0048917938428949519 -0.0045215798167279964 0 -0.0051900840943476575 -0.0042080292516290217 0 -0.005135647455293854 -0.0042392146708366656 0 -0.005086327625697511 -0.0041886497335858136 0 -0.0047916730605851738 -0.0047494278829999159 0 -0.0047812661176860217 -0.0047551987476203011 0 -0.0047813449301040674 -0.0047421294378440478 0 -0.0047812661176860217 -0.0047551987476203011 0 -0.0047705288088981685 -0.0047474731223274983 0 -0.0047813449301040674 -0.0047421294378440478 0 -0.0047927411964319979 -0.0047361958221231433 0 -0.0047916730605851738 -0.0047494278829999159 0 -0.0047813449301040674 -0.0047421294378440478 0 -0.0051850397189515274 -0.0042294286328526829 0 -0.0048917938428949519 -0.0045215798167279964 0 -0.0051850397189515274 -0.0042294286328526829 0 -0.0053037707323789476 -0.0038958335444707376 0 -0.0055024229577287686 -0.0036799143811518656 0 -0.0055893770347016959 -0.0038287529244514697 0 -0.0053706981938499423 -0.0037884915692872273 0 -0.0053870235226702807 -0.0035633498034035654 0 -0.0053882972391820052 -0.0038483723225860573 0 -0.0052693153140840852 -0.0038288864460111578 0 -0.0053138493651651193 -0.0039246893262440243 0 -0.0053881416730527567 -0.003852303297598187 0 -0.0052693153140840852 -0.0038288864460111578 0 -0.0053037707323789476 -0.0038958335444707376 0 -0.0053049561208087766 -0.0038508041039791775 0 -0.0051690561267063078 -0.0036350882962283442 0 -0.0052693153140840852 -0.0038288864460111578 0 -0.0051278995836277572 -0.0038473823734167674 0 -0.0052693153140840852 -0.0038288864460111578 0 -0.0051278995836277572 -0.0038473823734167674 0 -0.0052211858332714316 -0.0039664900642898777 0 -0.0049999895431435057 -0.0037251264444310237 0 -0.0051278995836277572 -0.0038473823734167674 0 -0.0049999899095111346 -0.0040008718412331062 0 -0.0051278995836277572 -0.0038473823734167674 0 -0.0049999899095111346 -0.0040008718412331062 0 -0.0052211858332714316 -0.0039664900642898777 0 -0.0052492811125994529 -0.0041190665266313594 0 -0.0053754736328232048 -0.0040485033651039594 0 -0.0052211858332714316 -0.0039664900642898777 0 -0.0052492811125994529 -0.0041190665266313594 0 -0.0049999899095111346 -0.0040008718412331062 0 -0.0052211858332714316 -0.0039664900642898777 0 -0.0053138493651651193 -0.0039246893262440243 0 -0.0052693153140840852 -0.0038288864460111578 0 -0.0052211858332714316 -0.0039664900642898777 0 0.00082307086831222862 -0.004419394343825535 0 0.00080302953056579434 -0.0042128679208186049 0 0.00093382175309104877 -0.0042789242530807325 0 0.00082307086831222862 -0.004419394343825535 0 0.00064900141744853544 -0.0043064184949662999 0 0.00080302953056579434 -0.0042128679208186049 0 0.00082307086831222862 -0.004419394343825535 0 0.00064900141744853544 -0.0043064184949662999 0 0.00070364981002714073 -0.0045399263559320864 0 0.00070925422168469435 -0.0043150713714163024 0 0.00070499661116699933 -0.004516232263517485 0 0.00064900141744853544 -0.0043064184949662999 0 0.00080302953056579434 -0.0042128679208186049 0 0.00062878869408893717 -0.004076560019453542 0 0.00070925422168469435 -0.0043150713714163024 0 0.00071361194478179095 -0.0040742012604272062 0 0.00080302953056579434 -0.0042128679208186049 0 0.00093382175309104877 -0.0042789242530807325 0 0.00095026969739925055 -0.0041257240408751356 0 0.00093382175309104877 -0.0042789242530807325 0 0.001025681665485056 -0.0042003781283842107 0 0.00095026969739925055 -0.0041257240408751356 0 0.0010871185220448101 -0.0041586603762210385 0 0.001025681665485056 -0.0042003781283842107 0 0.0011233622880270494 -0.0042234216686045448 0 0.0010871185220448101 -0.0041586603762210385 0 0.001025681665485056 -0.0042003781283842107 0 0.0010597887888247226 -0.0040865058104030075 0 0.0010871185220448101 -0.0041586603762210385 0 0.0011395396912910621 -0.0041244191511811811 0 0.0011233622880270494 -0.0042234216686045448 0 0.00093382175309104877 -0.0042789242530807325 0 0.001025681665485056 -0.0042003781283842107 0 0.001040870298570442 -0.0043057536460729155 0 0.001040870298570442 -0.0043057536460729155 0 0.0011270559760845835 -0.0043158450090763894 0 0.0011233622880270494 -0.0042234216686045448 0 0.001025681665485056 -0.0042003781283842107 0 0.001040870298570442 -0.0043057536460729155 0 0.0011233622880270494 -0.0042234216686045448 0 0.001040870298570442 -0.0043057536460729155 0 0.0011043148036857435 -0.0044020190026543777 0 0.0011270559760845835 -0.0043158450090763894 0 0.0011043148036857435 -0.0044020190026543777 0 0.00097692887902500812 -0.0044059437996987133 0 0.0010646891428408769 -0.0044900689451416618 0 0.001040870298570442 -0.0043057536460729155 0 0.0011043148036857435 -0.0044020190026543777 0 0.00097692887902500812 -0.0044059437996987133 0 0.00082307086831222862 -0.004419394343825535 0 0.00093382175309104877 -0.0042789242530807325 0 0.00097692887902500812 -0.0044059437996987133 0 0.00093382175309104877 -0.0042789242530807325 0 0.001040870298570442 -0.0043057536460729155 0 0.00097692887902500812 -0.0044059437996987133 0 0.00097692887902500812 -0.0044059437996987133 0 0.00089728751295269614 -0.0045564532502764283 0 0.0010646891428408769 -0.0044900689451416618 0 0.00082307086831222862 -0.004419394343825535 0 0.00097692887902500812 -0.0044059437996987133 0 0.00089728751295269614 -0.0045564532502764283 0 0.00089728751295269614 -0.0045564532502764283 0 0.0010646891428408769 -0.0044900689451416618 0 0.0011361378473250638 -0.0045700066955555079 0 0.0010281428832103832 -0.0045828983451069337 0 0.00084901351738719561 -0.0045155615923226965 0 0.0010646891428408769 -0.0044900689451416618 0 0.0011439186631230453 -0.004476866937317585 0 0.0011255716288535377 -0.0045158618029828949 0 0.0011043148036857435 -0.0044020190026543777 0 0.0010646891428408769 -0.0044900689451416618 0 0.0011439186631230453 -0.004476866937317585 0 0.0010646891428408769 -0.0044900689451416618 0 0.0011255716288535377 -0.0045158618029828949 0 0.0011361378473250638 -0.0045700066955555079 0 0.0010773731664289704 -0.0046316973480816622 0 0.00097503575158091151 -0.0046199195666655627 0 0.0011194107737716242 -0.0045982099461140116 0 0.00089728751295269614 -0.0045564532502764283 0 0.00097503575158091151 -0.0046199195666655627 0 0.0011194107737716242 -0.0045982099461140116 0 0.00052009730910200502 -0.0048302412990568668 0 0.00035776647213771963 -0.0045796210140716543 0 0.00074236518773261053 -0.0046506821130183748 0 0.00071671490310899928 -0.0046094783635430066 0 0.00084901351738719561 -0.0045155615923226965 0 0.00071671490310899928 -0.0046094783635430066 0 0.00080915775968667361 -0.0048057517542002097 0 0.0010773731664289704 -0.0046316973480816622 0 0.00097503575158091151 -0.0046199195666655627 0 0.00097205832465048665 -0.0047200520076421497 0 0.00089728751295269614 -0.0045564532502764283 0 0.00097503575158091151 -0.0046199195666655627 0 0.00079790413908546753 -0.0046987099071000528 0 0.00079158340774694352 -0.0047295211077507558 0 0.00080915775968667361 -0.0048057517542002097 0 0.00097503575158091151 -0.0046199195666655627 0 0.00079790413908546753 -0.0046987099071000528 0 0.00097205832465048665 -0.0047200520076421497 0 0.00089728751295269614 -0.0045564532502764283 0 0.00079790413908546753 -0.0046987099071000528 0 0.00078696203897111691 -0.0045840937866204615 0 0.00082307086831222862 -0.004419394343825535 0 0.00078696203897111691 -0.0045840937866204615 0 0.00070364981002714073 -0.0045399263559320864 0 0.00082307086831222862 -0.004419394343825535 0 0.00089728751295269614 -0.0045564532502764283 0 0.00078696203897111691 -0.0045840937866204615 0 0.00078696203897111691 -0.0045840937866204615 0 0.00070364981002714073 -0.0045399263559320864 0 0.00061705156620259444 -0.0047105831524069924 0 0.00074189771212915094 -0.004764971417175308 0 0.00061705156620259444 -0.0047105831524069924 0 0.00063100518990417661 -0.0048162580991851119 0 0.00079158340774694352 -0.0047295211077507558 0 0.00061269237532986156 -0.0047095227887907236 0 0.00079790413908546753 -0.0046987099071000528 0 0.00078696203897111691 -0.0045840937866204615 0 0.00061705156620259444 -0.0047105831524069924 0 0.00061705156620259444 -0.0047105831524069924 0 0.00046927292097885412 -0.0047598091232307826 0 0.00054439415622771145 -0.004826201034630672 0 0.00061705156620259444 -0.0047105831524069924 0 0.00046927292097885412 -0.0047598091232307826 0 0.00054325514476958594 -0.0046215970390495993 0 0.00046927292097885412 -0.0047598091232307826 0 0.00054325514476958594 -0.0046215970390495993 0 0.0003648108207773471 -0.0046397697040293732 0 0.00054325514476958594 -0.0046215970390495993 0 0.0003648108207773471 -0.0046397697040293732 0 0.00054967241895117656 -0.0044500320114395694 0 0.00070364981002714073 -0.0045399263559320864 0 0.00054325514476958594 -0.0046215970390495993 0 0.00054967241895117656 -0.0044500320114395694 0 0.00070364981002714073 -0.0045399263559320864 0 0.00061705156620259444 -0.0047105831524069924 0 0.00054325514476958594 -0.0046215970390495993 0 0.00031635793943340934 -0.0047418791389743165 0 0.00028196101921025367 -0.004813983567363656 0 0.00035473829230121134 -0.0048102290792808259 0 0.00031635793943340934 -0.0047418791389743165 0 0.00028196101921025367 -0.004813983567363656 0 0.00028000719210068229 -0.0047102726887570442 0 0.00031635793943340934 -0.0047418791389743165 0 0.00035473829230121134 -0.0048102290792808259 0 0.0003648108207773471 -0.0046397697040293732 0 0.00046927292097885412 -0.0047598091232307826 0 0.00035473829230121134 -0.0048102290792808259 0 0.0003648108207773471 -0.0046397697040293732 0 0.0003648108207773471 -0.0046397697040293732 0 7.1193326821595632e-05 -0.0045756189092394615 0 0.00017171884593633239 -0.0043715645305163458 0 0.00035942241070136363 -0.004645212947992315 0 0.00017974072842274894 -0.0046398518656536308 0 0.00031635793943340934 -0.0047418791389743165 0 0.0003648108207773471 -0.0046397697040293732 0 0.00028000719210068229 -0.0047102726887570442 0 0.00017171884593633239 -0.0043715645305163458 0 0.00037494158193879538 -0.0043968382056098461 0 0.00028305282732122867 -0.0042075254827859277 0 0.0003648108207773471 -0.0046397697040293732 0 0.00017171884593633239 -0.0043715645305163458 0 0.00037494158193879538 -0.0043968382056098461 0 0.00037494158193879538 -0.0043968382056098461 0 0.00028305282732122867 -0.0042075254827859277 0 0.00053595640706399837 -0.0041644008888242854 0 0.00017171884593633239 -0.0043715645305163458 0 0.00028305282732122867 -0.0042075254827859277 0 7.7709206517940807e-05 -0.004123491501347107 0 0.00077003608347554178 -0.0043277692224999295 0 0.00070364981002714073 -0.0045399263559320864 0 0.00054967241895117656 -0.0044500320114395694 0 0.00037494158193879538 -0.0043968382056098461 0 0.00054967241895117656 -0.0044500320114395694 0 0.00053595640706399837 -0.0041644008888242854 0 0.0003648108207773471 -0.0046397697040293732 0 0.00037494158193879538 -0.0043968382056098461 0 0.00054967241895117656 -0.0044500320114395694 0 0.00077003608347554178 -0.0043277692224999295 0 0.00054967241895117656 -0.0044500320114395694 0 0.00053595640706399837 -0.0041644008888242854 0 0.00077003608347554178 -0.0043277692224999295 0 0.00053595640706399837 -0.0041644008888242854 0 0.0007988772077243421 -0.0040761671023712594 0 0.00053595640706399837 -0.0041644008888242854 0 0.00061243549053127948 -0.0039114836914819215 0 0.0007988772077243421 -0.0040761671023712594 0 0.00052938578299391564 -0.0041428907688378942 0 0.000414642773550546 -0.0038960621161616186 0 0.00053595640706399837 -0.0041644008888242854 0 0.00038866980326531203 -0.003916785755288853 0 0.00061243549053127948 -0.0039114836914819215 0 0.00038866980326531203 -0.003916785755288853 0 0.00061243549053127948 -0.0039114836914819215 0 0.00046686962263910788 -0.003739679694450515 0 7.7709206517940807e-05 -0.004123491501347107 0 0.00025078586308226799 -0.0040136719349433787 0 0.00014928259395525175 -0.0038545244796449221 0 0.00028305282732122867 -0.0042075254827859277 0 7.7709206517940807e-05 -0.004123491501347107 0 0.00025078586308226799 -0.0040136719349433787 0 0.00028305282732122867 -0.0042075254827859277 0 0.00053595640706399837 -0.0041644008888242854 0 0.00025078586308226799 -0.0040136719349433787 0 0.00053595640706399837 -0.0041644008888242854 0 0.00044158183940965336 -0.0038715730724720389 0 0.00025078586308226799 -0.0040136719349433787 0 0.00044158183940965336 -0.0038715730724720389 0 0.00025078586308226799 -0.0040136719349433787 0 0.00014928259395525175 -0.0038545244796449221 0 0.00044158183940965336 -0.0038715730724720389 0 0.00014928259395525175 -0.0038545244796449221 0 0.00031779288143651331 -0.0035954504988362896 0 0.00014928259395525175 -0.0038545244796449221 0 0.00010608329262929964 -0.0036954312649041515 0 0.00031779288143651331 -0.0035954504988362896 0 0.00010608329262929964 -0.0036954312649041515 0 0.00031779288143651331 -0.0035954504988362896 0 9.2684077787097099e-05 -0.0035638547402103093 0 0.000414642773550546 -0.0038960621161616186 0 0.00028436087529569275 -0.0036259489608240266 0 0.00038866980326531203 -0.003916785755288853 0 0.00025165139657054721 -0.0036560999656709398 0 0.00046686962263910788 -0.003739679694450515 0 0.00012587252528963372 -0.0033913083655297297 0 0.00025165139657054721 -0.0036560999656709398 0 0.00044279158574999093 -0.0035424069738609399 0 0.00019410467601433168 -0.0033648952105216397 0 7.3175477260720991e-05 -0.0034297323827175521 0 9.2684077787097099e-05 -0.0035638547402103093 0 0.00016095849603987085 -0.0033783934946848776 0 0.00028436087529569275 -0.0036259489608240266 0 0.00019410467601433168 -0.0033648952105216397 0 0.00031779288143651331 -0.0035954504988362896 0 9.2684077787097099e-05 -0.0035638547402103093 0 0.00061243549053127948 -0.0039114836914819215 0 0.00063796930057104532 -0.0036708652880299729 0 0.00046686962263910788 -0.003739679694450515 0 0.00061243549053127948 -0.0039114836914819215 0 0.00063796930057104532 -0.0036708652880299729 0 0.00081415282468833331 -0.003815634226929062 0 0.00063796930057104532 -0.0036708652880299729 0 0.00046686962263910788 -0.003739679694450515 0 0.00044279158574999093 -0.0035424069738609399 0 0.00025165139657054721 -0.0036560999656709398 0 0.00046686962263910788 -0.003739679694450515 0 0.00044279158574999093 -0.0035424069738609399 0 0.00041487960000815194 -0.0033162080065742548 0 0.00044279158574999093 -0.0035424069738609399 0 0.00066654381676823716 -0.0034614837291969251 0 0.00063796930057104532 -0.0036708652880299729 0 0.00044279158574999093 -0.0035424069738609399 0 0.00066654381676823716 -0.0034614837291969251 0 0.00063796930057104532 -0.0036708652880299729 0 0.00066654381676823716 -0.0034614837291969251 0 0.00081819801567320765 -0.003550283045942276 0 0.0005779690243345048 -0.0034569635854495256 0 0.00067007563854353186 -0.0035970721925537327 0 0.00063400820015517545 -0.0034163233180270762 0 0.0004853144990094583 -0.0034429758446655125 0 0.00060380802486358575 -0.0035406067834958953 0 0.00063400820015517545 -0.0034163233180270762 0 0.00060380802486358575 -0.0035406067834958953 0 0.00068451836399100537 -0.0036067226657031035 0 0.00067007563854353186 -0.0035970721925537327 0 0.00070182221892643043 -0.0036465377345232786 0 0.00063400820015517545 -0.0034163233180270762 0 0.00074197995367348505 -0.0034676021985370086 0 0.00068451836399100537 -0.0036067226657031035 0 0.00068451836399100537 -0.0036067226657031035 0 0.00080488463162788429 -0.0035521134629485475 0 0.00086175581282551584 -0.0036979812754814921 0 0.00083989251791041504 -0.0034312848911296182 0 0.00074197995367348505 -0.0034676021985370086 0 0.00080488463162788429 -0.0035521134629485475 0 0.00074197995367348505 -0.0034676021985370086 0 0.00068451836399100537 -0.0036067226657031035 0 0.00080488463162788429 -0.0035521134629485475 0 0.00068451836399100537 -0.0036067226657031035 0 0.00090854184567272902 -0.0037953249947341263 0 0.00086175581282551584 -0.0036979812754814921 0 0.00070182221892643043 -0.0036465377345232786 0 0.00089936153619382664 -0.003785697819710194 0 0.00070568625813684303 -0.0036863135068214135 0 0.00078297887958282903 -0.0038037467496349381 0 0.00090854184567272902 -0.0037953249947341263 0 0.00070568625813684303 -0.0036863135068214135 0 0.00070178890202892623 -0.0037791009710312819 0 0.00078297887958282903 -0.0038037467496349381 0 0.00070178890202892623 -0.0037791009710312819 0 0.00078297887958282903 -0.0038037467496349381 0 0.00077385047266507654 -0.0039159050037881294 0 0.00063796930057104532 -0.0036708652880299729 0 0.00081819801567320765 -0.003550283045942276 0 0.00081415282468833331 -0.003815634226929062 0 0.00062521859620832184 -0.0036396122694025619 0 0.00070178890202892623 -0.0037791009710312819 0 0.00062353897871946905 -0.003853404030060242 0 0.00067007563854353186 -0.0035970721925537327 0 0.00072286342400106616 -0.0038337476601358706 0 0.00062521859620832184 -0.0036396122694025619 0 0.00070568625813684303 -0.0036863135068214135 0 0.00070178890202892623 -0.0037791009710312819 0 0.00072286342400106616 -0.0038337476601358706 0 0.00071361194478179095 -0.0040742012604272062 0 0.00061243549053127948 -0.0039114836914819215 0 0.00081415282468833331 -0.003815634226929062 0 0.0007988772077243421 -0.0040761671023712594 0 0.00062353897871946905 -0.003853404030060242 0 0.00077385047266507654 -0.0039159050037881294 0 0.00062878869408893717 -0.004076560019453542 0 0.00070178890202892623 -0.0037791009710312819 0 0.00062353897871946905 -0.003853404030060242 0 0.00077385047266507654 -0.0039159050037881294 0 0.00077385047266507654 -0.0039159050037881294 0 0.0008493647705985609 -0.003849571266247632 0 0.0008886168116814876 -0.0039098636972151879 0 0.00078297887958282903 -0.0038037467496349381 0 0.00077385047266507654 -0.0039159050037881294 0 0.0008493647705985609 -0.003849571266247632 0 0.00080302953056579434 -0.0042128679208186049 0 0.0008167892013344405 -0.0040691248864517119 0 0.00062878869408893717 -0.004076560019453542 0 0.00077385047266507654 -0.0039159050037881294 0 0.0008167892013344405 -0.0040691248864517119 0 0.00062878869408893717 -0.004076560019453542 0 0.00077385047266507654 -0.0039159050037881294 0 0.0008167892013344405 -0.0040691248864517119 0 0.00091308346463175004 -0.0040137794251787944 0 0.0010058861330470483 -0.004007484676254865 0 0.0010597887888247226 -0.0040865058104030075 0 0.0010681122207701749 -0.0039835929231741138 0 0.0011087791002373345 -0.0040220893995967094 0 0.0010597887888247226 -0.0040865058104030075 0 0.0011331462426515211 -0.0040668616636071369 0 0.0011087791002373345 -0.0040220893995967094 0 0.0010597887888247226 -0.0040865058104030075 0 0.0010681122207701749 -0.0039835929231741138 0 0.0011087791002373345 -0.0040220893995967094 0 0.0011090084604984788 -0.0039726640114028256 0 0.0010681122207701749 -0.0039835929231741138 0 0.0010597887888247226 -0.0040865058104030075 0 0.0011395396912910621 -0.0041244191511811811 0 0.0011331462426515211 -0.0040668616636071369 0 0.0010871185220448101 -0.0041586603762210385 0 0.0010597887888247226 -0.0040865058104030075 0 0.0011395396912910621 -0.0041244191511811811 0 0.001025681665485056 -0.0042003781283842107 0 0.0010597887888247226 -0.0040865058104030075 0 0.00095026969739925055 -0.0041257240408751356 0 0.0010058861330470483 -0.004007484676254865 0 0.0010597887888247226 -0.0040865058104030075 0 0.00095026969739925055 -0.0041257240408751356 0 0.00080302953056579434 -0.0042128679208186049 0 0.0008167892013344405 -0.0040691248864517119 0 0.00095026969739925055 -0.0041257240408751356 0 0.0008167892013344405 -0.0040691248864517119 0 0.00095026969739925055 -0.0041257240408751356 0 0.00091308346463175004 -0.0040137794251787944 0 0.0010058861330470483 -0.004007484676254865 0 0.00095026969739925055 -0.0041257240408751356 0 0.00091308346463175004 -0.0040137794251787944 0 0.0010058861330470483 -0.004007484676254865 0 0.00091308346463175004 -0.0040137794251787944 0 0.00096090286378700961 -0.0039461942831494198 0 0.00091308346463175004 -0.0040137794251787944 0 0.00096090286378700961 -0.0039461942831494198 0 0.0008886168116814876 -0.0039098636972151879 0 0.00077385047266507654 -0.0039159050037881294 0 0.00091308346463175004 -0.0040137794251787944 0 0.0008886168116814876 -0.0039098636972151879 0 0.0008493647705985609 -0.003849571266247632 0 0.0008886168116814876 -0.0039098636972151879 0 0.0009335799205786293 -0.0038601824413295621 0 0.00096090286378700961 -0.0039461942831494198 0 0.0009335799205786293 -0.0038601824413295621 0 0.00099392777980601959 -0.0038860054999181764 0 0.00096090286378700961 -0.0039461942831494198 0 0.0008886168116814876 -0.0039098636972151879 0 0.0009335799205786293 -0.0038601824413295621 0 0.0009335799205786293 -0.0038601824413295621 0 0.00099392777980601959 -0.0038860054999181764 0 0.00098152821443389204 -0.0037866126388720837 0 0.0010423527658793138 -0.0038638701994975037 0 0.00099392777980601959 -0.0038860054999181764 0 0.00098152821443389204 -0.0037866126388720837 0 0.0010423527658793138 -0.0038638701994975037 0 0.00099392777980601959 -0.0038860054999181764 0 0.0010336458926088095 -0.0039358903792183157 0 0.00096090286378700961 -0.0039461942831494198 0 0.00099392777980601959 -0.0038860054999181764 0 0.0010336458926088095 -0.0039358903792183157 0 0.0010058861330470483 -0.004007484676254865 0 0.00096090286378700961 -0.0039461942831494198 0 0.0010336458926088095 -0.0039358903792183157 0 0.0010058861330470483 -0.004007484676254865 0 0.0010336458926088095 -0.0039358903792183157 0 0.0010681122207701749 -0.0039835929231741138 0 0.0011090084604984788 -0.0039726640114028256 0 0.0010681122207701749 -0.0039835929231741138 0 0.0010905354425530562 -0.0039227517867200992 0 0.0010336458926088095 -0.0039358903792183157 0 0.0010681122207701749 -0.0039835929231741138 0 0.0010905354425530562 -0.0039227517867200992 0 0.0010423527658793138 -0.0038638701994975037 0 0.0010905354425530562 -0.0039227517867200992 0 0.0010962987830236677 -0.0038481067274328913 0 0.0010905354425530562 -0.0039227517867200992 0 0.0010962987830236677 -0.0038481067274328913 0 0.0011291390399805839 -0.0038962848402957209 0 0.0010423527658793138 -0.0038638701994975037 0 0.0010336458926088095 -0.0039358903792183157 0 0.0010905354425530562 -0.0039227517867200992 0 0.0010962987830236677 -0.0038481067274328913 0 0.0010512615897184743 -0.0037845822584981572 0 0.001106927775279252 -0.0037630313408104576 0 0.0010512615897184743 -0.0037845822584981572 0 0.0010436380711651924 -0.0036413838500398547 0 0.001106927775279252 -0.0037630313408104576 0 0.0010512615897184743 -0.0037845822584981572 0 0.00098152821443389204 -0.0037866126388720837 0 0.0010436380711651924 -0.0036413838500398547 0 0.0010423527658793138 -0.0038638701994975037 0 0.0010962987830236677 -0.0038481067274328913 0 0.0010512615897184743 -0.0037845822584981572 0 0.0010423527658793138 -0.0038638701994975037 0 0.0010512615897184743 -0.0037845822584981572 0 0.00098152821443389204 -0.0037866126388720837 0 0.00098152821443389204 -0.0037866126388720837 0 0.00086175581282551584 -0.0036979812754814921 0 0.0010436380711651924 -0.0036413838500398547 0 0.0008493647705985609 -0.003849571266247632 0 0.0009335799205786293 -0.0038601824413295621 0 0.00090854184567272902 -0.0037953249947341263 0 0.00078297887958282903 -0.0038037467496349381 0 0.0008493647705985609 -0.003849571266247632 0 0.00090854184567272902 -0.0037953249947341263 0 0.0009335799205786293 -0.0038601824413295621 0 0.00090854184567272902 -0.0037953249947341263 0 0.00098152821443389204 -0.0037866126388720837 0 0.00090854184567272902 -0.0037953249947341263 0 0.00098152821443389204 -0.0037866126388720837 0 0.00086175581282551584 -0.0036979812754814921 0 0.00086175581282551584 -0.0036979812754814921 0 0.0009202343184614622 -0.0035231580899176499 0 0.0010861359501245624 -0.0035219607166520352 0 0.00086494994668896491 -0.0036931798482901248 0 0.0010812001627958315 -0.0035940000917733901 0 0.00080488463162788429 -0.0035521134629485475 0 0.00086175581282551584 -0.0036979812754814921 0 0.0009202343184614622 -0.0035231580899176499 0 0.00098882629769713121 -0.0034086842839584934 0 0.0009202343184614622 -0.0035231580899176499 0 0.0010861359501245624 -0.0035219607166520352 0 0.00083989251791041504 -0.0034312848911296182 0 0.00080488463162788429 -0.0035521134629485475 0 0.0009202343184614622 -0.0035231580899176499 0 0.00098882629769713121 -0.0034086842839584934 0 0.00083989251791041504 -0.0034312848911296182 0 0.0009202343184614622 -0.0035231580899176499 0 0.0010436380711651924 -0.0036413838500398547 0 0.0011351084961358352 -0.0036999007721021304 0 0.001106927775279252 -0.0037630313408104576 0 0.0010436380711651924 -0.0036413838500398547 0 0.0011629599049583607 -0.0036371218125093555 0 0.0011351084961358352 -0.0036999007721021304 0 0.0010696581584667684 -0.0033451295628805391 0 0.0010812001627958315 -0.0035940000917733901 0 0.0011806139963946925 -0.0035786882252692208 0 0.0010436380711651924 -0.0036413838500398547 0 0.0011629599049583607 -0.0036371218125093555 0 0.0011922007188113473 -0.003605172732535611 0 0.0011629599049583607 -0.0036371218125093555 0 0.0012078666145827273 -0.0036379998732885377 0 0.0011629599049583607 -0.0036371218125093555 0 0.0011351084961358352 -0.0036999007721021304 0 0.0011979352554604107 -0.0037162622720058698 0 0.0011629599049583607 -0.0036371218125093555 0 0.0011979352554604107 -0.0037162622720058698 0 0.0012078666145827273 -0.0036379998732885377 0 0.0011351084961358352 -0.0036999007721021304 0 0.001106927775279252 -0.0037630313408104576 0 0.0011694033149561283 -0.0037788464811328165 0 0.0011979352554604107 -0.0037162622720058698 0 0.0011694033149561283 -0.0037788464811328165 0 0.0012250042382362788 -0.0037839788917509885 0 0.0011351084961358352 -0.0036999007721021304 0 0.0011979352554604107 -0.0037162622720058698 0 0.0011694033149561283 -0.0037788464811328165 0 0.0011694033149561283 -0.0037788464811328165 0 0.0012250042382362788 -0.0037839788917509885 0 0.0012278204420105548 -0.0038598276373709435 0 0.0011694033149561283 -0.0037788464811328165 0 0.0011559808390538765 -0.0038494691922834334 0 0.0012278204420105548 -0.0038598276373709435 0 0.001106927775279252 -0.0037630313408104576 0 0.0011694033149561283 -0.0037788464811328165 0 0.0011559808390538765 -0.0038494691922834334 0 0.0010962987830236677 -0.0038481067274328913 0 0.001106927775279252 -0.0037630313408104576 0 0.0011559808390538765 -0.0038494691922834334 0 0.0011979352554604107 -0.0037162622720058698 0 0.0013057992785684485 -0.0037821764811157735 0 0.0012078666145827273 -0.0036379998732885377 0 0.0013057992785684485 -0.0037821764811157735 0 0.0012250042382362788 -0.0037839788917509885 0 0.0012278204420105548 -0.0038598276373709435 0 0.0011979352554604107 -0.0037162622720058698 0 0.0013057992785684485 -0.0037821764811157735 0 0.0012250042382362788 -0.0037839788917509885 0 0.0011922007188113473 -0.003605172732535611 0 0.0012078666145827273 -0.0036379998732885377 0 0.0012086668310606714 -0.0036058841385763866 0 -5.5962094639259066e-05 -0.0036751328975423631 0 -0.00021618049002054466 -0.0034940581527903884 0 0.0013057992785684485 -0.0037821764811157735 0 0.0012078666145827273 -0.0036379998732885377 0 0.0013181895884300345 -0.003587705697262415 0 0.0015874017775337624 -0.0034451090827399308 0 -0.00021618049002054466 -0.0034940581527903884 0 -0.0015039678602979426 -0.0035025781718865234 0 -0.001582447040288605 -0.0038576615852968514 0 -0.0017979875205398788 -0.0037161517764950488 0 -0.0020012876194154994 -0.0040075434131607128 0 -0.0017979875205398788 -0.0037161517764950488 0 -0.0020345427667124521 -0.0037046534273917908 0 -0.0017979875205398788 -0.0037161517764950488 0 -0.0020345427667124521 -0.0037046534273917908 0 -0.0018639954952576812 -0.0034990915066202125 0 -0.0018639954952576812 -0.0034990915066202125 0 -0.0021286049527764542 -0.0035521825660818416 0 -0.0020765771914933299 -0.0033698691338072055 0 -0.0020345427667124521 -0.0037046534273917908 0 -0.0018639954952576812 -0.0034990915066202125 0 -0.0021286049527764542 -0.0035521825660818416 0 -0.0015039678602979426 -0.0035025781718865234 0 -0.0018639954952576812 -0.0034990915066202125 0 -0.0016742751648068542 -0.0033049501057920102 0 -0.0015039678602979426 -0.0035025781718865234 0 -0.0017979875205398788 -0.0037161517764950488 0 -0.0018639954952576812 -0.0034990915066202125 0 -0.0016742751648068542 -0.0033049501057920102 0 -0.0017169171033368778 -0.0030921555738442526 0 -0.0014216985941210467 -0.0031401114283912748 0 -0.0016742751648068542 -0.0033049501057920102 0 -0.0019007051204969541 -0.0032557233381578302 0 -0.0017169171033368778 -0.0030921555738442526 0 -0.0018639954952576812 -0.0034990915066202125 0 -0.0016742751648068542 -0.0033049501057920102 0 -0.0019007051204969541 -0.0032557233381578302 0 -0.0018639954952576812 -0.0034990915066202125 0 -0.0019007051204969541 -0.0032557233381578302 0 -0.0020765771914933299 -0.0033698691338072055 0 -0.0019007051204969541 -0.0032557233381578302 0 -0.0020765771914933299 -0.0033698691338072055 0 -0.0021033145618583665 -0.0031871935055206575 0 -0.0014564427316337664 -0.0039328835576181477 0 -0.0010497769216539479 -0.0039989260829930524 0 -0.0010994528074056331 -0.0037961105140756793 0 -0.0017651654940397167 -0.0035236881439044752 0 -0.0014854439464283939 -0.0035311069604061205 0 -0.0014564427316337664 -0.0039328835576181477 0 -0.0010994528074056331 -0.0037961105140756793 0 -0.0012152033972288837 -0.0036416245406628478 0 -0.0019007051204969541 -0.0032557233381578302 0 -0.0020092892199694555 -0.0030470135149739523 0 -0.0017169171033368778 -0.0030921555738442526 0 -0.0017968897012880553 -0.0035811136704212146 0 -0.0018602683028304133 -0.0035702507020945761 0 -0.0017078460812464953 -0.0034529612840459092 0 -0.0019007051204969541 -0.0032557233381578302 0 -0.0020092892199694555 -0.0030470135149739523 0 -0.0021033145618583665 -0.0031871935055206575 0 -0.0014854439464283939 -0.0035311069604061205 0 -0.00042420614850368455 -0.0035990506465373943 0 -0.0010497769216539479 -0.0039989260829930524 0 -0.00079270725801638476 -0.0038832295571858588 0 -0.00064195021231491063 -0.0040625809981827072 0 -0.0010497769216539479 -0.0039989260829930524 0 -0.0010994528074056331 -0.0037961105140756793 0 -0.00090037043718480718 -0.0037154379731039965 0 -0.0010497769216539479 -0.0039989260829930524 0 -0.00079270725801638476 -0.0038832295571858588 0 -0.00090037043718480718 -0.0037154379731039965 0 -0.00079270725801638476 -0.0038832295571858588 0 -0.00064195021231491063 -0.0040625809981827072 0 -0.00057939805007176538 -0.0037563495632782508 0 -0.00079270725801638476 -0.0038832295571858588 0 -0.00057939805007176538 -0.0037563495632782508 0 -0.00090037043718480718 -0.0037154379731039965 0 0.0012666686811669942 -0.0040162337426828711 0 0.0012507820061139351 -0.0039939475806178423 0 0.0012370317259545352 -0.0040207611967640411 0 0.0012666686811669942 -0.0040162337426828711 0 0.0012507820061139351 -0.0039939475806178423 0 0.0012964097891096909 -0.0039964401864810524 0 0.0012666686811669942 -0.0040162337426828711 0 0.0012964097891096909 -0.0039964401864810524 0 0.0012596463643076757 -0.0040520323930368128 0 0.0012666686811669942 -0.0040162337426828711 0 0.0012596463643076757 -0.0040520323930368128 0 0.0012370317259545352 -0.0040207611967640411 0 0.0012516586627894961 -0.0040884315697081791 0 0.0012135500825893174 -0.0041083503627010196 0 0.001291481433471946 -0.0041373589532304753 0 0.0012964097891096909 -0.0039964401864810524 0 0.0012596463643076757 -0.0040520323930368128 0 0.0012798066948906195 -0.0041280048538788784 0 0.0012596463643076757 -0.0040520323930368128 0 0.0012516586627894961 -0.0040884315697081791 0 0.0012798066948906195 -0.0041280048538788784 0 -0.00042420614850368455 -0.0035990506465373943 0 0.00037296610250260018 -0.0039853186702395443 0 0.00080524506341194942 -0.0042430794461155597 0 0.00037296610250260018 -0.0039853186702395443 0 0.0012135500825893174 -0.0041083503627010196 0 0.001223767285597595 -0.004059971281898625 0 0.0011797857679962576 -0.0040685890031135789 0 0.0012596463643076757 -0.0040520323930368128 0 0.0012516586627894961 -0.0040884315697081791 0 0.001223767285597595 -0.004059971281898625 0 0.0012516586627894961 -0.0040884315697081791 0 0.0012135500825893174 -0.0041083503627010196 0 0.001223767285597595 -0.004059971281898625 0 0.0012135500825893174 -0.0041083503627010196 0 0.0011395396912910621 -0.0041244191511811811 0 0.0011797857679962576 -0.0040685890031135789 0 0.0011395396912910621 -0.0041244191511811811 0 0.0011797857679962576 -0.0040685890031135789 0 0.0011331462426515211 -0.0040668616636071369 0 0.0011087791002373345 -0.0040220893995967094 0 0.0011331462426515211 -0.0040668616636071369 0 0.0011611293955484795 -0.0040273716787832198 0 0.0011797857679962576 -0.0040685890031135789 0 0.0011331462426515211 -0.0040668616636071369 0 0.0011611293955484795 -0.0040273716787832198 0 0.0011611293955484795 -0.0040273716787832198 0 0.0011413269929980931 -0.0039913155530061127 0 0.0011839088205398498 -0.0039892702368866982 0 0.0011087791002373345 -0.0040220893995967094 0 0.0011611293955484795 -0.0040273716787832198 0 0.0011413269929980931 -0.0039913155530061127 0 0.0011087791002373345 -0.0040220893995967094 0 0.0011090084604984788 -0.0039726640114028256 0 0.0011413269929980931 -0.0039913155530061127 0 0.0012596463643076757 -0.0040520323930368128 0 0.001223767285597595 -0.004059971281898625 0 0.0012370317259545352 -0.0040207611967640411 0 0.001223767285597595 -0.004059971281898625 0 0.0012370317259545352 -0.0040207611967640411 0 0.0012008420547449609 -0.0040252586959481232 0 0.0011797857679962576 -0.0040685890031135789 0 0.0011611293955484795 -0.0040273716787832198 0 0.0012008420547449609 -0.0040252586959481232 0 0.001223767285597595 -0.004059971281898625 0 0.0011797857679962576 -0.0040685890031135789 0 0.0012008420547449609 -0.0040252586959481232 0 0.0012008420547449609 -0.0040252586959481232 0 0.0011839088205398498 -0.0039892702368866982 0 0.0012184266819801558 -0.0039867970540724109 0 0.0011611293955484795 -0.0040273716787832198 0 0.0012008420547449609 -0.0040252586959481232 0 0.0011839088205398498 -0.0039892702368866982 0 0.0012370317259545352 -0.0040207611967640411 0 0.0012008420547449609 -0.0040252586959481232 0 0.0012184266819801558 -0.0039867970540724109 0 0.0012507820061139351 -0.0039939475806178423 0 0.0012370317259545352 -0.0040207611967640411 0 0.0012184266819801558 -0.0039867970540724109 0 0.0012507820061139351 -0.0039939475806178423 0 0.0012184266819801558 -0.0039867970540724109 0 0.0012421808584106211 -0.0039506703971919173 0 0.0012184266819801558 -0.0039867970540724109 0 0.0011941789516208808 -0.0039445132336790043 0 0.0012421808584106211 -0.0039506703971919173 0 0.0011839088205398498 -0.0039892702368866982 0 0.0011941789516208808 -0.0039445132336790043 0 0.0011453979243365342 -0.003946194143946093 0 0.0011839088205398498 -0.0039892702368866982 0 0.0012184266819801558 -0.0039867970540724109 0 0.0011941789516208808 -0.0039445132336790043 0 0.0011941789516208808 -0.0039445132336790043 0 0.0011644762306960512 -0.0038993466709528525 0 0.0012030580099391512 -0.0038973218131630408 0 0.0011941789516208808 -0.0039445132336790043 0 0.0012030580099391512 -0.0038973218131630408 0 0.0012421808584106211 -0.0039506703971919173 0 0.0011090084604984788 -0.0039726640114028256 0 0.0011413269929980931 -0.0039913155530061127 0 0.0011453979243365342 -0.003946194143946093 0 0.0011413269929980931 -0.0039913155530061127 0 0.0011839088205398498 -0.0039892702368866982 0 0.0011453979243365342 -0.003946194143946093 0 0.0011941789516208808 -0.0039445132336790043 0 0.0011453979243365342 -0.003946194143946093 0 0.0011644762306960512 -0.0038993466709528525 0 0.0011453979243365342 -0.003946194143946093 0 0.0011291390399805839 -0.0038962848402957209 0 0.0011644762306960512 -0.0038993466709528525 0 0.0011090084604984788 -0.0039726640114028256 0 0.0010905354425530562 -0.0039227517867200992 0 0.0011453979243365342 -0.003946194143946093 0 0.0010905354425530562 -0.0039227517867200992 0 0.0011453979243365342 -0.003946194143946093 0 0.0011291390399805839 -0.0038962848402957209 0 0.0010962987830236677 -0.0038481067274328913 0 0.0011291390399805839 -0.0038962848402957209 0 0.0011559808390538765 -0.0038494691922834334 0 0.0011291390399805839 -0.0038962848402957209 0 0.0011644762306960512 -0.0038993466709528525 0 0.0011559808390538765 -0.0038494691922834334 0 0.0011559808390538765 -0.0038494691922834334 0 0.0012030580099391512 -0.0038973218131630408 0 0.0012278204420105548 -0.0038598276373709435 0 0.0012030580099391512 -0.0038973218131630408 0 0.0012278204420105548 -0.0038598276373709435 0 0.0012421808584106211 -0.0039506703971919173 0 0.0011644762306960512 -0.0038993466709528525 0 0.0011559808390538765 -0.0038494691922834334 0 0.0012030580099391512 -0.0038973218131630408 0 -0.0015039678602979426 -0.0035025781718865234 0 -0.0016742751648068542 -0.0033049501057920102 0 -0.0014216985941210467 -0.0031401114283912748 0 0.0013057992785684485 -0.0037821764811157735 0 0.0012964097891096909 -0.0039964401864810524 0 0.0012278204420105548 -0.0038598276373709435 0 -5.5962094639259066e-05 -0.0036751328975423631 0 -0.00042420614850368455 -0.0035990506465373943 0 0.0012964097891096909 -0.0039964401864810524 0 0.0012278204420105548 -0.0038598276373709435 0 0.0012421808584106211 -0.0039506703971919173 0 0.0012507820061139351 -0.0039939475806178423 0 0.0012964097891096909 -0.0039964401864810524 0 0.0012421808584106211 -0.0039506703971919173 0 -0.002729972042283466 -0.0036239599985742892 0 -0.002649535600725679 -0.0034424652750084089 0 -0.0028833647637175976 -0.0034270956973093489 0 -0.0029543554790142168 -0.0036788577761323136 0 -0.002729972042283466 -0.0036239599985742892 0 -0.0028833647637175976 -0.0034270956973093489 0 -0.0029223014876700714 -0.0039652851761661145 0 -0.0029543554790142168 -0.0036788577761323136 0 -0.0027752587760006995 -0.0038168731154875411 0 -0.0029543554790142168 -0.0036788577761323136 0 -0.002729972042283466 -0.0036239599985742892 0 -0.0027752587760006995 -0.0038168731154875411 0 -0.002729972042283466 -0.0036239599985742892 0 -0.0025703151785178694 -0.0038154394429734269 0 -0.0025102645896121546 -0.0035728411481855053 0 -0.002729972042283466 -0.0036239599985742892 0 -0.0027752587760006995 -0.0038168731154875411 0 -0.0025703151785178694 -0.0038154394429734269 0 -0.002729972042283466 -0.0036239599985742892 0 -0.0025102645896121546 -0.0035728411481855053 0 -0.002649535600725679 -0.0034424652750084089 0 -0.0025102645896121546 -0.0035728411481855053 0 -0.0023076583162761691 -0.0034957103405377212 0 -0.0023139367322919779 -0.0037380479646429705 0 -0.0025102645896121546 -0.0035728411481855053 0 -0.0023076583162761691 -0.0034957103405377212 0 -0.0024984063752316534 -0.0033423398093366699 0 -0.0025703151785178694 -0.0038154394429734269 0 -0.0025102645896121546 -0.0035728411481855053 0 -0.0023139367322919779 -0.0037380479646429705 0 -0.0020345427667124521 -0.0037046534273917908 0 -0.0023139367322919779 -0.0037380479646429705 0 -0.0021286049527764542 -0.0035521825660818416 0 -0.0020012876194154994 -0.0040075434131607128 0 -0.0020345427667124521 -0.0037046534273917908 0 -0.0023139367322919779 -0.0037380479646429705 0 -0.0023076583162761691 -0.0034957103405377212 0 -0.0023139367322919779 -0.0037380479646429705 0 -0.0021286049527764542 -0.0035521825660818416 0 -0.0023076583162761691 -0.0034957103405377212 0 -0.0021286049527764542 -0.0035521825660818416 0 -0.0020765771914933299 -0.0033698691338072055 0 -0.0023076583162761691 -0.0034957103405377212 0 -0.0021778441077898473 -0.003281113473937336 0 -0.0023237934423839973 -0.0033399726573351109 0 -0.0023076583162761691 -0.0034957103405377212 0 -0.0020765771914933299 -0.0033698691338072055 0 -0.0021080708358322867 -0.0031760053710863882 0 -0.0023076029450512523 -0.0034666393315526947 0 -0.0020774529320888324 -0.0032817945492315862 0 -0.0022778015725557644 -0.00326592141514422 0 -0.0021778441077898473 -0.003281113473937336 0 -0.0023237934423839973 -0.0033399726573351109 0 -0.0020822021465443084 -0.0033114042503212225 0 -0.0020774529320888324 -0.0032817945492315862 0 -0.0017651654940397167 -0.0035236881439044752 0 -0.0020774529320888324 -0.0032817945492315862 0 -0.0020774529320888324 -0.0032817945492315862 0 -0.0021405377372067801 -0.003371680687637919 0 -0.0021778441077898473 -0.003281113473937336 0 -0.0021950330472726098 -0.0031616240799562409 0 -0.0022440757849864412 -0.0032007592901759766 0 -0.0020269687033606758 -0.0033938073816305288 0 -0.0020345470887346124 -0.0034025154640537165 0 -0.0020377010090273911 -0.0033922648035070455 0 -0.0021913396280084326 -0.0031584443716056541 0 -0.0022440757849864412 -0.0032007592901759766 0 -0.0023987157085819709 -0.0032083389662264836 0 -0.0020817527943543419 -0.0034123643898764529 0 -0.0021405377372067801 -0.003371680687637919 0 -0.0020269687033606758 -0.0033938073816305288 0 -0.0020357842037755634 -0.0034059287986659731 0 -0.0020345470887346124 -0.0034025154640537165 0 -0.0020357842037755634 -0.0034059287986659731 0 -0.0020345470887346124 -0.0034025154640537165 0 -0.00204006478779197 -0.0033905675733886102 0 -0.0021405377372067801 -0.003371680687637919 0 -0.0021466639727006323 -0.0033115914575889685 0 -0.0017651654940397167 -0.0035236881439044752 0 -0.0021405377372067801 -0.003371680687637919 0 -0.0022778015725557644 -0.00326592141514422 0 -0.0021778441077898473 -0.003281113473937336 0 -0.0022440757849864412 -0.0032007592901759766 0 -0.0022778015725557644 -0.00326592141514422 0 -0.0022440757849864412 -0.0032007592901759766 0 -0.0023987157085819709 -0.0032083389662264836 0 -0.0021913396280084326 -0.0031584443716056541 0 -0.0023987157085819709 -0.0032083389662264836 0 -0.0025179084181523623 -0.00310830942736716 0 -0.0021405377372067801 -0.003371680687637919 0 -0.0026805569605425055 -0.003117426764457535 0 -0.0023987157085819709 -0.0032083389662264836 0 -0.0024984063752316534 -0.0033423398093366699 0 -0.0025179084181523623 -0.00310830942736716 0 -0.0023987157085819709 -0.0032083389662264836 0 -0.0024984063752316534 -0.0033423398093366699 0 -0.0023237934423839973 -0.0033399726573351109 0 -0.0022778015725557644 -0.00326592141514422 0 -0.0023987157085819709 -0.0032083389662264836 0 -0.0023237934423839973 -0.0033399726573351109 0 -0.0023076583162761691 -0.0034957103405377212 0 -0.0024984063752316534 -0.0033423398093366699 0 -0.0023237934423839973 -0.0033399726573351109 0 -0.0025102645896121546 -0.0035728411481855053 0 -0.0024984063752316534 -0.0033423398093366699 0 -0.002649535600725679 -0.0034424652750084089 0 -0.0024984063752316534 -0.0033423398093366699 0 -0.002649535600725679 -0.0034424652750084089 0 -0.0027396528271853206 -0.0032664544420763449 0 -0.0026805569605425055 -0.003117426764457535 0 -0.0029007622547966047 -0.0031129613025182852 0 -0.0025179084181523623 -0.00310830942736716 0 -0.0027396528271853206 -0.0032664544420763449 0 -0.0028582179278912228 -0.0030782504161420486 0 -0.0024984063752316534 -0.0033423398093366699 0 -0.0025179084181523623 -0.00310830942736716 0 -0.0027396528271853206 -0.0032664544420763449 0 -0.0029978739616693612 -0.0032396776005303731 0 -0.0027396528271853206 -0.0032664544420763449 0 -0.0028582179278912228 -0.0030782504161420486 0 -0.002649535600725679 -0.0034424652750084089 0 -0.0027396528271853206 -0.0032664544420763449 0 -0.0028833647637175976 -0.0034270956973093489 0 -0.0029978739616693612 -0.0032396776005303731 0 -0.0027396528271853206 -0.0032664544420763449 0 -0.0028833647637175976 -0.0034270956973093489 0 -0.0030554649566706706 -0.0029873481805246151 0 -0.0029660606682269217 -0.0031360375076337605 0 -0.0028314488703879074 -0.0029265922743887925 0 -0.0027446655619231459 -0.0031777434842978586 0 -0.0029660606682269217 -0.0031360375076337605 0 -0.0028314488703879074 -0.0029265922743887925 0 -0.0027446655619231459 -0.0031777434842978586 0 -0.0028314488703879074 -0.0029265922743887925 0 -0.002598964565743976 -0.0029788991560956747 0 -0.0025180913656048373 -0.0032172087465808592 0 -0.0027446655619231459 -0.0031777434842978586 0 -0.002598964565743976 -0.0029788991560956747 0 -0.0021405377372067801 -0.003371680687637919 0 -0.0024556117366120135 -0.0030935211982082785 0 -0.0021405377372067801 -0.003371680687637919 0 -0.0020208628110935244 -0.0034428116091733147 0 -0.0022003625504414827 -0.0033680407377102645 0 -0.0022084146958093517 -0.0033461704359650278 0 -0.0022157462550717721 -0.00333948211962224 0 -0.0018413683044046698 -0.0035460155185738618 0 -0.0018469190546073523 -0.0035647904352868291 0 -0.0018347224807479165 -0.003579285413497028 0 -0.0018469190546073523 -0.0035647904352868291 0 -0.0018347224807479165 -0.003579285413497028 0 -0.0018472492609961297 -0.0035903473190441169 0 -0.0020208628110935244 -0.0034428116091733147 0 -0.0019344973934445223 -0.0036659282228774961 0 -0.0022084146958093517 -0.0033461704359650278 0 -0.0022157462550717721 -0.00333948211962224 0 -0.0022152954492147274 -0.0033243457624780627 0 -0.0018347224807479165 -0.003579285413497028 0 -0.0018472492609961297 -0.0035903473190441169 0 -0.0018305317354407084 -0.0036133574651308568 0 -0.0016670365538629236 -0.0038142436274736903 0 -0.0019344973934445223 -0.0036659282228774961 0 -0.0015295019923997843 -0.0039707180043601197 0 -0.0015054403871838957 -0.0040051800886995058 0 -0.0015265070519700761 -0.004021258755044564 0 -0.0015054403871838957 -0.0040051800886995058 0 -0.0015265070519700761 -0.004021258755044564 0 -0.0015167569558458842 -0.0040332100980340832 0 -0.0019344973934445223 -0.0036659282228774961 0 -0.001863148526944644 -0.0038041790472917356 0 -0.0015265070519700761 -0.004021258755044564 0 -0.0015212874440380237 -0.0040479948583396139 0 -0.0015167569558458842 -0.0040332100980340832 0 -0.0015054403871838957 -0.0040051800886995058 0 -0.0015167569558458842 -0.0040332100980340832 0 -0.0015105457473893048 -0.0040531021641789147 0 -0.0014287989260069675 -0.0039976742753722698 0 -0.0014677652094011741 -0.0040322273571396627 0 -0.0015212874440380237 -0.0040479948583396139 0 -0.0015105457473893048 -0.0040531021641789147 0 -0.0015069682962859533 -0.0040520643520848389 0 -0.0015212874440380237 -0.0040479948583396139 0 -0.0015167569558458842 -0.0040332100980340832 0 -0.0015105457473893048 -0.0040531021641789147 0 -0.0022838165462989082 -0.0035749297798617248 0 -0.0022422924960803017 -0.0035351663884606189 0 -0.0023178917224143882 -0.0034701732596683788 0 -0.0023896501576807527 -0.0032344038788619774 0 -0.002857736016942202 -0.0032387560875406667 0 -0.0022986120778203472 -0.0035390967398132456 0 -0.0023522359733803297 -0.0034837254818716997 0 -0.0023178917224143882 -0.0034701732596683788 0 -0.0023896501576807527 -0.0032344038788619774 0 -0.002278196263565934 -0.0035973293580692156 0 -0.002218179172137191 -0.0036487357097877275 0 -0.0022838165462989082 -0.0035749297798617248 0 -0.0022422924960803017 -0.0035351663884606189 0 -0.0024556117366120135 -0.0030935211982082785 0 -0.0023896501576807527 -0.0032344038788619774 0 -0.0028314488703879074 -0.0029265922743887925 0 -0.002598964565743976 -0.0029788991560956747 0 -0.0026767138746120228 -0.0027545794278946308 0 -0.0022157462550717721 -0.00333948211962224 0 -0.0022152954492147274 -0.0033243457624780627 0 -0.0022305004180089997 -0.0033102654246136539 0 -0.0019344973934445223 -0.0036659282228774961 0 -0.0023896501576807527 -0.0032344038788619774 0 -0.0028314488703879074 -0.0029265922743887925 0 -0.0026767138746120228 -0.0027545794278946308 0 -0.0028318319373049836 -0.0027702492711335477 0 -0.0028318319373049836 -0.0027702492711335477 0 -0.0029885614974803115 -0.0027560911352439823 0 -0.002786685292414888 -0.0026294500500439405 0 -0.0026767138746120228 -0.0027545794278946308 0 -0.0028318319373049836 -0.0027702492711335477 0 -0.002786685292414888 -0.0026294500500439405 0 -0.0033003437719922829 -0.0029625779290243402 0 -0.002857736016942202 -0.0032387560875406667 0 -0.0028314488703879074 -0.0029265922743887925 0 -0.0028318319373049836 -0.0027702492711335477 0 -0.0029885614974803115 -0.0027560911352439823 0 -0.0030554649566706706 -0.0029873481805246151 0 -0.0028314488703879074 -0.0029265922743887925 0 -0.0029885614974803115 -0.0027560911352439823 0 6.9618471469724355e-05 -0.0040399578118290253 0 -3.3926976793908352e-05 -0.0040367582404744742 0 9.0313012008263633e-05 -0.0039435188770508209 0 -0.00078192343241208196 -0.0038279407498383717 0 0.00027805233989731904 -0.0042063850972483031 0 0.00069114143692861128 -0.0041938952111512306 0 0.00027805233989731904 -0.0042063850972483031 0 0.0011043148036857435 -0.0044020190026543777 0 0.0012618329570458563 -0.004325613210313977 0 0.0011270559760845835 -0.0043158450090763894 0 0.0011043148036857435 -0.0044020190026543777 0 0.0012618329570458563 -0.004325613210313977 0 0.0011439186631230453 -0.004476866937317585 0 0.0012618329570458563 -0.004325613210313977 0 0.0011270559760845835 -0.0043158450090763894 0 0.0011233622880270494 -0.0042234216686045448 0 0.0012618329570458563 -0.004325613210313977 0 0.0011233622880270494 -0.0042234216686045448 0 0.0012031656340526541 -0.004177332213220991 0 0.0012618329570458563 -0.004325613210313977 0 0.0012031656340526541 -0.004177332213220991 0 0.001291481433471946 -0.0041373589532304753 0 0.0011395396912910621 -0.0041244191511811811 0 0.0011233622880270494 -0.0042234216686045448 0 0.0012031656340526541 -0.004177332213220991 0 0.0012135500825893174 -0.0041083503627010196 0 0.0011395396912910621 -0.0041244191511811811 0 0.0012031656340526541 -0.004177332213220991 0 0.0012135500825893174 -0.0041083503627010196 0 0.0012031656340526541 -0.004177332213220991 0 0.001291481433471946 -0.0041373589532304753 0 -0.00057939805007176538 -0.0037563495632782508 0 -0.00090037043718480718 -0.0037154379731039965 0 -0.00091236410419790132 -0.003341761678233916 0 0.00069114143692861128 -0.0041938952111512306 0 0.00037296610250260018 -0.0039853186702395443 0 6.9618471469724355e-05 -0.0040399578118290253 0 5.0955577611848592e-05 -0.0041374568568597449 0 -3.3926976793908352e-05 -0.0040367582404744742 0 0.00037296610250260018 -0.0039853186702395443 0 -0.00078192343241208196 -0.0038279407498383717 0 -0.00090037043718480718 -0.0037154379731039965 0 -0.0010706671763168203 -0.0036170572175984001 0 -0.00091236410419790132 -0.003341761678233916 0 -0.0010994528074056331 -0.0037961105140756793 0 -0.00090037043718480718 -0.0037154379731039965 0 -0.0010706671763168203 -0.0036170572175984001 0 -0.0010994528074056331 -0.0037961105140756793 0 -0.0010706671763168203 -0.0036170572175984001 0 -0.0012152033972288837 -0.0036416245406628478 0 -0.001501051351153218 -0.0036609371172979994 0 -0.00078192343241208196 -0.0038279407498383717 0 -0.0010706671763168203 -0.0036170572175984001 0 -0.0012260475177062742 -0.0035911588387847492 0 -0.00091236410419790132 -0.003341761678233916 0 -0.0017651654940397167 -0.0035236881439044752 0 -0.001501051351153218 -0.0036609371172979994 0 -0.0014564427316337664 -0.0039328835576181477 0 -0.0012152033972288837 -0.0036416245406628478 0 -0.0012263561402310684 -0.0035906286862873193 0 -0.0018413683044046698 -0.0035460155185738618 0 -0.0018469190546073523 -0.0035647904352868291 0 -0.0018645547689115987 -0.0035695703546282714 0 -0.0018469190546073523 -0.0035647904352868291 0 -0.0018472492609961297 -0.0035903473190441169 0 -0.0018645547689115987 -0.0035695703546282714 0 -0.0021405377372067801 -0.003371680687637919 0 -0.001501051351153218 -0.0036609371172979994 0 -0.0010706671763168203 -0.0036170572175984001 0 -0.0012152033972288837 -0.0036416245406628478 0 -0.0012260475177062742 -0.0035911588387847492 0 -0.0014839641309939968 -0.0036625195138555409 0 -0.001501051351153218 -0.0036609371172979994 0 -0.0016670365538629236 -0.0038142436274736903 0 -0.001501051351153218 -0.0036609371172979994 0 -0.0015551599123677007 -0.0039671173942928094 0 -0.001580187866573424 -0.0039766590258975797 0 -0.0015531559581512915 -0.0040148799391693845 0 -0.0015295019923997843 -0.0039707180043601197 0 -0.0015551599123677007 -0.0039671173942928094 0 -0.0015531559581512915 -0.0040148799391693845 0 -0.0015295019923997843 -0.0039707180043601197 0 -0.0015568049493799834 -0.0039378532192088402 0 -0.0015551599123677007 -0.0039671173942928094 0 -0.0015568049493799834 -0.0039378532192088402 0 -0.0015551599123677007 -0.0039671173942928094 0 -0.001580187866573424 -0.0039766590258975797 0 -0.00059755799074468396 -0.0041977586406477104 0 -0.00062754977632923899 -0.0041604868301106154 0 -0.00055749684156330026 -0.0040590777370140387 0 -0.001253957126985119 -0.0038449854802354144 0 -0.0011672357886019957 -0.0037798359967887818 0 -0.0011884965848135054 -0.0037534175832485733 0 -0.001501051351153218 -0.0036609371172979994 0 -0.0011366989834682758 -0.0040085213371024329 0 -0.00078192343241208196 -0.0038279407498383717 0 -0.0011366989834682758 -0.0040085213371024329 0 -0.0011618538730118226 -0.0041719210293337059 0 -0.0011692411309674295 -0.0040173874014428042 0 -0.0010872452004213903 -0.0040600070210567137 0 -0.0011618538730118226 -0.0041719210293337059 0 -0.0011692411309674295 -0.0040173874014428042 0 -0.0012759668119020843 -0.0040306856266547108 0 -0.0011366989834682758 -0.0040085213371024329 0 -0.00081819243242868187 -0.0040311837608677722 0 -0.0011366989834682758 -0.0040085213371024329 0 -0.001440136706959395 -0.0040102987720023187 0 -0.0011692411309674295 -0.0040173874014428042 0 -0.0012759668119020843 -0.0040306856266547108 0 -0.0012018607055681453 -0.0039177554148937055 0 -0.0015295019923997843 -0.0039707180043601197 0 -0.0015265070519700761 -0.004021258755044564 0 -0.0015531559581512915 -0.0040148799391693845 0 -0.0014735803998492543 -0.0041060480051142564 0 -0.0013936400221247027 -0.0041166632166330123 0 -0.0013447313326099134 -0.0041406877253513594 0 -0.0014287989260069675 -0.0039976742753722698 0 -0.0013241730833990742 -0.0040212501150489076 0 -0.0015265070519700761 -0.004021258755044564 0 -0.0015212874440380237 -0.0040479948583396139 0 -0.0015531559581512915 -0.0040148799391693845 0 -0.0013907553151678281 -0.0038892379034289964 0 -0.0012759668119020843 -0.0040306856266547108 0 -0.0012018607055681453 -0.0039177554148937055 0 -0.0014287989260069675 -0.0039976742753722698 0 -0.001440136706959395 -0.0040102987720023187 0 -0.0014735803998492543 -0.0041060480051142564 0 -0.0013936400221247027 -0.0041166632166330123 0 -0.0014535592797456688 -0.0040462185633902735 0 -0.0011692411309674295 -0.0040173874014428042 0 -0.0012018607055681453 -0.0039177554148937055 0 -0.0010119075478752712 -0.0039475929042009465 0 -0.0013241730833990742 -0.0040212501150489076 0 -0.00085917754566476156 -0.0040904900774583414 0 -0.0013447313326099134 -0.0041406877253513594 0 -0.0012892504383916902 -0.0041075061012061619 0 -0.0012307313966393046 -0.0041639823978407899 0 -0.0013447313326099134 -0.0041406877253513594 0 -0.0012892504383916902 -0.0041075061012061619 0 -0.0013431906078624218 -0.0040892898382188106 0 -0.0013936400221247027 -0.0041166632166330123 0 -0.0013447313326099134 -0.0041406877253513594 0 -0.0013431906078624218 -0.0040892898382188106 0 -0.0012892504383916902 -0.0041075061012061619 0 -0.0012307313966393046 -0.0041639823978407899 0 -0.0012382969300043154 -0.0040956566487912243 0 -0.00085917754566476156 -0.0040904900774583414 0 -0.00055927483929509882 -0.0043456546317842256 0 -0.0012307313966393046 -0.0041639823978407899 0 -0.0011797022707040353 -0.0040909328848491092 0 -0.0012382969300043154 -0.0040956566487912243 0 -0.00085917754566476156 -0.0040904900774583414 0 -2.7548602215696697e-05 -0.0042441155412292356 0 -0.00059755799074468396 -0.0041977586406477104 0 -0.00055749684156330026 -0.0040590777370140387 0 -0.00040610538990482211 -0.00405058011004851 0 -0.00085917754566476156 -0.0040904900774583414 0 -0.00081819243242868187 -0.0040311837608677722 0 -0.0011692411309674295 -0.0040173874014428042 0 -0.0010119075478752712 -0.0039475929042009465 0 -0.0010872452004213903 -0.0040600070210567137 0 -0.00048815624141363177 -0.003957032757397185 0 -0.00055749684156330026 -0.0040590777370140387 0 -0.00040610538990482211 -0.00405058011004851 0 0.0012618329570458563 -0.004325613210313977 0 0.0011439186631230453 -0.004476866937317585 0 0.001225984860771951 -0.0045014600828778943 0 0.00027805233989731904 -0.0042063850972483031 0 0.0007352656289785417 -0.004456053160127562 0 0.00032648872917586075 -0.004239187635181124 0 0.00021226423716002376 -0.0043330988387241514 0 0.00029201218110122009 -0.0044109473471972303 0 0.00027805233989731904 -0.0042063850972483031 0 -2.7548602215696697e-05 -0.0042441155412292356 0 -0.00048815624141363177 -0.003957032757397185 0 -0.00040610538990482211 -0.00405058011004851 0 -0.00039009301957099131 -0.0039726366230088319 0 0.00067911869323806465 -0.0045087028292561124 0 0.00067363998125919854 -0.0045135978302036622 0 0.00068089332382317706 -0.0045145470685223855 0 0.0011439186631230453 -0.004476866937317585 0 0.001225984860771951 -0.0045014600828778943 0 0.0011681259965348936 -0.0045479081125442498 0 0.0011439186631230453 -0.004476866937317585 0 0.0011666858328411786 -0.0045455777423325152 0 0.0011255716288535377 -0.0045158618029828949 0 0.0007352656289785417 -0.004456053160127562 0 0.00038569769392900633 -0.0043710869549327602 0 0.0009800862948189373 -0.0045650393423236077 0 0.0007352656289785417 -0.004456053160127562 0 0.0011666858328411786 -0.0045455777423325152 0 0.0011255716288535377 -0.0045158618029828949 0 0.0011361378473250638 -0.0045700066955555079 0 0.0007352656289785417 -0.004456053160127562 0 0.00084901351738719561 -0.0045155615923226965 0 0.00049982526229762185 -0.0045103911752247634 0 0.0004469914944898211 -0.0045528982968131605 0 0.00042448278460732112 -0.0045012576900980593 0 0.00052009730910200502 -0.0048302412990568668 0 0.00034418255367542897 -0.0046479496810929574 0 0.00035776647213771963 -0.0045796210140716543 0 0.00021226423716002376 -0.0043330988387241514 0 0.0002371506280993223 -0.0044024728746976313 0 0.00029201218110122009 -0.0044109473471972303 0 0.0004469914944898211 -0.0045528982968131605 0 0.00039702591104996178 -0.0045448661595155239 0 0.00042448278460732112 -0.0045012576900980593 0 0.00084901351738719561 -0.0045155615923226965 0 0.00038569769392900633 -0.0043710869549327602 0 0.00039702591104996178 -0.0045448661595155239 0 0.00042448278460732112 -0.0045012576900980593 0 0.00037666105351597743 -0.0044915701223829044 0 -0.00049675499956837856 -0.0042601921548439427 0 -0.00043017786790435452 -0.0042709329484212086 0 -0.00042471533805665915 -0.0042425230325159342 0 5.1337211031015233e-05 -0.0041921013375835221 0 0.00013954573040802842 -0.0042058815907344786 0 0.00010955743932250465 -0.0043540082191628072 0 0.00038569769392900633 -0.0043710869549327602 0 -2.7548602215696697e-05 -0.0042441155412292356 0 0.00038569769392900633 -0.0043710869549327602 0 1.5038052578748308e-05 -0.0043498832955288173 0 -2.7548602215696697e-05 -0.0042441155412292356 0 1.5038052578748308e-05 -0.0043498832955288173 0 1.5038052578748308e-05 -0.0043498832955288173 0 -0.00055927483929509882 -0.0043456546317842256 0 1.5038052578748308e-05 -0.0043498832955288173 0 0.00011756061586500962 -0.0045795352266494631 0 -0.00049675499956837856 -0.0042601921548439427 0 -0.00042471533805665915 -0.0042425230325159342 0 -0.00044645789051504304 -0.0041861490015501516 0 -0.00016354443202978009 -0.0044080001204850738 0 -0.00017499445617834844 -0.0044601228063535121 0 -0.00014489353900709679 -0.0044644508624878711 0 0.00071671490310899928 -0.0046094783635430066 0 0.00011756061586500962 -0.0045795352266494631 0 0.00042448278460732112 -0.0045012576900980593 0 0.00037666105351597743 -0.0044915701223829044 0 0.00039354043572190984 -0.0044023981976576464 0 0.00049982526229762185 -0.0045103911752247634 0 0.00042448278460732112 -0.0045012576900980593 0 0.00039354043572190984 -0.0044023981976576464 0 0.00011756061586500962 -0.0045795352266494631 0 0.00017429061446263807 -0.0047161435419346203 0 -0.00055927483929509882 -0.0043456546317842256 0 -0.00037412712010759621 -0.0045372912174349829 0 0.00011756061586500962 -0.0045795352266494631 0 -0.00037412712010759621 -0.0045372912174349829 0 -0.00017499445617834844 -0.0044601228063535121 0 -0.00014489353900709679 -0.0044644508624878711 0 -0.00015582709057716744 -0.0044810614017398833 0 3.0828798266822378e-05 -0.0046534652128737671 0 3.0090737386262675e-05 -0.0046568750870811795 0 3.2671269879929073e-05 -0.0046563532717992248 0 0.00017429061446263807 -0.0047161435419346203 0 -0.00037412712010759621 -0.0045372912174349829 0 -0.00037412712010759621 -0.0045372912174349829 0 -0.00066206461527761236 -0.0043903475605790356 0 -0.00055927483929509882 -0.0043456546317842256 0 -0.00090990551374284159 -0.0042665990071045993 0 -0.00067176636025597356 -0.004377105507853557 0 -0.00068614743183247637 -0.0045036510060163827 0 -0.0006220929566479646 -0.0045152851722715459 0 -0.00067176636025597356 -0.004377105507853557 0 -0.00072679887772269982 -0.0044608819493645521 0 -0.00068614743183247637 -0.0045036510060163827 0 -0.00066206461527761236 -0.0043903475605790356 0 -0.00090990551374284159 -0.0042665990071045993 0 -0.00072908918149537964 -0.0047102560781709796 0 -0.00076368443643751779 -0.0047483126328200344 0 -0.00071462077285079553 -0.0047271122471347028 0 -0.00073532975106737242 -0.0047031282083435611 0 -0.00072908918149537964 -0.0047102560781709796 0 -0.00076368443643751779 -0.0047483126328200344 0 -0.00066206461527761236 -0.0043903475605790356 0 -0.00093929490149938883 -0.0043498874317691475 0 -0.00090990551374284159 -0.0042665990071045993 0 -0.00093929490149938883 -0.0043498874317691475 0 -0.00087154859234986825 -0.0043263507122095366 0 -0.00087454388584541566 -0.0043259503840644151 0 -0.00087639345751247706 -0.0043225482263665911 0 -0.00037412712010759621 -0.0045372912174349829 0 -0.00010630226034253689 -0.0048136099773100965 0 -0.00014530537904601425 -0.0045789139838245726 0 -6.2417791040033033e-05 -0.0045704596871478176 0 -0.00017894954124001225 -0.0047512162142746327 0 0.00017429061446263807 -0.0047161435419346203 0 -0.00010630226034253689 -0.0048136099773100965 0 -0.00010630226034253689 -0.0048136099773100965 0 -0.00062355517760270796 -0.0049845559475861874 0 -0.00076368443643751779 -0.0047483126328200344 0 -0.0007285817538315966 -0.0047892732196016556 0 -0.00075711775449476004 -0.0048416962218590766 0 -0.00076368443643751779 -0.0047483126328200344 0 -0.00075711775449476004 -0.0048416962218590766 0 -0.00078302395873891507 -0.0048471286617703859 0 -0.00076368443643751779 -0.0047483126328200344 0 -0.0007285817538315966 -0.0047892732196016556 0 -0.00071462077285079553 -0.0047271122471347028 0 -0.0011928769883661021 -0.0044943292875573347 0 -0.0010941270292802786 -0.0047126188533890426 0 -0.0011119269061057944 -0.0047305658309658473 0 -0.00093929490149938883 -0.0043498874317691475 0 -0.0011669717982120934 -0.0051493547773606976 0 -0.00093929490149938883 -0.0043498874317691475 0 -0.0013277849129523177 -0.0044392000528975899 0 -0.0012927385384404503 -0.0040411382590759626 0 -0.001212315324796358 -0.004078802331275006 0 -0.0012982213285097567 -0.0039951466264252561 0 -0.0011928769883661021 -0.0044943292875573347 0 -0.0010413369114274059 -0.004659164397245107 0 -0.0010941270292802786 -0.0047126188533890426 0 -0.0007285817538315966 -0.0047892732196016556 0 -0.00071462077285079553 -0.0047271122471347028 0 -0.00068168542047090225 -0.0048334888352842024 0 -0.0013277849129523177 -0.0044392000528975899 0 -0.0013055449751740768 -0.0049449992585211076 0 -0.0012927385384404503 -0.0040411382590759626 0 -0.001212315324796358 -0.004078802331275006 0 -0.0012971314195605451 -0.0040768378376297466 0 -0.00090990551374284159 -0.0042665990071045993 0 -0.001346738158018046 -0.0040519368651505648 0 -0.0012055295820043068 -0.0040967699209862509 0 -0.001212315324796358 -0.004078802331275006 0 -0.0012971314195605451 -0.0040768378376297466 0 -0.0011901228337781197 -0.0040628805563879067 0 -0.0012382969300043154 -0.0040956566487912243 0 -0.0012875707083439196 -0.0040479395454852459 0 -0.0011797022707040353 -0.0040909328848491092 0 -0.0011901228337781197 -0.0040628805563879067 0 -0.0012382969300043154 -0.0040956566487912243 0 -0.0012892504383916902 -0.0041075061012061619 0 -0.0012382969300043154 -0.0040956566487912243 0 -0.0012875707083439196 -0.0040479395454852459 0 -0.0013431906078624218 -0.0040892898382188106 0 -0.0012875707083439196 -0.0040479395454852459 0 -0.0013707382396044175 -0.004045846914679632 0 -0.0012971314195605451 -0.0040768378376297466 0 -0.0013707382396044175 -0.004045846914679632 0 -0.0013298006600159513 -0.004039049559881526 0 -0.001346738158018046 -0.0040519368651505648 0 -0.0013411074373134105 -0.0040520021526586868 0 -0.0012892504383916902 -0.0041075061012061619 0 -0.0013431906078624218 -0.0040892898382188106 0 -0.0012875707083439196 -0.0040479395454852459 0 -0.0012927385384404503 -0.0040411382590759626 0 -0.0012971314195605451 -0.0040768378376297466 0 -0.0013298006600159513 -0.004039049559881526 0 -0.0013936400221247027 -0.0041166632166330123 0 -0.0014535592797456688 -0.0040462185633902735 0 -0.0013987467669244475 -0.0039737379231059577 0 -0.0013936400221247027 -0.0041166632166330123 0 -0.0013707382396044175 -0.004045846914679632 0 -0.0013762595646110163 -0.0040289255566614852 0 -0.0013760454713862102 -0.0040858712742287357 0 -0.001478359846995229 -0.0040624250066250553 0 -0.0013936400221247027 -0.0041166632166330123 0 -0.0013431906078624218 -0.0040892898382188106 0 -0.0013707382396044175 -0.004045846914679632 0 -0.0014535592797456688 -0.0040462185633902735 0 -0.0013987467669244475 -0.0039737379231059577 0 -0.0014848738684262541 -0.0039919670785241394 0 -0.0018545223217435321 -0.0048876263973840761 0 -0.0019661074870809081 -0.0044787790990844867 0 -0.0017888981671638124 -0.0045670661913886756 0 -0.0017881687959792312 -0.0045401625709005173 0 -0.0018463497554465293 -0.0045762562311247599 0 -0.0015843474947449246 -0.0043478398371141818 0 -0.0019661074870809081 -0.0044787790990844867 0 -0.0017025647796948455 -0.0041517867869290213 0 -0.0016208500049280051 -0.0040920244247706523 0 -0.0017908095809576936 -0.0041227903489045904 0 -0.001478359846995229 -0.0040624250066250553 0 -0.0015888046162155153 -0.0040801997374266446 0 -0.0017025647796948455 -0.0041517867869290213 0 -0.0016232381586376238 -0.0041884978592423008 0 -0.0017753513390101532 -0.0042038162133843466 0 -0.001478359846995229 -0.0040624250066250553 0 -0.0015843474947449246 -0.0043478398371141818 0 -0.0017025647796948455 -0.0041517867869290213 0 -0.0016232381586376238 -0.0041884978592423008 0 -0.0016208500049280051 -0.0040920244247706523 0 -0.0013763571473634374 -0.0040333069055856026 0 -0.0013754595332999581 -0.0039992224538790292 0 -0.0013584805611085242 -0.0040309578048242567 0 -0.001478359846995229 -0.0040624250066250553 0 -0.0014104246521120588 -0.0040509534604912956 0 -0.0013707382396044175 -0.004045846914679632 0 -0.0013762595646110163 -0.0040289255566614852 0 -0.0013584805611085242 -0.0040309578048242567 0 -0.0012927385384404503 -0.0040411382590759626 0 -0.0013158491222818453 -0.0040133648122641728 0 -0.0012982213285097567 -0.0039951466264252561 0 -0.0012927385384404503 -0.0040411382590759626 0 -0.0013298006600159513 -0.004039049559881526 0 -0.0013158491222818453 -0.0040133648122641728 0 -0.0013298006600159513 -0.004039049559881526 0 -0.0013375527075687196 -0.0040248494775485177 0 -0.0013158491222818453 -0.0040133648122641728 0 -0.0013707382396044175 -0.004045846914679632 0 -0.0013298006600159513 -0.004039049559881526 0 -0.0013584805611085242 -0.0040309578048242567 0 -0.0013298006600159513 -0.004039049559881526 0 -0.0013584805611085242 -0.0040309578048242567 0 -0.0013375527075687196 -0.0040248494775485177 0 -0.0013375527075687196 -0.0040248494775485177 0 -0.0013410866168991138 -0.0040113909683577751 0 -0.0013158491222818453 -0.0040133648122641728 0 -0.0013584805611085242 -0.0040309578048242567 0 -0.0013375527075687196 -0.0040248494775485177 0 -0.0013410866168991138 -0.0040113909683577751 0 -0.0013754595332999581 -0.0039992224538790292 0 -0.0013584805611085242 -0.0040309578048242567 0 -0.0013410866168991138 -0.0040113909683577751 0 -0.0015929042232560647 -0.0047310953430865499 0 -0.0017209301001477341 -0.0047562993646475642 0 -0.0016355012958560705 -0.004775784351177528 0 -0.0013754595332999581 -0.0039992224538790292 0 -0.0013410866168991138 -0.0040113909683577751 0 -0.0013172310711360301 -0.0039889585289446822 0 -0.0015843474947449246 -0.0043478398371141818 0 -0.001469415883435363 -0.0047046198144510077 0 -0.0013668142419220974 -0.00476925628692645 0 -0.0013533434906295859 -0.0047830787015078818 0 -0.0013326601260195015 -0.0047636684135647055 0 -0.0013410866168991138 -0.0040113909683577751 0 -0.0013172310711360301 -0.0039889585289446822 0 -0.0013158491222818453 -0.0040133648122641728 0 -0.0013172310711360301 -0.0039889585289446822 0 -0.0013158491222818453 -0.0040133648122641728 0 -0.0013043677920179433 -0.0040021509593196345 0 -0.0012381533442574891 -0.0042620377959184602 0 -0.0013277849129523177 -0.0044392000528975899 0 -0.001469415883435363 -0.0047046198144510077 0 -0.0013277849129523177 -0.0044392000528975899 0 -0.0016182009005635991 -0.0052115581576049853 0 -0.0016276761723753553 -0.0052269785998612928 0 -0.0016165423898599116 -0.0052212523474223357 0 -0.0016164905536873906 -0.0052274688416431847 0 -0.0016023921148787033 -0.0052578066379384393 0 -0.0016165423898599116 -0.0052212523474223357 0 -0.0016016805609166953 -0.0052344077575502967 0 -0.0016100416318985498 -0.0052610098754580755 0 -0.0016276761723753553 -0.0052269785998612928 0 -0.0016165423898599116 -0.0052212523474223357 0 -0.0016252615194283283 -0.0052705933191551655 0 -0.0016182009005635991 -0.0052115581576049853 0 -0.0016165423898599116 -0.0052212523474223357 0 -0.0016016805609166953 -0.0052344077575502967 0 -0.0017209301001477341 -0.0047562993646475642 0 -0.0016404118714810451 -0.0048367191685215732 0 -0.0016300275800958019 -0.0048553686052400314 0 -0.001469415883435363 -0.0047046198144510077 0 -0.0017365484684498925 -0.0050864086242809357 0 -0.0017209301001477341 -0.0047562993646475642 0 -0.0016607283713569883 -0.0048000890214200303 0 -0.0016404118714810451 -0.0048367191685215732 0 -0.0017209301001477341 -0.0047562993646475642 0 -0.0016355012958560705 -0.004775784351177528 0 -0.0016607283713569883 -0.0048000890214200303 0 -0.0016294336093268219 -0.0048043924102360155 0 -0.0016607283713569883 -0.0048000890214200303 0 -0.0016403801977147353 -0.0048356831490444455 0 -0.0017477647825463708 -0.0049099561278104879 0 -0.0017505420980954704 -0.004972617341435664 0 -0.0016355012958560705 -0.004775784351177528 0 -0.0016294336093268219 -0.0048043924102360155 0 -0.0016607283713569883 -0.0048000890214200303 0 -0.0017505420980954704 -0.004972617341435664 0 -0.0017365484684498925 -0.0050864086242809357 0 -0.0021804717100541039 -0.0050766796492475175 0 -0.0021130127599934294 -0.0050467833408478126 0 -0.0020456375758975136 -0.0051148749657706008 0 -0.002178230298047347 -0.005008683904845334 0 -0.0020625240969717067 -0.0049265050813112532 0 -0.0020919964087779712 -0.0050014426601427756 0 -0.002178230298047347 -0.005008683904845334 0 -0.0021130127599934294 -0.0050467833408478126 0 -0.0020919964087779712 -0.0050014426601427756 0 -0.0015929042232560647 -0.0047310953430865499 0 -0.0016355012958560705 -0.004775784351177528 0 -0.0015952547321052063 -0.0048043461005172075 0 -0.0015843474947449246 -0.0043478398371141818 0 -0.0018545223217435321 -0.0048876263973840761 0 -0.0017505420980954704 -0.004972617341435664 0 -0.0018545223217435321 -0.0048876263973840761 0 -0.0016294336093268219 -0.0048043924102360155 0 -0.0016403801977147353 -0.0048356831490444455 0 -0.0015952547321052063 -0.0048043461005172075 0 -0.0016355012958560705 -0.004775784351177528 0 -0.0016294336093268219 -0.0048043924102360155 0 -0.0015952547321052063 -0.0048043461005172075 0 -0.002178230298047347 -0.005008683904845334 0 -0.0021804717100541039 -0.0050766796492475175 0 -0.0021130127599934294 -0.0050467833408478126 0 -0.001864990624877523 -0.0050245314596114787 0 -0.001822296168697506 -0.0049634315885721328 0 -0.0018251826720942247 -0.0050666902647928469 0 -0.0018545223217435321 -0.0048876263973840761 0 -0.0018825555406411943 -0.0051371646825229102 0 -0.0018780273321105339 -0.0050019133688545096 0 -0.001864990624877523 -0.0050245314596114787 0 -0.001822296168697506 -0.0049634315885721328 0 -0.0018030035388837105 -0.0051312211485064823 0 -0.0017851043732451605 -0.0051513022981175246 0 -0.0017856711397633688 -0.0051634532857420335 0 -0.0017365484684498925 -0.0050864086242809357 0 -0.0018157000295561121 -0.0052903822326004621 0 -0.0017365484684498925 -0.0050864086242809357 0 -0.0018825555406411943 -0.0051371646825229102 0 -0.0015956127937331547 -0.0052468663870048659 0 -0.0016100416318985498 -0.0052610098754580755 0 -0.0015992767896587713 -0.0053031027941304616 0 -0.0021804717100541039 -0.0050766796492475175 0 -0.0020456375758975136 -0.0051148749657706008 0 -0.0020723314511917543 -0.0051941891759811959 0 -0.0018157000295561121 -0.0052903822326004621 0 -0.0019424347860411142 -0.0053370659754593801 0 -0.0018825555406411943 -0.0051371646825229102 0 -0.002040574245752538 -0.0052329988458448152 0 -0.0019546811890514149 -0.005297021033664074 0 -0.0019548010758588018 -0.0052950880008578961 0 -0.0019710905184615142 -0.0052840297297380304 0 -0.0019548010758588018 -0.0052950880008578961 0 -0.0019710905184615142 -0.0052840297297380304 0 -0.0019702727190181626 -0.0052752091405991186 0 -0.0018825555406411943 -0.0051371646825229102 0 -0.0018157000295561121 -0.0052903822326004621 0 -0.0016165423898599116 -0.0052212523474223357 0 -0.0016252615194283283 -0.0052705933191551655 0 -0.0016037502227821904 -0.0052695590555054553 0 -0.0016016805609166953 -0.0052344077575502967 0 -0.0015956127937331547 -0.0052468663870048659 0 -0.0016100416318985498 -0.0052610098754580755 0 -0.0015497484821711046 -0.0056217914086316798 0 -0.0013447066304643092 -0.0056777890070571465 0 -0.0014327765856098447 -0.0054687946288248203 0 -0.0011046863458806842 -0.0055180392730547869 0 -0.00092248562647913974 -0.0053142046228145719 0 -0.00067686637263082315 -0.0050421886252035534 0 -0.0011669717982120934 -0.0051493547773606976 0 -0.0007285817538315966 -0.0047892732196016556 0 -0.00075711775449476004 -0.0048416962218590766 0 -0.00068168542047090225 -0.0048334888352842024 0 -0.00079618379617823977 -0.0052339075190096741 0 -0.00077325804066171746 -0.0053305938070038316 0 -0.00091565436912866439 -0.0053451469587777111 0 -0.00077325804066171746 -0.0053305938070038316 0 -0.00069213757674907905 -0.0052333335572135146 0 -0.0007268948896246455 -0.0053216011732806394 0 -0.00079618379617823977 -0.0052339075190096741 0 -0.00077325804066171746 -0.0053305938070038316 0 -0.00069213757674907905 -0.0052333335572135146 0 -0.00067686637263082315 -0.0050421886252035534 0 -0.00062355517760270796 -0.0049845559475861874 0 -0.0015497484821711046 -0.0056217914086316798 0 -0.0013447066304643092 -0.0056777890070571465 0 -0.0014753750917820489 -0.0058004985297810483 0 -0.0016153120695462059 -0.0054995281426421429 0 -0.0011669717982120934 -0.0051493547773606976 0 -0.0016276761723753553 -0.0052269785998612928 0 -0.0016252615194283283 -0.0052705933191551655 0 -0.0016411606843328864 -0.0052185961922012703 0 -0.001469415883435363 -0.0047046198144510077 0 -0.0013055449751740768 -0.0049449992585211076 0 -0.0016182009005635991 -0.0052115581576049853 0 -0.0016276761723753553 -0.0052269785998612928 0 -0.0016370620940600643 -0.0052146201239135484 0 -0.0013055449751740768 -0.0049449992585211076 0 -0.0011669717982120934 -0.0051493547773606976 0 -0.0016276761723753553 -0.0052269785998612928 0 -0.0016370620940600643 -0.0052146201239135484 0 -0.0016411606843328864 -0.0052185961922012703 0 -0.0011046863458806842 -0.0055180392730547869 0 -0.0011669717982120934 -0.0051493547773606976 0 -0.003543780818536112 -0.0032327850338807027 0 -0.0034825163487276021 -0.0032322772135408022 0 -0.0035175955414032366 -0.0031928243837826675 0 -0.0027972285954167989 -0.004553897761163348 0 -0.0027044324969382702 -0.0043469093557022597 0 -0.0029727327897486624 -0.0043464840495187002 0 -0.0031975491813934099 -0.0036178695968306883 0 -0.0030437026447878044 -0.0045020599764965131 0 -0.0036152176905167141 -0.0031878708544013437 0 -0.0032054805022483702 -0.0034355564814960954 0 -0.0035307034951672454 -0.0032577875924924295 0 -0.0034766335077366772 -0.003196258920570147 0 -0.0034545715709071341 -0.0032192167957914076 0 -0.0035332641879318874 -0.0032041191478315006 0 -0.0034663919299642749 -0.0031812796741314659 0 -0.0034502848037318615 -0.0032005981695694252 0 -0.003592717574509444 -0.0031905090170988087 0 -0.0031975491813934099 -0.0036178695968306883 0 -0.0035518474921738784 -0.003196063761295163 0 -0.0035332641879318874 -0.0032041191478315006 0 -0.0034663919299642749 -0.0031812796741314659 0 -0.0035332641879318874 -0.0032041191478315006 0 -0.0035307034951672454 -0.0032577875924924295 0 -0.0034766335077366772 -0.003196258920570147 0 -0.0032054805022483702 -0.0034355564814960954 0 -0.0020762190999994456 -0.0038440814312501546 0 -0.0030112210093880495 -0.0035033046720456939 0 -0.0028022126999206021 -0.0037526598198137345 0 -0.0022978825049413693 -0.0034295083874075357 0 -0.0031975491813934099 -0.0036178695968306883 0 -0.0032054805022483702 -0.0034355564814960954 0 -0.0032054805022483702 -0.0034355564814960954 0 -0.002857736016942202 -0.0032387560875406667 0 -0.0031566128216939876 -0.0038253862732977066 0 -0.0030309341826028811 -0.0039757472073140088 0 -0.0022431169017080878 -0.0036573724716358609 0 -0.0027972285954167989 -0.004553897761163348 0 -0.0024124826019055901 -0.0044856531899863062 0 -0.0027044324969382702 -0.0043469093557022597 0 -0.0031975491813934099 -0.0036178695968306883 0 -0.0021869606496807688 -0.0043795597727550465 0 -0.0030309341826028811 -0.0039757472073140088 0 -0.0022431169017080878 -0.0036573724716358609 0 -0.002205496080234948 -0.0038903377477797871 0 -0.0024124826019055901 -0.0044856531899863062 0 -0.0024344975259233191 -0.0043489770636884161 0 -0.0027044324969382702 -0.0043469093557022597 0 -0.0021869606496807688 -0.0043795597727550465 0 -0.0022672059312741494 -0.0050341679546787926 0 -0.0019636900567804256 -0.0049060787761419618 0 -0.0019899574327107371 -0.004976157529958866 0 -0.0019529403696179975 -0.0049755797194413441 0 -0.0021869606496807688 -0.0043795597727550465 0 -0.0020762190999994456 -0.0038440814312501546 0 -0.0022422924960803017 -0.0035351663884606189 0 -0.0023178917224143882 -0.0034701732596683788 0 -0.0022666957217096668 -0.0034331721348151308 0 -0.001863148526944644 -0.0038041790472917356 0 -0.0020762190999994456 -0.0038440814312501546 0 -0.0023522359733803297 -0.0034837254818716997 0 -0.0023178917224143882 -0.0034701732596683788 0 -0.0022666957217096668 -0.0034331721348151308 0 -0.002857736016942202 -0.0032387560875406667 0 -0.0020762190999994456 -0.0038440814312501546 0 -0.0015105457473893048 -0.0040531021641789147 0 -0.0015407446939024092 -0.0040112981615510971 0 -0.0015069682962859533 -0.0040520643520848389 0 -0.0015407446939024092 -0.0040112981615510971 0 -0.0015069682962859533 -0.0040520643520848389 0 -0.0014848738684262541 -0.0039919670785241394 0 -0.0020762190999994456 -0.0038440814312501546 0 -0.0015888046162155153 -0.0040801997374266446 0 -0.0014735803998492543 -0.0041060480051142564 0 -0.0014535592797456688 -0.0040462185633902735 0 -0.0015069682962859533 -0.0040520643520848389 0 -0.0014535592797456688 -0.0040462185633902735 0 -0.0015069682962859533 -0.0040520643520848389 0 -0.0014848738684262541 -0.0039919670785241394 0 -0.0017025647796948455 -0.0041517867869290213 0 -0.0017753513390101532 -0.0042038162133843466 0 -0.0017908095809576936 -0.0041227903489045904 0 -0.0019282208021307273 -0.0042170345061798052 0 -0.0017753513390101532 -0.0042038162133843466 0 -0.0017908095809576936 -0.0041227903489045904 0 -0.0020706012723793062 -0.0042667259802217422 0 -0.0020720450991858468 -0.0042569461466797024 0 -0.0020879903317519285 -0.0042721560477275858 0 -0.0020762190999994456 -0.0038440814312501546 0 -0.0019661074870809081 -0.0044787790990844867 0 -0.0021869606496807688 -0.0043795597727550465 0 -0.0019661074870809081 -0.0044787790990844867 0 -0.0019636900567804256 -0.0049060787761419618 0 -0.0020625240969717067 -0.0049265050813112532 0 -0.0019899574327107371 -0.004976157529958866 0 -0.0020625240969717067 -0.0049265050813112532 0 -0.0020486360404544219 -0.0049888179872302875 0 -0.0019899574327107371 -0.004976157529958866 0 -0.0020625240969717067 -0.0049265050813112532 0 -0.0020919964087779712 -0.0050014426601427756 0 -0.0020486360404544219 -0.0049888179872302875 0 -0.0020919964087779712 -0.0050014426601427756 0 -0.0020486360404544219 -0.0049888179872302875 0 -0.002057385408220327 -0.0050365484071478017 0 -0.0020486360404544219 -0.0049888179872302875 0 -0.0020106992127969588 -0.0050087972146599666 0 -0.0019899574327107371 -0.004976157529958866 0 -0.0020486360404544219 -0.0049888179872302875 0 -0.0020106992127969588 -0.0050087972146599666 0 -0.002057385408220327 -0.0050365484071478017 0 -0.0019988485644557514 -0.0050561382573060349 0 -0.002057385408220327 -0.0050365484071478017 0 -0.0020456375758975136 -0.0051148749657706008 0 -0.0020106992127969588 -0.0050087972146599666 0 -0.0019988485644557514 -0.0050561382573060349 0 -0.002057385408220327 -0.0050365484071478017 0 -0.0021130127599934294 -0.0050467833408478126 0 -0.0020919964087779712 -0.0050014426601427756 0 -0.002057385408220327 -0.0050365484071478017 0 -0.0021130127599934294 -0.0050467833408478126 0 -0.002057385408220327 -0.0050365484071478017 0 -0.0020456375758975136 -0.0051148749657706008 0 -0.0020456375758975136 -0.0051148749657706008 0 -0.0019467684355293652 -0.005204665353797819 0 -0.0020723314511917543 -0.0051941891759811959 0 -0.0021598286720826724 -0.0056045148285348992 0 -0.0021859386319998939 -0.0054665877481972274 0 -0.0021469789502763172 -0.0055052406568204936 0 -0.0020456375758975136 -0.0051148749657706008 0 -0.0019314077002192702 -0.0050981312038782256 0 -0.0019467684355293652 -0.005204665353797819 0 -0.002235537531162915 -0.0055922437860038169 0 -0.0022824856230940333 -0.0055422789801725641 0 -0.002238063131341094 -0.0054627539273941952 0 -0.002121868566226261 -0.0054768384965375033 0 -0.0022145944489709696 -0.0054820153959047923 0 -0.0019988485644557514 -0.0050561382573060349 0 -0.0020456375758975136 -0.0051148749657706008 0 -0.0019314077002192702 -0.0050981312038782256 0 -0.002121868566226261 -0.0054768384965375033 0 -0.0020451438890440022 -0.0053382797165640004 0 -0.002235537531162915 -0.0055922437860038169 0 -0.0022712153307864039 -0.0055952473517593849 0 -0.0022824856230940333 -0.0055422789801725641 0 -0.002235537531162915 -0.0055922437860038169 0 -0.0022712153307864039 -0.0055952473517593849 0 -0.0022386753661620207 -0.0056072584893678027 0 -0.002121868566226261 -0.0054768384965375033 0 -0.0021343554926014359 -0.0055120632147300464 0 -0.0019988485644557514 -0.0050561382573060349 0 -0.0019314077002192702 -0.0050981312038782256 0 -0.0019511855061119072 -0.0049769583802709953 0 -0.0022361221430613593 -0.0055910246176873093 0 -0.0022386753661620207 -0.0056072584893678027 0 -0.0022208223689431073 -0.005690825552616823 0 -0.0022386753661620207 -0.0056072584893678027 0 -0.0022208223689431073 -0.005690825552616823 0 -0.0022936431809921134 -0.0056392388020990733 0 -0.0022712153307864039 -0.0055952473517593849 0 -0.0022386753661620207 -0.0056072584893678027 0 -0.0022936431809921134 -0.0056392388020990733 0 -0.002121868566226261 -0.0054768384965375033 0 -0.0022672059312741494 -0.0050341679546787926 0 -0.0020106992127969588 -0.0050087972146599666 0 -0.0019988485644557514 -0.0050561382573060349 0 -0.0019511855061119072 -0.0049769583802709953 0 -0.0020106992127969588 -0.0050087972146599666 0 -0.0019899574327107371 -0.004976157529958866 0 -0.0019511855061119072 -0.0049769583802709953 0 -0.0020678867474291222 -0.0050189398978323207 0 -0.0022672059312741494 -0.0050341679546787926 0 -0.0022208223689431073 -0.005690825552616823 0 -0.0023416088207101494 -0.0056953801418363013 0 -0.0022936431809921134 -0.0056392388020990733 0 -0.0022672059312741494 -0.0050341679546787926 0 -0.0024757816992544814 -0.0050391575885412997 0 -0.0022936431809921134 -0.0056392388020990733 0 -0.0023160273251679616 -0.0055910697424094357 0 -0.0023797838001456415 -0.0056216524563182432 0 -0.0023416088207101494 -0.0056953801418363013 0 -0.0022936431809921134 -0.0056392388020990733 0 -0.0023797838001456415 -0.0056216524563182432 0 -0.0022712153307864039 -0.0055952473517593849 0 -0.0022936431809921134 -0.0056392388020990733 0 -0.0023160273251679616 -0.0055910697424094357 0 -0.0022712153307864039 -0.0055952473517593849 0 -0.0023160273251679616 -0.0055910697424094357 0 -0.0022824856230940333 -0.0055422789801725641 0 -0.0023160273251679616 -0.0055910697424094357 0 -0.0022824856230940333 -0.0055422789801725641 0 -0.0023677264781769955 -0.0055476864520596098 0 -0.0022824856230940333 -0.0055422789801725641 0 -0.0023677264781769955 -0.0055476864520596098 0 -0.0023195324540479247 -0.0054852933023750777 0 -0.0023160273251679616 -0.0055910697424094357 0 -0.0023677264781769955 -0.0055476864520596098 0 -0.0023797838001456415 -0.0056216524563182432 0 -0.0023677264781769955 -0.0055476864520596098 0 -0.0024689812115301097 -0.0055470483977432539 0 -0.0023797838001456415 -0.0056216524563182432 0 -0.0023677264781769955 -0.0055476864520596098 0 -0.0024689812115301097 -0.0055470483977432539 0 -0.002403701185524756 -0.0054876574307712728 0 -0.0024689812115301097 -0.0055470483977432539 0 -0.0023797838001456415 -0.0056216524563182432 0 -0.0024703435429441617 -0.0056941478291572525 0 -0.0024757816992544814 -0.0050391575885412997 0 -0.0030437026447878044 -0.0045020599764965131 0 -0.0023416088207101494 -0.0056953801418363013 0 -0.0023797838001456415 -0.0056216524563182432 0 -0.0024703435429441617 -0.0056941478291572525 0 -0.0024504648122124317 -0.0053246171569276612 0 -0.0024829129725522812 -0.0054520370032187975 0 -0.0023596349312311384 -0.0054011013373926166 0 -0.0024504648122124317 -0.0053246171569276612 0 -0.0023596349312311384 -0.0054011013373926166 0 -0.0023348103471535525 -0.005280255887479289 0 -0.0024829129725522812 -0.0054520370032187975 0 -0.002403701185524756 -0.0054876574307712728 0 -0.0023596349312311384 -0.0054011013373926166 0 -0.0024689812115301097 -0.0055470483977432539 0 -0.0024829129725522812 -0.0054520370032187975 0 -0.002403701185524756 -0.0054876574307712728 0 -0.002403701185524756 -0.0054876574307712728 0 -0.0023195324540479247 -0.0054852933023750777 0 -0.0023596349312311384 -0.0054011013373926166 0 -0.0023195324540479247 -0.0054852933023750777 0 -0.0022857095385115317 -0.0054146753283295067 0 -0.0023596349312311384 -0.0054011013373926166 0 -0.0023677264781769955 -0.0055476864520596098 0 -0.002403701185524756 -0.0054876574307712728 0 -0.0023195324540479247 -0.0054852933023750777 0 -0.0022824856230940333 -0.0055422789801725641 0 -0.0023195324540479247 -0.0054852933023750777 0 -0.002238063131341094 -0.0054627539273941952 0 -0.0023195324540479247 -0.0054852933023750777 0 -0.0022857095385115317 -0.0054146753283295067 0 -0.002238063131341094 -0.0054627539273941952 0 -0.0022857095385115317 -0.0054146753283295067 0 -0.0023596349312311384 -0.0054011013373926166 0 -0.0022232310496426854 -0.0053005724685404312 0 -0.0022857095385115317 -0.0054146753283295067 0 -0.0022232310496426854 -0.0053005724685404312 0 -0.002238063131341094 -0.0054627539273941952 0 -0.0023596349312311384 -0.0054011013373926166 0 -0.0022232310496426854 -0.0053005724685404312 0 -0.0023348103471535525 -0.005280255887479289 0 -0.0022232310496426854 -0.0053005724685404312 0 -0.0021257583655566042 -0.0053951424004190073 0 -0.0020916624398953304 -0.0052346946192259498 0 -0.0022232310496426854 -0.0053005724685404312 0 -0.0021608617908793308 -0.0054133839413196159 0 -0.0021859386319998939 -0.0054665877481972274 0 -0.002225841303287283 -0.0053025287888429666 0 -0.0022145944489709696 -0.0054820153959047923 0 -0.0020213719585186287 -0.0053282713360677776 0 -0.002035714836709343 -0.0052261261049430458 0 -0.0022232310496426854 -0.0053005724685404312 0 -0.0021257583655566042 -0.0053951424004190073 0 -0.0021608617908793308 -0.0054133839413196159 0 -0.0021608617908793308 -0.0054133839413196159 0 -0.0021859386319998939 -0.0054665877481972274 0 -0.0021469789502763172 -0.0055052406568204936 0 -0.0021257583655566042 -0.0053951424004190073 0 -0.0021608617908793308 -0.0054133839413196159 0 -0.0021469789502763172 -0.0055052406568204936 0 -0.0020213719585186287 -0.0053282713360677776 0 -0.0020451438890440022 -0.0053382797165640004 0 -0.0020213719585186287 -0.0053282713360677776 0 -0.002040574245752538 -0.0052329988458448152 0 -0.0019625856925281192 -0.0053112353163892708 0 -0.0019467684355293652 -0.005204665353797819 0 -0.0020723314511917543 -0.0051941891759811959 0 -0.0019862272444813259 -0.0052702887321570968 0 -0.0019710905184615142 -0.0052840297297380304 0 -0.0019702727190181626 -0.0052752091405991186 0 -0.001908790226779485 -0.0053601210067259729 0 -0.0019206994633138707 -0.0052346824158912893 0 -0.0018793074468449009 -0.005283621012897261 0 -0.001908790226779485 -0.0053601210067259729 0 -0.0019206994633138707 -0.0052346824158912893 0 -0.0020177054876024682 -0.005199957623100976 0 -0.0019424347860411142 -0.0053370659754593801 0 -0.002035714836709343 -0.0052261261049430458 0 -0.0019862272444813259 -0.0052702887321570968 0 -0.0019702727190181626 -0.0052752091405991186 0 -0.00198418761181713 -0.0052533391061484469 0 -0.0019206994633138707 -0.0052346824158912893 0 -0.0019392083746048745 -0.0051217426591369068 0 -0.0018566266515919663 -0.0051937566669790283 0 -0.0019206994633138707 -0.0052346824158912893 0 -0.0019392083746048745 -0.0051217426591369068 0 -0.0020177054876024682 -0.005199957623100976 0 -0.0019392083746048745 -0.0051217426591369068 0 -0.0018952712709066205 -0.0049999965030150702 0 -0.0018566266515919663 -0.0051937566669790283 0 -0.0019392083746048745 -0.0051217426591369068 0 -0.0020101060933169598 -0.0050000000189292055 0 -0.0020177054876024682 -0.005199957623100976 0 -0.0020101815500367655 -0.0050000427889289384 0 -0.002035714836709343 -0.0052261261049430458 0 -0.0019392083746048745 -0.0051217426591369068 0 -0.0018952712709066205 -0.0049999965030150702 0 -0.0020101060933169598 -0.0050000000189292055 0 -0.0020101948772989634 -0.0049999867655363293 0 -0.0021506654869921345 -0.0050946997970197734 0 -0.0022600025048253917 -0.0050000026257587477 0 -0.0020101948772989634 -0.0049999867655363293 0 -0.0021506654869921345 -0.0050946997970197734 0 -0.0020546897565447242 -0.0052591033540441605 0 -0.0022232310496426854 -0.0053005724685404312 0 -0.0020916624398953304 -0.0052346946192259498 0 -0.0022452215047804496 -0.0051870381906748688 0 -0.0021506654869921345 -0.0050946997970197734 0 -0.0020916624398953304 -0.0052346946192259498 0 -0.0022452215047804496 -0.0051870381906748688 0 -0.0021471232902348487 -0.0051099375061841226 0 -0.002035714836709343 -0.0052261261049430458 0 -0.0023348103471535525 -0.005280255887479289 0 -0.0022452215047804496 -0.0051870381906748688 0 -0.002394512235674346 -0.0051775146673496211 0 -0.0022232310496426854 -0.0053005724685404312 0 -0.0023348103471535525 -0.005280255887479289 0 -0.0022452215047804496 -0.0051870381906748688 0 -0.0022452215047804496 -0.0051870381906748688 0 -0.0022600025048253917 -0.0050000026257587477 0 -0.002394512235674346 -0.0051775146673496211 0 -0.0021506654869921345 -0.0050946997970197734 0 -0.0022452215047804496 -0.0051870381906748688 0 -0.0022600025048253917 -0.0050000026257587477 0 -0.0025097720380393451 -0.004999992853541759 0 -0.0022600025048253917 -0.0050000026257587477 0 -0.002394512235674346 -0.0051775146673496211 0 -0.0025593352420267318 -0.0052327908463384188 0 -0.0025097720380393451 -0.004999992853541759 0 -0.002394512235674346 -0.0051775146673496211 0 -0.0025593352420267318 -0.0052327908463384188 0 -0.0024504648122124317 -0.0053246171569276612 0 -0.002394512235674346 -0.0051775146673496211 0 -0.0024504648122124317 -0.0053246171569276612 0 -0.0023348103471535525 -0.005280255887479289 0 -0.002394512235674346 -0.0051775146673496211 0 -0.0014327765856098447 -0.0054687946288248203 0 -0.0015782929849060226 -0.0053138834745635475 0 -0.0014374126392601104 -0.0052699293859070758 0 -0.0012587221305036997 -0.0054017823110461081 0 -0.0014327765856098447 -0.0054687946288248203 0 -0.0014374126392601104 -0.0052699293859070758 0 -0.0012587221305036997 -0.0054017823110461081 0 -0.0014374126392601104 -0.0052699293859070758 0 -0.0012293182563405116 -0.0052457171279738013 0 -0.0013447066304643092 -0.0056777890070571465 0 -0.0014327765856098447 -0.0054687946288248203 0 -0.0012037713732715742 -0.00554706848129842 0 -0.0012587221305036997 -0.0054017823110461081 0 -0.0014327765856098447 -0.0054687946288248203 0 -0.0012037713732715742 -0.00554706848129842 0 -0.0015497484821711046 -0.0056217914086316798 0 -0.0014327765856098447 -0.0054687946288248203 0 -0.001632547572908864 -0.0054336420282027377 0 -0.0016153120695462059 -0.0054995281426421429 0 -0.001616486223393971 -0.005370123689109418 0 -0.0016037502227821904 -0.0052695590555054553 0 -0.0015950555730835374 -0.0053094699978164491 0 -0.0016099857995166536 -0.0053134696487125458 0 -0.0016252615194283283 -0.0052705933191551655 0 -0.0016037502227821904 -0.0052695590555054553 0 -0.0016099857995166536 -0.0053134696487125458 0 -0.0016023921148787033 -0.0052578066379384393 0 -0.0016848820447279513 -0.0053588637943810438 0 -0.0018157000295561121 -0.0052903822326004621 0 -0.0016848820447279513 -0.0053588637943810438 0 -0.0018223858956204922 -0.0054989371511321118 0 -0.001908790226779485 -0.0053601210067259729 0 -0.0018172215746444442 -0.0053471910661723136 0 -0.0016848820447279513 -0.0053588637943810438 0 -0.0018478569896789887 -0.0052137450835267772 0 -0.0017469986393992664 -0.0054456506564333727 0 -0.0018168164860132574 -0.0052329528886158102 0 -0.0017422221794211124 -0.005231185576825545 0 -0.0018172215746444442 -0.0053471910661723136 0 -0.0018793074468449009 -0.005283621012897261 0 -0.0018566266515919663 -0.0051937566669790283 0 -0.0016848820447279513 -0.0053588637943810438 0 -0.0016941431234788896 -0.0052613234012744243 0 -0.001908790226779485 -0.0053601210067259729 0 -0.0018172215746444442 -0.0053471910661723136 0 -0.0018793074468449009 -0.005283621012897261 0 -0.0019206994633138707 -0.0052346824158912893 0 -0.0018793074468449009 -0.005283621012897261 0 -0.0018566266515919663 -0.0051937566669790283 0 -0.001616486223393971 -0.005370123689109418 0 -0.0016941431234788896 -0.0052613234012744243 0 -0.0014327765856098447 -0.0054687946288248203 0 -0.001632547572908864 -0.0054336420282027377 0 -0.0015782929849060226 -0.0053138834745635475 0 -0.0015950555730835374 -0.0053094699978164491 0 -0.0016099857995166536 -0.0053134696487125458 0 -0.0015990443169732146 -0.0053469385947495802 0 -0.001632547572908864 -0.0054336420282027377 0 -0.0015782929849060226 -0.0053138834745635475 0 -0.0017219544826849692 -0.005235541522416438 0 -0.0015782929849060226 -0.0053138834745635475 0 -0.0016104457612580094 -0.0051588210759525733 0 -0.0017219544826849692 -0.005235541522416438 0 -0.0016104457612580094 -0.0051588210759525733 0 -0.0017219544826849692 -0.005235541522416438 0 -0.0017286419166367337 -0.0051243362703457434 0 -0.0018168164860132574 -0.0052329528886158102 0 -0.0017422221794211124 -0.005231185576825545 0 -0.0018106000574535292 -0.0050438592237184044 0 -0.0016941431234788896 -0.0052613234012744243 0 -0.0017171152120072062 -0.0051443827250741434 0 -0.0017290054115609739 -0.0052439969439414006 0 -0.0017286419166367337 -0.0051243362703457434 0 -0.0018106000574535292 -0.0050438592237184044 0 -0.001895193447425282 -0.0050000024107047167 0 -0.0018168164860132574 -0.0052329528886158102 0 -0.0018106000574535292 -0.0050438592237184044 0 -0.0018907578089308245 -0.0050102827780276089 0 -0.0018478569896789887 -0.0052137450835267772 0 -0.001895193447425282 -0.0050000024107047167 0 -0.0017252627349803413 -0.0049999933598053594 0 -0.0018106000574535292 -0.0050438592237184044 0 -0.0016941431234788896 -0.0052613234012744243 0 -0.0018128410798281475 -0.0050460213762130854 0 -0.0017286419166367337 -0.0051243362703457434 0 -0.0017252627349803413 -0.0049999933598053594 0 -0.0018106000574535292 -0.0050438592237184044 0 -0.0016104457612580094 -0.0051588210759525733 0 -0.0017286419166367337 -0.0051243362703457434 0 -0.0017252627349803413 -0.0049999933598053594 0 -0.0016104457612580094 -0.0051588210759525733 0 -0.0017252627349803413 -0.0049999933598053594 0 -0.0014403598568680086 -0.005000001124035946 0 -0.0016104457612580094 -0.0051588210759525733 0 -0.0014403598568680086 -0.005000001124035946 0 -0.0014374126392601104 -0.0052699293859070758 0 -0.0015782929849060226 -0.0053138834745635475 0 -0.0016104457612580094 -0.0051588210759525733 0 -0.0014374126392601104 -0.0052699293859070758 0 -0.0014403598568680086 -0.005000001124035946 0 -0.0014374126392601104 -0.0052699293859070758 0 -0.0012293182563405116 -0.0052457171279738013 0 -0.0014403598568680086 -0.005000001124035946 0 -0.0011554693424209632 -0.0049999936110143809 0 -0.0012293182563405116 -0.0052457171279738013 0 -0.0011554693424209632 -0.0049999936110143809 0 -0.001014106075586479 -0.0051384685997917616 0 -0.0012293182563405116 -0.0052457171279738013 0 -0.0011554693424209632 -0.0049999936110143809 0 -0.001014106075586479 -0.0051384685997917616 0 -0.00087055552597552416 -0.00499999739781178 0 -0.001014106075586479 -0.0051384685997917616 0 -0.00088494061273472013 -0.0052921099711557085 0 -0.0010339398027097418 -0.0054390226573838929 0 -0.001014106075586479 -0.0051384685997917616 0 -0.0012293182563405116 -0.0052457171279738013 0 -0.0010339398027097418 -0.0054390226573838929 0 -0.00073549465572480004 -0.0051463314211454879 0 -0.00087055552597552416 -0.00499999739781178 0 -0.00058565117170893783 -0.0049999996945504837 0 -0.00066566288868209213 -0.0051123403489111863 0 -0.00059341651447863714 -0.0050451584919041859 0 -0.00058552425369793378 -0.0050000292450720742 0 -0.00069760093078797799 -0.0051253409705377022 0 -0.00058567388865917575 -0.005000032166350578 0 -0.001014106075586479 -0.0051384685997917616 0 -0.00073549465572480004 -0.0051463314211454879 0 -0.00087055552597552416 -0.00499999739781178 0 -0.001014106075586479 -0.0051384685997917616 0 -0.00073549465572480004 -0.0051463314211454879 0 -0.00088494061273472013 -0.0052921099711557085 0 -0.00066566288868209213 -0.0051123403489111863 0 -0.00074393318177215203 -0.0052071357363774051 0 -0.00068313333019663538 -0.0052088989300226179 0 -0.00069760093078797799 -0.0051253409705377022 0 -0.00082535079939183948 -0.0052611053928728179 0 -0.00068234057755077601 -0.0052642556659890294 0 -0.00057516957607760537 -0.0053109838780583812 0 -0.00057329744231628306 -0.005203412254136305 0 -0.00066566288868209213 -0.0051123403489111863 0 -0.00068313333019663538 -0.0052088989300226179 0 -0.00059341651447863714 -0.0050451584919041859 0 -0.0007670761297960848 -0.0052842433903971045 0 -0.00056239770983007294 -0.0050285440598795668 0 -0.00068234057755077601 -0.0052642556659890294 0 -0.00057329744231628306 -0.005203412254136305 0 -0.00059341651447863714 -0.0050451584919041859 0 -0.00068234057755077601 -0.0052642556659890294 0 -0.00057516957607760537 -0.0053109838780583812 0 -0.00062630940264416077 -0.0054181059170032271 0 -0.0007670761297960848 -0.0052842433903971045 0 -0.00032699945529431952 -0.0052370256999837907 0 -0.00074393318177215203 -0.0052071357363774051 0 -0.00068313333019663538 -0.0052088989300226179 0 -0.00076454308884022404 -0.0053344331414193445 0 -0.00068234057755077601 -0.0052642556659890294 0 -0.00078237281947056729 -0.0054434122875516681 0 -0.00062630940264416077 -0.0054181059170032271 0 -0.00078237281947056729 -0.0054434122875516681 0 -0.00062630940264416077 -0.0054181059170032271 0 -0.00067708520394685616 -0.0055470751714543597 0 -0.00032699945529431952 -0.0052370256999837907 0 -3.6774548430344388e-06 -0.0052574877335041575 0 -0.00062630940264416077 -0.0054181059170032271 0 -0.00067708520394685616 -0.0055470751714543597 0 -0.00056129406484790607 -0.0055364342781166901 0 -0.0012659807986889803 -0.0052839011488628167 0 -0.00087762141410829451 -0.0052909899722388219 0 -0.0012587221305036997 -0.0054017823110461081 0 -0.0012293182563405116 -0.0052457171279738013 0 -0.0010650516733084071 -0.0054126048571990631 0 -0.00074393318177215203 -0.0052071357363774051 0 -0.00076454308884022404 -0.0053344331414193445 0 -0.00081688006994857663 -0.0052828295594807917 0 -0.00082535079939183948 -0.0052611053928728179 0 -0.00087762141410829451 -0.0052909899722388219 0 -0.00058291029789892131 -0.0051116576751984878 0 -0.00068146120703619251 -0.005128420958597139 0 -0.00057070496042793261 -0.0051963176655886491 0 -0.00057511398050814129 -0.0050273805692329226 0 -0.00058291029789892131 -0.0051116576751984878 0 -0.00068146120703619251 -0.005128420958597139 0 -0.00032699945529431952 -0.0052370256999837907 0 -0.00087762141410829451 -0.0052909899722388219 0 -0.0005052520007637855 -0.0050949795900806201 0 -0.00057511398050814129 -0.0050273805692329226 0 -0.00058291029789892131 -0.0051116576751984878 0 -0.00032699945529431952 -0.0052370256999837907 0 4.451912363596421e-05 -0.0050142652285532314 0 -0.0005052520007637855 -0.0050949795900806201 0 -0.00058291029789892131 -0.0051116576751984878 0 -0.00057070496042793261 -0.0051963176655886491 0 -0.0012587221305036997 -0.0054017823110461081 0 -0.0010650516733084071 -0.0054126048571990631 0 -0.0012037713732715742 -0.00554706848129842 0 -0.00087762141410829451 -0.0052909899722388219 0 -0.00092248562647913974 -0.0053142046228145719 0 -0.00079618379617823977 -0.0052339075190096741 0 -0.00068146120703619251 -0.005128420958597139 0 -0.00069213757674907905 -0.0052333335572135146 0 -0.00069213757674907905 -0.0052333335572135146 0 -0.0006394271678443102 -0.0053034134789439634 0 -0.00057070496042793261 -0.0051963176655886491 0 -0.00068146120703619251 -0.005128420958597139 0 -0.00069213757674907905 -0.0052333335572135146 0 -0.00057070496042793261 -0.0051963176655886491 0 -0.00069213757674907905 -0.0052333335572135146 0 -0.0006394271678443102 -0.0053034134789439634 0 -0.0007268948896246455 -0.0053216011732806394 0 -8.0906684387399604e-05 -0.0050551804050939049 0 -0.00062355517760270796 -0.0049845559475861874 0 0.00056166039305136919 -0.0049571260252276438 0 0.00059791333827635066 -0.0049590470649655506 0 0.00058071333079245382 -0.0049970618389590347 0 0.00056166039305136919 -0.0049571260252276438 0 0.00059791333827635066 -0.0049590470649655506 0 0.00058541353772187702 -0.00493238145270354 0 0.00059791333827635066 -0.0049590470649655506 0 0.00058541353772187702 -0.00493238145270354 0 0.00060965493768244845 -0.0049382681497282671 0 0.0005994016171775551 -0.0049079326838191509 0 0.00058541353772187702 -0.00493238145270354 0 0.00060965493768244845 -0.0049382681497282671 0 -8.0906684387399604e-05 -0.0050551804050939049 0 4.451912363596421e-05 -0.0050142652285532314 0 0.00063257539003980484 -0.0049341166053184374 0 0.00060965493768244845 -0.0049382681497282671 0 0.0006203856375996044 -0.0049600584527053279 0 0.0005994016171775551 -0.0049079326838191509 0 0.00063257539003980484 -0.0049341166053184374 0 0.00060965493768244845 -0.0049382681497282671 0 -0.00067708520394685616 -0.0055470751714543597 0 -0.00056129406484790607 -0.0055364342781166901 0 -0.00056983616726590848 -0.0056469343970720742 0 -3.6774548430344388e-06 -0.0052574877335041575 0 0.00016264529734319539 -0.0051730429238552164 0 0.00063257539003980484 -0.0049341166053184374 0 0.00066027833185411194 -0.0049683210107315575 0 0.00064800228083155404 -0.0049836149352331383 0 0.00063257539003980484 -0.0049341166053184374 0 0.00064800228083155404 -0.0049836149352331383 0 0.00064165292291566028 -0.004970530614826876 0 0.00064800228083155404 -0.0049836149352331383 0 0.00064165292291566028 -0.004970530614826876 0 0.00066799444379730694 -0.0049684917653783495 0 0.00064800228083155404 -0.0049836149352331383 0 0.00060996303863109088 -0.0050016190807688774 0 0.00061617984993642615 -0.0049620639855886221 0 0.00060996303863109088 -0.0050016190807688774 0 0.00061617984993642615 -0.0049620639855886221 0 0.00056773179507935958 -0.0050103374280280758 0 0.00016264529734319539 -0.0051730429238552164 0 0.00058530223378523325 -0.0049025435829104696 0 0.00060709224859003391 -0.0050448040240419628 0 0.00064800228083155404 -0.0049836149352331383 0 0.00060996303863109088 -0.0050016190807688774 0 0.00060709224859003391 -0.0050448040240419628 0 0.00060996303863109088 -0.0050016190807688774 0 0.00056773179507935958 -0.0050103374280280758 0 0.00063257539003980484 -0.0049341166053184374 0 0.0006203856375996044 -0.0049600584527053279 0 0.00064165292291566028 -0.004970530614826876 0 0.00059791333827635066 -0.0049590470649655506 0 0.00060965493768244845 -0.0049382681497282671 0 0.0006203856375996044 -0.0049600584527053279 0 0.00059791333827635066 -0.0049590470649655506 0 0.0006203856375996044 -0.0049600584527053279 0 0.00062261196048718026 -0.0049799362739866302 0 0.0006203856375996044 -0.0049600584527053279 0 0.00064165292291566028 -0.004970530614826876 0 0.00062261196048718026 -0.0049799362739866302 0 0.00066799444379730694 -0.0049684917653783495 0 0.0006832546422340241 -0.0048552023329626517 0 0.00079523328815748822 -0.0048755027127063855 0 0.00064165292291566028 -0.004970530614826876 0 0.00062261196048718026 -0.0049799362739866302 0 0.00066799444379730694 -0.0049684917653783495 0 0.0006799990211884692 -0.0049616869547716427 0 0.00068618708368048831 -0.0049644153933929751 0 0.00062261196048718026 -0.0049799362739866302 0 0.00066799444379730694 -0.0049684917653783495 0 0.00061809795307892943 -0.0050195367317902176 0 0.00064800228083155404 -0.0049836149352331383 0 0.00061617984993642615 -0.0049620639855886221 0 0.00066799444379730694 -0.0049684917653783495 0 0.00066799444379730694 -0.0049684917653783495 0 0.00063500017295550814 -0.0048995599434306881 0 0.0006832546422340241 -0.0048552023329626517 0 0.00061617984993642615 -0.0049620639855886221 0 0.00066799444379730694 -0.0049684917653783495 0 0.00063500017295550814 -0.0048995599434306881 0 0.00061617984993642615 -0.0049620639855886221 0 0.00063500017295550814 -0.0048995599434306881 0 0.0005863876662907968 -0.0048905036884101258 0 0.00074189771212915094 -0.004764971417175308 0 0.0006832546422340241 -0.0048552023329626517 0 0.00063100518990417661 -0.0048162580991851119 0 0.00063500017295550814 -0.0048995599434306881 0 0.00063100518990417661 -0.0048162580991851119 0 0.0005863876662907968 -0.0048905036884101258 0 0.00063500017295550814 -0.0048995599434306881 0 0.0006832546422340241 -0.0048552023329626517 0 0.00063100518990417661 -0.0048162580991851119 0 0.00074189771212915094 -0.004764971417175308 0 0.0006832546422340241 -0.0048552023329626517 0 0.00079523328815748822 -0.0048755027127063855 0 0.00061809795307892943 -0.0050195367317902176 0 0.00057707094548056347 -0.0050500758071642237 0 0.00058071333079245382 -0.0049970618389590347 0 0.00068618708368048831 -0.0049644153933929751 0 0.00080915775968667361 -0.0048057517542002097 0 0.00074189771212915094 -0.004764971417175308 0 0.00079523328815748822 -0.0048755027127063855 0 0.0008931569647463454 -0.0047947329871239307 0 0.00017429061446263807 -0.0047161435419346203 0 0.00080915775968667361 -0.0048057517542002097 0 0.00050897099587973889 -0.0050369977343191026 0 0.00051470514766384042 -0.0050125470443689729 0 0.00057707094548056347 -0.0050500758071642237 0 0.00051470514766384042 -0.0050125470443689729 0 0.00057707094548056347 -0.0050500758071642237 0 0.00058071333079245382 -0.0049970618389590347 0 0.00051470514766384042 -0.0050125470443689729 0 0.00056166039305136919 -0.0049571260252276438 0 0.00058071333079245382 -0.0049970618389590347 0 -0.00010630226034253689 -0.0048136099773100965 0 -8.0906684387399604e-05 -0.0050551804050939049 0 -0.00018967724777492628 -0.0048539837295661263 0 -0.00029985173459634633 -0.0050243204268717798 0 -0.00022033912716711254 -0.0050085440433559666 0 0.00059791333827635066 -0.0049590470649655506 0 0.00062261196048718026 -0.0049799362739866302 0 0.00058071333079245382 -0.0049970618389590347 0 0.00062261196048718026 -0.0049799362739866302 0 0.00061809795307892943 -0.0050195367317902176 0 0.00058071333079245382 -0.0049970618389590347 0 0.00040045240122037163 -0.0049527374271076032 0 0.00033938975335694546 -0.0049827355617120019 0 0.00036288062522868577 -0.0049058201900292527 0 0.00040045240122037163 -0.0049527374271076032 0 0.00042828060352344917 -0.0050152685017439127 0 0.00036487929151840222 -0.0050310911486976919 0 0.00040045240122037163 -0.0049527374271076032 0 0.00033938975335694546 -0.0049827355617120019 0 0.00036487929151840222 -0.0050310911486976919 0 0.00033938975335694546 -0.0049827355617120019 0 0.00029718731560790681 -0.0050039231359676516 0 0.00032965440656563611 -0.0050403525220420924 0 0.00033938975335694546 -0.0049827355617120019 0 0.00029718731560790681 -0.0050039231359676516 0 0.00031697523081172888 -0.0049125170418896739 0 0.00029718731560790681 -0.0050039231359676516 0 0.00031697523081172888 -0.0049125170418896739 0 0.00026761031613281491 -0.0049318312165854165 0 0.00033938975335694546 -0.0049827355617120019 0 0.00031697523081172888 -0.0049125170418896739 0 0.00036288062522868577 -0.0049058201900292527 0 0.00035473829230121134 -0.0048102290792808259 0 0.00031697523081172888 -0.0049125170418896739 0 0.00036288062522868577 -0.0049058201900292527 0 0.00028196101921025367 -0.004813983567363656 0 0.00035473829230121134 -0.0048102290792808259 0 0.00031697523081172888 -0.0049125170418896739 0 0.00028196101921025367 -0.004813983567363656 0 0.00031697523081172888 -0.0049125170418896739 0 0.00026761031613281491 -0.0049318312165854165 0 0.00046927292097885412 -0.0047598091232307826 0 0.00035473829230121134 -0.0048102290792808259 0 0.00040676505536511111 -0.0048654481847181822 0 0.00035473829230121134 -0.0048102290792808259 0 0.00036288062522868577 -0.0049058201900292527 0 0.00040676505536511111 -0.0048654481847181822 0 0.00040045240122037163 -0.0049527374271076032 0 0.00036288062522868577 -0.0049058201900292527 0 0.00040676505536511111 -0.0048654481847181822 0 0.00046927292097885412 -0.0047598091232307826 0 0.00046595557350050158 -0.0048870966968286847 0 0.00054439415622771145 -0.004826201034630672 0 0.00046927292097885412 -0.0047598091232307826 0 0.00040676505536511111 -0.0048654481847181822 0 0.00046595557350050158 -0.0048870966968286847 0 0.00046595557350050158 -0.0048870966968286847 0 0.00054439415622771145 -0.004826201034630672 0 0.0005215252563762501 -0.0049144804381165618 0 0.00040045240122037163 -0.0049527374271076032 0 0.00040676505536511111 -0.0048654481847181822 0 0.00046595557350050158 -0.0048870966968286847 0 0.00061705156620259444 -0.0047105831524069924 0 0.00063100518990417661 -0.0048162580991851119 0 0.00054439415622771145 -0.004826201034630672 0 0.00054439415622771145 -0.004826201034630672 0 0.0005863876662907968 -0.0048905036884101258 0 0.0005215252563762501 -0.0049144804381165618 0 0.00063100518990417661 -0.0048162580991851119 0 0.00054439415622771145 -0.004826201034630672 0 0.0005863876662907968 -0.0048905036884101258 0 0.00061617984993642615 -0.0049620639855886221 0 0.0005863876662907968 -0.0048905036884101258 0 0.00055124446963154665 -0.0049605031489068129 0 0.0005863876662907968 -0.0048905036884101258 0 0.0005215252563762501 -0.0049144804381165618 0 0.00055124446963154665 -0.0049605031489068129 0 0.0005215252563762501 -0.0049144804381165618 0 0.00055124446963154665 -0.0049605031489068129 0 0.00049347721545878057 -0.0049773905373674907 0 0.00055124446963154665 -0.0049605031489068129 0 0.00049347721545878057 -0.0049773905373674907 0 0.00052086229300115153 -0.0050059168452564785 0 0.00061617984993642615 -0.0049620639855886221 0 0.00055124446963154665 -0.0049605031489068129 0 0.00056773179507935958 -0.0050103374280280758 0 0.00040045240122037163 -0.0049527374271076032 0 0.00046595557350050158 -0.0048870966968286847 0 0.00045782445108329839 -0.0049493894366815904 0 0.00046595557350050158 -0.0048870966968286847 0 0.0005215252563762501 -0.0049144804381165618 0 0.00045782445108329839 -0.0049493894366815904 0 0.0005215252563762501 -0.0049144804381165618 0 0.00045782445108329839 -0.0049493894366815904 0 0.00049347721545878057 -0.0049773905373674907 0 0.00045782445108329839 -0.0049493894366815904 0 0.00049347721545878057 -0.0049773905373674907 0 0.00042828060352344917 -0.0050152685017439127 0 0.00040045240122037163 -0.0049527374271076032 0 0.00045782445108329839 -0.0049493894366815904 0 0.00042828060352344917 -0.0050152685017439127 0 0.00042828060352344917 -0.0050152685017439127 0 0.00049093868033307005 -0.0050480132749695997 0 0.00038599655271119658 -0.0051054330400268789 0 0.00049347721545878057 -0.0049773905373674907 0 0.00042828060352344917 -0.0050152685017439127 0 0.00049093868033307005 -0.0050480132749695997 0 0.00059660095928640831 -0.0050482900829160486 0 0.00056773179507935958 -0.0050103374280280758 0 0.00049093868033307005 -0.0050480132749695997 0 0.00055124446963154665 -0.0049605031489068129 0 0.00056773179507935958 -0.0050103374280280758 0 0.00052086229300115153 -0.0050059168452564785 0 0.00016264529734319539 -0.0051730429238552164 0 0.0004236123365302857 -0.0051675139800241255 0 0.00049347721545878057 -0.0049773905373674907 0 0.00052086229300115153 -0.0050059168452564785 0 0.00049093868033307005 -0.0050480132749695997 0 0.00056773179507935958 -0.0050103374280280758 0 0.00052086229300115153 -0.0050059168452564785 0 0.00049093868033307005 -0.0050480132749695997 0 -0.00056129406484790607 -0.0055364342781166901 0 -0.00056983616726590848 -0.0056469343970720742 0 -0.00044666126941041612 -0.0055144089907011576 0 0.00016264529734319539 -0.0051730429238552164 0 -2.1451912067029369e-05 -0.0053665746145882195 0 0.00059660095928640831 -0.0050482900829160486 0 0.00049093868033307005 -0.0050480132749695997 0 0.00046721412408248336 -0.0051478605763610489 0 0.00049093868033307005 -0.0050480132749695997 0 0.00046721412408248336 -0.0051478605763610489 0 0.00038599655271119658 -0.0051054330400268789 0 0.00038599655271119658 -0.0051054330400268789 0 0.00033014098646199025 -0.0050920698844796435 0 0.00030804367869547621 -0.0051482338451218348 0 0.00038599655271119658 -0.0051054330400268789 0 0.00036487929151840222 -0.0050310911486976919 0 0.00033014098646199025 -0.0050920698844796435 0 0.00042828060352344917 -0.0050152685017439127 0 0.00038599655271119658 -0.0051054330400268789 0 0.00036487929151840222 -0.0050310911486976919 0 0.00029718731560790681 -0.0050039231359676516 0 0.00029943516760687361 -0.0050734019282410959 0 0.00032965440656563611 -0.0050403525220420924 0 0.00036487929151840222 -0.0050310911486976919 0 0.00032965440656563611 -0.0050403525220420924 0 0.00033014098646199025 -0.0050920698844796435 0 0.00033938975335694546 -0.0049827355617120019 0 0.00036487929151840222 -0.0050310911486976919 0 0.00032965440656563611 -0.0050403525220420924 0 0.00029943516760687361 -0.0050734019282410959 0 0.00032965440656563611 -0.0050403525220420924 0 0.00033014098646199025 -0.0050920698844796435 0 0.00029943516760687361 -0.0050734019282410959 0 0.00033014098646199025 -0.0050920698844796435 0 0.00029682814152862726 -0.0051223550719293378 0 0.00033014098646199025 -0.0050920698844796435 0 0.00029682814152862726 -0.0051223550719293378 0 0.00030804367869547621 -0.0051482338451218348 0 0.00029682814152862726 -0.0051223550719293378 0 0.00030804367869547621 -0.0051482338451218348 0 0.00027629275365298369 -0.005161643794870969 0 0.00030804367869547621 -0.0051482338451218348 0 0.00025804921834305083 -0.0051805989534550291 0 0.00027629275365298369 -0.005161643794870969 0 0.00030804367869547621 -0.0051482338451218348 0 0.00033883785645186964 -0.0052004380998494741 0 0.00025804921834305083 -0.0051805989534550291 0 0.00038599655271119658 -0.0051054330400268789 0 0.00030804367869547621 -0.0051482338451218348 0 0.00033883785645186964 -0.0052004380998494741 0 -0.00030211147207210507 -0.0053800065441130919 0 -0.00034198341529834484 -0.005240136956165437 0 -0.00012991569598591233 -0.0052307661680228122 0 2.8685193972969144e-05 -0.0052774850119933414 0 4.8219049187035562e-05 -0.0051950184866376954 0 0.00033883785645186964 -0.0052004380998494741 0 0.00025804921834305083 -0.0051805989534550291 0 0.00022123110007341739 -0.0051792490209855799 0 0.00025804921834305083 -0.0051805989534550291 0 0.00022123110007341739 -0.0051792490209855799 0 0.00022630059731339151 -0.0051633272008601476 0 -0.00062630940264416077 -0.0054181059170032271 0 -0.00056129406484790607 -0.0055364342781166901 0 -0.00047525646423509618 -0.0053847087076065578 0 -0.00056129406484790607 -0.0055364342781166901 0 -0.00044666126941041612 -0.0055144089907011576 0 -0.00047525646423509618 -0.0053847087076065578 0 -2.1451912067029369e-05 -0.0053665746145882195 0 2.8685193972969144e-05 -0.0052774850119933414 0 0.00046721412408248336 -0.0051478605763610489 0 0.00038599655271119658 -0.0051054330400268789 0 0.00033883785645186964 -0.0052004380998494741 0 -0.00044666126941041612 -0.0055144089907011576 0 -0.00030211147207210507 -0.0053800065441130919 0 -0.00047525646423509618 -0.0053847087076065578 0 -0.00047525646423509618 -0.0053847087076065578 0 -0.00048826796036094899 -0.0052442318647106748 0 -0.00034198341529834484 -0.005240136956165437 0 -0.00030211147207210507 -0.0053800065441130919 0 -0.00047525646423509618 -0.0053847087076065578 0 -0.00034198341529834484 -0.005240136956165437 0 -0.00057516957607760537 -0.0053109838780583812 0 -0.00062630940264416077 -0.0054181059170032271 0 -0.00047525646423509618 -0.0053847087076065578 0 -0.00057516957607760537 -0.0053109838780583812 0 -0.00047525646423509618 -0.0053847087076065578 0 -0.00048826796036094899 -0.0052442318647106748 0 -0.00052766661938108417 -0.0051458243236092039 0 -0.00057329744231628306 -0.005203412254136305 0 -0.00048826796036094899 -0.0052442318647106748 0 -0.00057516957607760537 -0.0053109838780583812 0 -0.00057329744231628306 -0.005203412254136305 0 -0.00048826796036094899 -0.0052442318647106748 0 -0.00052766661938108417 -0.0051458243236092039 0 -0.00048826796036094899 -0.0052442318647106748 0 -0.00046968960449650501 -0.0051154074838768281 0 -0.00048826796036094899 -0.0052442318647106748 0 -0.00034198341529834484 -0.005240136956165437 0 -0.00046968960449650501 -0.0051154074838768281 0 -0.00034198341529834484 -0.005240136956165437 0 -0.00046968960449650501 -0.0051154074838768281 0 -0.00028584793681913837 -0.0049999815486951402 0 -0.00046968960449650501 -0.0051154074838768281 0 -0.00058552425369793378 -0.0050000292450720742 0 -0.00028584793681913837 -0.0049999815486951402 0 -0.00052766661938108417 -0.0051458243236092039 0 -0.00057329744231628306 -0.005203412254136305 0 -0.00059341651447863714 -0.0050451584919041859 0 -0.00052766661938108417 -0.0051458243236092039 0 -0.00046968960449650501 -0.0051154074838768281 0 -0.00059341651447863714 -0.0050451584919041859 0 -0.00046968960449650501 -0.0051154074838768281 0 -0.00059341651447863714 -0.0050451584919041859 0 -0.00058552425369793378 -0.0050000292450720742 0 -0.00034198341529834484 -0.005240136956165437 0 -0.00012991569598591233 -0.0052307661680228122 0 -0.00028584793681913837 -0.0049999815486951402 0 4.8219049187035562e-05 -0.0051950184866376954 0 9.7034218760861849e-05 -0.0050598223740819714 0 -0.00012991569598591233 -0.0052307661680228122 0 8.3643742007457686e-05 -0.005053749447251699 0 1.4255339899532585e-05 -0.0050000041762162497 0 -0.00012991569598591233 -0.0052307661680228122 0 -0.00028584793681913837 -0.0049999815486951402 0 1.4255339899532585e-05 -0.0050000041762162497 0 8.3643742007457686e-05 -0.005053749447251699 0 1.4255339899532585e-05 -0.0050000041762162497 0 0.00031400551385995493 -0.0049999828538934256 0 8.3643742007457686e-05 -0.005053749447251699 0 0.00017581722087387151 -0.0051300697355194059 0 0.00023967936534469606 -0.0050961779025174014 0 0.00022123110007341739 -0.0051792490209855799 0 0.00022630059731339151 -0.0051633272008601476 0 0.00017581722087387151 -0.0051300697355194059 0 0.00022123110007341739 -0.0051792490209855799 0 8.3643742007457686e-05 -0.005053749447251699 0 0.00017581722087387151 -0.0051300697355194059 0 0.00022630059731339151 -0.0051633272008601476 0 0.00017581722087387151 -0.0051300697355194059 0 0.00023967936534469606 -0.0050961779025174014 0 0.00022630059731339151 -0.0051633272008601476 0 0.0003255990716495765 -0.0051333488648718376 0 0.00031645411547207274 -0.005189184383024615 0 0.00022630059731339151 -0.0051633272008601476 0 0.00023967936534469606 -0.0050961779025174014 0 0.0003255990716495765 -0.0051333488648718376 0 0.00023967936534469606 -0.0050961779025174014 0 0.00031400551385995493 -0.0049999828538934256 0 0.0003255990716495765 -0.0051333488648718376 0 8.3643742007457686e-05 -0.005053749447251699 0 0.00023967936534469606 -0.0050961779025174014 0 0.00031400551385995493 -0.0049999828538934256 0 0.00031400551385995493 -0.0049999828538934256 0 0.00047181048125697548 -0.0051337654778348561 0 0.0003255990716495765 -0.0051333488648718376 0 0.00031400551385995493 -0.0049999828538934256 0 0.00061376413650446066 -0.0049999354385833967 0 0.00047181048125697548 -0.0051337654778348561 0 0.00061376413650446066 -0.0049999354385833967 0 0.00047181048125697548 -0.0051337654778348561 0 0.00064195520482424821 -0.0051045118256376537 0 0.00047181048125697548 -0.0051337654778348561 0 0.0003255990716495765 -0.0051333488648718376 0 0.00031645411547207274 -0.005189184383024615 0 0.00047181048125697548 -0.0051337654778348561 0 0.00045439495420865838 -0.0052129762134381797 0 0.00031645411547207274 -0.005189184383024615 0 0.00047181048125697548 -0.0051337654778348561 0 0.00045439495420865838 -0.0052129762134381797 0 0.00059737369194262267 -0.0051774504301714454 0 0.00045439495420865838 -0.0052129762134381797 0 0.00040620148669782188 -0.0052229922892949622 0 0.00050430573839015114 -0.0052376501446176494 0 0.00045439495420865838 -0.0052129762134381797 0 0.00040620148669782188 -0.0052229922892949622 0 0.00034347380998121145 -0.0052071593900371608 0 0.00045439495420865838 -0.0052129762134381797 0 0.00034347380998121145 -0.0052071593900371608 0 0.00031645411547207274 -0.005189184383024615 0 0.00034347380998121145 -0.0052071593900371608 0 0.00028468826364870861 -0.0051938669950574176 0 0.00031645411547207274 -0.005189184383024615 0 0.00040620148669782188 -0.0052229922892949622 0 0.00034347380998121145 -0.0052071593900371608 0 0.00030037988900143549 -0.0052068787119302126 0 0.00034347380998121145 -0.0052071593900371608 0 0.00028468826364870861 -0.0051938669950574176 0 0.00030037988900143549 -0.0052068787119302126 0 0.00028468826364870861 -0.0051938669950574176 0 0.00026233491229622438 -0.0051853452296185239 0 0.00031645411547207274 -0.005189184383024615 0 0.00028468826364870861 -0.0051938669950574176 0 0.00026233491229622438 -0.0051853452296185239 0 0.00026852340244653557 -0.0051684885249447454 0 0.00026233491229622438 -0.0051853452296185239 0 0.00027629275365298369 -0.005161643794870969 0 0.00026852340244653557 -0.0051684885249447454 0 0.00025804921834305083 -0.0051805989534550291 0 0.00026233491229622438 -0.0051853452296185239 0 0.00027629275365298369 -0.005161643794870969 0 0.00025804921834305083 -0.0051805989534550291 0 0.00022630059731339151 -0.0051633272008601476 0 0.00026233491229622438 -0.0051853452296185239 0 0.00022630059731339151 -0.0051633272008601476 0 0.00026233491229622438 -0.0051853452296185239 0 0.00031645411547207274 -0.005189184383024615 0 0.00116941369354615 -0.0052985802885661985 0 0.0010720522997188556 -0.0051904083753496659 0 0.001319022296652291 -0.0052483893932771895 0 0.0013449430976333768 -0.0051461253314957055 0 0.0014535772025291971 -0.0051937051267244433 0 0.00116941369354615 -0.0052985802885661985 0 0.0011650686113412153 -0.0053301210383242788 0 0.001319022296652291 -0.0052483893932771895 0 0.0010283955930861181 -0.0051504379993698385 0 0.0012442309318808768 -0.0051709960464456535 0 0.00116941369354615 -0.0052985802885661985 0 0.0010720522997188556 -0.0051904083753496659 0 0.001147245952001043 -0.0053394614624842568 0 0.0012135947703634533 -0.0049999956342694852 0 0.0010720522997188556 -0.0051904083753496659 0 0.001319022296652291 -0.0052483893932771895 0 0.0012135947703634533 -0.0049999956342694852 0 0.00099121686896439507 -0.0050326473273345461 0 0.0010720522997188556 -0.0051904083753496659 0 0.00098754261119852007 -0.0050441483105998263 0 0.0010283955930861181 -0.0051504379993698385 0 0.0012135947703634533 -0.0049999956342694852 0 0.00099121686896439507 -0.0050326473273345461 0 0.00091359508325764374 -0.0049999572255172613 0 0.00099121686896439507 -0.0050326473273345461 0 0.00089587925494257999 -0.0050995679271033535 0 0.00091359508325764374 -0.0049999572255172613 0 0.00099121686896439507 -0.0050326473273345461 0 0.00089587925494257999 -0.0050995679271033535 0 0.00097268528094925305 -0.0051159142402683166 0 0.00089587925494257999 -0.0050995679271033535 0 0.00097268528094925305 -0.0051159142402683166 0 0.0009354896887818643 -0.0051852878715549309 0 0.00097268528094925305 -0.0051159142402683166 0 0.0009354896887818643 -0.0051852878715549309 0 0.0010163123216539694 -0.0052117931676301365 0 0.00089587925494257999 -0.0050995679271033535 0 0.0009354896887818643 -0.0051852878715549309 0 0.00083239450551821103 -0.0051846336535007883 0 0.00083239450551821103 -0.0051846336535007883 0 0.0007564452143749798 -0.0051373572001661705 0 0.00071146513565531228 -0.0052076734651721433 0 0.00089587925494257999 -0.0050995679271033535 0 0.0007564452143749798 -0.0051373572001661705 0 0.00078605067317724143 -0.0050654978496217831 0 0.00089587925494257999 -0.0050995679271033535 0 0.00083239450551821103 -0.0051846336535007883 0 0.0007564452143749798 -0.0051373572001661705 0 0.00089587925494257999 -0.0050995679271033535 0 0.00091359508325764374 -0.0049999572255172613 0 0.00078605067317724143 -0.0050654978496217831 0 0.00061376413650446066 -0.0049999354385833967 0 0.00078605067317724143 -0.0050654978496217831 0 0.00064195520482424821 -0.0051045118256376537 0 0.00061376413650446066 -0.0049999354385833967 0 0.00091359508325764374 -0.0049999572255172613 0 0.00078605067317724143 -0.0050654978496217831 0 0.00047181048125697548 -0.0051337654778348561 0 0.00064195520482424821 -0.0051045118256376537 0 0.00059737369194262267 -0.0051774504301714454 0 0.0007564452143749798 -0.0051373572001661705 0 0.00078605067317724143 -0.0050654978496217831 0 0.00064195520482424821 -0.0051045118256376537 0 0.0007564452143749798 -0.0051373572001661705 0 0.00064195520482424821 -0.0051045118256376537 0 0.00059737369194262267 -0.0051774504301714454 0 0.0007564452143749798 -0.0051373572001661705 0 0.00059737369194262267 -0.0051774504301714454 0 0.00071146513565531228 -0.0052076734651721433 0 0.00045439495420865838 -0.0052129762134381797 0 0.00059737369194262267 -0.0051774504301714454 0 0.00056837624135028882 -0.0052495215578797416 0 0.00059737369194262267 -0.0051774504301714454 0 0.00056837624135028882 -0.0052495215578797416 0 0.00071146513565531228 -0.0052076734651721433 0 0.00056837624135028882 -0.0052495215578797416 0 0.00071611029513528714 -0.0052792719405242508 0 0.00071146513565531228 -0.0052076734651721433 0 0.00045439495420865838 -0.0052129762134381797 0 0.00056837624135028882 -0.0052495215578797416 0 0.00050430573839015114 -0.0052376501446176494 0 0.00056837624135028882 -0.0052495215578797416 0 0.00050430573839015114 -0.0052376501446176494 0 0.00051968962248301971 -0.0052353271137903076 0 0.00050430573839015114 -0.0052376501446176494 0 0.00051968962248301971 -0.0052353271137903076 0 0.00050253756211090801 -0.0052435320097524727 0 0.0005624468856045274 -0.0052546486259523175 0 0.00070506496181270005 -0.0053204061794403729 0 0.00056837624135028882 -0.0052495215578797416 0 0.00074356407245191485 -0.0053878697271439544 0 0.00071611029513528714 -0.0052792719405242508 0 0.00076775413646728674 -0.0053367685823482013 0 0.00074356407245191485 -0.0053878697271439544 0 0.00071611029513528714 -0.0052792719405242508 0 0.00056837624135028882 -0.0052495215578797416 0 0.00074356407245191485 -0.0053878697271439544 0 0.0007356238580688211 -0.0054593380949990765 0 0.00070911398488743575 -0.0053691240169818459 0 0.00070506496181270005 -0.0053204061794403729 0 0.00073798728601465484 -0.0054484862226550097 0 0.00084026128813375765 -0.005385665958889522 0 0.00088975328748903113 -0.0054744394960308937 0 0.00074356407245191485 -0.0053878697271439544 0 0.00073798728601465484 -0.0054484862226550097 0 0.00084026128813375765 -0.005385665958889522 0 0.00076775413646728674 -0.0053367685823482013 0 0.00084026128813375765 -0.005385665958889522 0 0.00096825656129082742 -0.0052218297130322581 0 0.00076775413646728674 -0.0053367685823482013 0 0.00074356407245191485 -0.0053878697271439544 0 0.00084026128813375765 -0.005385665958889522 0 0.00079694321455842196 -0.0053214026552569106 0 0.00091516691570348041 -0.005259600095687671 0 0.00076775413646728674 -0.0053367685823482013 0 0.00078480150089906421 -0.0052524830792752128 0 0.00090664580945609165 -0.0052705699210079402 0 0.00076775413646728674 -0.0053367685823482013 0 0.00078480150089906421 -0.0052524830792752128 0 0.00071611029513528714 -0.0052792719405242508 0 0.00078480150089906421 -0.0052524830792752128 0 0.00071611029513528714 -0.0052792719405242508 0 0.00071146513565531228 -0.0052076734651721433 0 0.00083239450551821103 -0.0051846336535007883 0 0.00078480150089906421 -0.0052524830792752128 0 0.00090664580945609165 -0.0052705699210079402 0 0.00083239450551821103 -0.0051846336535007883 0 0.00078480150089906421 -0.0052524830792752128 0 0.00071146513565531228 -0.0052076734651721433 0 0.0009354896887818643 -0.0051852878715549309 0 0.00083239450551821103 -0.0051846336535007883 0 0.00090664580945609165 -0.0052705699210079402 0 0.00091516691570348041 -0.005259600095687671 0 0.0012442309318808768 -0.0051709960464456535 0 0.0009354896887818643 -0.0051852878715549309 0 0.00090664580945609165 -0.0052705699210079402 0 0.0010163123216539694 -0.0052117931676301365 0 0.00096825656129082742 -0.0052218297130322581 0 0.0011004083171529129 -0.0052450355357184257 0 0.0011697935327641198 -0.0051129255897902565 0 0.00096825656129082742 -0.0052218297130322581 0 0.0010240559664128656 -0.0053456586787897576 0 0.0011004083171529129 -0.0052450355357184257 0 0.00084026128813375765 -0.005385665958889522 0 0.00096825656129082742 -0.0052218297130322581 0 0.00093355236966019637 -0.005392346710967038 0 0.00096825656129082742 -0.0052218297130322581 0 0.00093355236966019637 -0.005392346710967038 0 0.0010240559664128656 -0.0053456586787897576 0 0.00084026128813375765 -0.005385665958889522 0 0.00093355236966019637 -0.005392346710967038 0 0.00088975328748903113 -0.0054744394960308937 0 0.00088975328748903113 -0.0054744394960308937 0 0.0009965655597162686 -0.0054312641855668456 0 0.00098453828597347892 -0.0055489222671906181 0 0.00093355236966019637 -0.005392346710967038 0 0.00088975328748903113 -0.0054744394960308937 0 0.0009965655597162686 -0.0054312641855668456 0 0.0014370646057119537 -0.0050589520530208995 0 0.0011174434500067067 -0.0050377646026118173 0 0.0009965655597162686 -0.0054312641855668456 0 0.0011520365943966748 -0.0053942743614211639 0 0.00098453828597347892 -0.0055489222671906181 0 0.0010240559664128656 -0.0053456586787897576 0 0.0011520365943966748 -0.0053942743614211639 0 0.0011004083171529129 -0.0052450355357184257 0 0.0009965655597162686 -0.0054312641855668456 0 0.0010240559664128656 -0.0053456586787897576 0 0.0011520365943966748 -0.0053942743614211639 0 0.00093355236966019637 -0.005392346710967038 0 0.0009965655597162686 -0.0054312641855668456 0 0.0010240559664128656 -0.0053456586787897576 0 0.0015190887232096283 -0.0049001192014357948 0 0.0015691449298882018 -0.0049233599991816649 0 0.0015792518857545399 -0.0050295297230459231 0 0.0015986196829650059 -0.0048953182632962495 0 0.0015691449298882018 -0.0049233599991816649 0 0.0015792518857545399 -0.0050295297230459231 0 0.0014370646057119537 -0.0050589520530208995 0 0.0015334930058875495 -0.0049649293644544656 0 0.0015993472881801675 -0.0048941999535785366 0 0.0016052754980107858 -0.0048525981611825314 0 0.0015190887232096283 -0.0049001192014357948 0 0.001500542568909594 -0.0047848210926056591 0 0.0014830605960437651 -0.0049043240112648301 0 0.0012282008352856254 -0.0050383721819117922 0 0.0014370646057119537 -0.0050589520530208995 0 0.0016801785672524727 -0.0046500711153647841 0 0.0016801785672524727 -0.0046500711153647841 0 0.0019191029406350078 -0.0046986351797017349 0 0.0022767147722835396 -0.0044513977788848275 0 0.0021914396475021325 -0.0044969800282026844 0 0.0022052028101686083 -0.0044080335385465854 0 0.0015993472881801675 -0.0048941999535785366 0 0.0015190887232096283 -0.0049001192014357948 0 0.0015691449298882018 -0.0049233599991816649 0 0.0011520365943966748 -0.0053942743614211639 0 0.0011004083171529129 -0.0052450355357184257 0 0.0011876850663197062 -0.0051501083284105032 0 0.0014370646057119537 -0.0050589520530208995 0 0.0013767616540659995 -0.0051252586519945735 0 0.0019191029406350078 -0.0046986351797017349 0 0.0013767616540659995 -0.0051252586519945735 0 0.0016718004002059192 -0.0049277380679158354 0 0.0017029862251761502 -0.0049995092558960614 0 0.0016637836791127149 -0.0049909868551656963 0 0.0011004083171529129 -0.0052450355357184257 0 0.0011876850663197062 -0.0051501083284105032 0 0.0011697935327641198 -0.0051129255897902565 0 0.0013767616540659995 -0.0051252586519945735 0 0.0012442309318808768 -0.0051709960464456535 0 0.00116941369354615 -0.0052985802885661985 0 0.001147245952001043 -0.0053394614624842568 0 0.0011651565755974118 -0.0053297142116853847 0 0.0013767616540659995 -0.0051252586519945735 0 0.0013449430976333768 -0.0051461253314957055 0 0.0013598508402520595 -0.005118029558069369 0 0.0013959067819662517 -0.0051930998356262449 0 0.0013454240024659495 -0.0052203331612851256 0 0.0012442309318808768 -0.0051709960464456535 0 0.0013449430976333768 -0.0051461253314957055 0 0.0013222120397310363 -0.0052031165987492861 0 0.0013449430976333768 -0.0051461253314957055 0 0.0017029862251761502 -0.0049995092558960614 0 0.001700588025325593 -0.0050147633759419453 0 0.0016637836791127149 -0.0049909868551656963 0 0.001700588025325593 -0.0050147633759419453 0 0.0016637836791127149 -0.0049909868551656963 0 0.0016381358711841524 -0.0050488184392444586 0 0.0022519026677811846 -0.0042413739392839966 0 0.0021791805312190277 -0.0042710043179584956 0 0.0021864676405405708 -0.0041946286785597021 0 0.0022519026677811846 -0.0042413739392839966 0 0.0022597742741553807 -0.0041754238551575612 0 0.0021864676405405708 -0.0041946286785597021 0 0.0021821290379008713 -0.0042144429945882144 0 0.0021167129211674147 -0.0042103807160395901 0 0.0022519026677811846 -0.0042413739392839966 0 0.0023082850476456962 -0.0042417432644002127 0 0.0022553025016195894 -0.0041813714312570601 0 0.001611515922260351 -0.0043712419553918807 0 0.0021167129211674147 -0.0042103807160395901 0 0.0022519026677811846 -0.0042413739392839966 0 0.0022262981229792169 -0.0043324292063171904 0 0.0023082850476456962 -0.0042417432644002127 0 0.0022519026677811846 -0.0042413739392839966 0 0.0022262981229792169 -0.0043324292063171904 0 0.0021791805312190277 -0.0042710043179584956 0 0.0022767147722835396 -0.0044513977788848275 0 0.0022262981229792169 -0.0043324292063171904 0 0.0022052028101686083 -0.0044080335385465854 0 0.0022767147722835396 -0.0044513977788848275 0 0.0022262981229792169 -0.0043324292063171904 0 0.0023082850476456962 -0.0042417432644002127 0 0.0016801785672524727 -0.0046500711153647841 0 0.001611515922260351 -0.0043712419553918807 0 0.0013689602517945316 -0.0046425538029317027 0 0.0013695025697255576 -0.004639775442819993 0 0.0013690350364079656 -0.0046338101063124462 0 0.0013695025697255576 -0.004639775442819993 0 0.0013704384449040354 -0.0046384522513391513 0 0.0013690350364079656 -0.0046338101063124462 0 0.0016801785672524727 -0.0046500711153647841 0 0.0011174434500067067 -0.0050377646026118173 0 0.0013689602517945316 -0.0046425538029317027 0 0.0013694533531439697 -0.0046409130966975562 0 0.0013695025697255576 -0.004639775442819993 0 0.0011174434500067067 -0.0050377646026118173 0 0.00093771622294797573 -0.0050518802115319802 0 0.00088975328748903113 -0.0054744394960308937 0 0.00098453828597347892 -0.0055489222671906181 0 0.00087828585236146908 -0.0056037374015163689 0 0.001095027596544733 -0.0049927737386429513 0 0.0009928782852058613 -0.0050467720998316314 0 0.0010129498870953654 -0.0050696041798722735 0 0.0013694533531439697 -0.0046409130966975562 0 0.0013666496411872959 -0.0046404054936828604 0 0.0013695025697255576 -0.004639775442819993 0 0.0011174434500067067 -0.0050377646026118173 0 0.0010016742408461032 -0.0048460440989929812 0 0.00093771622294797573 -0.0050518802115319802 0 0.0010016742408461032 -0.0048460440989929812 0 0.0010016742408461032 -0.0048460440989929812 0 0.0011210654950123979 -0.0046328157830467396 0 0.0013666496411872959 -0.0046404054936828604 0 0.0013695025697255576 -0.004639775442819993 0 0.0013675882700226005 -0.0046417741671313786 0 0.0012075938928631002 -0.0045905744641844904 0 0.0011210654950123979 -0.0046328157830467396 0 0.001057938392264802 -0.0044821933637507177 0 0.0010189416376453063 -0.0044355299968626772 0 0.0010613204688987683 -0.004409533402519792 0 0.0011210654950123979 -0.0046328157830467396 0 0.001611515922260351 -0.0043712419553918807 0 0.001057938392264802 -0.0044821933637507177 0 0.0011239474727207418 -0.0044029528993184798 0 0.0010613204688987683 -0.004409533402519792 0 0.0011210654950123979 -0.0046328157830467396 0 0.00078913469005764192 -0.004597174839343284 0 0.00092594615559136713 -0.0046710733379455608 0 0.00085593219009993222 -0.0047113413144887813 0 0.00085111231146938566 -0.0047518478546723624 0 0.00067569836820924475 -0.0048241570430573978 0 0.00078913469005764192 -0.004597174839343284 0 0.00067569836820924475 -0.0048241570430573978 0 0.00061053859595389592 -0.0050511405294369578 0 0.00050947058363333116 -0.004842592773656622 0 0.00051265600724572865 -0.0048172917392703815 0 0.00048876003379194285 -0.0048437962065222282 0 0.0010016742408461032 -0.0048460440989929812 0 0.00067569836820924475 -0.0048241570430573978 0 0.00093771622294797573 -0.0050518802115319802 0 0.00061053859595389592 -0.0050511405294369578 0 0.00075110798211474998 -0.0051844438108848709 0 0.00070936007695304964 -0.0051352467065826392 0 0.00075817902183007908 -0.0051085098490283752 0 0.00084051869227602096 -0.0048551204004081477 0 0.00085372512764124193 -0.0048700772222873643 0 0.00073557075067151091 -0.0049100837091150531 0 0.00091484384710776429 -0.0046586762720739906 0 0.00092594615559136713 -0.0046710733379455608 0 0.00085593219009993222 -0.0047113413144887813 0 0.00070506496181270005 -0.0053204061794403729 0 0.00061053859595389592 -0.0050511405294369578 0 0.00051968962248301971 -0.0052353271137903076 0 0.00051952836753412087 -0.0052631771439539399 0 0.00050253756211090801 -0.0052435320097524727 0 0.00070506496181270005 -0.0053204061794403729 0 0.00093771622294797573 -0.0050518802115319802 0 0.00073798728601465484 -0.0054484862226550097 0 0.00088975328748903113 -0.0054744394960308937 0 0.00087828585236146908 -0.0056037374015163689 0 0.00085372512764124193 -0.0048700772222873643 0 0.0007274249096242808 -0.0049868357708002607 0 0.00073557075067151091 -0.0049100837091150531 0 0.00051952836753412087 -0.0052631771439539399 0 0.00050253756211090801 -0.0052435320097524727 0 0.00046735691269168372 -0.0052502828557313046 0 0.00050430573839015114 -0.0052376501446176494 0 0.00050253756211090801 -0.0052435320097524727 0 0.00046735691269168372 -0.0052502828557313046 0 0.00051952836753412087 -0.0052631771439539399 0 0.00046735691269168372 -0.0052502828557313046 0 0.00045522524747196671 -0.0052951240447432612 0 0.00061053859595389592 -0.0050511405294369578 0 0.00045385281248883969 -0.0050724685628727537 0 0.00051265600724572865 -0.0048172917392703815 0 0.00048876003379194285 -0.0048437962065222282 0 0.00045687062649819404 -0.0048433262495720898 0 0.00067569836820924475 -0.0048241570430573978 0 0.00047916762413404134 -0.0048726163731451942 0 0.00050947058363333116 -0.004842592773656622 0 0.00048876003379194285 -0.0048437962065222282 0 0.00047595179981861093 -0.0048726789917041017 0 0.00056354237094297685 -0.0047809790210988912 0 0.0004967920597501584 -0.0048445080839885331 0 0.00055625271548611971 -0.0048443828305059083 0 0.00048876003379194285 -0.0048437962065222282 0 0.00045687062649819404 -0.0048433262495720898 0 0.00047595179981861093 -0.0048726789917041017 0 0.00045687062649819404 -0.0048433262495720898 0 0.00047595179981861093 -0.0048726789917041017 0 0.0004429877868059027 -0.0048728540408705884 0 0.00059289494621609263 -0.0045660062954726889 0 0.00059798556019545522 -0.0045736545511908056 0 0.00060255406014409006 -0.0045577561891092652 0 0.00047916762413404134 -0.0048726163731451942 0 0.00045162628049873692 -0.0048950346918543719 0 0.0004967920597501584 -0.0048445080839885331 0 0.00049556687627581614 -0.0049079946908739715 0 0.00055625271548611971 -0.0048443828305059083 0 0.00053986095118088598 -0.0047350024596670452 0 0.00078913469005764192 -0.004597174839343284 0 0.0004967920597501584 -0.0048445080839885331 0 0.00049556687627581614 -0.0049079946908739715 0 0.00044218557308785782 -0.0049052163287875627 0 0.00053986095118088598 -0.0047350024596670452 0 0.0002475333117728696 -0.0047914028679373393 0 0.00059289494621609263 -0.0045660062954726889 0 0.00059798556019545522 -0.0045736545511908056 0 0.00058469772009125585 -0.0045744270149069999 0 0.00049556687627581614 -0.0049079946908739715 0 0.00044218557308785782 -0.0049052163287875627 0 0.00044588591069329376 -0.0049514075150906261 0 0.0011323801688487639 -0.0043133822416901758 0 0.0010770177104193342 -0.0043127359729342963 0 0.0010780791658758942 -0.0042690031285065591 0 0.0011323801688487639 -0.0043133822416901758 0 0.0010770177104193342 -0.0043127359729342963 0 0.0010795446322218877 -0.0043575219214281738 0 0.0010795446322218877 -0.0043575219214281738 0 0.0011239474727207418 -0.0044029528993184798 0 0.0010613204688987683 -0.004409533402519792 0 0.00090301391329892025 -0.0043984844624746994 0 0.00078913469005764192 -0.004597174839343284 0 0.0011323801688487639 -0.0043133822416901758 0 0.0010795446322218877 -0.0043575219214281738 0 0.0011239474727207418 -0.0044029528993184798 0 0.0010189416376453063 -0.0044355299968626772 0 0.0010613204688987683 -0.004409533402519792 0 0.0010263168363156584 -0.0043684625634334527 0 0.001611515922260351 -0.0043712419553918807 0 0.0013853629736946971 -0.0043065531398701591 0 0.0010795446322218877 -0.0043575219214281738 0 0.0010613204688987683 -0.004409533402519792 0 0.0010263168363156584 -0.0043684625634334527 0 0.0010795446322218877 -0.0043575219214281738 0 0.0010263168363156584 -0.0043684625634334527 0 0.0010502903498971631 -0.0043340231829181002 0 0.0010263168363156584 -0.0043684625634334527 0 0.0010502903498971631 -0.0043340231829181002 0 0.0010341001537622608 -0.0042999741888487333 0 0.0010770177104193342 -0.0043127359729342963 0 0.0010795446322218877 -0.0043575219214281738 0 0.0010502903498971631 -0.0043340231829181002 0 0.0013853629736946971 -0.0043065531398701591 0 0.0014354174195517825 -0.0041329095710994444 0 0.0017547424584601918 -0.0042089771821514259 0 0.0017695752859129077 -0.0041022312297468999 0 0.0017045355629430722 -0.0041670423889613416 0 0.0010770177104193342 -0.0043127359729342963 0 0.001040219932852795 -0.0043036959805562583 0 0.0010780791658758942 -0.0042690031285065591 0 0.0010770177104193342 -0.0043127359729342963 0 0.0010502903498971631 -0.0043340231829181002 0 0.001040219932852795 -0.0043036959805562583 0 0.0010502903498971631 -0.0043340231829181002 0 0.001040219932852795 -0.0043036959805562583 0 0.0010341001537622608 -0.0042999741888487333 0 0.0013984538918906219 -0.0041263110681656803 0 0.0014354174195517825 -0.0041329095710994444 0 0.0017695752859129077 -0.0041022312297468999 0 0.0017045355629430722 -0.0041670423889613416 0 0.0017120989352229841 -0.0040686185467447194 0 0.0019890160604002106 -0.0041185891447772143 0 0.0019308176124976824 -0.0039306435388270647 0 0.0022728696708352938 -0.0040457821832214393 0 0.0022002767614825412 -0.0041006012563683334 0 0.002165790251254125 -0.003973039953711433 0 0.0022728696708352938 -0.0040457821832214393 0 0.0022822747128921632 -0.003919015756990764 0 0.002165790251254125 -0.003973039953711433 0 0.0019890160604002106 -0.0041185891447772143 0 0.0021167129211674147 -0.0042103807160395901 0 0.0017399235166086686 -0.0043150092681374236 0 0.0017547424584601918 -0.0042089771821514259 0 0.0016975119550676058 -0.0042651071699764042 0 0.0017547424584601918 -0.0042089771821514259 0 0.0017045355629430722 -0.0041670423889613416 0 0.0016975119550676058 -0.0042651071699764042 0 0.0022728696708352938 -0.0040457821832214393 0 0.0022002767614825412 -0.0041006012563683334 0 0.0022624442520789438 -0.0041732683634983633 0 0.0021964805678452771 -0.0041468576870838493 0 0.0021167129211674147 -0.0042103807160395901 0 0.0022002767614825412 -0.0041006012563683334 0 0.0022597742741553807 -0.0041754238551575612 0 0.0021864676405405708 -0.0041946286785597021 0 0.0002550286027552058 -0.0051665098779497213 0 0.00021404936694035162 -0.005098352233780596 0 0.00023801547433195897 -0.0050563507563621607 0 0.0002550286027552058 -0.0051665098779497213 0 0.00026946935638549711 -0.0050701985459464622 0 0.00023801547433195897 -0.0050563507563621607 0 0.0002550286027552058 -0.0051665098779497213 0 0.00024587421149432323 -0.0052064609575252522 0 0.00021404936694035162 -0.005098352233780596 0 0.00029718731560790681 -0.0050039231359676516 0 0.00029943516760687361 -0.0050734019282410959 0 0.00026946935638549711 -0.0050701985459464622 0 0.00029943516760687361 -0.0050734019282410959 0 0.00029682814152862726 -0.0051223550719293378 0 0.00027620447617373651 -0.0051250715745434538 0 0.00029943516760687361 -0.0050734019282410959 0 0.00026946935638549711 -0.0050701985459464622 0 0.00027620447617373651 -0.0051250715745434538 0 0.0002550286027552058 -0.0051665098779497213 0 0.00026946935638549711 -0.0050701985459464622 0 0.00027620447617373651 -0.0051250715745434538 0 0.00029682814152862726 -0.0051223550719293378 0 0.00027620447617373651 -0.0051250715745434538 0 0.00027629275365298369 -0.005161643794870969 0 0.00027620447617373651 -0.0051250715745434538 0 0.00027629275365298369 -0.005161643794870969 0 0.00026852340244653557 -0.0051684885249447454 0 0.00028468826364870861 -0.0051938669950574176 0 0.0002550286027552058 -0.0051665098779497213 0 0.00026852340244653557 -0.0051684885249447454 0 0.00028468826364870861 -0.0051938669950574176 0 0.0002550286027552058 -0.0051665098779497213 0 0.00030037988900143549 -0.0052068787119302126 0 0.0002550286027552058 -0.0051665098779497213 0 0.00027620447617373651 -0.0051250715745434538 0 0.00026852340244653557 -0.0051684885249447454 0 0.00040620148669782188 -0.0052229922892949622 0 0.00030037988900143549 -0.0052068787119302126 0 0.00037262887028198277 -0.0052386351364575381 0 0.00030037988900143549 -0.0052068787119302126 0 0.00037262887028198277 -0.0052386351364575381 0 0.00024587421149432323 -0.0052064609575252522 0 0.0002550286027552058 -0.0051665098779497213 0 0.00030037988900143549 -0.0052068787119302126 0 0.00024587421149432323 -0.0052064609575252522 0 0.00040620148669782188 -0.0052229922892949622 0 0.00050430573839015114 -0.0052376501446176494 0 0.00046735691269168372 -0.0052502828557313046 0 0.00040620148669782188 -0.0052229922892949622 0 0.00046735691269168372 -0.0052502828557313046 0 0.00037262887028198277 -0.0052386351364575381 0 0.00045522524747196671 -0.0052951240447432612 0 0.00037262887028198277 -0.0052386351364575381 0 0.00033224914727159022 -0.005346960442828304 0 0.00045385281248883969 -0.0050724685628727537 0 0.00025868779031168736 -0.0050517691106519063 0 0.00045687062649819404 -0.0048433262495720898 0 0.00039496558999940361 -0.0048702801179114847 0 0.0004429877868059027 -0.0048728540408705884 0 0.00046735691269168372 -0.0052502828557313046 0 0.00045522524747196671 -0.0052951240447432612 0 0.00037262887028198277 -0.0052386351364575381 0 0.00037262887028198277 -0.0052386351364575381 0 0.00024587421149432323 -0.0052064609575252522 0 0.00033224914727159022 -0.005346960442828304 0 0.00025338560396497109 -0.0052332022536884871 0 0.00025868779031168736 -0.0050517691106519063 0 0.00024587421149432323 -0.0052064609575252522 0 0.00021404936694035162 -0.005098352233780596 0 8.8810021150062128e-05 -0.0050665414304718603 0 0.00021404936694035162 -0.005098352233780596 0 0.00015208083361833646 -0.0050242924196960996 0 0.00020333109519612852 -0.0050214313635762063 0 0.00021404936694035162 -0.005098352233780596 0 0.00015208083361833646 -0.0050242924196960996 0 8.8810021150062128e-05 -0.0050665414304718603 0 0.00014275375619822296 -0.005067065477327823 0 0.00025868779031168736 -0.0050517691106519063 0 0.00015208083361833646 -0.0050242924196960996 0 8.4897654804980593e-05 -0.0050534177610650557 0 0.0001214906833888825 -0.0049645087818739929 0 8.4897654804980593e-05 -0.0050534177610650557 0 0.0001214906833888825 -0.0049645087818739929 0 6.6797606484123777e-05 -0.0049457586296081605 0 0.00015208083361833646 -0.0050242924196960996 0 0.0001214906833888825 -0.0049645087818739929 0 0.00017320593528798701 -0.0049564330196960682 0 0.00015208083361833646 -0.0050242924196960996 0 0.00017320593528798701 -0.0049564330196960682 0 0.00020333109519612852 -0.0050214313635762063 0 0.00025868779031168736 -0.0050517691106519063 0 0.0002475333117728696 -0.0047914028679373393 0 8.4897654804980593e-05 -0.0050534177610650557 0 6.6797606484123777e-05 -0.0049457586296081605 0 -1.5808861611534864e-05 -0.0048903963448772916 0 0.00039496558999940361 -0.0048702801179114847 0 0.00044218557308785782 -0.0049052163287875627 0 0.00044588591069329376 -0.0049514075150906261 0 0.00047595179981861093 -0.0048726789917041017 0 0.0004429877868059027 -0.0048728540408705884 0 0.00044218557308785782 -0.0049052163287875627 0 0.00039496558999940361 -0.0048702801179114847 0 0.0004429877868059027 -0.0048728540408705884 0 0.00044218557308785782 -0.0049052163287875627 0 6.6797606484123777e-05 -0.0049457586296081605 0 -1.5808861611534864e-05 -0.0048903963448772916 0 7.9454658071627954e-05 -0.004882123796842215 0 -1.5808861611534864e-05 -0.0048903963448772916 0 7.9454658071627954e-05 -0.004882123796842215 0 5.5502729937490115e-05 -0.0048143419686311958 0 0.0001214906833888825 -0.0049645087818739929 0 0.00014536884713179838 -0.0048860176910569021 0 0.00017320593528798701 -0.0049564330196960682 0 0.0001214906833888825 -0.0049645087818739929 0 7.9454658071627954e-05 -0.004882123796842215 0 0.00014536884713179838 -0.0048860176910569021 0 0.0001214906833888825 -0.0049645087818739929 0 6.6797606484123777e-05 -0.0049457586296081605 0 7.9454658071627954e-05 -0.004882123796842215 0 7.9454658071627954e-05 -0.004882123796842215 0 0.00014536884713179838 -0.0048860176910569021 0 0.00011661952584338418 -0.0048285467336806592 0 0.00014536884713179838 -0.0048860176910569021 0 0.00021627537907386451 -0.0048787660877661915 0 0.00016743191433228659 -0.0048027420264241871 0 0.00014536884713179838 -0.0048860176910569021 0 0.00021627537907386451 -0.0048787660877661915 0 0.00017320593528798701 -0.0049564330196960682 0 0.00021627537907386451 -0.0048787660877661915 0 0.00017320593528798701 -0.0049564330196960682 0 0.00022403307143523509 -0.0049736024119273513 0 0.00017320593528798701 -0.0049564330196960682 0 0.00022403307143523509 -0.0049736024119273513 0 0.00020333109519612852 -0.0050214313635762063 0 0.00022403307143523509 -0.0049736024119273513 0 0.00023801547433195897 -0.0050563507563621607 0 0.00020333109519612852 -0.0050214313635762063 0 0.00022403307143523509 -0.0049736024119273513 0 0.00023801547433195897 -0.0050563507563621607 0 0.00025958387798509486 -0.0050047532860922513 0 0.00021404936694035162 -0.005098352233780596 0 0.00023801547433195897 -0.0050563507563621607 0 0.00020333109519612852 -0.0050214313635762063 0 0.00029718731560790681 -0.0050039231359676516 0 0.00026946935638549711 -0.0050701985459464622 0 0.00025958387798509486 -0.0050047532860922513 0 0.00026946935638549711 -0.0050701985459464622 0 0.00023801547433195897 -0.0050563507563621607 0 0.00025958387798509486 -0.0050047532860922513 0 0.00022403307143523509 -0.0049736024119273513 0 0.00025958387798509486 -0.0050047532860922513 0 0.00026761031613281491 -0.0049318312165854165 0 0.00029718731560790681 -0.0050039231359676516 0 0.00025958387798509486 -0.0050047532860922513 0 0.00026761031613281491 -0.0049318312165854165 0 0.00028196101921025367 -0.004813983567363656 0 0.00021627537907386451 -0.0048787660877661915 0 0.00026761031613281491 -0.0049318312165854165 0 0.00021627537907386451 -0.0048787660877661915 0 0.00022403307143523509 -0.0049736024119273513 0 0.00026761031613281491 -0.0049318312165854165 0 0.00028196101921025367 -0.004813983567363656 0 0.00021627537907386451 -0.0048787660877661915 0 0.00022671018880132909 -0.0047766778492948116 0 0.00028196101921025367 -0.004813983567363656 0 0.00028000719210068229 -0.0047102726887570442 0 0.00022671018880132909 -0.0047766778492948116 0 0.00021627537907386451 -0.0048787660877661915 0 0.00022671018880132909 -0.0047766778492948116 0 0.00016743191433228659 -0.0048027420264241871 0 0.00016743191433228659 -0.0048027420264241871 0 0.00017946884511738377 -0.0047110756436482184 0 0.00011851110452597776 -0.0047462114159952783 0 0.00022671018880132909 -0.0047766778492948116 0 0.00016743191433228659 -0.0048027420264241871 0 0.00017946884511738377 -0.0047110756436482184 0 0.00017974072842274894 -0.0046398518656536308 0 3.7379101799491665e-06 -0.0046123273135440608 0 0.00028000719210068229 -0.0047102726887570442 0 0.00022671018880132909 -0.0047766778492948116 0 0.00017946884511738377 -0.0047110756436482184 0 7.1193326821595632e-05 -0.0045756189092394615 0 -0.00019620411231371289 -0.0045156599457074394 0 -0.00013695210586630474 -0.0044020130289041904 0 7.1193326821595632e-05 -0.0045756189092394615 0 0.00017171884593633239 -0.0043715645305163458 0 -4.8524292233924856e-05 -0.0042929150580089297 0 7.1193326821595632e-05 -0.0045756189092394615 0 -0.00013695210586630474 -0.0044020130289041904 0 -4.8524292233924856e-05 -0.0042929150580089297 0 -0.00013695210586630474 -0.0044020130289041904 0 -0.00021730098848620659 -0.004273668041723586 0 -4.8524292233924856e-05 -0.0042929150580089297 0 -0.00019620411231371289 -0.0045156599457074394 0 -0.00013695210586630474 -0.0044020130289041904 0 -0.0002724246213087634 -0.0043680802468994062 0 -0.00013695210586630474 -0.0044020130289041904 0 -0.00021730098848620659 -0.004273668041723586 0 -0.0002724246213087634 -0.0043680802468994062 0 -0.00021730098848620659 -0.004273668041723586 0 -0.00015169719356894623 -0.0041661163474482179 0 -4.8524292233924856e-05 -0.0042929150580089297 0 -0.00021730098848620659 -0.004273668041723586 0 -0.00015169719356894623 -0.0041661163474482179 0 -0.00029658430731150309 -0.0041312711466384433 0 0.00017171884593633239 -0.0043715645305163458 0 7.7709206517940807e-05 -0.004123491501347107 0 -4.8524292233924856e-05 -0.0042929150580089297 0 7.7709206517940807e-05 -0.004123491501347107 0 -0.00015169719356894623 -0.0041661163474482179 0 -4.8524292233924856e-05 -0.0042929150580089297 0 -0.00035866130247572922 -0.0040600066006112132 0 -0.00019262114126923407 -0.0039802766715382179 0 -0.00029188228521015067 -0.0039431433834949611 0 -0.00048119790379032258 -0.0042363590218493941 0 -0.00036016597185890592 -0.0043015136521807702 0 -0.00029658430731150309 -0.0041312711466384433 0 -0.00035322177334837934 -0.004124759310363285 0 -0.00025731812797322032 -0.0040603107374381376 0 -0.00021730098848620659 -0.004273668041723586 0 -0.00036016597185890592 -0.0043015136521807702 0 -0.00029658430731150309 -0.0041312711466384433 0 -0.00019620411231371289 -0.0045156599457074394 0 -0.00035182659341851958 -0.0044064583837410886 0 -0.00043233793569216863 -0.0044550142742675264 0 -0.00036016597185890592 -0.0043015136521807702 0 -0.00035182659341851958 -0.0044064583837410886 0 -0.00045281738900470578 -0.0044147311973550679 0 -0.00019620411231371289 -0.0045156599457074394 0 -0.0002724246213087634 -0.0043680802468994062 0 -0.00035182659341851958 -0.0044064583837410886 0 -0.00021730098848620659 -0.004273668041723586 0 -0.00036016597185890592 -0.0043015136521807702 0 -0.0002724246213087634 -0.0043680802468994062 0 -0.00036016597185890592 -0.0043015136521807702 0 -0.0002724246213087634 -0.0043680802468994062 0 -0.00035182659341851958 -0.0044064583837410886 0 -0.00043233793569216863 -0.0044550142742675264 0 -0.00051104269093638955 -0.0043992778446108509 0 -0.00056531923811832085 -0.004422872050571805 0 -0.00045281738900470578 -0.0044147311973550679 0 -0.00043233793569216863 -0.0044550142742675264 0 -0.00051104269093638955 -0.0043992778446108509 0 -0.00035182659341851958 -0.0044064583837410886 0 -0.00045281738900470578 -0.0044147311973550679 0 -0.00043233793569216863 -0.0044550142742675264 0 -0.00035322177334837934 -0.004124759310363285 0 -0.00045580984399838615 -0.0044477356449363886 0 -0.00045831891697139425 -0.0043126124199734488 0 -0.00045281738900470578 -0.0044147311973550679 0 -0.00051104269093638955 -0.0043992778446108509 0 -0.00022568884397215628 -0.0045952204741238614 0 -2.5137760000057936e-05 -0.0043814005832272865 0 -0.00048119790379032258 -0.0042363590218493941 0 -0.00036016597185890592 -0.0043015136521807702 0 -0.00045281738900470578 -0.0044147311973550679 0 4.009486709825521e-05 -0.0047198846276116282 0 7.8547162880260053e-05 -0.0047031485127446652 0 6.6436672573330438e-06 -0.0046932211564161023 0 4.009486709825521e-05 -0.0047198846276116282 0 7.8547162880260053e-05 -0.0047031485127446652 0 7.1006335062826786e-05 -0.0047403207794176191 0 7.8547162880260053e-05 -0.0047031485127446652 0 7.1006335062826786e-05 -0.0047403207794176191 0 0.00010957962123948312 -0.0047269078060270938 0 3.7379101799491665e-06 -0.0046123273135440608 0 -0.00022568884397215628 -0.0045952204741238614 0 0.00017946884511738377 -0.0047110756436482184 0 7.8547162880260053e-05 -0.0047031485127446652 0 0.00010957962123948312 -0.0047269078060270938 0 0.00017946884511738377 -0.0047110756436482184 0 0.00010957962123948312 -0.0047269078060270938 0 0.00011851110452597776 -0.0047462114159952783 0 7.1006335062826786e-05 -0.0047403207794176191 0 0.00010957962123948312 -0.0047269078060270938 0 0.00011851110452597776 -0.0047462114159952783 0 0.00016743191433228659 -0.0048027420264241871 0 0.00011851110452597776 -0.0047462114159952783 0 0.00011661952584338418 -0.0048285467336806592 0 7.1006335062826786e-05 -0.0047403207794176191 0 0.00011851110452597776 -0.0047462114159952783 0 8.1860361969379958e-05 -0.0047788426900627528 0 0.00011851110452597776 -0.0047462114159952783 0 0.00011661952584338418 -0.0048285467336806592 0 5.5502729937490115e-05 -0.0048143419686311958 0 0.00011860146995585152 -0.0047437916528672956 0 4.9818754135671468e-05 -0.0048226002025830274 0 7.9454658071627954e-05 -0.004882123796842215 0 0.00011661952584338418 -0.0048285467336806592 0 5.5502729937490115e-05 -0.0048143419686311958 0 0.00014536884713179838 -0.0048860176910569021 0 0.00016743191433228659 -0.0048027420264241871 0 0.00011661952584338418 -0.0048285467336806592 0 5.0833561278568144e-05 -0.0048155034528822799 0 8.1860361969379958e-05 -0.0047788426900627528 0 3.1227085104962448e-06 -0.0047409124910760877 0 7.1006335062826786e-05 -0.0047403207794176191 0 8.1860361969379958e-05 -0.0047788426900627528 0 3.1227085104962448e-06 -0.0047409124910760877 0 0.0002475333117728696 -0.0047914028679373393 0 4.9818754135671468e-05 -0.0048226002025830274 0 0.00090301391329892025 -0.0043984844624746994 0 0.00054822905144042485 -0.0044901633952880273 0 0.00059798556019545522 -0.0045736545511908056 0 0.00058469772009125585 -0.0045744270149069999 0 0.00059516810002505679 -0.0045875263618896664 0 0.0002475333117728696 -0.0047914028679373393 0 0.00054822905144042485 -0.0044901633952880273 0 0.0011323801688487639 -0.0043133822416901758 0 0.0010780791658758942 -0.0042690031285065591 0 0.0011391769349638674 -0.0042229368029334958 0 0.00054822905144042485 -0.0044901633952880273 0 0.00066799819833493674 -0.0041081526293157292 0 0.00045079459385133412 -0.0043659271963178252 0 0.00045770663705718961 -0.0042866177441270806 0 0.00039564120085680473 -0.0042775481323861506 0 0.0010780791658758942 -0.0042690031285065591 0 0.0010819620828092717 -0.0041999915404636922 0 0.0011391769349638674 -0.0042229368029334958 0 0.0010819620828092717 -0.0041999915404636922 0 0.0011391769349638674 -0.0042229368029334958 0 0.0010972344423336648 -0.0041551150602879179 0 0.0010819620828092717 -0.0041999915404636922 0 0.0010488926977801694 -0.0041657382183633834 0 0.0010769223272403101 -0.0041520252229262228 0 0.00054822905144042485 -0.0044901633952880273 0 -2.5137760000057936e-05 -0.0043814005832272865 0 4.009486709825521e-05 -0.0047198846276116282 0 7.1006335062826786e-05 -0.0047403207794176191 0 3.1227085104962448e-06 -0.0047409124910760877 0 4.009486709825521e-05 -0.0047198846276116282 0 3.1227085104962448e-06 -0.0047409124910760877 0 6.6436672573330438e-06 -0.0046932211564161023 0 0.0019308176124976824 -0.0039306435388270647 0 0.0019940687814491778 -0.0034468506893606584 0 0.0019308176124976824 -0.0039306435388270647 0 0.0024538030894593822 -0.0033697517784158824 0 0.002122642770457392 -0.0035526965818664822 0 0.0021178846419883613 -0.0036155484872942207 0 0.0021849494410169337 -0.0035840110105336133 0 0.0010780791658758942 -0.0042690031285065591 0 0.0010819620828092717 -0.0041999915404636922 0 0.0010409609723518961 -0.0042329359941073973 0 0.0016351571327730312 -0.0039669599840354347 0 0.0015826999988517445 -0.0039358004825884195 0 0.0016479460235743074 -0.0038721134168680747 0 0.0015826999988517445 -0.0039358004825884195 0 0.0016479460235743074 -0.0038721134168680747 0 0.0015918440918244832 -0.0038114591329982414 0 0.001033882570731285 -0.0042998841269402573 0 0.0010780791658758942 -0.0042690031285065591 0 0.0010409609723518961 -0.0042329359941073973 0 0.0014354174195517825 -0.0041329095710994444 0 0.0013411894975651601 -0.0040752452014298926 0 0.0014354174195517825 -0.0041329095710994444 0 0.0019308176124976824 -0.0039306435388270647 0 0.001040219932852795 -0.0043036959805562583 0 0.001033882570731285 -0.0042998841269402573 0 0.0010780791658758942 -0.0042690031285065591 0 0.0010819620828092717 -0.0041999915404636922 0 0.0010409609723518961 -0.0042329359941073973 0 0.0010488926977801694 -0.0041657382183633834 0 0.0013411894975651601 -0.0040752452014298926 0 0.00131963857950299 -0.0038430395118914241 0 0.0016479460235743074 -0.0038721134168680747 0 0.0015918440918244832 -0.0038114591329982414 0 0.0016591081418960616 -0.0037788658954221303 0 0.0019940687814491778 -0.0034468506893606584 0 0.00131963857950299 -0.0038430395118914241 0 0.0024346006444075545 -0.0030797678115651065 0 0.0025687889640241737 -0.0031705798964212972 0 0.0026230713748338842 -0.002991608755803244 0 0.0019940687814491778 -0.0034468506893606584 0 0.0024538030894593822 -0.0033697517784158824 0 0.0019940687814491778 -0.0034468506893606584 0 0.0019991809357029237 -0.0033595888085286066 0 0.0024216399901166841 -0.0032435411847186991 0 0.0025089185052174223 -0.0032963951562184099 0 0.0025687889640241737 -0.0031705798964212972 0 0.0024346006444075545 -0.0030797678115651065 0 0.0024216399901166841 -0.0032435411847186991 0 0.0025687889640241737 -0.0031705798964212972 0 0.0015769625207978286 -0.0034954313667725496 0 0.0015715249628806848 -0.0035216749155275685 0 0.0015610718028385249 -0.0035113967040490252 0 0.0015715249628806848 -0.0035216749155275685 0 0.0015610718028385249 -0.0035113967040490252 0 0.0015526429918432695 -0.0035280727079560238 0 0.0015769625207978286 -0.0034954313667725496 0 0.0015610718028385249 -0.0035113967040490252 0 0.0015555010957624057 -0.0035045096733768957 0 0.0014087311738178844 -0.0036815474480304767 0 0.0012764061380336662 -0.0037027433344521093 0 0.0015610718028385249 -0.0035113967040490252 0 0.0015540657449637347 -0.0035112706427473488 0 0.0015555010957624057 -0.0035045096733768957 0 0.0012764061380336662 -0.0037027433344521093 0 0.00131963857950299 -0.0038430395118914241 0 0.0012560791586463539 -0.003892467507966446 0 0.0012747009675563826 -0.0037620425806417779 0 0.0010558362960771386 -0.003866904705402208 0 0.00131963857950299 -0.0038430395118914241 0 0.00091092110803269637 -0.0039183418439836595 0 0.0012764061380336662 -0.0037027433344521093 0 0.00091092110803269637 -0.0039183418439836595 0 0.0009135679517365857 -0.0038126016153106437 0 0.00091764092978647291 -0.0037788215789660443 0 0.00092876369924647754 -0.0038150506628399413 0 0.0015610718028385249 -0.0035113967040490252 0 0.0015551500999653942 -0.003511003948572173 0 0.0015526429918432695 -0.0035280727079560238 0 0.0012764061380336662 -0.0037027433344521093 0 0.00091463629032685547 -0.003691420816503969 0 0.00091463629032685547 -0.003691420816503969 0 0.00043455475056157397 -0.0036649882695377698 0 0.0015715249628806848 -0.0035216749155275685 0 0.0015526429918432695 -0.0035280727079560238 0 0.0015688152373124513 -0.0035426008419094063 0 0.00091463629032685547 -0.003691420816503969 0 0.0014292855205816513 -0.0034951424479440136 0 0.0015526429918432695 -0.0035280727079560238 0 0.0015654594236470328 -0.0035432629866364246 0 0.0015688152373124513 -0.0035426008419094063 0 0.0019991809357029237 -0.0033595888085286066 0 0.0019715168469878423 -0.0034410430397304298 0 0.0024216399901166841 -0.0032435411847186991 0 0.0025089185052174223 -0.0032963951562184099 0 0.0024055250736038725 -0.0034140186320759328 0 0.0025089185052174223 -0.0032963951562184099 0 0.0024055250736038725 -0.0034140186320759328 0 0.0026379673420611825 -0.0033606508454383866 0 -0.00045831891697139425 -0.0043126124199734488 0 -0.00055840218620526372 -0.0043618486497569954 0 -0.00051104269093638955 -0.0043992778446108509 0 -5.8713470965976943e-05 -0.0040923113101832926 0 -2.5137760000057936e-05 -0.0043814005832272865 0 -0.00055840218620526372 -0.0043618486497569954 0 -0.00051104269093638955 -0.0043992778446108509 0 -0.00056531923811832085 -0.004422872050571805 0 8.1938755175132145e-05 -0.0042940092683880918 0 0.00010814126521366962 -0.004036133160678676 0 0.00039028134503488052 -0.0040715619611345301 0 8.9336983271031341e-05 -0.0037937136495445529 0 0.00024759058399148875 -0.0037189677446230751 0 0.00020511796778480932 -0.0038923538767197566 0 -2.5137760000057936e-05 -0.0043814005832272865 0 0.00066799819833493674 -0.0041081526293157292 0 0.0010819620828092717 -0.0041999915404636922 0 0.0010972344423336648 -0.0041551150602879179 0 0.0010769223272403101 -0.0041520252229262228 0 0.00059963960687941771 -0.0039702723452298876 0 0.00064547305024417799 -0.0040411309047705037 0 0.00075285788034749803 -0.003989342954697917 0 0.00066799819833493674 -0.0041081526293157292 0 0.00091092110803269637 -0.0039183418439836595 0 0.00066799819833493674 -0.0041081526293157292 0 0.00056110278114450472 -0.003934640308589029 0 0.00056110278114450472 -0.003934640308589029 0 0.00091092110803269637 -0.0039183418439836595 0 0.00091463629032685547 -0.003691420816503969 0 0.00056110278114450472 -0.003934640308589029 0 0.00091764092978647291 -0.0037788215789660443 0 0.00093705329728999923 -0.003810959931002016 0 0.00092876369924647754 -0.0038150506628399413 0 -5.8713470965976943e-05 -0.0040923113101832926 0 0.00056110278114450472 -0.003934640308589029 0 8.1938755175132145e-05 -0.0042940092683880918 0 0.00039028134503488052 -0.0040715619611345301 0 0.00042743931607015865 -0.0041288777398655763 0 0.00033697320930004573 -0.0038563977420952257 0 0.00024759058399148875 -0.0037189677446230751 0 0.00020511796778480932 -0.0038923538767197566 0 0.00033697320930004573 -0.0038563977420952257 0 0.00020511796778480932 -0.0038923538767197566 0 0.000309459053488884 -0.0040385963077412919 0 0.00020511796778480932 -0.0038923538767197566 0 7.1351467935316148e-05 -0.0039556914045025295 0 0.00017498589313820487 -0.0039909919134837385 0 -0.00035322177334837934 -0.004124759310363285 0 -5.8713470965976943e-05 -0.0040923113101832926 0 -5.8713470965976943e-05 -0.0040923113101832926 0 7.6271300938040318e-05 -0.0038420036920875328 0 8.9336983271031341e-05 -0.0037937136495445529 0 0.00020511796778480932 -0.0038923538767197566 0 7.1351467935316148e-05 -0.0039556914045025295 0 -9.6182829533340193e-05 -0.0038907049637688079 0 8.3971070995642998e-05 -0.0038066107420001763 0 7.1351467935316148e-05 -0.0039556914045025295 0 2.8524508107213547e-05 -0.0038348385153008182 0 -0.00019209075266672074 -0.003831560685774392 0 7.1351467935316148e-05 -0.0039556914045025295 0 0.00011219586283825787 -0.0040790776772247966 0 -7.7363882107451168e-05 -0.0041161686151719983 0 7.1351467935316148e-05 -0.0039556914045025295 0 0.00011219586283825787 -0.0040790776772247966 0 0.00017498589313820487 -0.0039909919134837385 0 2.8524508107213547e-05 -0.0038348385153008182 0 0.00043455475056157397 -0.0036649882695377698 0 0.00011219586283825787 -0.0040790776772247966 0 0.00017498589313820487 -0.0039909919134837385 0 0.000309459053488884 -0.0040385963077412919 0 0.00020511796778480932 -0.0038923538767197566 0 0.00017498589313820487 -0.0039909919134837385 0 0.000309459053488884 -0.0040385963077412919 0 0.0004259581110583635 -0.0035622438236778552 0 0.00043455475056157397 -0.0036649882695377698 0 5.346226042476839e-05 -0.0036304555828818971 0 -1.7685732710994269e-05 -0.0036154065791541177 0 -5.3540630564083926e-06 -0.0036561095890610658 0 -1.9987294371159736e-06 -0.0035699651924220501 0 5.346226042476839e-05 -0.0036304555828818971 0 6.7166008891021641e-05 -0.0035558578114295242 0 -1.9987294371159736e-06 -0.0035699651924220501 0 5.346226042476839e-05 -0.0036304555828818971 0 -1.7685732710994269e-05 -0.0036154065791541177 0 -1.7685732710994269e-05 -0.0036154065791541177 0 -5.3540630564083926e-06 -0.0036561095890610658 0 -6.4494864380063697e-05 -0.0036356126163174683 0 -1.9987294371159736e-06 -0.0035699651924220501 0 -1.7685732710994269e-05 -0.0036154065791541177 0 -6.9308082340610412e-05 -0.0035846646812971688 0 0.0025127498558420794 -0.0033928510838587681 0 0.0023773373838228236 -0.0033617441220436719 0 0.0026246335818428091 -0.003316633653189177 0 0.0025127498558420794 -0.0033928510838587681 0 0.0023746220134895795 -0.0034010718895023033 0 0.0024968195699750333 -0.0035840100743992315 0 0.0019715168469878423 -0.0034410430397304298 0 0.0027302096561553982 -0.0033218835691583644 0 0.0025127498558420794 -0.0033928510838587681 0 0.0023746220134895795 -0.0034010718895023033 0 0.0023773373838228236 -0.0033617441220436719 0 0.00090835576232959996 -0.0035412963702022653 0 0.00097292520522917342 -0.0036387016740364918 0 0.00089098087734018725 -0.0036557838360034003 0 0.00083107697053156043 -0.0034101085071509244 0 0.00079231662238211963 -0.003440921132610548 0 0.00082289832448417105 -0.0034857595790041755 0 0.00083107697053156043 -0.0034101085071509244 0 0.00081913873741662111 -0.0033917609583305757 0 0.00079231662238211963 -0.003440921132610548 0 0.0017131295225492917 -0.0034558030765188892 0 0.0019715168469878423 -0.0034410430397304298 0 0.0017131295225492917 -0.0034558030765188892 0 0.0014292855205816513 -0.0034951424479440136 0 0.0016987046205370841 -0.0033962162667862056 0 0.0018682268471405421 -0.0036601665443915794 0 0.0016760827719868119 -0.0037004431333213265 0 0.0014292855205816513 -0.0034951424479440136 0 0.0019715168469878423 -0.0034410430397304298 0 0.0014292855205816513 -0.0034951424479440136 0 0.00043455475056157397 -0.0036649882695377698 0 0.00081913873741662111 -0.0033917609583305757 0 0.00075398383454478946 -0.003405096818226149 0 0.00079231662238211963 -0.003440921132610548 0 0.00073441920219111481 -0.0035116684461862688 0 0.00082289832448417105 -0.0034857595790041755 0 0.00081573572035610142 -0.0035629251253857302 0 0.00073441920219111481 -0.0035116684461862688 0 0.00075398383454478946 -0.003405096818226149 0 0.00079231662238211963 -0.003440921132610548 0 0.00073441920219111481 -0.0035116684461862688 0 0.00079231662238211963 -0.003440921132610548 0 0.00082289832448417105 -0.0034857595790041755 0 0.0017131295225492917 -0.0034558030765188892 0 0.0012843842869503727 -0.0034327615208031965 0 0.0017202424197410087 -0.0032956135799402722 0 0.0017167998899831809 -0.0033358921263269637 0 0.0017581509435644308 -0.0033487134301366929 0 0.0017167998899831809 -0.0033358921263269637 0 0.0017581509435644308 -0.0033487134301366929 0 0.0017116707993814206 -0.0033773300404358292 0 0.0017131295225492917 -0.0034558030765188892 0 0.0023833819553663719 -0.0031873142734471197 0 0.0019519679352566028 -0.0028125475851562753 0 0.0018997155872533204 -0.0030542417710886271 0 0.0021080125943135834 -0.0030520458533594337 0 0.0023833819553663719 -0.0031873142734471197 0 0.0012925735378786854 -0.0032633131217549385 0 0.0019519679352566028 -0.0028125475851562753 0 0.0018997155872533204 -0.0030542417710886271 0 0.0017092610274649811 -0.0029704401298468663 0 0.0018997155872533204 -0.0030542417710886271 0 0.0017092610274649811 -0.0029704401298468663 0 0.0016900605950856602 -0.0031942923968974095 0 0.00073441920219111481 -0.0035116684461862688 0 0.00081573572035610142 -0.0035629251253857302 0 0.00071184103887618716 -0.0036231256769985163 0 0.0012925735378786854 -0.0032633131217549385 0 -6.2114426419141813e-05 -0.003489264597871381 0 0.0012925735378786854 -0.0032633131217549385 0 0.00098439662486548402 -0.0029696115562560712 0 0.0012843842869503727 -0.0034327615208031965 0 0.0012925735378786854 -0.0032633131217549385 0 0.00098439662486548402 -0.0029696115562560712 0 -6.2114426419141813e-05 -0.003489264597871381 0 0.00096323076366738002 -0.0029550075845985956 0 0.00092283357162055478 -0.003474741341675597 0 0.00029644024081330536 -0.0033657906467169023 0 -0.00049525173250669424 -0.0033003130264717077 0 -0.00051900355098120064 -0.0033160362346425372 0 -0.00047821575233796438 -0.0033220596761395146 0 0.00098439662486548402 -0.0029696115562560712 0 0.0019697828377860018 -0.0028389312552072172 0 0.0018997155872533204 -0.0030542417710886271 0 0.0016900605950856602 -0.0031942923968974095 0 0.001979193128466073 -0.0032434285469804675 0 0.0016693809962428354 -0.0024060132952108491 0 0.0018306689945471446 -0.0024297971861928802 0 0.0017752063334143314 -0.0025305959865850039 0 -5.3540630564083926e-06 -0.0036561095890610658 0 4.0274859658580833e-05 -0.003703199868793763 0 -6.0542176085798216e-05 -0.0036865771979684037 0 -5.3540630564083926e-06 -0.0036561095890610658 0 -6.0542176085798216e-05 -0.0036865771979684037 0 -6.4494864380063697e-05 -0.0036356126163174683 0 0.0004259581110583635 -0.0035622438236778552 0 -6.2114426419141813e-05 -0.003489264597871381 0 5.346226042476839e-05 -0.0036304555828818971 0 -5.3540630564083926e-06 -0.0036561095890610658 0 4.0274859658580833e-05 -0.003703199868793763 0 -0.00049525173250669424 -0.0033003130264717077 0 -0.00047821575233796438 -0.0033220596761395146 0 -0.00047823648707127903 -0.0032840179433176594 0 -0.00049333617153536331 -0.0034051151661985881 0 -0.00046431906904995611 -0.0033498802821772073 0 -0.00047823648707127903 -0.0032840179433176594 0 -0.00050205077525672696 -0.0034196074111637678 0 -0.00049333617153536331 -0.0034051151661985881 0 -0.00047823648707127903 -0.0032840179433176594 0 -6.2114426419141813e-05 -0.003489264597871381 0 -0.00050133106024037848 -0.0032693125021481992 0 -6.2114426419141813e-05 -0.003489264597871381 0 -9.4293198967172057e-05 -0.0035023367462812954 0 -0.00049333617153536331 -0.0034051151661985881 0 -0.00046431906904995611 -0.0033498802821772073 0 -0.00041747856722040871 -0.0033510553684153277 0 -0.00049333617153536331 -0.0034051151661985881 0 -0.00041747856722040871 -0.0033510553684153277 0 -0.00037792442539187659 -0.0033941187855751447 0 -6.2114426419141813e-05 -0.003489264597871381 0 -0.00029160770745407919 -0.0035768815032339576 0 -0.00049968839943000825 -0.003416544020970397 0 -0.00049333617153536331 -0.0034051151661985881 0 -0.0003323648867730089 -0.003464039706927163 0 -0.00049333617153536331 -0.0034051151661985881 0 -0.00037792442539187659 -0.0033941187855751447 0 -0.0003323648867730089 -0.003464039706927163 0 -0.00041747856722040871 -0.0033510553684153277 0 -0.00037792442539187659 -0.0033941187855751447 0 -0.00035193140555010558 -0.0033457137204874129 0 -0.00029687086493015161 -0.003376138938396946 0 -0.00033979986394356497 -0.0034259421797004411 0 -0.00035193140555010558 -0.0033457137204874129 0 -0.00037792442539187659 -0.0033941187855751447 0 -0.00033979986394356497 -0.0034259421797004411 0 -0.00035193140555010558 -0.0033457137204874129 0 -0.00029687086493015161 -0.003376138938396946 0 -0.00034132521122776609 -0.003486391428974207 0 -0.00023912096698303672 -0.003391205141326366 0 -0.00029687086493015161 -0.003376138938396946 0 -0.00033979986394356497 -0.0034259421797004411 0 -0.00034132521122776609 -0.003486391428974207 0 -0.00037792442539187659 -0.0033941187855751447 0 -0.00033979986394356497 -0.0034259421797004411 0 -0.0003323648867730089 -0.003464039706927163 0 -0.00031611452079317474 -0.0034578536762397767 0 -0.00029160770745407919 -0.0035768815032339576 0 -0.00042146312952752939 -0.0035314646141355144 0 -0.00040738211511001735 -0.0036820075091355368 0 -0.00028218743800345142 -0.0036843241930465298 0 -0.00029160770745407919 -0.0035768815032339576 0 -0.00023794555731274436 -0.0036453264836327779 0 -0.00042146312952752939 -0.0035314646141355144 0 -0.00018188251520283937 -0.0035705945700237117 0 -0.00028218743800345142 -0.0036843241930465298 0 -0.00029160770745407919 -0.0035768815032339576 0 -0.00022767687726100961 -0.0035467239885116279 0 -0.00034132521122776609 -0.003486391428974207 0 -0.00018188251520283937 -0.0035705945700237117 0 -0.00017067339970864496 -0.0034575639431967506 0 -0.00034132521122776609 -0.003486391428974207 0 -0.00017067339970864496 -0.0034575639431967506 0 -0.00023912096698303672 -0.003391205141326366 0 -0.00017067339970864496 -0.0034575639431967506 0 -0.00023912096698303672 -0.003391205141326366 0 -0.00015169880763686735 -0.0033374497605575195 0 -0.00017067339970864496 -0.0034575639431967506 0 -4.6170874618887101e-05 -0.0033941754423271998 0 -3.8972247558328186e-05 -0.0035833374379843881 0 -0.00017067339970864496 -0.0034575639431967506 0 -4.6170874618887101e-05 -0.0033941754423271998 0 -0.00015169880763686735 -0.0033374497605575195 0 -4.6170874618887101e-05 -0.0033941754423271998 0 7.3175477260720991e-05 -0.0034297323827175521 0 -3.8972247558328186e-05 -0.0035833374379843881 0 7.3175477260720991e-05 -0.0034297323827175521 0 9.2684077787097099e-05 -0.0035638547402103093 0 -3.8972247558328186e-05 -0.0035833374379843881 0 0.00010608329262929964 -0.0036954312649041515 0 -3.8972247558328186e-05 -0.0035833374379843881 0 1.325106135250246e-05 -0.0037743708742415966 0 0.00010608329262929964 -0.0036954312649041515 0 9.2684077787097099e-05 -0.0035638547402103093 0 -3.8972247558328186e-05 -0.0035833374379843881 0 -0.00018188251520283937 -0.0035705945700237117 0 -3.8972247558328186e-05 -0.0035833374379843881 0 -0.00017853886553613154 -0.00378776341315731 0 -0.00018188251520283937 -0.0035705945700237117 0 -0.00017067339970864496 -0.0034575639431967506 0 -3.8972247558328186e-05 -0.0035833374379843881 0 1.7740496674040484e-05 -0.0037711796341641339 0 -0.00021954151692090771 -0.0038111846293290225 0 -3.8972247558328186e-05 -0.0035833374379843881 0 1.325106135250246e-05 -0.0037743708742415966 0 -0.00017853886553613154 -0.00378776341315731 0 1.325106135250246e-05 -0.0037743708742415966 0 -2.2271066923520959e-05 -0.0038996606671165704 0 -0.00018487278904489793 -0.0038205019782966239 0 0.00014928259395525175 -0.0038545244796449221 0 1.325106135250246e-05 -0.0037743708742415966 0 -2.2271066923520959e-05 -0.0038996606671165704 0 0.00014928259395525175 -0.0038545244796449221 0 0.00010608329262929964 -0.0036954312649041515 0 1.325106135250246e-05 -0.0037743708742415966 0 0.00013484933778280515 -0.0038604266089455222 0 -4.8923581485443434e-05 -0.003949184430809191 0 7.7709206517940807e-05 -0.004123491501347107 0 0.00014928259395525175 -0.0038545244796449221 0 -9.5203974646411541e-05 -0.004003556696858662 0 7.7709206517940807e-05 -0.004123491501347107 0 -0.00015169719356894623 -0.0041661163474482179 0 -9.5203974646411541e-05 -0.004003556696858662 0 -4.8923581485443434e-05 -0.003949184430809191 0 -0.00025731812797322032 -0.0040603107374381376 0 -0.00015169719356894623 -0.0041661163474482179 0 -9.5203974646411541e-05 -0.004003556696858662 0 -0.00029658430731150309 -0.0041312711466384433 0 -2.2271066923520959e-05 -0.0038996606671165704 0 -0.00019262114126923407 -0.0039802766715382179 0 -0.00018487278904489793 -0.0038205019782966239 0 -0.00029188228521015067 -0.0039431433834949611 0 -0.00037531061094158753 -0.0038623508083447835 0 -0.00018487278904489793 -0.0038205019782966239 0 -0.00019262114126923407 -0.0039802766715382179 0 -0.00029188228521015067 -0.0039431433834949611 0 -0.00018487278904489793 -0.0038205019782966239 0 -0.00035322177334837934 -0.004124759310363285 0 -0.00019209075266672074 -0.003831560685774392 0 -9.6182829533340193e-05 -0.0038907049637688079 0 7.1351467935316148e-05 -0.0039556914045025295 0 -7.7363882107451168e-05 -0.0041161686151719983 0 -0.00035866130247572922 -0.0040600066006112132 0 -0.00029188228521015067 -0.0039431433834949611 0 -0.00037531061094158753 -0.0038623508083447835 0 -1.7685732710994269e-05 -0.0036154065791541177 0 -6.9308082340610412e-05 -0.0035846646812971688 0 -6.4494864380063697e-05 -0.0036356126163174683 0 -0.00019209075266672074 -0.003831560685774392 0 -0.00023794555731274436 -0.0036453264836327779 0 -0.0003931022756103691 -0.0038300353002830296 0 -0.00040738211511001735 -0.0036820075091355368 0 -0.00028218743800345142 -0.0036843241930465298 0 -0.00019209075266672074 -0.003831560685774392 0 -0.00021954151692090771 -0.0038111846293290225 0 -0.00018188251520283937 -0.0035705945700237117 0 -0.00017853886553613154 -0.00378776341315731 0 -0.00028218743800345142 -0.0036843241930465298 0 -0.0003931022756103691 -0.0038300353002830296 0 -0.00017853886553613154 -0.00378776341315731 0 -0.00028218743800345142 -0.0036843241930465298 0 0.0037578158188425479 -0.0031546871669910319 0 0.0037279439413015801 -0.0030759802136923566 0 0.0029671635571781058 -0.0030761044328227937 0 0.0029305892442469594 -0.0031457986301453712 0 0.0028952893330036603 -0.0030534527070587088 0 0.004582224513432571 -0.0031748833014916241 0 0.0045373564843162748 -0.003175517157146666 0 0.0045814705551411143 -0.0030715179040488568 0 0.0029671635571781058 -0.0030761044328227937 0 0.0029305892442469594 -0.0031457986301453712 0 0.002989699476937272 -0.0031338593812772373 0 0.0029305892442469594 -0.0031457986301453712 0 0.002989699476937272 -0.0031338593812772373 0 0.0029805472852041819 -0.0031845054134767006 0 0.004582224513432571 -0.0031748833014916241 0 0.0045373564843162748 -0.003175517157146666 0 0.0045445839645963616 -0.0032390719170804958 0 0.0045373564843162748 -0.003175517157146666 0 0.0044663168740469153 -0.0031926260024084828 0 0.0045075194449021912 -0.0032362720967107459 0 0.0045373564843162748 -0.003175517157146666 0 0.0044663168740469153 -0.0031926260024084828 0 0.004505563680341885 -0.0031312531417284546 0 0.0045373564843162748 -0.003175517157146666 0 0.004505563680341885 -0.0031312531417284546 0 0.0045814705551411143 -0.0030715179040488568 0 0.004505563680341885 -0.0031312531417284546 0 0.0045250148030836993 -0.0030443739728765349 0 0.0045814705551411143 -0.0030715179040488568 0 0.0045250148030836993 -0.0030443739728765349 0 0.0045648447719993067 -0.0029558098704162801 0 0.0045814705551411143 -0.0030715179040488568 0 0.0045250148030836993 -0.0030443739728765349 0 0.004500591897520119 -0.0029640230347628073 0 0.0044669320477998421 -0.003045799835657061 0 0.004505563680341885 -0.0031312531417284546 0 0.0045250148030836993 -0.0030443739728765349 0 0.0044669320477998421 -0.003045799835657061 0 0.0045250148030836993 -0.0030443739728765349 0 0.004500591897520119 -0.0029640230347628073 0 0.0045648447719993067 -0.0029558098704162801 0 0.0037963222247922391 -0.0028720732582680369 0 0.0037279439413015801 -0.0030759802136923566 0 0.002857476774895432 -0.0029586989119444007 0 0.0028727749348033647 -0.0029697840417743007 0 0.0028952893330036603 -0.0030534527070587088 0 0.0037963222247922391 -0.0028720732582680369 0 0.0032956817043851782 -0.0027314822996231591 0 0.0028479183092897627 -0.0029582318320300065 0 0.0028727749348033647 -0.0029697840417743007 0 0.0028892225922295591 -0.0029217532946930183 0 0.0029240998408507014 -0.0029586109040389257 0 0.0028952893330036603 -0.0030534527070587088 0 0.0029766093376533301 -0.0029863099488607156 0 0.0028727749348033647 -0.0029697840417743007 0 0.0029240998408507014 -0.0029586109040389257 0 0.0028952893330036603 -0.0030534527070587088 0 0.0028727749348033647 -0.0029697840417743007 0 0.0029240998408507014 -0.0029586109040389257 0 0.0028892225922295591 -0.0029217532946930183 0 0.0029671635571781058 -0.0030761044328227937 0 0.0028952893330036603 -0.0030534527070587088 0 0.0029766093376533301 -0.0029863099488607156 0 0.0029671635571781058 -0.0030761044328227937 0 0.0029766093376533301 -0.0029863099488607156 0 0.0030034581126110568 -0.0030430110213408735 0 0.0029766093376533301 -0.0029863099488607156 0 0.0030231713702556667 -0.0030073443141982827 0 0.0030389727577775742 -0.0029674132857305459 0 0.0030389727577775742 -0.0029674132857305459 0 0.0030583757979222967 -0.0029919672085408182 0 0.0030792811081726159 -0.0029737510372332592 0 0.0030583757979222967 -0.0029919672085408182 0 0.0030591847949572298 -0.0030274198877928461 0 0.0030885816161035379 -0.0030033264921130501 0 0.0030583757979222967 -0.0029919672085408182 0 0.0030792811081726159 -0.0029737510372332592 0 0.0030885816161035379 -0.0030033264921130501 0 0.0030231713702556667 -0.0030073443141982827 0 0.0030583757979222967 -0.0029919672085408182 0 0.0030591847949572298 -0.0030274198877928461 0 0.0030231713702556667 -0.0030073443141982827 0 0.0030389727577775742 -0.0029674132857305459 0 0.0030583757979222967 -0.0029919672085408182 0 0.0030231713702556667 -0.0030073443141982827 0 0.0030591847949572298 -0.0030274198877928461 0 0.0030357972982720158 -0.0030544259201182862 0 0.0030591847949572298 -0.0030274198877928461 0 0.0030697602666751333 -0.0030611654573588611 0 0.0030941537026665787 -0.0030415550022192001 0 0.0030591847949572298 -0.0030274198877928461 0 0.0030697602666751333 -0.0030611654573588611 0 0.0030357972982720158 -0.0030544259201182862 0 0.0029766093376533301 -0.0029863099488607156 0 0.0030231713702556667 -0.0030073443141982827 0 0.0030034581126110568 -0.0030430110213408735 0 0.0030357972982720158 -0.0030544259201182862 0 0.0030034581126110568 -0.0030430110213408735 0 0.003012950373483377 -0.0030902767947654989 0 0.0030231713702556667 -0.0030073443141982827 0 0.0030357972982720158 -0.0030544259201182862 0 0.0030034581126110568 -0.0030430110213408735 0 0.001979193128466073 -0.0032434285469804675 0 0.002265270408107283 -0.003290722013834122 0 0.0021080125943135834 -0.0030520458533594337 0 0.0018306689945471446 -0.0024297971861928802 0 0.0019937957244826232 -0.00245626219923255 0 0.0018808230899705599 -0.00251084054501602 0 0.0031081921541452275 -0.0029787236446209794 0 0.0031113034488880137 -0.0029598807210459363 0 0.0031450940521738583 -0.0030240666638652364 0 0.0019697828377860018 -0.0028389312552072172 0 0.0024158654970043167 -0.0029553453429899132 0 0.0024158654970043167 -0.0029553453429899132 0 0.002654031905068961 -0.0030579366071521031 0 0.0018997155872533204 -0.0030542417710886271 0 0.001979193128466073 -0.0032434285469804675 0 0.0021080125943135834 -0.0030520458533594337 0 0.0031081921541452275 -0.0029787236446209794 0 0.0031118425602388836 -0.0030218776692163174 0 0.0031450940521738583 -0.0030240666638652364 0 0.0031081921541452275 -0.0029787236446209794 0 0.0030885816161035379 -0.0030033264921130501 0 0.0031118425602388836 -0.0030218776692163174 0 0.0031081921541452275 -0.0029787236446209794 0 0.0031113034488880137 -0.0029598807210459363 0 0.003095645588055865 -0.0029496322456602758 0 0.0024158654970043167 -0.0029553453429899132 0 0.0025116952411407211 -0.0029674554425108265 0 0.0031081921541452275 -0.0029787236446209794 0 0.0030792811081726159 -0.0029737510372332592 0 0.0030885816161035379 -0.0030033264921130501 0 0.0031081921541452275 -0.0029787236446209794 0 0.0030792811081726159 -0.0029737510372332592 0 0.0030855978735452524 -0.0029412471062685349 0 0.0030885816161035379 -0.0030033264921130501 0 0.0030941537026665787 -0.0030415550022192001 0 0.0031118425602388836 -0.0030218776692163174 0 0.0030591847949572298 -0.0030274198877928461 0 0.0030885816161035379 -0.0030033264921130501 0 0.0030941537026665787 -0.0030415550022192001 0 0.0030697602666751333 -0.0030611654573588611 0 0.0030941537026665787 -0.0030415550022192001 0 0.0030938002006315711 -0.0030749347303449946 0 0.0030941537026665787 -0.0030415550022192001 0 0.0031241282360612984 -0.0030590555316414203 0 0.0030938002006315711 -0.0030749347303449946 0 0.0030941537026665787 -0.0030415550022192001 0 0.0031118425602388836 -0.0030218776692163174 0 0.0031241282360612984 -0.0030590555316414203 0 0.0023833819553663719 -0.0031873142734471197 0 0.002654031905068961 -0.0030579366071521031 0 0.0031698209468537138 -0.003072418614784658 0 0.0031241282360612984 -0.0030590555316414203 0 0.0031450940521738583 -0.0030240666638652364 0 0.0031118425602388836 -0.0030218776692163174 0 0.0031241282360612984 -0.0030590555316414203 0 0.0031450940521738583 -0.0030240666638652364 0 0.0025127498558420794 -0.0033928510838587681 0 0.0024968195699750333 -0.0035840100743992315 0 0.0026827164430982143 -0.0034630374503846063 0 0.0031698209468537138 -0.003072418614784658 0 0.0031241282360612984 -0.0030590555316414203 0 0.0031176369697929573 -0.0031154993195761363 0 0.0023833819553663719 -0.0031873142734471197 0 0.00297409213135468 -0.003285767652946631 0 0.0031176369697929573 -0.0031154993195761363 0 0.003061691928026895 -0.0030970197626086671 0 0.0030689256729963784 -0.0031284371068108201 0 0.0030938002006315711 -0.0030749347303449946 0 0.0031176369697929573 -0.0031154993195761363 0 0.003061691928026895 -0.0030970197626086671 0 0.0031241282360612984 -0.0030590555316414203 0 0.0030938002006315711 -0.0030749347303449946 0 0.0031176369697929573 -0.0031154993195761363 0 0.0026827164430982143 -0.0034630374503846063 0 0.0027457472649485845 -0.0033568893551290239 0 0.0028533236410665632 -0.0033504667771367745 0 0.0031176369697929573 -0.0031154993195761363 0 0.0030689256729963784 -0.0031284371068108201 0 0.0030604653578701979 -0.003168403861902324 0 0.00297409213135468 -0.003285767652946631 0 0.0029398671747147315 -0.0032626456152318509 0 0.0026827164430982143 -0.0034630374503846063 0 0.0027457472649485845 -0.0033568893551290239 0 0.0026246335818428091 -0.003316633653189177 0 0.0025127498558420794 -0.0033928510838587681 0 0.0026827164430982143 -0.0034630374503846063 0 0.0026246335818428091 -0.003316633653189177 0 0.0029671635571781058 -0.0030761044328227937 0 0.003012950373483377 -0.0030902767947654989 0 0.002989699476937272 -0.0031338593812772373 0 0.003012950373483377 -0.0030902767947654989 0 0.0030332420997733842 -0.0031328985386325022 0 0.002989699476937272 -0.0031338593812772373 0 0.0029671635571781058 -0.0030761044328227937 0 0.0030034581126110568 -0.0030430110213408735 0 0.003012950373483377 -0.0030902767947654989 0 0.003012950373483377 -0.0030902767947654989 0 0.003061691928026895 -0.0030970197626086671 0 0.0030332420997733842 -0.0031328985386325022 0 0.0030357972982720158 -0.0030544259201182862 0 0.003012950373483377 -0.0030902767947654989 0 0.003061691928026895 -0.0030970197626086671 0 0.0030697602666751333 -0.0030611654573588611 0 0.0030357972982720158 -0.0030544259201182862 0 0.003061691928026895 -0.0030970197626086671 0 0.0030697602666751333 -0.0030611654573588611 0 0.0030938002006315711 -0.0030749347303449946 0 0.003061691928026895 -0.0030970197626086671 0 0.0030332420997733842 -0.0031328985386325022 0 0.0030689256729963784 -0.0031284371068108201 0 0.0030604653578701979 -0.003168403861902324 0 0.003061691928026895 -0.0030970197626086671 0 0.0030332420997733842 -0.0031328985386325022 0 0.0030689256729963784 -0.0031284371068108201 0 0.0030332420997733842 -0.0031328985386325022 0 0.0030604653578701979 -0.003168403861902324 0 0.0030080695125838538 -0.0031685570928105867 0 0.0030332420997733842 -0.0031328985386325022 0 0.0030080695125838538 -0.0031685570928105867 0 0.002989699476937272 -0.0031338593812772373 0 0.0030080695125838538 -0.0031685570928105867 0 0.002989699476937272 -0.0031338593812772373 0 0.0029805472852041819 -0.0031845054134767006 0 0.0029771558598765398 -0.0032244771770462955 0 0.0028511498812005902 -0.0032884276001896992 0 0.0029049612764038097 -0.0032150406549159888 0 0.0030604653578701979 -0.003168403861902324 0 0.0030080695125838538 -0.0031685570928105867 0 0.0029771558598765398 -0.0032244771770462955 0 0.0030080695125838538 -0.0031685570928105867 0 0.0029805472852041819 -0.0031845054134767006 0 0.0029771558598765398 -0.0032244771770462955 0 0.0029398671747147315 -0.0032626456152318509 0 0.0029814626803959785 -0.0032274856375749616 0 0.0028533236410665632 -0.0033504667771367745 0 0.0029771558598765398 -0.0032244771770462955 0 0.0028511498812005902 -0.0032884276001896992 0 0.0027457472649485845 -0.0033568893551290239 0 0.0028533236410665632 -0.0033504667771367745 0 0.0028511498812005902 -0.0032884276001896992 0 0.0028511498812005902 -0.0032884276001896992 0 0.002823234130240747 -0.0032083011816584376 0 0.0027570707245312878 -0.0032638519404975855 0 0.0028511498812005902 -0.0032884276001896992 0 0.0029049612764038097 -0.0032150406549159888 0 0.002823234130240747 -0.0032083011816584376 0 0.0029049612764038097 -0.0032150406549159888 0 0.002823234130240747 -0.0032083011816584376 0 0.0029020729975564249 -0.0031664708866174919 0 0.002823234130240747 -0.0032083011816584376 0 0.0029020729975564249 -0.0031664708866174919 0 0.0027675455140885215 -0.0030733569003087323 0 0.0029482380463204008 -0.0031922959366208013 0 0.0029561596164495788 -0.0031399304789484681 0 0.0029784878826621258 -0.0032212913220633211 0 0.0029020729975564249 -0.0031664708866174919 0 0.0029482380463204008 -0.0031922959366208013 0 0.0029561596164495788 -0.0031399304789484681 0 0.0029771558598765398 -0.0032244771770462955 0 0.0029482380463204008 -0.0031922959366208013 0 0.0029784878826621258 -0.0032212913220633211 0 0.0029771558598765398 -0.0032244771770462955 0 0.0029049612764038097 -0.0032150406549159888 0 0.0029482380463204008 -0.0031922959366208013 0 0.0029049612764038097 -0.0032150406549159888 0 0.0029020729975564249 -0.0031664708866174919 0 0.0029482380463204008 -0.0031922959366208013 0 0.0025089185052174223 -0.0032963951562184099 0 0.0026379673420611825 -0.0033606508454383866 0 0.0025687889640241737 -0.0031705798964212972 0 0.0026379673420611825 -0.0033606508454383866 0 0.0027570707245312878 -0.0032638519404975855 0 0.0027104367821229949 -0.0032012273260215909 0 0.0028511498812005902 -0.0032884276001896992 0 0.0026379673420611825 -0.0033606508454383866 0 0.0027570707245312878 -0.0032638519404975855 0 0.0027457472649485845 -0.0033568893551290239 0 0.0028511498812005902 -0.0032884276001896992 0 0.0026246335818428091 -0.003316633653189177 0 0.0027956110593158182 -0.0032997645784773096 0 0.0027302096561553982 -0.0033218835691583644 0 0.0027104367821229949 -0.0032012273260215909 0 0.0026679554679304271 -0.003109502558002086 0 0.0027675455140885215 -0.0030733569003087323 0 0.002823234130240747 -0.0032083011816584376 0 0.0027104367821229949 -0.0032012273260215909 0 0.0027675455140885215 -0.0030733569003087323 0 0.002823234130240747 -0.0032083011816584376 0 0.0027570707245312878 -0.0032638519404975855 0 0.0027104367821229949 -0.0032012273260215909 0 0.0026379673420611825 -0.0033606508454383866 0 0.0027104367821229949 -0.0032012273260215909 0 0.0025687889640241737 -0.0031705798964212972 0 0.0027104367821229949 -0.0032012273260215909 0 0.0025687889640241737 -0.0031705798964212972 0 0.0026679554679304271 -0.003109502558002086 0 0.0025687889640241737 -0.0031705798964212972 0 0.0026679554679304271 -0.003109502558002086 0 0.0026230713748338842 -0.002991608755803244 0 0.0028546722662006643 -0.003150429799245381 0 0.002798150137569962 -0.0031244423661084086 0 0.0028801135365256903 -0.0031060723353654078 0 0.0028318208532049738 -0.0031047904266643003 0 0.0024538030894593822 -0.0033697517784158824 0 0.0026679554679304271 -0.003109502558002086 0 0.0027675455140885215 -0.0030733569003087323 0 0.0026230713748338842 -0.002991608755803244 0 0.0024538030894593822 -0.0033697517784158824 0 0.0025297515149266835 -0.0035660010364694482 0 0.002798150137569962 -0.0031244423661084086 0 0.0028801135365256903 -0.0031060723353654078 0 0.0028825757226458807 -0.0030859821794708966 0 0.0021271993778730542 -0.0038273845182762358 0 0.0019219064563203165 -0.0039268460391787509 0 0.0020556764359010104 -0.0039839255773035974 0 0.0022822747128921632 -0.003919015756990764 0 0.0021271993778730542 -0.0038273845182762358 0 0.002165790251254125 -0.003973039953711433 0 0.0021271993778730542 -0.0038273845182762358 0 0.002165790251254125 -0.003973039953711433 0 0.0020556764359010104 -0.0039839255773035974 0 0.0029020729975564249 -0.0031664708866174919 0 0.0029561596164495788 -0.0031399304789484681 0 0.0029045190979534743 -0.0031316823224779764 0 0.0029020729975564249 -0.0031664708866174919 0 0.0028546722662006643 -0.003150429799245381 0 0.0029045190979534743 -0.0031316823224779764 0 0.0028872087765921812 -0.0031587744449815911 0 0.0028318208532049738 -0.0031047904266643003 0 0.0028546722662006643 -0.003150429799245381 0 0.0029045190979534743 -0.0031316823224779764 0 0.0028801135365256903 -0.0031060723353654078 0 0.0029045190979534743 -0.0031316823224779764 0 0.0028801135365256903 -0.0031060723353654078 0 0.0029194882649718678 -0.0030710891835955324 0 0.0027019687432502898 -0.0031422022264936604 0 0.0025297515149266835 -0.0035660010364694482 0 0.0028801135365256903 -0.0031060723353654078 0 0.0028840515427752205 -0.0030865800489633193 0 0.0029194882649718678 -0.0030710891835955324 0 0.0038078484280603883 -0.0031926812632957465 0 0.0033367508674579981 -0.0034167646545250345 0 0.0029561596164495788 -0.0031399304789484681 0 0.0029045190979534743 -0.0031316823224779764 0 0.0029194882649718678 -0.0030710891835955324 0 0.0045614242755350988 -0.0033068929738247752 0 0.0045452603442207758 -0.0033349444980980154 0 0.0045565372578153934 -0.0033422638073271204 0 0.0045614242755350988 -0.0033068929738247752 0 0.0045452603442207758 -0.0033349444980980154 0 0.0045348750019662352 -0.0033230231742383876 0 0.0045452603442207758 -0.0033349444980980154 0 0.0045348750019662352 -0.0033230231742383876 0 0.0045304371906499889 -0.0033424654618686451 0 0.0045348750019662352 -0.0033230231742383876 0 0.0045188165367448076 -0.003309885584266059 0 0.0045112313806185767 -0.0033360547091185874 0 0.0045348750019662352 -0.0033230231742383876 0 0.0045112313806185767 -0.0033360547091185874 0 0.0045304371906499889 -0.0033424654618686451 0 0.0045188165367448076 -0.003309885584266059 0 0.0045413904308164521 -0.0032925799484607508 0 0.0045164053578043315 -0.0032779601940149897 0 0.0045348750019662352 -0.0033230231742383876 0 0.0045188165367448076 -0.003309885584266059 0 0.0045413904308164521 -0.0032925799484607508 0 0.0045614242755350988 -0.0033068929738247752 0 0.0045348750019662352 -0.0033230231742383876 0 0.0045413904308164521 -0.0032925799484607508 0 0.0038078484280603883 -0.0031926812632957465 0 0.0037675257534927143 -0.0032382400186823316 0 0.0045614242755350988 -0.0033068929738247752 0 0.0045413904308164521 -0.0032925799484607508 0 0.0045720085262397139 -0.0032541283518395499 0 0.0045413904308164521 -0.0032925799484607508 0 0.0045445839645963616 -0.0032390719170804958 0 0.0045164053578043315 -0.0032779601940149897 0 0.0045413904308164521 -0.0032925799484607508 0 0.0045445839645963616 -0.0032390719170804958 0 0.0045720085262397139 -0.0032541283518395499 0 0.004582224513432571 -0.0031748833014916241 0 0.0045445839645963616 -0.0032390719170804958 0 0.0045720085262397139 -0.0032541283518395499 0 0.0029305892442469594 -0.0031457986301453712 0 0.0029805472852041819 -0.0031845054134767006 0 0.0029784878826621258 -0.0032212913220633211 0 0.0037578158188425479 -0.0031546871669910319 0 0.0037675257534927143 -0.0032382400186823316 0 0.0029805472852041819 -0.0031845054134767006 0 0.0029771558598765398 -0.0032244771770462955 0 0.0029784878826621258 -0.0032212913220633211 0 0.0044663168740469153 -0.0031926260024084828 0 0.0044632847252446158 -0.0032588387282050566 0 0.0045075194449021912 -0.0032362720967107459 0 0.0045445839645963616 -0.0032390719170804958 0 0.0045075194449021912 -0.0032362720967107459 0 0.0045164053578043315 -0.0032779601940149897 0 0.0045373564843162748 -0.003175517157146666 0 0.0045445839645963616 -0.0032390719170804958 0 0.0045075194449021912 -0.0032362720967107459 0 0.0045075194449021912 -0.0032362720967107459 0 0.0045164053578043315 -0.0032779601940149897 0 0.0044874051229031884 -0.0032786813154321009 0 0.0045164053578043315 -0.0032779601940149897 0 0.0044874051229031884 -0.0032786813154321009 0 0.0044841236399619207 -0.0033089960901807581 0 0.0044632847252446158 -0.0032588387282050566 0 0.0045075194449021912 -0.0032362720967107459 0 0.0044874051229031884 -0.0032786813154321009 0 0.0044874051229031884 -0.0032786813154321009 0 0.0044642489043502445 -0.0033038632984183029 0 0.0044841236399619207 -0.0033089960901807581 0 0.0044632847252446158 -0.0032588387282050566 0 0.0044874051229031884 -0.0032786813154321009 0 0.0044642489043502445 -0.0033038632984183029 0 0.0044642489043502445 -0.0033038632984183029 0 0.0044841236399619207 -0.0033089960901807581 0 0.0044594864584528568 -0.0033304376250915331 0 0.0044642489043502445 -0.0033038632984183029 0 0.0044744755599003842 -0.0033823182356525474 0 0.0044282446270635066 -0.0033506326313503003 0 0.0044645588102162088 -0.0033367082573178939 0 0.0044860286969791987 -0.0032800470340908112 0 0.0045188165367448076 -0.003309885584266059 0 0.0044841236399619207 -0.0033089960901807581 0 0.0045112313806185767 -0.0033360547091185874 0 0.0045188165367448076 -0.003309885584266059 0 0.0045164053578043315 -0.0032779601940149897 0 0.0044841236399619207 -0.0033089960901807581 0 0.0044841236399619207 -0.0033089960901807581 0 0.0044623622117769407 -0.0033395873097159788 0 0.0044627555128721134 -0.0033424843044523307 0 0.0044451071103581707 -0.0033211618186764127 0 0.0046296543821537119 -0.0032753334999697727 0 0.0044623622117769407 -0.0033395873097159788 0 0.0044594864584528568 -0.0033304376250915331 0 0.0044552488122141087 -0.0033453091562627179 0 0.0044841236399619207 -0.0033089960901807581 0 0.0044623622117769407 -0.0033395873097159788 0 0.0044594864584528568 -0.0033304376250915331 0 0.0044860286969791987 -0.0032800470340908112 0 0.0039012648687233894 -0.0038293895613021826 0 0.0044744755599003842 -0.0033823182356525474 0 0.004477191137514101 -0.0034541320901571295 0 0.0044302194503043893 -0.0033963260501613949 0 0.0028428780810290169 -0.0045786046743866854 0 0.0028312370563053561 -0.0044996932291384356 0 0.0025827532041189072 -0.0044967697048468097 0 0.0046357301692182716 -0.0042851406942498267 0 0.0045568792071244198 -0.004238845376491697 0 0.0045862969056708796 -0.0043088561986000789 0 0.0035197745098414302 -0.004298087388127674 0 0.0044475143383976333 -0.0041891140090655485 0 0.0038869110046990843 -0.0039978073548908883 0 0.0038737371195517074 -0.0038880992103166646 0 0.004155782362140651 -0.0040279121608608401 0 0.0039012648687233894 -0.0038293895613021826 0 0.0035197745098414302 -0.004298087388127674 0 0.002319637653589131 -0.0043177559463083368 0 0.0023505354955239877 -0.0043839293333231043 0 0.0023165606010866198 -0.0044422656393013314 0 0.0046357301692182716 -0.0042851406942498267 0 0.0045942386983814721 -0.0043653902571027196 0 0.0045862969056708796 -0.0043088561986000789 0 0.0035197745098414302 -0.004298087388127674 0 0.0034819070989889735 -0.0044462910038538259 0 0.0046357301692182716 -0.0042851406942498267 0 0.0045942386983814721 -0.0043653902571027196 0 0.0046547283609938558 -0.0044429315954289325 0 0.0035197745098414302 -0.004298087388127674 0 0.0023980495322615133 -0.0043149386196173114 0 0.002319637653589131 -0.0043177559463083368 0 0.0023505354955239877 -0.0043839293333231043 0 0.0023828639668897955 -0.0043541921865207422 0 0.0028312370563053561 -0.0044996932291384356 0 0.0026192850959117935 -0.0044075030713144553 0 0.0025827532041189072 -0.0044967697048468097 0 0.0026192850959117935 -0.0044075030713144553 0 0.0024720303990804584 -0.0043929242383542065 0 0.0024987944431573371 -0.0044041506381410902 0 0.0023828639668897955 -0.0043541921865207422 0 0.0024720303990804584 -0.0043929242383542065 0 0.0023860077438836828 -0.0044242786493169563 0 0.0023980495322615133 -0.0043149386196173114 0 0.0025178075000214157 -0.0044063271296257804 0 0.0023505354955239877 -0.0043839293333231043 0 0.0023828639668897955 -0.0043541921865207422 0 0.0023860077438836828 -0.0044242786493169563 0 0.0026192850959117935 -0.0044075030713144553 0 0.0025827532041189072 -0.0044967697048468097 0 0.0025270353038817739 -0.0044386385670945241 0 0.0026192850959117935 -0.0044075030713144553 0 0.0025270353038817739 -0.0044386385670945241 0 0.0024987944431573371 -0.0044041506381410902 0 0.0044623622117769407 -0.0033395873097159788 0 0.0044552488122141087 -0.0033453091562627179 0 0.004454374197136666 -0.0033430265726453303 0 0.0044623622117769407 -0.0033395873097159788 0 0.0044627555128721134 -0.0033424843044523307 0 0.004454374197136666 -0.0033430265726453303 0 0.0039012648687233894 -0.0038293895613021826 0 0.0034952485702904961 -0.0039168042479048506 0 0.0045112313806185767 -0.0033360547091185874 0 0.0045304371906499889 -0.0033424654618686451 0 0.0045182769212939134 -0.0033658195272069221 0 0.0044627555128721134 -0.0033424843044523307 0 0.004454374197136666 -0.0033430265726453303 0 0.0044351690922768234 -0.0033446542050943333 0 0.0046296543821537119 -0.0032753334999697727 0 0.0033617633640980154 -0.0039220423031182472 0 0.0040777881586620173 -0.0035204026488234526 0 0.0033617633640980154 -0.0039220423031182472 0 0.0045304371906499889 -0.0033424654618686451 0 0.0045418948929256348 -0.0033529082693988222 0 0.0045182769212939134 -0.0033658195272069221 0 0.0045452603442207758 -0.0033349444980980154 0 0.0045304371906499889 -0.0033424654618686451 0 0.0045418948929256348 -0.0033529082693988222 0 0.0025273184497028203 -0.0043275039908594803 0 0.0025850059654944127 -0.0044530343294978871 0 0.0026226217213181418 -0.0043648204256612269 0 0.0033617633640980154 -0.0039220423031182472 0 0.0029119776861278473 -0.0040462943233587562 0 0.0032700335945530339 -0.0038372502957993247 0 0.0033841272127684225 -0.0037845066600011349 0 0.003247280701414541 -0.0037394595112795943 0 0.0033617633640980154 -0.0039220423031182472 0 0.0024729690739813412 -0.0045050709497561217 0 0.0034952485702904961 -0.0039168042479048506 0 0.0033617633640980154 -0.0039220423031182472 0 0.002498526797232674 -0.0043636182583401684 0 0.0024720303990804584 -0.0043929242383542065 0 0.0024924656647000009 -0.0044561721935686936 0 0.0025827532041189072 -0.0044967697048468097 0 0.0025270353038817739 -0.0044386385670945241 0 0.0024225072374028469 -0.004433041401248664 0 0.0025270353038817739 -0.0044386385670945241 0 0.0024225072374028469 -0.004433041401248664 0 0.0024987944431573371 -0.0044041506381410902 0 0.0033617633640980154 -0.0039220423031182472 0 0.0023701229763540043 -0.0044348826756656304 0 0.002498526797232674 -0.0043636182583401684 0 0.0024720303990804584 -0.0043929242383542065 0 0.0024987944431573371 -0.0044041506381410902 0 0.0024720303990804584 -0.0043929242383542065 0 0.0024924656647000009 -0.0044561721935686936 0 0.0024315663149101778 -0.0044625871185494824 0 0.0024924656647000009 -0.0044561721935686936 0 0.0024315663149101778 -0.0044625871185494824 0 0.0024433341096433891 -0.0045283935687758731 0 0.002498526797232674 -0.0043636182583401684 0 0.0024924656647000009 -0.0044561721935686936 0 0.0025655997693623911 -0.0044661095904012654 0 0.0025655997693623911 -0.0044661095904012654 0 0.0025254485315087867 -0.0045782096329255407 0 0.0026522553484112058 -0.0045988633326333505 0 0.0024924656647000009 -0.0044561721935686936 0 0.0025655997693623911 -0.0044661095904012654 0 0.0025254485315087867 -0.0045782096329255407 0 0.0025254485315087867 -0.0045782096329255407 0 0.0024433341096433891 -0.0045283935687758731 0 0.002398980552381949 -0.0046315227796166567 0 0.0024924656647000009 -0.0044561721935686936 0 0.0025254485315087867 -0.0045782096329255407 0 0.0024433341096433891 -0.0045283935687758731 0 0.0024433341096433891 -0.0045283935687758731 0 0.0023695593134965259 -0.0045109722355202511 0 0.002398980552381949 -0.0046315227796166567 0 0.0023695593134965259 -0.0045109722355202511 0 0.0023056342275403863 -0.0045834070336599232 0 0.002398980552381949 -0.0046315227796166567 0 0.0023695593134965259 -0.0045109722355202511 0 0.0023056342275403863 -0.0045834070336599232 0 0.0023165606010866198 -0.0044422656393013314 0 0.0034888141612123835 -0.0046093011909383213 0 0.0034819070989889735 -0.0044462910038538259 0 0.0046789300835377683 -0.0046432234329446811 0 0.0045821870769184236 -0.0047213589358004434 0 0.0045466743459502143 -0.0044863550011519787 0 0.0046789300835377683 -0.0046432234329446811 0 0.0046547283609938558 -0.0044429315954289325 0 0.0045466743459502143 -0.0044863550011519787 0 0.0045942386983814721 -0.0043653902571027196 0 0.0046547283609938558 -0.0044429315954289325 0 0.0045466743459502143 -0.0044863550011519787 0 0.0023505354955239877 -0.0043839293333231043 0 0.0023165606010866198 -0.0044422656393013314 0 0.0023860077438836828 -0.0044242786493169563 0 0.0024720303990804584 -0.0043929242383542065 0 0.0024315663149101778 -0.0044625871185494824 0 0.0023860077438836828 -0.0044242786493169563 0 0.0024315663149101778 -0.0044625871185494824 0 0.0023695593134965259 -0.0045109722355202511 0 0.0023860077438836828 -0.0044242786493169563 0 0.0024315663149101778 -0.0044625871185494824 0 0.0024433341096433891 -0.0045283935687758731 0 0.0023695593134965259 -0.0045109722355202511 0 0.0023695593134965259 -0.0045109722355202511 0 0.0023165606010866198 -0.0044422656393013314 0 0.0023860077438836828 -0.0044242786493169563 0 0.0022002767614825412 -0.0041006012563683334 0 0.0021135398525854751 -0.0041403212725563149 0 0.0021864676405405708 -0.0041946286785597021 0 0.0021135398525854751 -0.0041403212725563149 0 0.0021027037070487473 -0.0042344559086342588 0 0.0021864676405405708 -0.0041946286785597021 0 0.0021135398525854751 -0.0041403212725563149 0 0.0020357782619144383 -0.0041851944728882136 0 0.0021027037070487473 -0.0042344559086342588 0 0.0021135398525854751 -0.0041403212725563149 0 0.0021153584901699119 -0.004056570136451363 0 0.0020418310642687913 -0.0040854060368946876 0 0.0022002767614825412 -0.0041006012563683334 0 0.0021135398525854751 -0.0041403212725563149 0 0.0021153584901699119 -0.004056570136451363 0 0.0022002767614825412 -0.0041006012563683334 0 0.002165790251254125 -0.003973039953711433 0 0.0021153584901699119 -0.004056570136451363 0 0.002165790251254125 -0.003973039953711433 0 0.0021153584901699119 -0.004056570136451363 0 0.0020556764359010104 -0.0039839255773035974 0 0.0021153584901699119 -0.004056570136451363 0 0.0020556764359010104 -0.0039839255773035974 0 0.0020418310642687913 -0.0040854060368946876 0 0.0020556764359010104 -0.0039839255773035974 0 0.0019763776741081947 -0.0040503448691116464 0 0.0020418310642687913 -0.0040854060368946876 0 0.0019219064563203165 -0.0039268460391787509 0 0.0020556764359010104 -0.0039839255773035974 0 0.0019763776741081947 -0.0040503448691116464 0 0.0019763776741081947 -0.0040503448691116464 0 0.0020418310642687913 -0.0040854060368946876 0 0.0019718380388602185 -0.0041473543301485854 0 0.0021135398525854751 -0.0041403212725563149 0 0.0020418310642687913 -0.0040854060368946876 0 0.0020357782619144383 -0.0041851944728882136 0 0.0020357782619144383 -0.0041851944728882136 0 0.0019718380388602185 -0.0041473543301485854 0 0.0019695729141209436 -0.0042302855370094424 0 0.0020418310642687913 -0.0040854060368946876 0 0.0020357782619144383 -0.0041851944728882136 0 0.0019718380388602185 -0.0041473543301485854 0 0.0019718380388602185 -0.0041473543301485854 0 0.001890763750315108 -0.004108395278977133 0 0.0019327674156218121 -0.0042167314052642636 0 0.0025303771989737779 -0.0039743117899853995 0 0.0021536082799936416 -0.0042030383292420877 0 0.0031013703840642947 -0.0037728670766837471 0 0.0031826465809474203 -0.0037971033697068719 0 0.0031112623123881098 -0.0036986647675829442 0 0.0024148620079245376 -0.0040846177413892629 0 0.0024030091964678101 -0.004156930781035989 0 0.0024503344030015954 -0.0041731363205483474 0 0.0025303771989737779 -0.0039743117899853995 0 0.0026444517256166535 -0.0041958327586261628 0 0.0019763776741081947 -0.0040503448691116464 0 0.0019718380388602185 -0.0041473543301485854 0 0.001890763750315108 -0.004108395278977133 0 0.0025303771989737779 -0.0039743117899853995 0 0.0033367508674579981 -0.0034167646545250345 0 0.0019219064563203165 -0.0039268460391787509 0 0.0019763776741081947 -0.0040503448691116464 0 0.001890763750315108 -0.004108395278977133 0 0.0028047902996479615 -0.0035481390315248596 0 0.0027649884852718317 -0.0038026421431746854 0 0.0026845601948156331 -0.0036066869225420376 0 0.0025297515149266835 -0.0035660010364694482 0 0.0025303771989737779 -0.0039743117899853995 0 0.0025297515149266835 -0.0035660010364694482 0 0.0033367508674579981 -0.0034167646545250345 0 0.0045452603442207758 -0.0033349444980980154 0 0.0045418948929256348 -0.0033529082693988222 0 0.0045565372578153934 -0.0033422638073271204 0 0.0040777881586620173 -0.0035204026488234526 0 0.0033367508674579981 -0.0034167646545250345 0 0.0032700335945530339 -0.0038372502957993247 0 0.0031560157007375789 -0.0038885239107268673 0 0.0031826465809474203 -0.0037971033697068719 0 0.0031013703840642947 -0.0037728670766837471 0 0.0031560157007375789 -0.0038885239107268673 0 0.0031826465809474203 -0.0037971033697068719 0 0.0031826465809474203 -0.0037971033697068719 0 0.003247280701414541 -0.0037394595112795943 0 0.0031112623123881098 -0.0036986647675829442 0 0.0029119776861278473 -0.0040462943233587562 0 0.0026444517256166535 -0.0041958327586261628 0 0.0032700335945530339 -0.0038372502957993247 0 0.0031826465809474203 -0.0037971033697068719 0 0.003247280701414541 -0.0037394595112795943 0 0.0026226217213181418 -0.0043648204256612269 0 0.0026685424766924202 -0.0044587803454982184 0 0.0027337162243439694 -0.0043996775068821277 0 0.0025850059654944127 -0.0044530343294978871 0 0.0026226217213181418 -0.0043648204256612269 0 0.0026685424766924202 -0.0044587803454982184 0 0.0026685424766924202 -0.0044587803454982184 0 0.0027119021316000715 -0.0045390535052389656 0 0.0027337162243439694 -0.0043996775068821277 0 0.0024729690739813412 -0.0045050709497561217 0 0.0026743790545530328 -0.0045844798813139071 0 0.0026685424766924202 -0.0044587803454982184 0 0.0027119021316000715 -0.0045390535052389656 0 0.0026522553484112058 -0.0045988633326333505 0 0.0025850059654944127 -0.0044530343294978871 0 0.0026685424766924202 -0.0044587803454982184 0 0.0026522553484112058 -0.0045988633326333505 0 0.0020682473382765895 -0.004523263859775222 0 0.0021610769226903209 -0.0043575691975061889 0 0.0022345836421995982 -0.0045442560970614084 0 0.0020682473382765895 -0.004523263859775222 0 0.0022345836421995982 -0.0045442560970614084 0 0.0021714491015976094 -0.0046700699574908945 0 0.0020682473382765895 -0.004523263859775222 0 0.0020997876472715741 -0.0043365101191112122 0 0.0021610769226903209 -0.0043575691975061889 0 0.0023649381526606038 -0.0045764369947020201 0 0.0026444517256166535 -0.0041958327586261628 0 0.0026444517256166535 -0.0041958327586261628 0 0.0021536082799936416 -0.0042030383292420877 0 0.0021536082799936416 -0.0042030383292420877 0 0.0020384423085102786 -0.0041855985520156125 0 0.0019314403742340736 -0.0042169794834404787 0 0.0019695729141209436 -0.0042302855370094424 0 0.0019989988819109688 -0.0043959140096429651 0 0.0019695729141209436 -0.0042302855370094424 0 0.0020448871861396471 -0.0042948325927675002 0 0.0019989988819109688 -0.0043959140096429651 0 0.0021536082799936416 -0.0042030383292420877 0 0.0021332505435057865 -0.0044550864027378201 0 0.0019718380388602185 -0.0041473543301485854 0 0.0019327674156218121 -0.0042167314052642636 0 0.0019695729141209436 -0.0042302855370094424 0 0.0020357782619144383 -0.0041851944728882136 0 0.0019695729141209436 -0.0042302855370094424 0 0.0020382323605998621 -0.0042361919560703317 0 0.0020357782619144383 -0.0041851944728882136 0 0.0020382323605998621 -0.0042361919560703317 0 0.0021027037070487473 -0.0042344559086342588 0 0.0019695729141209436 -0.0042302855370094424 0 0.0020382323605998621 -0.0042361919560703317 0 0.0020448871861396471 -0.0042948325927675002 0 0.0020382323605998621 -0.0042361919560703317 0 0.0020448871861396471 -0.0042948325927675002 0 0.0021027037070487473 -0.0042344559086342588 0 0.0020448871861396471 -0.0042948325927675002 0 0.0019989988819109688 -0.0043959140096429651 0 0.0021269129524381127 -0.0043512525158442708 0 0.0019989988819109688 -0.0043959140096429651 0 0.0021269129524381127 -0.0043512525158442708 0 0.0020991340791247292 -0.0044591245577638031 0 0.0021914396475021325 -0.0044969800282026844 0 0.0022052028101686083 -0.0044080335385465854 0 0.0021269129524381127 -0.0043512525158442708 0 0.0019191029406350078 -0.0046986351797017349 0 0.0021621359462057443 -0.0043246117289754415 0 0.0022262981229792169 -0.0043324292063171904 0 0.0021269129524381127 -0.0043512525158442708 0 0.0021791805312190277 -0.0042710043179584956 0 0.0022262981229792169 -0.0043324292063171904 0 0.0022052028101686083 -0.0044080335385465854 0 0.0021269129524381127 -0.0043512525158442708 0 0.0021269129524381127 -0.0043512525158442708 0 0.0021791805312190277 -0.0042710043179584956 0 0.0021027037070487473 -0.0042344559086342588 0 0.0020448871861396471 -0.0042948325927675002 0 0.0021269129524381127 -0.0043512525158442708 0 0.0021027037070487473 -0.0042344559086342588 0 0.0021791805312190277 -0.0042710043179584956 0 0.0021027037070487473 -0.0042344559086342588 0 0.0021864676405405708 -0.0041946286785597021 0 0.0016718004002059192 -0.0049277380679158354 0 0.0016053633127803308 -0.0049639097626020083 0 0.0016637836791127149 -0.0049909868551656963 0 0.001901501488855296 -0.0048548937801423352 0 0.0014535772025291971 -0.0051937051267244433 0 0.0016053633127803308 -0.0049639097626020083 0 0.0016637836791127149 -0.0049909868551656963 0 0.0016381358711841524 -0.0050488184392444586 0 0.0019191029406350078 -0.0046986351797017349 0 0.001901501488855296 -0.0048548937801423352 0 0.0022012061444718709 -0.0045099469325943784 0 0.0020704870639827945 -0.0045802461936756229 0 0.0020991340791247292 -0.0044591245577638031 0 0.0022012061444718709 -0.0045099469325943784 0 0.0021269129524381127 -0.0043512525158442708 0 0.0020991340791247292 -0.0044591245577638031 0 0.0022345836421995982 -0.0045442560970614084 0 0.0023070831220769676 -0.0047284290833533226 0 0.0021714491015976094 -0.0046700699574908945 0 0.0019989988819109688 -0.0043959140096429651 0 0.0020704870639827945 -0.0045802461936756229 0 0.0020991340791247292 -0.0044591245577638031 0 0.0021332505435057865 -0.0044550864027378201 0 0.001901501488855296 -0.0048548937801423352 0 0.001901501488855296 -0.0048548937801423352 0 0.0018920166545574025 -0.005032775215744449 0 0.0015985263476898913 -0.0052513085629130908 0 0.0016855138530694799 -0.0052083073667954756 0 0.0015548485582155952 -0.0051574360572789772 0 0.0023070831220769676 -0.0047284290833533226 0 0.0021587527104284542 -0.004809075265359954 0 0.0021714491015976094 -0.0046700699574908945 0 0.0021587527104284542 -0.004809075265359954 0 0.0020386814959076249 -0.0047074678339357598 0 0.0020101941429901031 -0.0048901245271664546 0 0.0021587527104284542 -0.004809075265359954 0 0.0021714491015976094 -0.0046700699574908945 0 0.0020386814959076249 -0.0047074678339357598 0 0.0020682473382765895 -0.004523263859775222 0 0.0021714491015976094 -0.0046700699574908945 0 0.0020386814959076249 -0.0047074678339357598 0 0.0027119021316000715 -0.0045390535052389656 0 0.0026863906600355591 -0.0046903030895585375 0 0.0026522553484112058 -0.0045988633326333505 0 0.0023649381526606038 -0.0045764369947020201 0 0.0023893131387303672 -0.0046649496391036908 0 0.0026863906600355591 -0.0046903030895585375 0 0.0026522553484112058 -0.0045988633326333505 0 0.0025835562197751359 -0.0046755473606578946 0 0.0023893131387303672 -0.0046649496391036908 0 0.002074984941361806 -0.004971524275231419 0 0.0026863906600355591 -0.0046903030895585375 0 0.002661076874172275 -0.0048495444095741948 0 0.0025669571045745538 -0.0047808683443920008 0 0.0026863906600355591 -0.0046903030895585375 0 0.0025835562197751359 -0.0046755473606578946 0 0.0025669571045745538 -0.0047808683443920008 0 0.001786504532508037 -0.0052108895076071991 0 0.0018016396116597546 -0.0051089021824415777 0 0.0020087297309349982 -0.0051155151144476919 0 0.002074984941361806 -0.004971524275231419 0 0.001866512494731214 -0.0051790379446600698 0 0.0017855897338094385 -0.0051647508700801373 0 0.0018016396116597546 -0.0051089021824415777 0 0.0017334463236958633 -0.005124326716905412 0 0.0017802450731905397 -0.0050000286197280797 0 0.0018016396116597546 -0.0051089021824415777 0 0.0017334463236958633 -0.005124326716905412 0 0.0017802450731905397 -0.0050000286197280797 0 0.0018016396116597546 -0.0051089021824415777 0 0.0018999016642612353 -0.0050570151953573898 0 0.001780164660671551 -0.0050000187446808068 0 0.0016028596298372929 -0.005110630159445715 0 0.0017802450731905397 -0.0050000286197280797 0 0.0017334463236958633 -0.005124326716905412 0 0.001661130694043866 -0.0050976100076895641 0 0.0017801860989009224 -0.0049999996586410191 0 0.0015497812797265057 -0.0051235693395195112 0 0.0014968877742072898 -0.0049999994963621725 0 0.0018920166545574025 -0.005032775215744449 0 0.002074984941361806 -0.004971524275231419 0 0.0016855138530694799 -0.0052083073667954756 0 0.0017334463236958633 -0.005124326716905412 0 0.001661130694043866 -0.0050976100076895641 0 0.0016855138530694799 -0.0052083073667954756 0 0.0017855897338094385 -0.0051647508700801373 0 0.0017334463236958633 -0.005124326716905412 0 0.0016028596298372929 -0.005110630159445715 0 0.0014535772025291971 -0.0051937051267244433 0 0.0016855138530694799 -0.0052083073667954756 0 0.001661130694043866 -0.0050976100076895641 0 0.0015548485582155952 -0.0051574360572789772 0 0.0015497812797265057 -0.0051235693395195112 0 0.0014968877742072898 -0.0049999994963621725 0 0.0013205866686375825 -0.0052470298032020416 0 0.0012135920364956636 -0.0049999991638982619 0 0.0014968877742072898 -0.0049999994963621725 0 0.0013205866686375825 -0.0052470298032020416 0 0.0012135364989065537 -0.0050000711476903773 0 0.0014535772025291971 -0.0051937051267244433 0 0.0022888973042125417 -0.0047382536717236112 0 0.002398980552381949 -0.0046315227796166567 0 0.0023882715155445107 -0.0047854961382017436 0 0.0022888973042125417 -0.0047382536717236112 0 0.0023882715155445107 -0.0047854961382017436 0 0.0023229556828692735 -0.0048564989519998885 0 0.0046148255565518275 -0.004732826493288449 0 0.0046470171017501385 -0.0049414942934882522 0 0.0047079111300028526 -0.0048613679121869008 0 0.0045821870769184236 -0.0047213589358004434 0 0.004647883814487338 -0.0049569726494657265 0 0.0046470947560851095 -0.0047426748437639317 0 0.004647883814487338 -0.0049569726494657265 0 0.0045744410158052506 -0.0048547367322064926 0 0.0046789300835377683 -0.0046432234329446811 0 0.0047079111300028526 -0.0048613679121869008 0 0.0045821870769184236 -0.0047213589358004434 0 0.0034888141612123835 -0.0046093011909383213 0 0.0035357265479086506 -0.0048286395631020511 0 0.0023056342275403863 -0.0045834070336599232 0 0.0022888973042125417 -0.0047382536717236112 0 0.002398980552381949 -0.0046315227796166567 0 0.0025254485315087867 -0.0045782096329255407 0 0.002398980552381949 -0.0046315227796166567 0 0.002482918747606656 -0.0047173394956074874 0 0.0025254485315087867 -0.0045782096329255407 0 0.0026522553484112058 -0.0045988633326333505 0 0.0025835562197751359 -0.0046755473606578946 0 0.0025254485315087867 -0.0045782096329255407 0 0.0025835562197751359 -0.0046755473606578946 0 0.002482918747606656 -0.0047173394956074874 0 0.0025835562197751359 -0.0046755473606578946 0 0.0025669571045745538 -0.0047808683443920008 0 0.002482918747606656 -0.0047173394956074874 0 0.0025669571045745538 -0.0047808683443920008 0 0.002482918747606656 -0.0047173394956074874 0 0.0024641578717889616 -0.0048209166349307371 0 0.002398980552381949 -0.0046315227796166567 0 0.002482918747606656 -0.0047173394956074874 0 0.0023882715155445107 -0.0047854961382017436 0 0.002482918747606656 -0.0047173394956074874 0 0.0023882715155445107 -0.0047854961382017436 0 0.0024641578717889616 -0.0048209166349307371 0 0.0023882715155445107 -0.0047854961382017436 0 0.002382553100848579 -0.004887859788750025 0 0.0023229556828692735 -0.0048564989519998885 0 0.0023882715155445107 -0.0047854961382017436 0 0.0024641578717889616 -0.0048209166349307371 0 0.002382553100848579 -0.004887859788750025 0 0.0024641578717889616 -0.0048209166349307371 0 0.002382553100848579 -0.004887859788750025 0 0.0024892648099931777 -0.0049438433582184894 0 0.002661076874172275 -0.0048495444095741948 0 0.0025669571045745538 -0.0047808683443920008 0 0.0024892648099931777 -0.0049438433582184894 0 0.002074984941361806 -0.004971524275231419 0 0.0022762229399112517 -0.0050277483388645435 0 0.0025669571045745538 -0.0047808683443920008 0 0.0024641578717889616 -0.0048209166349307371 0 0.0024892648099931777 -0.0049438433582184894 0 0.0017802450731905397 -0.0050000286197280797 0 0.0020132470878591814 -0.0049999718678817454 0 0.0018999016642612353 -0.0050570151953573898 0 0.0018016396116597546 -0.0051089021824415777 0 0.0020087297309349982 -0.0051155151144476919 0 0.0018999016642612353 -0.0050570151953573898 0 0.0020087297309349982 -0.0051155151144476919 0 0.0020132470878591814 -0.0049999718678817454 0 0.0018999016642612353 -0.0050570151953573898 0 0.0020087297309349982 -0.0051155151144476919 0 0.0020132470878591814 -0.0049999718678817454 0 0.0022463589599893844 -0.0050000135673419184 0 0.0024892648099931777 -0.0049438433582184894 0 0.0022468855418095427 -0.0049999420556151126 0 0.0023063393843624374 -0.0049513640339164354 0 0.0022762229399112517 -0.0050277483388645435 0 0.0022463366842976683 -0.0050000145096728496 0 0.002382553100848579 -0.004887859788750025 0 0.0024892648099931777 -0.0049438433582184894 0 0.0023063393843624374 -0.0049513640339164354 0 0.0022953810997572467 -0.0050000490101445774 0 0.0023063393843624374 -0.0049513640339164354 0 0.0022878535354614862 -0.0049090888104091623 0 0.0022468855418095427 -0.0049999420556151126 0 0.0022953810997572467 -0.0050000490101445774 0 0.0023063393843624374 -0.0049513640339164354 0 0.0022953810997572467 -0.0050000490101445774 0 0.0022878535354614862 -0.0049090888104091623 0 0.0022760231422568793 -0.0049090676528857529 0 0.0022958305854566085 -0.0050000743153468009 0 0.0031060890936470856 -0.0048704172385250315 0 0.002382553100848579 -0.004887859788750025 0 0.0023063393843624374 -0.0049513640339164354 0 0.0023231493781401998 -0.0049041835066481057 0 0.0023063393843624374 -0.0049513640339164354 0 0.0023231493781401998 -0.0049041835066481057 0 0.0022878535354614862 -0.0049090888104091623 0 0.0022888973042125417 -0.0047382536717236112 0 0.0022723359760345248 -0.0049077508215947668 0 0.0023229556828692735 -0.0048564989519998885 0 0.002382553100848579 -0.004887859788750025 0 0.0023231493781401998 -0.0049041835066481057 0 0.0023229556828692735 -0.0048564989519998885 0 0.0035357265479086506 -0.0048286395631020511 0 0.0031060890936470856 -0.0048704172385250315 0 0.0023231493781401998 -0.0049041835066481057 0 0.0022878535354614862 -0.0049090888104091623 0 0.0023229556828692735 -0.0048564989519998885 0 0.0029424373282991288 -0.0048724336279735046 0 0.0031060890936470856 -0.0048704172385250315 0 0.0022878535354614862 -0.0049090888104091623 0 0.0022723359760345248 -0.0049077508215947668 0 0.0023229556828692735 -0.0048564989519998885 0 0.004714339470894083 -0.0050442151069770014 0 0.004647883814487338 -0.0049569726494657265 0 0.0045444379653805178 -0.0050527244246544234 0 0.0031060890936470856 -0.0048704172385250315 0 0.0036535196182191088 -0.0051404712424005308 0 0.0047079111300028526 -0.0048613679121869008 0 0.004714339470894083 -0.0050442151069770014 0 0.004647883814487338 -0.0049569726494657265 0 0.0022958374325122381 -0.004999999594068859 0 0.0024393837685221915 -0.0050850338829492954 0 0.0025569525775986242 -0.0049999948761877307 0 0.0022958374325122381 -0.004999999594068859 0 0.002322435236175137 -0.0051689240020909993 0 0.0024393837685221915 -0.0050850338829492954 0 0.002322435236175137 -0.0051689240020909993 0 0.0024393837685221915 -0.0050850338829492954 0 0.0025826700789555084 -0.0051709641822513201 0 0.0024393837685221915 -0.0050850338829492954 0 0.0025569525775986242 -0.0049999948761877307 0 0.0025826700789555084 -0.0051709641822513201 0 0.0025569525775986242 -0.0049999948761877307 0 0.0026997541665865284 -0.0050862138045002859 0 0.0025826700789555084 -0.0051709641822513201 0 0.0026997541665865284 -0.0050862138045002859 0 0.002841555402323196 -0.0051731643262023673 0 0.0028180776221820073 -0.00500001672219975 0 0.0026997541665865284 -0.0050862138045002859 0 0.0025826700789555084 -0.0051709641822513201 0 0.002841555402323196 -0.0051731643262023673 0 0.0025569525775986242 -0.0049999948761877307 0 0.0026997541665865284 -0.0050862138045002859 0 0.0028180776221820073 -0.00500001672219975 0 0.0044453854701984458 -0.0049626047662801494 0 0.0045444379653805178 -0.0050527244246544234 0 0.0043429540192031464 -0.0050915100928062389 0 0.0044453854701984458 -0.0049626047662801494 0 0.0043070471758335817 -0.0049026050005777973 0 0.0043429540192031464 -0.0050915100928062389 0 0.0036535196182191088 -0.0051404712424005308 0 0.0035690885693571229 -0.0051316737034815497 0 0.0044453854701984458 -0.0049626047662801494 0 0.0045444379653805178 -0.0050527244246544234 0 0.0045525781593724144 -0.0049407149828828252 0 0.004647883814487338 -0.0049569726494657265 0 0.0045444379653805178 -0.0050527244246544234 0 0.0045525781593724144 -0.0049407149828828252 0 0.004647883814487338 -0.0049569726494657265 0 0.0045525781593724144 -0.0049407149828828252 0 0.0045744410158052506 -0.0048547367322064926 0 0.0045744410158052506 -0.0048547367322064926 0 0.0045077043096959733 -0.004873509160173684 0 0.0045010050517151857 -0.0047466779189888854 0 0.0044453854701984458 -0.0049626047662801494 0 0.0045525781593724144 -0.0049407149828828252 0 0.0045077043096959733 -0.004873509160173684 0 0.0045525781593724144 -0.0049407149828828252 0 0.0045744410158052506 -0.0048547367322064926 0 0.0045077043096959733 -0.004873509160173684 0 0.0044453854701984458 -0.0049626047662801494 0 0.0044300043098163622 -0.0048573586580008829 0 0.0043070471758335817 -0.0049026050005777973 0 0.0044453854701984458 -0.0049626047662801494 0 0.0045077043096959733 -0.004873509160173684 0 0.0044300043098163622 -0.0048573586580008829 0 0.0044300043098163622 -0.0048573586580008829 0 0.0043758302173711105 -0.0047865308717567742 0 0.0043070471758335817 -0.0049026050005777973 0 0.0045077043096959733 -0.004873509160173684 0 0.0044300043098163622 -0.0048573586580008829 0 0.0045010050517151857 -0.0047466779189888854 0 0.0044300043098163622 -0.0048573586580008829 0 0.0043758302173711105 -0.0047865308717567742 0 0.0045010050517151857 -0.0047466779189888854 0 0.0043758302173711105 -0.0047865308717567742 0 0.0043856203271126579 -0.0046802700605516586 0 0.0045010050517151857 -0.0047466779189888854 0 0.0046470947560851095 -0.0047426748437639317 0 0.0045010050517151857 -0.0047466779189888854 0 0.0045500631018176273 -0.004624743548620463 0 0.0046470947560851095 -0.0047426748437639317 0 0.0045744410158052506 -0.0048547367322064926 0 0.0045010050517151857 -0.0047466779189888854 0 0.0042516159930491163 -0.0047549133884762906 0 0.0041373517659844799 -0.0048563529444096733 0 0.0040564855744499532 -0.0047665739238395939 0 0.0042516159930491163 -0.0047549133884762906 0 0.0040564855744499532 -0.0047665739238395939 0 0.004144338494398209 -0.0046381207871218095 0 0.0043758302173711105 -0.0047865308717567742 0 0.0042516159930491163 -0.0047549133884762906 0 0.0043070471758335817 -0.0049026050005777973 0 0.0043856203271126579 -0.0046802700605516586 0 0.0042516159930491163 -0.0047549133884762906 0 0.004284046559843639 -0.0046311154324843295 0 0.0043758302173711105 -0.0047865308717567742 0 0.0043856203271126579 -0.0046802700605516586 0 0.0042516159930491163 -0.0047549133884762906 0 0.0042516159930491163 -0.0047549133884762906 0 0.0043070471758335817 -0.0049026050005777973 0 0.0041373517659844799 -0.0048563529444096733 0 0.0043070471758335817 -0.0049026050005777973 0 0.0041373517659844799 -0.0048563529444096733 0 0.0041707532492804471 -0.0049934879380864267 0 0.0041373517659844799 -0.0048563529444096733 0 0.0041707532492804471 -0.0049934879380864267 0 0.0039300460763710557 -0.0049539781753498036 0 0.0041707532492804471 -0.0049934879380864267 0 0.0040726758960873619 -0.0051488192264422363 0 0.0039300460763710557 -0.0049539781753498036 0 0.0041707532492804471 -0.0049934879380864267 0 0.0040726758960873619 -0.0051488192264422363 0 0.0043429540192031464 -0.0050915100928062389 0 0.00358614154000809 -0.0051593369680195452 0 0.0035690885693571229 -0.0051316737034815497 0 0.0043070471758335817 -0.0049026050005777973 0 0.0041707532492804471 -0.0049934879380864267 0 0.0043429540192031464 -0.0050915100928062389 0 0.003094358790362886 -0.0051898496142612468 0 0.002841555402323196 -0.0051731643262023673 0 0.0029574264595846676 -0.0050911854687525617 0 0.002841555402323196 -0.0051731643262023673 0 0.0029574264595846676 -0.0050911854687525617 0 0.0028180776221820073 -0.00500001672219975 0 0.0029574264595846676 -0.0050911854687525617 0 0.0028180776221820073 -0.00500001672219975 0 0.0030791588108095443 -0.0049999621785780692 0 0.003094358790362886 -0.0051898496142612468 0 0.0029574264595846676 -0.0050911854687525617 0 0.0030791588108095443 -0.0049999621785780692 0 0.0030791588108095443 -0.0049999621785780692 0 0.0032700884981491929 -0.0050580158273086538 0 0.003340691877528809 -0.0049999789068649724 0 0.003094358790362886 -0.0051898496142612468 0 0.0032700884981491929 -0.0050580158273086538 0 0.0035698034095437655 -0.0051108301076541948 0 0.003094358790362886 -0.0051898496142612468 0 0.0030791588108095443 -0.0049999621785780692 0 0.0032700884981491929 -0.0050580158273086538 0 0.003340691877528809 -0.0049999789068649724 0 0.0035698034095437655 -0.0051108301076541948 0 0.0036472928322967527 -0.00507142871219185 0 0.0032700884981491929 -0.0050580158273086538 0 0.003340691877528809 -0.0049999789068649724 0 0.0035698034095437655 -0.0051108301076541948 0 0.0035698034095437655 -0.0051108301076541948 0 0.0039300460763710557 -0.0049539781753498036 0 0.003746219764723576 -0.0049734523269308953 0 0.0035698034095437655 -0.0051108301076541948 0 0.0036472928322967527 -0.00507142871219185 0 0.003746219764723576 -0.0049734523269308953 0 0.00358614154000809 -0.0051593369680195452 0 0.0035665532656965287 -0.0051236593131119001 0 0.0040726758960873619 -0.0051488192264422363 0 0.0035698034095437655 -0.0051108301076541948 0 0.0039300460763710557 -0.0049539781753498036 0 0.0036015071641497453 -0.0049999249463626213 0 0.0036472928322967527 -0.00507142871219185 0 0.0037206270155797018 -0.0050447859924374443 0 0.0036015071641497453 -0.0049999249463626213 0 0.0037206270155797018 -0.0050447859924374443 0 0.0038625992715683546 -0.0049999298003870953 0 0.003340691877528809 -0.0049999789068649724 0 0.0036015071641497453 -0.0049999249463626213 0 0.0036472928322967527 -0.00507142871219185 0 0.0036472928322967527 -0.00507142871219185 0 0.0037206270155797018 -0.0050447859924374443 0 0.0037364067936949299 -0.0049658648938874237 0 0.0036472928322967527 -0.00507142871219185 0 0.0037364067936949299 -0.0049658648938874237 0 0.003746219764723576 -0.0049734523269308953 0 0.0037206270155797018 -0.0050447859924374443 0 0.0037554259933019738 -0.0049373357437451663 0 0.0037364067936949299 -0.0049658648938874237 0 0.0037206270155797018 -0.0050447859924374443 0 0.0037554259933019738 -0.0049373357437451663 0 0.0037783808040589241 -0.0049828487929296367 0 0.0037364067936949299 -0.0049658648938874237 0 0.0038050829005688873 -0.0048251491486962375 0 0.0038125013425549617 -0.0048710193105733317 0 0.0037554259933019738 -0.0049373357437451663 0 0.0037364067936949299 -0.0049658648938874237 0 0.0038050829005688873 -0.0048251491486962375 0 0.0037364067936949299 -0.0049658648938874237 0 0.003746219764723576 -0.0049734523269308953 0 0.0038125013425549617 -0.0048710193105733317 0 0.0038050829005688873 -0.0048251491486962375 0 0.0038125013425549617 -0.0048710193105733317 0 0.0039129109897718612 -0.004730862897608195 0 0.0038050829005688873 -0.0048251491486962375 0 0.0037673807828580283 -0.0048277819818015426 0 0.0038123366906744082 -0.0047202480533500828 0 0.0037554259933019738 -0.0049373357437451663 0 0.0038050829005688873 -0.0048251491486962375 0 0.0037673807828580283 -0.0048277819818015426 0 0.0037554259933019738 -0.0049373357437451663 0 0.0037673807828580283 -0.0048277819818015426 0 0.0037605486799734142 -0.0049045774156719815 0 0.0041373517659844799 -0.0048563529444096733 0 0.0039300460763710557 -0.0049539781753498036 0 0.0040564855744499532 -0.0047665739238395939 0 0.0039300460763710557 -0.0049539781753498036 0 0.0038955134019596715 -0.0048357975016003153 0 0.0040564855744499532 -0.0047665739238395939 0 0.0039300460763710557 -0.0049539781753498036 0 0.003746219764723576 -0.0049734523269308953 0 0.0038955134019596715 -0.0048357975016003153 0 0.003746219764723576 -0.0049734523269308953 0 0.0038955134019596715 -0.0048357975016003153 0 0.0038125013425549617 -0.0048710193105733317 0 0.0038955134019596715 -0.0048357975016003153 0 0.0038125013425549617 -0.0048710193105733317 0 0.0039129109897718612 -0.004730862897608195 0 0.0038955134019596715 -0.0048357975016003153 0 0.0039129109897718612 -0.004730862897608195 0 0.0040037370877779605 -0.0047104848370310851 0 0.0038955134019596715 -0.0048357975016003153 0 0.0040037370877779605 -0.0047104848370310851 0 0.0040564855744499532 -0.0047665739238395939 0 0.0040037370877779605 -0.0047104848370310851 0 0.0040564855744499532 -0.0047665739238395939 0 0.004144338494398209 -0.0046381207871218095 0 0.0040037370877779605 -0.0047104848370310851 0 0.0040297270167689398 -0.0045916433882406092 0 0.004144338494398209 -0.0046381207871218095 0 0.0040297270167689398 -0.0045916433882406092 0 0.004144338494398209 -0.0046381207871218095 0 0.0041567363677882715 -0.0045176260871771894 0 0.0039129109897718612 -0.004730862897608195 0 0.0040297270167689398 -0.0045916433882406092 0 0.0039058665771858395 -0.004635128577571773 0 0.0039129109897718612 -0.004730862897608195 0 0.0040037370877779605 -0.0047104848370310851 0 0.0040297270167689398 -0.0045916433882406092 0 0.0040215422472657707 -0.0044771459294834972 0 0.0039058665771858395 -0.004635128577571773 0 0.0039810512528755072 -0.0043969997498472108 0 0.0040297270167689398 -0.0045916433882406092 0 0.0040215422472657707 -0.0044771459294834972 0 0.0039058665771858395 -0.004635128577571773 0 0.0040215422472657707 -0.0044771459294834972 0 0.0041172036333075937 -0.0044181793378716139 0 0.0040663826320863393 -0.0043362129856171399 0 0.0040297270167689398 -0.0045916433882406092 0 0.0041172036333075937 -0.0044181793378716139 0 0.0041567363677882715 -0.0045176260871771894 0 0.0040297270167689398 -0.0045916433882406092 0 0.0040215422472657707 -0.0044771459294834972 0 0.0041172036333075937 -0.0044181793378716139 0 0.0038123366906744082 -0.0047202480533500828 0 0.0038357426071175624 -0.004568387164374894 0 0.0037537314120499508 -0.0047194256144982667 0 0.0037673807828580283 -0.0048277819818015426 0 0.0038123366906744082 -0.0047202480533500828 0 0.0037537314120499508 -0.0047194256144982667 0 0.0038050829005688873 -0.0048251491486962375 0 0.0039129109897718612 -0.004730862897608195 0 0.0039058665771858395 -0.004635128577571773 0 0.0038050829005688873 -0.0048251491486962375 0 0.0038123366906744082 -0.0047202480533500828 0 0.0039058665771858395 -0.004635128577571773 0 0.0038123366906744082 -0.0047202480533500828 0 0.0039058665771858395 -0.004635128577571773 0 0.0038357426071175624 -0.004568387164374894 0 0.0038357426071175624 -0.004568387164374894 0 0.0038961514307996 -0.0044003176010313514 0 0.0039810512528755072 -0.0043969997498472108 0 0.0039058665771858395 -0.004635128577571773 0 0.0038357426071175624 -0.004568387164374894 0 0.0039810512528755072 -0.0043969997498472108 0 0.0038357426071175624 -0.004568387164374894 0 0.0037537314120499508 -0.0047194256144982667 0 0.0037122821237036674 -0.0046192201486076195 0 0.0040505154929527665 -0.0041412851091826818 0 0.0040199438908293797 -0.0041667612098762845 0 0.0038357426071175624 -0.004568387164374894 0 0.0038961514307996 -0.0044003176010313514 0 0.003714009657156056 -0.0044510601558243046 0 0.0038961514307996 -0.0044003176010313514 0 0.0040302424418662188 -0.0041521495322834204 0 0.003714009657156056 -0.0044510601558243046 0 0.0038961514307996 -0.0044003176010313514 0 0.0039810512528755072 -0.0043969997498472108 0 0.0040302424418662188 -0.0041521495322834204 0 0.0039810512528755072 -0.0043969997498472108 0 0.0040302424418662188 -0.0041521495322834204 0 0.0040267402673055492 -0.0042107120671535658 0 0.0040302424418662188 -0.0041521495322834204 0 0.0040267402673055492 -0.0042107120671535658 0 0.0041275364812644504 -0.0041571106119344375 0 0.0040259721901621769 -0.0041950051127709522 0 0.0039928934328612564 -0.0040746622353768896 0 0.0040302424418662188 -0.0041521495322834204 0 0.0042779918343624976 -0.0040685434037539695 0 0.0041275364812644504 -0.0041571106119344375 0 0.0040302424418662188 -0.0041521495322834204 0 0.0042779918343624976 -0.0040685434037539695 0 0.0043554624183235651 -0.003858270513955563 0 0.0041172036333075937 -0.0044181793378716139 0 0.0041705140192873505 -0.004274518391795129 0 0.0042383351890361628 -0.0044127233050729742 0 0.0041705140192873505 -0.004274518391795129 0 0.0040663826320863393 -0.0043362129856171399 0 0.0041022659757954209 -0.0042151324345577664 0 0.0041172036333075937 -0.0044181793378716139 0 0.0041705140192873505 -0.004274518391795129 0 0.0040663826320863393 -0.0043362129856171399 0 0.0040215422472657707 -0.0044771459294834972 0 0.0039810512528755072 -0.0043969997498472108 0 0.0040663826320863393 -0.0043362129856171399 0 0.0039810512528755072 -0.0043969997498472108 0 0.0040663826320863393 -0.0043362129856171399 0 0.0040267402673055492 -0.0042107120671535658 0 0.0040663826320863393 -0.0043362129856171399 0 0.0040267402673055492 -0.0042107120671535658 0 0.0041022659757954209 -0.0042151324345577664 0 0.0040267402673055492 -0.0042107120671535658 0 0.0040334306907435129 -0.0040516005565898686 0 0.0038568606740962551 -0.0039979174792415632 0 0.0040267402673055492 -0.0042107120671535658 0 0.0040898404644454517 -0.0041337108837520486 0 0.0040334306907435129 -0.0040516005565898686 0 0.0040267402673055492 -0.0042107120671535658 0 0.0040898404644454517 -0.0041337108837520486 0 0.0041022659757954209 -0.0042151324345577664 0 0.0040898404644454517 -0.0041337108837520486 0 0.0041567599814923356 -0.004147723622640472 0 0.0041022659757954209 -0.0042151324345577664 0 0.0040898404644454517 -0.0041337108837520486 0 0.0041567599814923356 -0.004147723622640472 0 0.0041368247807005744 -0.004033427444905471 0 0.0041705140192873505 -0.004274518391795129 0 0.0041567599814923356 -0.004147723622640472 0 0.0041022659757954209 -0.0042151324345577664 0 0.0041705140192873505 -0.004274518391795129 0 0.0041567599814923356 -0.004147723622640472 0 0.0042257143817029767 -0.0041848878707880129 0 0.0041567599814923356 -0.004147723622640472 0 0.0042257143817029767 -0.0041848878707880129 0 0.0042082132041351182 -0.0040908159972046039 0 0.0042257143817029767 -0.0041848878707880129 0 0.0042554529240101686 -0.0041085328957256567 0 0.0042082132041351182 -0.0040908159972046039 0 0.0042832567495518573 -0.004163756776219156 0 0.0042257143817029767 -0.0041848878707880129 0 0.0042554529240101686 -0.0041085328957256567 0 0.0042832567495518573 -0.004163756776219156 0 0.004330557185664663 -0.0041335645353360725 0 0.0042950148946493873 -0.0040880500503302723 0 0.0042832567495518573 -0.004163756776219156 0 0.0043396614022505782 -0.004214723088204894 0 0.004330557185664663 -0.0041335645353360725 0 0.0042832567495518573 -0.004163756776219156 0 0.0042950148946493873 -0.0040880500503302723 0 0.0042554529240101686 -0.0041085328957256567 0 0.0042832567495518573 -0.004163756776219156 0 0.0042663619511156721 -0.0042648665947548183 0 0.0043396614022505782 -0.004214723088204894 0 0.0042832567495518573 -0.004163756776219156 0 0.0042257143817029767 -0.0041848878707880129 0 0.0042663619511156721 -0.0042648665947548183 0 0.0041705140192873505 -0.004274518391795129 0 0.0042257143817029767 -0.0041848878707880129 0 0.0042663619511156721 -0.0042648665947548183 0 0.0041705140192873505 -0.004274518391795129 0 0.0042663619511156721 -0.0042648665947548183 0 0.0042383351890361628 -0.0044127233050729742 0 0.0042663619511156721 -0.0042648665947548183 0 0.004312022812030622 -0.0043428006264321049 0 0.0042383351890361628 -0.0044127233050729742 0 0.0042663619511156721 -0.0042648665947548183 0 0.004312022812030622 -0.0043428006264321049 0 0.0043396614022505782 -0.004214723088204894 0 0.0043951327612986634 -0.0043209974880317574 0 0.0044168075338898508 -0.0044101047831762805 0 0.004348449017862739 -0.0044531928328976518 0 0.004312022812030622 -0.0043428006264321049 0 0.0043951327612986634 -0.0043209974880317574 0 0.004348449017862739 -0.0044531928328976518 0 0.004312022812030622 -0.0043428006264321049 0 0.0043951327612986634 -0.0043209974880317574 0 0.0043396614022505782 -0.004214723088204894 0 0.0043951327612986634 -0.0043209974880317574 0 0.0043396614022505782 -0.004214723088204894 0 0.0044053047820993676 -0.0041921819370282403 0 0.0043396614022505782 -0.004214723088204894 0 0.004369717038723765 -0.0041429512863428294 0 0.0044053047820993676 -0.0041921819370282403 0 0.0043396614022505782 -0.004214723088204894 0 0.004369717038723765 -0.0041429512863428294 0 0.004330557185664663 -0.0041335645353360725 0 0.004369717038723765 -0.0041429512863428294 0 0.0044053047820993676 -0.0041921819370282403 0 0.0044255727365713248 -0.0040859304943230059 0 0.0044711926530922302 -0.0042787771900649795 0 0.0044770662911911424 -0.0040164720757897678 0 0.0044528818249979351 -0.004281442222214305 0 0.0044676943585012932 -0.004185795321157976 0 0.0043897503556515312 -0.0041587231534964972 0 0.0044053047820993676 -0.0041921819370282403 0 0.0044893215415119708 -0.0042459254106588457 0 0.0044255727365713248 -0.0040859304943230059 0 0.0044528818249979351 -0.004281442222214305 0 0.0045059217689575595 -0.0042568873407828967 0 0.0044676943585012932 -0.004185795321157976 0 0.0043951327612986634 -0.0043209974880317574 0 0.0044053047820993676 -0.0041921819370282403 0 0.0044893215415119708 -0.0042459254106588457 0 0.0038869110046990843 -0.0039978073548908883 0 0.004155782362140651 -0.0040279121608608401 0 0.0044374157469334232 -0.0041675948533713616 0 0.0039012648687233894 -0.0038293895613021826 0 0.0044460618600095404 -0.0038940789043651644 0 0.0044475143383976333 -0.0041891140090655485 0 0.0044460618600095404 -0.0038940789043651644 0 0.0045568792071244198 -0.004238845376491697 0 0.0045059217689575595 -0.0042568873407828967 0 0.0044676943585012932 -0.004185795321157976 0 0.0044528818249979351 -0.004281442222214305 0 0.0045059217689575595 -0.0042568873407828967 0 0.004543176978005852 -0.0043020192856340744 0 0.0045568792071244198 -0.004238845376491697 0 0.0045059217689575595 -0.0042568873407828967 0 0.004543176978005852 -0.0043020192856340744 0 0.0045568792071244198 -0.004238845376491697 0 0.0045862969056708796 -0.0043088561986000789 0 0.004543176978005852 -0.0043020192856340744 0 0.0045942386983814721 -0.0043653902571027196 0 0.004543176978005852 -0.0043020192856340744 0 0.0045466743459502143 -0.0044863550011519787 0 0.0045457768830535431 -0.0043154233827893346 0 0.0045793434271706205 -0.0044928986175713937 0 0.004543176978005852 -0.0043020192856340744 0 0.0045362001952456796 -0.0044112138091309703 0 0.0046141149808016351 -0.0044989871821811203 0 0.0044528818249979351 -0.004281442222214305 0 0.004543176978005852 -0.0043020192856340744 0 0.0045362001952456796 -0.0044112138091309703 0 0.0045942386983814721 -0.0043653902571027196 0 0.0045862969056708796 -0.0043088561986000789 0 0.004543176978005852 -0.0043020192856340744 0 0.0044893215415119708 -0.0042459254106588457 0 0.0044629773432667223 -0.0043677072544534585 0 0.0045362001952456796 -0.0044112138091309703 0 0.0044711926530922302 -0.0042787771900649795 0 0.0045293159008408515 -0.0043902267812091517 0 0.0043951327612986634 -0.0043209974880317574 0 0.0044893215415119708 -0.0042459254106588457 0 0.0044629773432667223 -0.0043677072544534585 0 0.0043951327612986634 -0.0043209974880317574 0 0.0044629773432667223 -0.0043677072544534585 0 0.0044168075338898508 -0.0044101047831762805 0 0.0044168075338898508 -0.0044101047831762805 0 0.0044549548706660953 -0.004480056835882742 0 0.004348449017862739 -0.0044531928328976518 0 0.0044629773432667223 -0.0043677072544534585 0 0.0044168075338898508 -0.0044101047831762805 0 0.0044549548706660953 -0.004480056835882742 0 0.0044629773432667223 -0.0043677072544534585 0 0.0044549548706660953 -0.004480056835882742 0 0.0045362001952456796 -0.0044112138091309703 0 0.0044549548706660953 -0.004480056835882742 0 0.0045362001952456796 -0.0044112138091309703 0 0.0045242944788303555 -0.0045289483008966709 0 0.0044549548706660953 -0.004480056835882742 0 0.0045242944788303555 -0.0045289483008966709 0 0.0044662301698184222 -0.0046033828199575477 0 0.0045362001952456796 -0.0044112138091309703 0 0.0045242944788303555 -0.0045289483008966709 0 0.0046141149808016351 -0.0044989871821811203 0 0.0046470947560851095 -0.0047426748437639317 0 0.0046141149808016351 -0.0044989871821811203 0 0.0045500631018176273 -0.004624743548620463 0 0.0046148255565518275 -0.004732826493288449 0 0.0045793434271706205 -0.0044928986175713937 0 0.0045242944788303555 -0.0045289483008966709 0 0.0046141149808016351 -0.0044989871821811203 0 0.0045500631018176273 -0.004624743548620463 0 0.0045242944788303555 -0.0045289483008966709 0 0.0045500631018176273 -0.004624743548620463 0 0.0044662301698184222 -0.0046033828199575477 0 0.0045010050517151857 -0.0047466779189888854 0 0.0045500631018176273 -0.004624743548620463 0 0.0044662301698184222 -0.0046033828199575477 0 0.0043856203271126579 -0.0046802700605516586 0 0.0045010050517151857 -0.0047466779189888854 0 0.0044662301698184222 -0.0046033828199575477 0 0.0044549548706660953 -0.004480056835882742 0 0.0044662301698184222 -0.0046033828199575477 0 0.0043739928516604567 -0.0045594423178386854 0 0.0043856203271126579 -0.0046802700605516586 0 0.0044662301698184222 -0.0046033828199575477 0 0.0043739928516604567 -0.0045594423178386854 0 0.0043856203271126579 -0.0046802700605516586 0 0.0043739928516604567 -0.0045594423178386854 0 0.004284046559843639 -0.0046311154324843295 0 0.0043739928516604567 -0.0045594423178386854 0 0.004284046559843639 -0.0046311154324843295 0 0.0042508851033853526 -0.0045293184831394166 0 0.004284046559843639 -0.0046311154324843295 0 0.004144338494398209 -0.0046381207871218095 0 0.0042508851033853526 -0.0045293184831394166 0 0.0042516159930491163 -0.0047549133884762906 0 0.004284046559843639 -0.0046311154324843295 0 0.004144338494398209 -0.0046381207871218095 0 0.004144338494398209 -0.0046381207871218095 0 0.0042508851033853526 -0.0045293184831394166 0 0.0041567363677882715 -0.0045176260871771894 0 0.0041172036333075937 -0.0044181793378716139 0 0.0041567363677882715 -0.0045176260871771894 0 0.0042383351890361628 -0.0044127233050729742 0 0.0042508851033853526 -0.0045293184831394166 0 0.0041567363677882715 -0.0045176260871771894 0 0.0042383351890361628 -0.0044127233050729742 0 0.0042508851033853526 -0.0045293184831394166 0 0.0042383351890361628 -0.0044127233050729742 0 0.004348449017862739 -0.0044531928328976518 0 0.004312022812030622 -0.0043428006264321049 0 0.0042383351890361628 -0.0044127233050729742 0 0.004348449017862739 -0.0044531928328976518 0 0.0043739928516604567 -0.0045594423178386854 0 0.0042508851033853526 -0.0045293184831394166 0 0.004348449017862739 -0.0044531928328976518 0 0.0044549548706660953 -0.004480056835882742 0 0.0043739928516604567 -0.0045594423178386854 0 0.004348449017862739 -0.0044531928328976518 0 0.0049998946071596771 -0.0044852268414281374 0 0.0049414758464831343 -0.004745550964339873 0 0.0048745738008038782 -0.0049222029218884576 0 0.0051273984776973817 -0.0045263120642626631 0 0.0050087845459368899 -0.0044248311516907691 0 0.0052285179397561932 -0.0044407412701050865 0 0.0050087845459368899 -0.0044248311516907691 0 0.0052285179397561932 -0.0044407412701050865 0 0.0050173338151428323 -0.0043407257068983022 0 0.0048978396810755703 -0.0043128639896671392 0 0.0051132683565548931 -0.004357798038552704 0 0.0050790574338506521 -0.0042421274079534081 0 0.0050610751090773565 -0.0042316054059291022 0 0.0050173338151428323 -0.0043407257068983022 0 0.005021096477894141 -0.0045700481710543653 0 0.0050255906798852929 -0.0044561797360609902 0 0.0051091181303669188 -0.0045243542157445511 0 0.0049999757373570672 -0.0044844611424270315 0 0.0050087845459368899 -0.0044248311516907691 0 0.0047712968301402555 -0.0047196364333370183 0 0.0047570424033498366 -0.0045972929353618238 0 0.0046614179296752406 -0.0046722634221397046 0 0.0048978396810755703 -0.0043128639896671392 0 0.0046518776830670495 -0.004361873905310008 0 0.005021096477894141 -0.0045700481710543653 0 0.0048978396810755703 -0.0043128639896671392 0 0.004838256629839964 -0.0046640248347656942 0 0.0047712968301402555 -0.0047196364333370183 0 0.0047570424033498366 -0.0045972929353618238 0 0.005021096477894141 -0.0045700481710543653 0 0.0049316435225314282 -0.0046772486991122223 0 0.0050001455997587081 -0.0044846711318997177 0 0.0049316435225314282 -0.0046772486991122223 0 0.0051091181303669188 -0.0045243542157445511 0 0.0049999757373570672 -0.0044844611424270315 0 0.0052084787347178377 -0.0046141332610486604 0 0.004999535764035193 -0.0049998013026352293 0 0.0048745738008038782 -0.0049222029218884576 0 0.0046467548272606865 -0.0049997462383539765 0 0.0049998946071596771 -0.0044852268414281374 0 0.004999535764035193 -0.0049998013026352293 0 0.0048745738008038782 -0.0049222029218884576 0 0.0049414758464831343 -0.004745550964339873 0 0.0048745738008038782 -0.0049222029218884576 0 0.0048757522439065431 -0.0049193424679709998 0 0.0049316435225314282 -0.0046772486991122223 0 0.0046230180592014784 -0.0050024367865214164 0 0.0049316435225314282 -0.0046772486991122223 0 0.0044802325666717267 -0.0048913952543980501 0 0.0047878388377456393 -0.0048606809810065304 0 0.0046712401748644919 -0.0047994548501906764 0 0.0046804914593428617 -0.0047774579726191186 0 0.0044802325666717267 -0.0048913952543980501 0 0.0046230180592014784 -0.0050024367865214164 0 0.0048745738008038782 -0.0049222029218884576 0 0.0048757522439065431 -0.0049193424679709998 0 0.0046467548272606865 -0.0049997462383539765 0 0.0046230180592014784 -0.0050024367865214164 0 0.0046457991918264514 -0.0050000087202774698 0 0.0045608260860101951 -0.0051999264256915746 0 0.0046457220738226231 -0.0049999986160190295 0 0.0044849380889017409 -0.0049999993788719171 0 0.0044849380889017409 -0.0049999993788719171 0 0.004442963445541747 -0.0051002676702619531 0 0.0043241489409921738 -0.0049999997534317282 0 0.0045608260860101951 -0.0051999264256915746 0 0.0044849380889017409 -0.0049999993788719171 0 0.004442963445541747 -0.0051002676702619531 0 0.0044451666582713302 -0.0050959819387888699 0 0.0043241781903481441 -0.0050000258344822853 0 0.0046230180592014784 -0.0050024367865214164 0 0.0044451666582713302 -0.0050959819387888699 0 0.0045083946412573812 -0.005208819055934311 0 0.00442506589790606 -0.005092747813916769 0 0.0043318338587898303 -0.0051132492198482085 0 0.0044802325666717267 -0.0048913952543980501 0 0.0041516698492470219 -0.0050773688248643388 0 0.0040824849172650703 -0.0050336119079648434 0 0.0040465093913895286 -0.0050473594528245239 0 0.0040126439195622438 -0.0050081372556276867 0 0.0045083946412573812 -0.005208819055934311 0 0.0045230396458752018 -0.0051735092327350879 0 0.00442506589790606 -0.005092747813916769 0 0.0040465093913895286 -0.0050473594528245239 0 0.0040616625220489481 -0.0050772308399031005 0 0.0040144512208806805 -0.0050647512733449475 0 0.0034670659933325981 -0.0048868617606483067 0 0.0036849780004235568 -0.0049888990303308001 0 0.0036015940711994557 -0.0048469337368914865 0 0.0042312524632930459 -0.0046436641990464092 0 0.0037877900544293123 -0.0050177945218935439 0 0.0040824849172650703 -0.0050336119079648434 0 0.0040465093913895286 -0.0050473594528245239 0 0.0040616625220489481 -0.0050772308399031005 0 0.0044802325666717267 -0.0048913952543980501 0 0.0042312524632930459 -0.0046436641990464092 0 0.0047570424033498366 -0.0045972929353618238 0 0.0046428767642043966 -0.0046013002835563121 0 0.0046614179296752406 -0.0046722634221397046 0 0.0046011467724772952 -0.0045106807555397241 0 0.0045520193168553146 -0.0046250293258450767 0 0.0046428767642043966 -0.0046013002835563121 0 0.0047570424033498366 -0.0045972929353618238 0 0.0046011467724772952 -0.0045106807555397241 0 0.0046428767642043966 -0.0046013002835563121 0 0.0045520193168553146 -0.0046250293258450767 0 0.0046428767642043966 -0.0046013002835563121 0 0.0046614179296752406 -0.0046722634221397046 0 0.0042312524632930459 -0.0046436641990464092 0 0.0046518776830670495 -0.004361873905310008 0 0.0045533669350198329 -0.0040241656407405827 0 0.0046446526153987831 -0.0040211500977008598 0 0.0046720986150903896 -0.0039005931159028693 0 0.0046503677641247469 -0.0040377444366061941 0 0.0046470591121181952 -0.0040462551971452336 0 0.0046446526153987831 -0.0040211500977008598 0 0.0046488053474267529 -0.0040430669389563568 0 0.0046503677641247469 -0.0040377444366061941 0 0.0046470591121181952 -0.0040462551971452336 0 0.0045533669350198329 -0.0040241656407405827 0 0.0046470591121181952 -0.0040462551971452336 0 0.0046446526153987831 -0.0040211500977008598 0 0.0046503677641247469 -0.0040377444366061941 0 0.0046446526153987831 -0.0040211500977008598 0 0.0046499414802496156 -0.0040412834705333776 0 0.0046381377953657842 -0.0040269431461312493 0 0.0047383920757066329 -0.0039759438346559269 0 0.0046503677641247469 -0.0040377444366061941 0 0.0046499414802496156 -0.0040412834705333776 0 0.0046448424860977078 -0.0040395664883483813 0 0.0034670659933325981 -0.0048868617606483067 0 0.0035353762385222777 -0.004708011751584508 0 0.0036015940711994557 -0.0048469337368914865 0 0.0042312524632930459 -0.0046436641990464092 0 0.0040958285219374587 -0.0044096148710543702 0 0.0046488053474267529 -0.0040430669389563568 0 0.0046503677641247469 -0.0040377444366061941 0 0.0046448424860977078 -0.0040395664883483813 0 0.0037549040813714884 -0.0047513434526295804 0 0.0036665541017363236 -0.0047785858821867942 0 0.0036735641284629849 -0.0046566887072571573 0 0.0037549040813714884 -0.0047513434526295804 0 0.0036665541017363236 -0.0047785858821867942 0 0.0036991298397362799 -0.0048655859272428159 0 0.0035353762385222777 -0.004708011751584508 0 0.0036665541017363236 -0.0047785858821867942 0 0.0036015940711994557 -0.0048469337368914865 0 0.0035353762385222777 -0.004708011751584508 0 0.0036665541017363236 -0.0047785858821867942 0 0.0036735641284629849 -0.0046566887072571573 0 0.0035353762385222777 -0.004708011751584508 0 0.0036735641284629849 -0.0046566887072571573 0 0.0036096802122652879 -0.004517678893468581 0 0.0037549040813714884 -0.0047513434526295804 0 0.0036735641284629849 -0.0046566887072571573 0 0.0037615102056091734 -0.0045714594953168274 0 0.0037549040813714884 -0.0047513434526295804 0 0.0039254999816613406 -0.0046301041943108282 0 0.0037867884861307586 -0.0049523226270907755 0 0.0036703108825606244 -0.0048301649865765085 0 0.0037867884861307586 -0.0049523226270907755 0 0.0037503671051451397 -0.0049078837275340166 0 0.0037549040813714884 -0.0047513434526295804 0 0.0039254999816613406 -0.0046301041943108282 0 0.0037615102056091734 -0.0045714594953168274 0 0.0037452823348499906 -0.0048031729348438695 0 0.0038011978450533199 -0.0048942106104790965 0 0.0037867884861307586 -0.0049523226270907755 0 0.0036849780004235568 -0.0049888990303308001 0 0.0038989958226962147 -0.005029530471181042 0 0.0038135136447092323 -0.0049690661037330519 0 0.0037867884861307586 -0.0049523226270907755 0 0.0037503671051451397 -0.0049078837275340166 0 0.0038135136447092323 -0.0049690661037330519 0 0.0037867884861307586 -0.0049523226270907755 0 0.0038989958226962147 -0.005029530471181042 0 0.0037867884861307586 -0.0049523226270907755 0 0.0036849780004235568 -0.0049888990303308001 0 0.0036991298397362799 -0.0048655859272428159 0 0.0037549040813714884 -0.0047513434526295804 0 0.0037867884861307586 -0.0049523226270907755 0 0.0036991298397362799 -0.0048655859272428159 0 0.0036849780004235568 -0.0049888990303308001 0 0.0036991298397362799 -0.0048655859272428159 0 0.0036015940711994557 -0.0048469337368914865 0 0.0036665541017363236 -0.0047785858821867942 0 0.0036991298397362799 -0.0048655859272428159 0 0.0036015940711994557 -0.0048469337368914865 0 0.0040465093913895286 -0.0050473594528245239 0 0.0040144512208806805 -0.0050647512733449475 0 0.0040183988031857326 -0.0050306215105770172 0 0.0040465093913895286 -0.0050473594528245239 0 0.0040183988031857326 -0.0050306215105770172 0 0.0040126439195622438 -0.0050081372556276867 0 0.0040144512208806805 -0.0050647512733449475 0 0.0040183988031857326 -0.0050306215105770172 0 0.0039942913112625388 -0.0050124243374786472 0 0.0040183988031857326 -0.0050306215105770172 0 0.0039942913112625388 -0.0050124243374786472 0 0.0040126439195622438 -0.0050081372556276867 0 0.0039942913112625388 -0.0050124243374786472 0 0.0040126439195622438 -0.0050081372556276867 0 0.0041230309585775678 -0.004999908842256773 0 0.0041516698492470219 -0.0050773688248643388 0 0.0041236852699322937 -0.0050000061392585565 0 0.0043318338587898303 -0.0051132492198482085 0 0.0043241279008051792 -0.0049999904118024985 0 0.004123695259961248 -0.005000004942343597 0 0.00442506589790606 -0.005092747813916769 0 0.0043318338587898303 -0.0051132492198482085 0 0.0043241279008051792 -0.0049999904118024985 0 0.0039942913112625388 -0.0050124243374786472 0 0.0041230309585775678 -0.004999908842256773 0 0.0038989958226962147 -0.005029530471181042 0 0.0041230309585775678 -0.004999908842256773 0 0.0038989958226962147 -0.005029530471181042 0 0.0039370181245441827 -0.0050276640866866442 0 0.0040144512208806805 -0.0050647512733449475 0 0.0039942913112625388 -0.0050124243374786472 0 0.0038989958226962147 -0.005029530471181042 0 0.0037877900544293123 -0.0050177945218935439 0 0.0039087085284646508 -0.0050378302337266301 0 0.0038135136447092323 -0.0049690661037330519 0 0.0038989958226962147 -0.005029530471181042 0 0.0038384927667731261 -0.0050080386712424733 0 0.0038384927667731261 -0.0050080386712424733 0 0.0039370181245441827 -0.0050276640866866442 0 0.0038297332770704661 -0.0050260974501359973 0 0.0038989958226962147 -0.005029530471181042 0 0.0038384927667731261 -0.0050080386712424733 0 0.0039370181245441827 -0.0050276640866866442 0 0.0041230309585775678 -0.004999908842256773 0 0.0039370181245441827 -0.0050276640866866442 0 0.0038625992715683546 -0.0049999298003870953 0 0.0039370181245441827 -0.0050276640866866442 0 0.0038625992715683546 -0.0049999298003870953 0 0.0038297332770704661 -0.0050260974501359973 0 0.0037206270155797018 -0.0050447859924374443 0 0.0038625992715683546 -0.0049999298003870953 0 0.0038297332770704661 -0.0050260974501359973 0 0.0037206270155797018 -0.0050447859924374443 0 0.0038297332770704661 -0.0050260974501359973 0 0.0037783808040589241 -0.0049828487929296367 0 0.0038384927667731261 -0.0050080386712424733 0 0.0038297332770704661 -0.0050260974501359973 0 0.0037783808040589241 -0.0049828487929296367 0 0.0037554259933019738 -0.0049373357437451663 0 0.0037783808040589241 -0.0049828487929296367 0 0.0037605486799734142 -0.0049045774156719815 0 0.0037783808040589241 -0.0049828487929296367 0 0.0037758817655815166 -0.0049379947699872305 0 0.0037605486799734142 -0.0049045774156719815 0 0.0038384927667731261 -0.0050080386712424733 0 0.0037783808040589241 -0.0049828487929296367 0 0.0037758817655815166 -0.0049379947699872305 0 0.0038135136447092323 -0.0049690661037330519 0 0.0038384927667731261 -0.0050080386712424733 0 0.0037758817655815166 -0.0049379947699872305 0 0.0038135136447092323 -0.0049690661037330519 0 0.0037758817655815166 -0.0049379947699872305 0 0.0037503671051451397 -0.0049078837275340166 0 0.0037758817655815166 -0.0049379947699872305 0 0.0037267100928058553 -0.0048252446619556216 0 0.0037503671051451397 -0.0049078837275340166 0 0.0036703108825606244 -0.0048301649865765085 0 0.0037267100928058553 -0.0048252446619556216 0 0.0037503671051451397 -0.0049078837275340166 0 0.0037758817655815166 -0.0049379947699872305 0 0.0037267100928058553 -0.0048252446619556216 0 0.0037605486799734142 -0.0049045774156719815 0 0.0037673807828580283 -0.0048277819818015426 0 0.0037267100928058553 -0.0048252446619556216 0 0.0037605486799734142 -0.0049045774156719815 0 0.0037537314120499508 -0.0047194256144982667 0 0.0036894064079024754 -0.0047243266860734975 0 0.0037122821237036674 -0.0046192201486076195 0 0.0037267100928058553 -0.0048252446619556216 0 0.0037537314120499508 -0.0047194256144982667 0 0.0036894064079024754 -0.0047243266860734975 0 0.0037673807828580283 -0.0048277819818015426 0 0.0037267100928058553 -0.0048252446619556216 0 0.0037537314120499508 -0.0047194256144982667 0 0.0036703108825606244 -0.0048301649865765085 0 0.0036894064079024754 -0.0047243266860734975 0 0.0036222912413045477 -0.0046329277918478427 0 0.0036703108825606244 -0.0048301649865765085 0 0.0037267100928058553 -0.0048252446619556216 0 0.0036894064079024754 -0.0047243266860734975 0 0.0036894064079024754 -0.0047243266860734975 0 0.0036222912413045477 -0.0046329277918478427 0 0.0037122821237036674 -0.0046192201486076195 0 0.0041960535728867267 -0.0041553589012018628 0 0.0040199438908293797 -0.0041667612098762845 0 0.0036222912413045477 -0.0046329277918478427 0 0.0037122821237036674 -0.0046192201486076195 0 0.003714009657156056 -0.0044510601558243046 0 0.0038357426071175624 -0.004568387164374894 0 0.0037122821237036674 -0.0046192201486076195 0 0.003714009657156056 -0.0044510601558243046 0 0.0043554624183235651 -0.003858270513955563 0 0.0044221261757370935 -0.0039684115793060977 0 0.0045109959675745459 -0.0039180628413075192 0 0.0042779918343624976 -0.0040685434037539695 0 0.0043554624183235651 -0.003858270513955563 0 0.0044221261757370935 -0.0039684115793060977 0 0.0042779918343624976 -0.0040685434037539695 0 0.0044221261757370935 -0.0039684115793060977 0 0.0045026503188808752 -0.0040261917759885114 0 0.0045026503188808752 -0.0040261917759885114 0 0.0046229850585358815 -0.0038535577708763537 0 0.0047498521308716622 -0.0039250576314299613 0 0.0044221261757370935 -0.0039684115793060977 0 0.0045026503188808752 -0.0040261917759885114 0 0.0045109959675745459 -0.0039180628413075192 0 0.0044973320445271586 -0.0040543114102477825 0 0.0046084492109996471 -0.0038024390182687467 0 0.0045026503188808752 -0.0040261917759885114 0 0.0047498521308716622 -0.0039250576314299613 0 0.0046723720309668534 -0.0040415733972235428 0 0.0045559665555808355 -0.0037697449001331007 0 0.0043554624183235651 -0.003858270513955563 0 0.0045109959675745459 -0.0039180628413075192 0 0.0041960535728867267 -0.0041553589012018628 0 0.0046084492109996471 -0.0038024390182687467 0 0.0047046293673356923 -0.003761403312564463 0 0.0046229850585358815 -0.0038535577708763537 0 0.0047426681337273974 -0.0038393999782576163 0 0.0047426681337273974 -0.0038393999782576163 0 0.0048596273942538718 -0.0038414392949834629 0 0.0047918613777328707 -0.0037949787386563618 0 0.0047426681337273974 -0.0038393999782576163 0 0.0047498521308716622 -0.0039250576314299613 0 0.0048596273942538718 -0.0038414392949834629 0 0.0046229850585358815 -0.0038535577708763537 0 0.0047426681337273974 -0.0038393999782576163 0 0.0047498521308716622 -0.0039250576314299613 0 0.0047498521308716622 -0.0039250576314299613 0 0.0049256244009549498 -0.0039093727874637361 0 0.0048596273942538718 -0.0038414392949834629 0 0.0047498521308716622 -0.0039250576314299613 0 0.0049256244009549498 -0.0039093727874637361 0 0.0048416069648663899 -0.0039566288929751142 0 0.0049256244009549498 -0.0039093727874637361 0 0.0048416069648663899 -0.0039566288929751142 0 0.0049294153093282639 -0.0039349615371533989 0 0.0049256244009549498 -0.0039093727874637361 0 0.0048596273942538718 -0.0038414392949834629 0 0.0049926739648580428 -0.0038947961402053272 0 0.0048596273942538718 -0.0038414392949834629 0 0.0050609955827763606 -0.0039225512008394534 0 0.0049926739648580428 -0.0038947961402053272 0 0.0048421958873246934 -0.0037979182589372093 0 0.0048374654791416474 -0.0038892336019264845 0 0.0048101122288556732 -0.0037974914340940212 0 0.0048596273942538718 -0.0038414392949834629 0 0.0048421958873246934 -0.0037979182589372093 0 0.0048101122288556732 -0.0037974914340940212 0 0.0048621974908404997 -0.0038563776179836636 0 0.0049208392077339921 -0.0038757704103747816 0 0.0048596273942538718 -0.0038414392949834629 0 0.0048421958873246934 -0.0037979182589372093 0 0.0047918613777328707 -0.0037949787386563618 0 0.0041960535728867267 -0.0041553589012018628 0 0.0043075489842455883 -0.0040736206862138288 0 0.0047046293673356923 -0.003761403312564463 0 0.0047918613777328707 -0.0037949787386563618 0 0.0047971718873331464 -0.003750480416450055 0 0.0047046293673356923 -0.003761403312564463 0 0.0047426681337273974 -0.0038393999782576163 0 0.0047918613777328707 -0.0037949787386563618 0 0.0048421958873246934 -0.0037979182589372093 0 0.0047918613777328707 -0.0037949787386563618 0 0.0047971718873331464 -0.003750480416450055 0 0.0039254999816613406 -0.0046301041943108282 0 0.0038214306165661651 -0.0044021004020678694 0 0.0037615102056091734 -0.0045714594953168274 0 0.0039254999816613406 -0.0046301041943108282 0 0.0040439117396198756 -0.0042859302803359596 0 0.0038214306165661651 -0.0044021004020678694 0 0.0037452823348499906 -0.0048031729348438695 0 0.0041960535728867267 -0.0041553589012018628 0 0.0048421958873246934 -0.0037979182589372093 0 0.0047971718873331464 -0.003750480416450055 0 0.0048696856122353704 -0.0037204971637026046 0 0.0043075489842455883 -0.0040736206862138288 0 0.0044645055774842988 -0.0040926375772687281 0 0.004902139980181487 -0.0036740958361315612 0 0.0044645055774842988 -0.0040926375772687281 0 0.0038214306165661651 -0.0044021004020678694 0 0.0037615102056091734 -0.0045714594953168274 0 0.0036096802122652879 -0.004517678893468581 0 0.0036735641284629849 -0.0046566887072571573 0 0.0037615102056091734 -0.0045714594953168274 0 0.0036096802122652879 -0.004517678893468581 0 0.0047704950771210054 -0.0038856391525785424 0 0.0046720986150903896 -0.0039005931159028693 0 0.0048101122288556732 -0.0037974914340940212 0 0.0048833346940652719 -0.0039831572598501962 0 0.0049208392077339921 -0.0038757704103747816 0 0.0048374654791416474 -0.0038892336019264845 0 0.0047704950771210054 -0.0038856391525785424 0 0.0048101122288556732 -0.0037974914340940212 0 0.0047524532781639331 -0.0039567419607175053 0 0.0048374654791416474 -0.0038892336019264845 0 0.0047704950771210054 -0.0038856391525785424 0 0.0046499414802496156 -0.0040412834705333776 0 0.0046448424860977078 -0.0040395664883483813 0 0.0046376069555378388 -0.0040490517570168144 0 0.0047383920757066329 -0.0039759438346559269 0 0.0044645055774842988 -0.0040926375772687281 0 0.0040958285219374587 -0.0044096148710543702 0 0.0044645055774842988 -0.0040926375772687281 0 0.0047524532781639331 -0.0039567419607175053 0 0.0047704950771210054 -0.0038856391525785424 0 0.0046720986150903896 -0.0039005931159028693 0 0.0046446526153987831 -0.0040211500977008598 0 0.0047524532781639331 -0.0039567419607175053 0 0.0046720986150903896 -0.0039005931159028693 0 0.0051128222270110189 -0.0041037138505510516 0 0.0050873706530743601 -0.0040758319372752759 0 0.0050820079358188091 -0.0041648126026065857 0 0.0050813892109500087 -0.0039787168772604095 0 0.0050800602552797574 -0.0039474103357970041 0 0.0050873706530743601 -0.0040758319372752759 0 0.0051128222270110189 -0.0041037138505510516 0 0.0050813892109500087 -0.0039787168772604095 0 0.0050873706530743601 -0.0040758319372752759 0 0.0051128222270110189 -0.0041037138505510516 0 0.0050813892109500087 -0.0039787168772604095 0 0.0050609955827763606 -0.0039225512008394534 0 0.0050813892109500087 -0.0039787168772604095 0 0.0050609955827763606 -0.0039225512008394534 0 0.0050547646442035314 -0.003926979229214307 0 0.0050609955827763606 -0.0039225512008394534 0 0.0049926739648580428 -0.0038947961402053272 0 0.0050547646442035314 -0.003926979229214307 0 0.0050547646442035314 -0.003926979229214307 0 0.0050211713475450549 -0.0039047582469168467 0 0.0050593282625069807 -0.0039217866558396075 0 0.0049926739648580428 -0.0038947961402053272 0 0.0050547646442035314 -0.003926979229214307 0 0.0050211713475450549 -0.0039047582469168467 0 0.0049256244009549498 -0.0039093727874637361 0 0.0049926739648580428 -0.0038947961402053272 0 0.0050211713475450549 -0.0039047582469168467 0 0.0049256244009549498 -0.0039093727874637361 0 0.0050211713475450549 -0.0039047582469168467 0 0.005004813942951992 -0.0039038791233590559 0 0.0050211713475450549 -0.0039047582469168467 0 0.005004813942951992 -0.0039038791233590559 0 0.0050519324389789498 -0.0038931779623892541 0 0.0049256244009549498 -0.0039093727874637361 0 0.005004813942951992 -0.0039038791233590559 0 0.0049294153093282639 -0.0039349615371533989 0 0.0050519324389789498 -0.0038931779623892541 0 0.0050800602552797574 -0.0039474103357970041 0 0.0050729729117804925 -0.0038553289423721793 0 0.0050519324389789498 -0.0038931779623892541 0 0.0050729729117804925 -0.0038553289423721793 0 0.0050339358518560863 -0.0038808998331371588 0 0.005004813942951992 -0.0039038791233590559 0 0.0050519324389789498 -0.0038931779623892541 0 0.0050339358518560863 -0.0038808998331371588 0 0.0050519324389789498 -0.0038931779623892541 0 0.0050593282625069807 -0.0039217866558396075 0 0.0050800602552797574 -0.0039474103357970041 0 0.0050211713475450549 -0.0039047582469168467 0 0.0050519324389789498 -0.0038931779623892541 0 0.0050593282625069807 -0.0039217866558396075 0 0.0050813892109500087 -0.0039787168772604095 0 0.0050547646442035314 -0.003926979229214307 0 0.0050593282625069807 -0.0039217866558396075 0 0.0050813892109500087 -0.0039787168772604095 0 0.0050593282625069807 -0.0039217866558396075 0 0.0050800602552797574 -0.0039474103357970041 0 0.0050800602552797574 -0.0039474103357970041 0 0.0050637807367953499 -0.0039074027406696809 0 0.0050616163348483423 -0.0040617839928583869 0 0.0050637807367953499 -0.0039074027406696809 0 0.0050729729117804925 -0.0038553289423721793 0 0.0050579212917939457 -0.0037929983391565545 0 0.0050800602552797574 -0.0039474103357970041 0 0.0050637807367953499 -0.0039074027406696809 0 0.0050729729117804925 -0.0038553289423721793 0 0.0050637807367953499 -0.0039074027406696809 0 0.004999921976105836 -0.0039003744811669143 0 0.0050579212917939457 -0.0037929983391565545 0 0.004999921976105836 -0.0039003744811669143 0 0.0050579212917939457 -0.0037929983391565545 0 0.0050000053661787957 -0.003608654281752121 0 0.0050637807367953499 -0.0039074027406696809 0 0.004999921976105836 -0.0039003744811669143 0 0.0050616163348483423 -0.0040617839928583869 0 0.004999921976105836 -0.0039003744811669143 0 0.0050616163348483423 -0.0040617839928583869 0 0.0049999288885828434 -0.0041923200508187366 0 0.0050616163348483423 -0.0040617839928583869 0 0.0049999288885828434 -0.0041923200508187366 0 0.0050397648968569641 -0.0042139511572123504 0 0.0050616163348483423 -0.0040617839928583869 0 0.0050685805368891656 -0.0041566080368943079 0 0.0050397648968569641 -0.0042139511572123504 0 0.0050800602552797574 -0.0039474103357970041 0 0.0050616163348483423 -0.0040617839928583869 0 0.0050873706530743601 -0.0040758319372752759 0 0.0050616163348483423 -0.0040617839928583869 0 0.0050873706530743601 -0.0040758319372752759 0 0.0050685805368891656 -0.0041566080368943079 0 0.0048978396810755703 -0.0043128639896671392 0 0.0048833346940652719 -0.0039831572598501962 0 0.0050685805368891656 -0.0041566080368943079 0 0.0050820079358188091 -0.0041648126026065857 0 0.0050610751090773565 -0.0042316054059291022 0 0.0050790574338506521 -0.0042421274079534081 0 0.0051128222270110189 -0.0041037138505510516 0 0.0050820079358188091 -0.0041648126026065857 0 0.0050873706530743601 -0.0040758319372752759 0 0.0050685805368891656 -0.0041566080368943079 0 0.0050820079358188091 -0.0041648126026065857 0 0.0050790574338506521 -0.0042421274079534081 0 0.0050820079358188091 -0.0041648126026065857 0 0.0050610751090773565 -0.0042316054059291022 0 0.0050087845459368899 -0.0044248311516907691 0 0.0049999288885828434 -0.0041923200508187366 0 0.0050173338151428323 -0.0043407257068983022 0 0.0049999288885828434 -0.0041923200508187366 0 0.0050173338151428323 -0.0043407257068983022 0 0.0050397648968569641 -0.0042139511572123504 0 0.0050610751090773565 -0.0042316054059291022 0 0.0050173338151428323 -0.0043407257068983022 0 0.0050397648968569641 -0.0042139511572123504 0 0.0049999757373570672 -0.0044844611424270315 0 0.0050087845459368899 -0.0044248311516907691 0 0.0049999288885828434 -0.0041923200508187366 0 0.0050685805368891656 -0.0041566080368943079 0 0.0050610751090773565 -0.0042316054059291022 0 0.0050397648968569641 -0.0042139511572123504 0 0.0050000003940423969 -0.0033161908281793954 0 0.0052009039850838294 -0.0031278589639824493 0 0.0049999929099483371 -0.0030753742908431487 0 0.0052597893654288529 -0.0032995972153065808 0 0.0053927415012749664 -0.0031759066409929025 0 0.0052009039850838294 -0.0031278589639824493 0 0.0052597893654288529 -0.0032995972153065808 0 0.0050000003940423969 -0.0033161908281793954 0 0.0052009039850838294 -0.0031278589639824493 0 0.0051606645704357764 -0.0036744197053444495 0 0.005101732856203702 -0.0035794531281325335 0 0.0050774860273678432 -0.003959168705658469 0 0.0050714346813521965 -0.0035734965461757234 0 0.0050706989488540502 -0.0037550494513388867 0 0.0050774860273678432 -0.003959168705658469 0 0.0050706989488540502 -0.0037550494513388867 0 0.0050360117177059224 -0.0039060188429362467 0 0.0053687332537902159 -0.0033028535247544991 0 0.0049999721011796819 -0.0033162639759650625 0 0.0050714346813521965 -0.0035734965461757234 0 0.0051606645704357764 -0.0036744197053444495 0 0.0050003322476643393 -0.0033159894381485241 0 0.0049999721011796819 -0.0033162639759650625 0 0.0050714346813521965 -0.0035734965461757234 0 0.0050000053661787957 -0.003608654281752121 0 0.0050714346813521965 -0.0035734965461757234 0 0.0050644257758230282 -0.0036905912977191137 0 0.0050706989488540502 -0.0037550494513388867 0 0.0050714346813521965 -0.0035734965461757234 0 0.0050000053661787957 -0.003608654281752121 0 0.0050644257758230282 -0.0036905912977191137 0 0.0050579212917939457 -0.0037929983391565545 0 0.0050000053661787957 -0.003608654281752121 0 0.0050644257758230282 -0.0036905912977191137 0 0.0050579212917939457 -0.0037929983391565545 0 0.0050644257758230282 -0.0036905912977191137 0 0.0050715945965040714 -0.0037785729570857154 0 0.0050644257758230282 -0.0036905912977191137 0 0.0050715945965040714 -0.0037785729570857154 0 0.0050706989488540502 -0.0037550494513388867 0 0.0050715945965040714 -0.0037785729570857154 0 0.0050706989488540502 -0.0037550494513388867 0 0.0050551981186221211 -0.0038352708067453216 0 0.0050729729117804925 -0.0038553289423721793 0 0.0050715945965040714 -0.0037785729570857154 0 0.0050551981186221211 -0.0038352708067453216 0 0.0050729729117804925 -0.0038553289423721793 0 0.0050579212917939457 -0.0037929983391565545 0 0.0050715945965040714 -0.0037785729570857154 0 0.0050706989488540502 -0.0037550494513388867 0 0.0050342585321328627 -0.0038648903619756597 0 0.0050551981186221211 -0.0038352708067453216 0 0.0050706989488540502 -0.0037550494513388867 0 0.0050342585321328627 -0.0038648903619756597 0 0.0050360117177059224 -0.0039060188429362467 0 0.0050342585321328627 -0.0038648903619756597 0 0.004986683253770178 -0.003962190995413022 0 0.0050360117177059224 -0.0039060188429362467 0 0.0050342585321328627 -0.0038648903619756597 0 0.0050016673495262079 -0.0039056317559091288 0 0.004986683253770178 -0.003962190995413022 0 0.0050342585321328627 -0.0038648903619756597 0 0.0050016673495262079 -0.0039056317559091288 0 0.0050551981186221211 -0.0038352708067453216 0 0.0050729729117804925 -0.0038553289423721793 0 0.0050551981186221211 -0.0038352708067453216 0 0.0050339358518560863 -0.0038808998331371588 0 0.0050016673495262079 -0.0039056317559091288 0 0.0050551981186221211 -0.0038352708067453216 0 0.0050339358518560863 -0.0038808998331371588 0 0.005004813942951992 -0.0039038791233590559 0 0.0049690241433431384 -0.0039272779751146052 0 0.0049294153093282639 -0.0039349615371533989 0 0.005004813942951992 -0.0039038791233590559 0 0.0050339358518560863 -0.0038808998331371588 0 0.0049690241433431384 -0.0039272779751146052 0 0.0050016673495262079 -0.0039056317559091288 0 0.0050339358518560863 -0.0038808998331371588 0 0.0049690241433431384 -0.0039272779751146052 0 0.0049690241433431384 -0.0039272779751146052 0 0.0048894191341934297 -0.0039845097966675434 0 0.0049294153093282639 -0.0039349615371533989 0 0.0050016673495262079 -0.0039056317559091288 0 0.0049690241433431384 -0.0039272779751146052 0 0.0049338166946700287 -0.0039878640812795983 0 0.0049690241433431384 -0.0039272779751146052 0 0.0049338166946700287 -0.0039878640812795983 0 0.0048894191341934297 -0.0039845097966675434 0 0.0050016673495262079 -0.0039056317559091288 0 0.0049338166946700287 -0.0039878640812795983 0 0.004986683253770178 -0.003962190995413022 0 0.0049017033684167106 -0.0040642349270696553 0 0.0049642916739032527 -0.0040623206387786414 0 0.0048299052039252697 -0.0041751870684774662 0 0.0049338166946700287 -0.0039878640812795983 0 0.0049017033684167106 -0.0040642349270696553 0 0.0049502130910192331 -0.0040269397173147998 0 0.0049017033684167106 -0.0040642349270696553 0 0.0049642916739032527 -0.0040623206387786414 0 0.0049502130910192331 -0.0040269397173147998 0 0.0049642916739032527 -0.0040623206387786414 0 0.0049502130910192331 -0.0040269397173147998 0 0.004986683253770178 -0.003962190995413022 0 0.0049338166946700287 -0.0039878640812795983 0 0.0049502130910192331 -0.0040269397173147998 0 0.004986683253770178 -0.003962190995413022 0 0.0051606645704357764 -0.0036744197053444495 0 0.0048392145983414021 -0.0041443281714380912 0 0.0049642916739032527 -0.0040623206387786414 0 0.004986683253770178 -0.003962190995413022 0 0.0050360117177059224 -0.0039060188429362467 0 0.0050774860273678432 -0.003959168705658469 0 0.0049642916739032527 -0.0040623206387786414 0 0.0050360117177059224 -0.0039060188429362467 0 0.0047931159254514851 -0.0041708925963043816 0 0.0048358949859263443 -0.0042395619898803758 0 0.0048056850337156497 -0.0042328823594258245 0 0.0049323316590427282 -0.0041515018193350531 0 0.0047931159254514851 -0.0041708925963043816 0 0.0048358949859263443 -0.0042395619898803758 0 0.0051093783274065042 -0.0035999131528871961 0 0.0052396575613307145 -0.0030949933401115282 0 0.0051606645704357764 -0.0036744197053444495 0 0.0051093783274065042 -0.0035999131528871961 0 0.0051093783274065042 -0.0035999131528871961 0 0.0049878513330963072 -0.0037223572469597243 0 0.0048284858619288412 -0.0042357468666869482 0 0.0048056850337156497 -0.0042328823594258245 0 0.0048000208882444089 -0.0042619665469900217 0 0.0051093783274065042 -0.0035999131528871961 0 0.0047232806069835275 -0.0035784334798325511 0 0.0048712142866635033 -0.0043579997815332491 0 0.0047232806069835275 -0.0035784334798325511 0 0.0048056850337156497 -0.0042328823594258245 0 0.004786604465332283 -0.0042153800227806917 0 0.0048000208882444089 -0.0042619665469900217 0 0.0047931159254514851 -0.0041708925963043816 0 0.0047527139229820419 -0.0042021164939468033 0 0.0046965227380420119 -0.0042045151356188146 0 0.0047527139229820419 -0.0042021164939468033 0 0.0047387762683650534 -0.0042511769421565808 0 0.0047765524555589663 -0.0042519815364986096 0 0.0048392145983414021 -0.0041443281714380912 0 0.0047654762559666683 -0.004185178718877503 0 0.0047527139229820419 -0.0042021164939468033 0 0.004786604465332283 -0.0042153800227806917 0 0.0048000208882444089 -0.0042619665469900217 0 0.0047527139229820419 -0.0042021164939468033 0 0.004707230780921297 -0.0042483781024534612 0 0.0047387762683650534 -0.0042511769421565808 0 0.0047931159254514851 -0.0041708925963043816 0 0.0047527139229820419 -0.0042021164939468033 0 0.004786604465332283 -0.0042153800227806917 0 0.0047931159254514851 -0.0041708925963043816 0 0.0048056850337156497 -0.0042328823594258245 0 0.004786604465332283 -0.0042153800227806917 0 0.0047527139229820419 -0.0042021164939468033 0 0.0046965227380420119 -0.0042045151356188146 0 0.004707230780921297 -0.0042483781024534612 0 0.0046965227380420119 -0.0042045151356188146 0 0.004707230780921297 -0.0042483781024534612 0 0.0046688560541540526 -0.0042522756835503038 0 0.0047654762559666683 -0.004185178718877503 0 0.0046495300220393719 -0.0042259719082655516 0 0.0046688560541540526 -0.0042522756835503038 0 0.0046434153481181885 -0.0042352666439744472 0 0.004631296609788638 -0.0042841975839589359 0 0.0046965227380420119 -0.0042045151356188146 0 0.0046688560541540526 -0.0042522756835503038 0 0.0046434153481181885 -0.0042352666439744472 0 0.0048299052039252697 -0.0041751870684774662 0 0.0046434153481181885 -0.0042352666439744472 0 0.0047439838853712817 -0.0041567729640311878 0 0.0047439838853712817 -0.0041567729640311878 0 0.0046857532581006901 -0.00414562115631533 0 0.0048209442647471779 -0.0040708432804861484 0 0.0046434153481181885 -0.0042352666439744472 0 0.0047439838853712817 -0.0041567729640311878 0 0.0046857532581006901 -0.00414562115631533 0 0.0046434153481181885 -0.0042352666439744472 0 0.0046857532581006901 -0.00414562115631533 0 0.0045886573902391729 -0.004202938836559522 0 0.0049017033684167106 -0.0040642349270696553 0 0.0048299052039252697 -0.0041751870684774662 0 0.0048209442647471779 -0.0040708432804861484 0 0.0049338166946700287 -0.0039878640812795983 0 0.0049017033684167106 -0.0040642349270696553 0 0.0048209442647471779 -0.0040708432804861484 0 0.0048299052039252697 -0.0041751870684774662 0 0.0047439838853712817 -0.0041567729640311878 0 0.0048209442647471779 -0.0040708432804861484 0 0.0048209442647471779 -0.0040708432804861484 0 0.0048894191341934297 -0.0039845097966675434 0 0.0048005509386284447 -0.0040173733425882064 0 0.0049338166946700287 -0.0039878640812795983 0 0.0048209442647471779 -0.0040708432804861484 0 0.0048894191341934297 -0.0039845097966675434 0 0.0048894191341934297 -0.0039845097966675434 0 0.0048005509386284447 -0.0040173733425882064 0 0.0048416069648663899 -0.0039566288929751142 0 0.0048894191341934297 -0.0039845097966675434 0 0.0048416069648663899 -0.0039566288929751142 0 0.0049294153093282639 -0.0039349615371533989 0 0.0048005509386284447 -0.0040173733425882064 0 0.0048416069648663899 -0.0039566288929751142 0 0.0046723720309668534 -0.0040415733972235428 0 0.0047498521308716622 -0.0039250576314299613 0 0.0048416069648663899 -0.0039566288929751142 0 0.0046723720309668534 -0.0040415733972235428 0 0.0048005509386284447 -0.0040173733425882064 0 0.0046723720309668534 -0.0040415733972235428 0 0.004712547509562552 -0.0040826025328931466 0 0.0046723720309668534 -0.0040415733972235428 0 0.004712547509562552 -0.0040826025328931466 0 0.0045856514380776909 -0.004138487151172955 0 0.0048209442647471779 -0.0040708432804861484 0 0.0048005509386284447 -0.0040173733425882064 0 0.004712547509562552 -0.0040826025328931466 0 0.0046857532581006901 -0.00414562115631533 0 0.0048209442647471779 -0.0040708432804861484 0 0.004712547509562552 -0.0040826025328931466 0 0.0046857532581006901 -0.00414562115631533 0 0.004712547509562552 -0.0040826025328931466 0 0.0045856514380776909 -0.004138487151172955 0 0.0046723720309668534 -0.0040415733972235428 0 0.0045856514380776909 -0.004138487151172955 0 0.004491243822671109 -0.0041141774512514218 0 0.0045026503188808752 -0.0040261917759885114 0 0.0046723720309668534 -0.0040415733972235428 0 0.004491243822671109 -0.0041141774512514218 0 0.0042779918343624976 -0.0040685434037539695 0 0.0045026503188808752 -0.0040261917759885114 0 0.0043581053223530827 -0.0041161874090541554 0 0.0045026503188808752 -0.0040261917759885114 0 0.004491243822671109 -0.0041141774512514218 0 0.0043581053223530827 -0.0041161874090541554 0 0.0045856514380776909 -0.004138487151172955 0 0.004491243822671109 -0.0041141774512514218 0 0.0043636386974685573 -0.0042159559380316979 0 0.004491243822671109 -0.0041141774512514218 0 0.0043581053223530827 -0.0041161874090541554 0 0.0043636386974685573 -0.0042159559380316979 0 0.0045856514380776909 -0.004138487151172955 0 0.0045886573902391729 -0.004202938836559522 0 0.0043636386974685573 -0.0042159559380316979 0 0.003592734632999136 -0.0035352716197091351 0 0.003711850986951629 -0.0037521135949959029 0 0.0037916086099254874 -0.0034969131743622936 0 0.0045886573902391729 -0.004202938836559522 0 0.0045348011523910891 -0.0042548410815237215 0 0.0043636386974685573 -0.0042159559380316979 0 0.0040594537068636511 -0.0038813610729988342 0 0.0040342587423998185 -0.0039836792709380129 0 0.0046434153481181885 -0.0042352666439744472 0 0.0045886573902391729 -0.004202938836559522 0 0.0045348011523910891 -0.0042548410815237215 0 0.0046857532581006901 -0.00414562115631533 0 0.0045856514380776909 -0.004138487151172955 0 0.0045886573902391729 -0.004202938836559522 0 0.0046434153481181885 -0.0042352666439744472 0 0.0045348011523910891 -0.0042548410815237215 0 0.004631296609788638 -0.0042841975839589359 0 0.0040594537068636511 -0.0038813610729988342 0 0.0040320408629629639 -0.0038946734741785258 0 0.003592734632999136 -0.0035352716197091351 0 0.0036617374284913305 -0.003345139766011764 0 0.0037916086099254874 -0.0034969131743622936 0 0.003592734632999136 -0.0035352716197091351 0 0.0036617374284913305 -0.003345139766011764 0 0.0034734167134936266 -0.0033455533755800079 0 0.0036617374284913305 -0.003345139766011764 0 0.003596720356852386 -0.003180333229889855 0 0.0034734167134936266 -0.0033455533755800079 0 0.003596720356852386 -0.003180333229889855 0 0.0034698924840564781 -0.0031833790172413963 0 0.0034734167134936266 -0.0033455533755800079 0 0.003596720356852386 -0.003180333229889855 0 0.0034677462599271487 -0.0030422122364589608 0 0.0034698924840564781 -0.0031833790172413963 0 0.003596720356852386 -0.003180333229889855 0 0.0037445045246493596 -0.0030701131156274965 0 0.0037528308601673687 -0.003213866769088131 0 0.0036617374284913305 -0.003345139766011764 0 0.003596720356852386 -0.003180333229889855 0 0.0037528308601673687 -0.003213866769088131 0 0.003596720356852386 -0.003180333229889855 0 0.0037445045246493596 -0.0030701131156274965 0 0.0036258999676068429 -0.003041836897403553 0 0.0037445045246493596 -0.0030701131156274965 0 0.0036258999676068429 -0.003041836897403553 0 0.0037323969445106071 -0.0029447101246719782 0 0.0037323969445106071 -0.0029447101246719782 0 0.0036024387425972809 -0.0029134054886017723 0 0.0037453533447819715 -0.0027845867555484085 0 0.0036258999676068429 -0.003041836897403553 0 0.0037323969445106071 -0.0029447101246719782 0 0.0036024387425972809 -0.0029134054886017723 0 0.00438460746226746 -0.0027041313175515907 0 0.0043576228205923729 -0.0027319666277079895 0 0.0043612468760950793 -0.0026929439739477629 0 0.0040014324308313993 -0.0028079670722171253 0 0.0038732751389641855 -0.0028828816068276076 0 0.0036258999676068429 -0.003041836897403553 0 0.0036024387425972809 -0.0029134054886017723 0 0.0034677462599271487 -0.0030422122364589608 0 0.003596720356852386 -0.003180333229889855 0 0.0036258999676068429 -0.003041836897403553 0 0.0034677462599271487 -0.0030422122364589608 0 0.0043576228205923729 -0.0027319666277079895 0 0.0043351482712691743 -0.0027108349354265254 0 0.0043312818315493218 -0.0027593077300802726 0 0.0034677462599271487 -0.0030422122364589608 0 0.0033433686608828452 -0.0031658700398177076 0 0.0034698924840564781 -0.0031833790172413963 0 0.0038732751389641855 -0.0028828816068276076 0 0.0042732521974296368 -0.0032395869480135861 0 0.0043351482712691743 -0.0027108349354265254 0 0.0043612468760950793 -0.0026929439739477629 0 0.0043365091342803495 -0.0026776722941916514 0 0.0043576228205923729 -0.0027319666277079895 0 0.0043351482712691743 -0.0027108349354265254 0 0.0043612468760950793 -0.0026929439739477629 0 0.0043351482712691743 -0.0027108349354265254 0 0.0043088541685928402 -0.0027245817321723642 0 0.004311089605691017 -0.0026762856858321329 0 0.0042732521974296368 -0.0032395869480135861 0 0.0043292895886787074 -0.0026885409474642222 0 0.0043351482712691743 -0.0027108349354265254 0 0.0043312818315493218 -0.0027593077300802726 0 0.0043088541685928402 -0.0027245817321723642 0 0.0044489937437605905 -0.0028639951879140097 0 0.0043378331329296015 -0.0028491744487995803 0 0.0043756601584163 -0.0027753438239262068 0 0.0046762118986222907 -0.0043187339997696958 0 0.0046795031092010239 -0.0042810619238945018 0 0.0047200411848331569 -0.0042936352074348589 0 0.0044489937437605905 -0.0028639951879140097 0 0.0043829362746103957 -0.002928081655487576 0 0.0043378331329296015 -0.0028491744487995803 0 0.0042732521974296368 -0.0032395869480135861 0 0.0045361324550506014 -0.0036422979761083583 0 0.0033433686608828452 -0.0031658700398177076 0 0.0034698924840564781 -0.0031833790172413963 0 0.0034734167134936266 -0.0033455533755800079 0 0.0042732521974296368 -0.0032395869480135861 0 0.0040320408629629639 -0.0038946734741785258 0 0.0046762118986222907 -0.0043187339997696958 0 0.004631296609788638 -0.0042841975839589359 0 0.0046795031092010239 -0.0042810619238945018 0 0.0046688560541540526 -0.0042522756835503038 0 0.004631296609788638 -0.0042841975839589359 0 0.0046795031092010239 -0.0042810619238945018 0 0.004707230780921297 -0.0042483781024534612 0 0.0046795031092010239 -0.0042810619238945018 0 0.0047200411848331569 -0.0042936352074348589 0 0.004707230780921297 -0.0042483781024534612 0 0.0047200411848331569 -0.0042936352074348589 0 0.0047387762683650534 -0.0042511769421565808 0 0.004707230780921297 -0.0042483781024534612 0 0.0046688560541540526 -0.0042522756835503038 0 0.0046795031092010239 -0.0042810619238945018 0 0.0043829362746103957 -0.002928081655487576 0 0.0043177520179183736 -0.002993471204610861 0 0.0043378331329296015 -0.0028491744487995803 0 0.0045361324550506014 -0.0036422979761083583 0 0.0047232806069835275 -0.0035784334798325511 0 0.0047200411848331569 -0.0042936352074348589 0 0.0047387762683650534 -0.0042511769421565808 0 0.0047765524555589663 -0.0042519815364986096 0 0.0047232806069835275 -0.0035784334798325511 0 0.0047854742528081117 -0.0027713111046873671 0 0.0053879071009295737 -0.0031535493142338471 0 0.0053066557164909694 -0.0028730285859898804 0 0.0051971006481248416 -0.0031104059416896608 0 0.0053879071009295737 -0.0031535493142338471 0 0.0054426558822930331 -0.0031019568114767481 0 0.0053066557164909694 -0.0028730285859898804 0 0.0043177520179183736 -0.002993471204610861 0 0.0042442953090859152 -0.0028660112109861707 0 0.0043378331329296015 -0.0028491744487995803 0 0.0043378331329296015 -0.0028491744487995803 0 0.0043756601584163 -0.0027753438239262068 0 0.0042799206385404727 -0.0027772528751281067 0 0.0043756601584163 -0.0027753438239262068 0 0.0042799206385404727 -0.0027772528751281067 0 0.0042931629030033731 -0.0026987940930118673 0 0.0043292895886787074 -0.0026885409474642222 0 0.0043085521410483876 -0.0027230378744428005 0 0.0043088541685928402 -0.0027245817321723642 0 0.004311089605691017 -0.0026762856858321329 0 0.0042931629030033731 -0.0026987940930118673 0 0.0042799206385404727 -0.0027772528751281067 0 0.0042332996650393476 -0.0026862752406133878 0 0.0042931629030033731 -0.0026987940930118673 0 0.0042442953090859152 -0.0028660112109861707 0 0.0043378331329296015 -0.0028491744487995803 0 0.0042799206385404727 -0.0027772528751281067 0 0.0042442953090859152 -0.0028660112109861707 0 0.0042799206385404727 -0.0027772528751281067 0 0.0041972516927342171 -0.0027535634960121672 0 0.0047854742528081117 -0.0027713111046873671 0 0.0046468587809047491 -0.0027117580674970972 0 0.0053066557164909694 -0.0028730285859898804 0 0.0051668685287510627 -0.0026330833500513087 0 0.0051219879787646064 -0.0027884466503122229 0 0.0042799206385404727 -0.0027772528751281067 0 0.0041972516927342171 -0.0027535634960121672 0 0.0042332996650393476 -0.0026862752406133878 0 0.0051668685287510627 -0.0026330833500513087 0 0.0049999947611692177 -0.0026350554970731317 0 0.0049999980243480031 -0.0024149117703192936 0 0.0046468587809047491 -0.0027117580674970972 0 0.0048419100793989679 -0.0024873971298281683 0 0.0049999947611692177 -0.0026350554970731317 0 0.0051219879787646064 -0.0027884466503122229 0 0.004999994509308092 -0.0028552058331667326 0 0.0051668685287510627 -0.0026330833500513087 0 0.0049999947611692177 -0.0026350554970731317 0 0.0051219879787646064 -0.0027884466503122229 0 0.0051321612908177428 -0.0029431065808820252 0 0.004999994509308092 -0.0028552058331667326 0 0.0049999969040821456 -0.0030753243721694293 0 0.0051219879787646064 -0.0027884466503122229 0 0.0051321612908177428 -0.0029431065808820252 0 0.004999994509308092 -0.0028552058331667326 0 0.0053066557164909694 -0.0028730285859898804 0 0.0051219879787646064 -0.0027884466503122229 0 0.0051321612908177428 -0.0029431065808820252 0 0.0053066557164909694 -0.0028730285859898804 0 0.0051321612908177428 -0.0029431065808820252 0 0.0051971006481248416 -0.0031104059416896608 0 0.0051321612908177428 -0.0029431065808820252 0 0.0051971006481248416 -0.0031104059416896608 0 0.0049999969040821456 -0.0030753243721694293 0 0.0052396575613307145 -0.0030949933401115282 0 0.0049999993350290034 -0.0030753544984993024 0 0.0043263996185577483 -0.0032965417880219641 0 0.0043553053771352877 -0.0033113304024592945 0 0.0043537178574135594 -0.0032635252563988325 0 0.0043263996185577483 -0.0032965417880219641 0 0.0043553053771352877 -0.0033113304024592945 0 0.0043163429657283071 -0.0033303254357914323 0 0.0043312047876169586 -0.0034008746541204552 0 0.0044083242440276227 -0.0035240683126585462 0 0.0043263996185577483 -0.0032965417880219641 0 0.0042813104640417156 -0.003279598306290191 0 0.0043163429657283071 -0.0033303254357914323 0 0.0043390083055977842 -0.0036685404811607975 0 0.0043858584180509483 -0.0035176357238585611 0 0.0045067315404429221 -0.003760659059383711 0 0.0043312047876169586 -0.0034008746541204552 0 0.0042456851125049844 -0.0032640659585581812 0 0.0042813104640417156 -0.003279598306290191 0 0.0043537178574135594 -0.0032635252563988325 0 0.0043259238644735298 -0.0032060743525933648 0 0.0043537178574135594 -0.0032635252563988325 0 0.0043259238644735298 -0.0032060743525933648 0 0.0043786839783142789 -0.0032155731483566696 0 0.0043263996185577483 -0.0032965417880219641 0 0.0042813104640417156 -0.003279598306290191 0 0.0043537178574135594 -0.0032635252563988325 0 0.0043537178574135594 -0.0032635252563988325 0 0.0044187698781919327 -0.0032425057332262208 0 0.0043786839783142789 -0.0032155731483566696 0 0.0043537178574135594 -0.0032635252563988325 0 0.0044187698781919327 -0.0032425057332262208 0 0.0043885686192443249 -0.0032876227534682162 0 0.0044663168740469153 -0.0031926260024084828 0 0.0044632847252446158 -0.0032588387282050566 0 0.0044187698781919327 -0.0032425057332262208 0 0.0044187698781919327 -0.0032425057332262208 0 0.0044262880043861455 -0.0032937254485332626 0 0.0043885686192443249 -0.0032876227534682162 0 0.0044632847252446158 -0.0032588387282050566 0 0.0044187698781919327 -0.0032425057332262208 0 0.0044262880043861455 -0.0032937254485332626 0 0.0044632847252446158 -0.0032588387282050566 0 0.0044642489043502445 -0.0033038632984183029 0 0.0044262880043861455 -0.0032937254485332626 0 0.0043553053771352877 -0.0033113304024592945 0 0.0043537178574135594 -0.0032635252563988325 0 0.0043885686192443249 -0.0032876227534682162 0 0.0044262880043861455 -0.0032937254485332626 0 0.0043885686192443249 -0.0032876227534682162 0 0.0043891529939619339 -0.0033272307118749895 0 0.0043553053771352877 -0.0033113304024592945 0 0.0043885686192443249 -0.0032876227534682162 0 0.0043891529939619339 -0.0033272307118749895 0 0.0043553053771352877 -0.0033113304024592945 0 0.0043891529939619339 -0.0033272307118749895 0 0.0043580572833313725 -0.0033477024254702091 0 0.0043891529939619339 -0.0033272307118749895 0 0.0044282446270635066 -0.0033506326313503003 0 0.0043848987612263883 -0.0033744825957973241 0 0.0043891529939619339 -0.0033272307118749895 0 0.0043580572833313725 -0.0033477024254702091 0 0.0043848987612263883 -0.0033744825957973241 0 0.0043580572833313725 -0.0033477024254702091 0 0.0043848987612263883 -0.0033744825957973241 0 0.0043471141010200387 -0.0033949037795610406 0 0.0044262880043861455 -0.0032937254485332626 0 0.0043891529939619339 -0.0033272307118749895 0 0.0044282446270635066 -0.0033506326313503003 0 0.0044642489043502445 -0.0033038632984183029 0 0.0044262880043861455 -0.0032937254485332626 0 0.0044282446270635066 -0.0033506326313503003 0 0.004477191137514101 -0.0034541320901571295 0 0.0044302194503043893 -0.0033963260501613949 0 0.0043884174903090706 -0.0034192371748056442 0 0.0044744755599003842 -0.0033823182356525474 0 0.0044282446270635066 -0.0033506326313503003 0 0.0044302194503043893 -0.0033963260501613949 0 0.0044282446270635066 -0.0033506326313503003 0 0.0044302194503043893 -0.0033963260501613949 0 0.0043848987612263883 -0.0033744825957973241 0 0.0043848987612263883 -0.0033744825957973241 0 0.0043884174903090706 -0.0034192371748056442 0 0.0043471141010200387 -0.0033949037795610406 0 0.0044302194503043893 -0.0033963260501613949 0 0.0043848987612263883 -0.0033744825957973241 0 0.0043884174903090706 -0.0034192371748056442 0 0.0044460618600095404 -0.0038940789043651644 0 0.0044770662911911424 -0.0040164720757897678 0 0.0044506967707606346 -0.0038895447180133606 0 0.0044788664407296565 -0.0038978693233313174 0 0.0044828496150287958 -0.0039049683208168965 0 0.0044460618600095404 -0.0038940789043651644 0 0.0044517708252689737 -0.0038138839381772448 0 0.0044255727365713248 -0.0040859304943230059 0 0.0043460495824523635 -0.0040912838974859443 0 0.0042891121840764592 -0.0040180736838539826 0 0.004369717038723765 -0.0041429512863428294 0 0.0044255727365713248 -0.0040859304943230059 0 0.0043460495824523635 -0.0040912838974859443 0 0.004611531779394479 -0.0039963388848100953 0 0.0044639553880562151 -0.0039189279412155569 0 0.0044217518994833609 -0.0039645858246839579 0 0.0044770662911911424 -0.0040164720757897678 0 0.0043605284692272862 -0.00399097924481512 0 0.0046284446422698439 -0.0040279554884441069 0 0.004611531779394479 -0.0039963388848100953 0 0.0044217518994833609 -0.0039645858246839579 0 0.0044770662911911424 -0.0040164720757897678 0 0.0044517708252689737 -0.0038138839381772448 0 0.004369717038723765 -0.0041429512863428294 0 0.004330557185664663 -0.0041335645353360725 0 0.0043460495824523635 -0.0040912838974859443 0 0.0044517708252689737 -0.0038138839381772448 0 0.004492037353976003 -0.0039239605411530848 0 0.0044517708252689737 -0.0038138839381772448 0 0.0044083242440276227 -0.0035240683126585462 0 0.0043580572833313725 -0.0033477024254702091 0 0.0043471141010200387 -0.0033949037795610406 0 0.0043163429657283071 -0.0033303254357914323 0 0.0046180738879521713 -0.003981180259572668 0 0.0045067315404429221 -0.003760659059383711 0 0.0044619215331949957 -0.0038999879815209484 0 0.0043553053771352877 -0.0033113304024592945 0 0.0043580572833313725 -0.0033477024254702091 0 0.0043163429657283071 -0.0033303254357914323 0 0.0043390083055977842 -0.0036685404811607975 0 0.0044007572882091778 -0.0037893673141262177 0 0.0042923091380129832 -0.0038230119072585494 0 0.0043390083055977842 -0.0036685404811607975 0 0.0045067315404429221 -0.003760659059383711 0 0.0044007572882091778 -0.0037893673141262177 0 0.0045067315404429221 -0.003760659059383711 0 0.0044007572882091778 -0.0037893673141262177 0 0.0044619215331949957 -0.0038999879815209484 0 0.0044007572882091778 -0.0037893673141262177 0 0.0044619215331949957 -0.0038999879815209484 0 0.0042923091380129832 -0.0038230119072585494 0 0.0044639553880562151 -0.0039189279412155569 0 0.0044217518994833609 -0.0039645858246839579 0 0.0042923091380129832 -0.0038230119072585494 0 0.004492037353976003 -0.0039239605411530848 0 0.0043022653608604678 -0.0038271974456083324 0 0.0042891121840764592 -0.0040180736838539826 0 0.0042538950814718724 -0.0040602398568302207 0 0.0042131747955272284 -0.0040071307801982474 0 0.0042891121840764592 -0.0040180736838539826 0 0.0042950148946493873 -0.0040880500503302723 0 0.0042538950814718724 -0.0040602398568302207 0 0.0043460495824523635 -0.0040912838974859443 0 0.0042891121840764592 -0.0040180736838539826 0 0.0042950148946493873 -0.0040880500503302723 0 0.004330557185664663 -0.0041335645353360725 0 0.0043460495824523635 -0.0040912838974859443 0 0.0042950148946493873 -0.0040880500503302723 0 0.0042538950814718724 -0.0040602398568302207 0 0.0042082132041351182 -0.0040908159972046039 0 0.0042131747955272284 -0.0040071307801982474 0 0.0042950148946493873 -0.0040880500503302723 0 0.0042538950814718724 -0.0040602398568302207 0 0.0042554529240101686 -0.0041085328957256567 0 0.0042538950814718724 -0.0040602398568302207 0 0.0042554529240101686 -0.0041085328957256567 0 0.0042082132041351182 -0.0040908159972046039 0 0.0042082132041351182 -0.0040908159972046039 0 0.0042131747955272284 -0.0040071307801982474 0 0.0041368247807005744 -0.004033427444905471 0 0.0042891121840764592 -0.0040180736838539826 0 0.0042131747955272284 -0.0040071307801982474 0 0.0041685376222022766 -0.0038957459946071622 0 0.0041567599814923356 -0.004147723622640472 0 0.0042082132041351182 -0.0040908159972046039 0 0.0041368247807005744 -0.004033427444905471 0 0.0042131747955272284 -0.0040071307801982474 0 0.0041368247807005744 -0.004033427444905471 0 0.0041685376222022766 -0.0038957459946071622 0 0.0041368247807005744 -0.004033427444905471 0 0.0040616430810530291 -0.0039127855119967161 0 0.0041685376222022766 -0.0038957459946071622 0 0.0040334306907435129 -0.0040516005565898686 0 0.0040616430810530291 -0.0039127855119967161 0 0.0038568606740962551 -0.0039979174792415632 0 0.0040898404644454517 -0.0041337108837520486 0 0.0041368247807005744 -0.004033427444905471 0 0.0040334306907435129 -0.0040516005565898686 0 0.0041368247807005744 -0.004033427444905471 0 0.0040334306907435129 -0.0040516005565898686 0 0.0040616430810530291 -0.0039127855119967161 0 0.0041051878550016248 -0.0037992035759925294 0 0.0039593966461087555 -0.003770559715403173 0 0.0041493198273913155 -0.0036440319432037918 0 0.0040616430810530291 -0.0039127855119967161 0 0.0041051878550016248 -0.0037992035759925294 0 0.0041685376222022766 -0.0038957459946071622 0 0.0040616430810530291 -0.0039127855119967161 0 0.0041051878550016248 -0.0037992035759925294 0 0.0039593966461087555 -0.003770559715403173 0 0.0044217518994833609 -0.0039645858246839579 0 0.0042923091380129832 -0.0038230119072585494 0 0.0041685376222022766 -0.0038957459946071622 0 0.0043605284692272862 -0.00399097924481512 0 0.0041719689810034146 -0.0039054194679420261 0 0.0041051878550016248 -0.0037992035759925294 0 0.0041950463403172267 -0.0037749142850433048 0 0.0041493198273913155 -0.0036440319432037918 0 0.0041051878550016248 -0.0037992035759925294 0 0.0041950463403172267 -0.0037749142850433048 0 0.0041685376222022766 -0.0038957459946071622 0 0.0041950463403172267 -0.0037749142850433048 0 0.0042923091380129832 -0.0038230119072585494 0 0.0041685376222022766 -0.0038957459946071622 0 0.0043390083055977842 -0.0036685404811607975 0 0.0041950463403172267 -0.0037749142850433048 0 0.0042923091380129832 -0.0038230119072585494 0 0.0042779918343624976 -0.0040685434037539695 0 0.0043581053223530827 -0.0041161874090541554 0 0.0041275364812644504 -0.0041571106119344375 0 0.0043581053223530827 -0.0041161874090541554 0 0.0041275364812644504 -0.0041571106119344375 0 0.0043636386974685573 -0.0042159559380316979 0 0.0040616430810530291 -0.0039127855119967161 0 0.0038568606740962551 -0.0039979174792415632 0 0.0039593966461087555 -0.003770559715403173 0 0.0038568606740962551 -0.0039979174792415632 0 0.0039593966461087555 -0.003770559715403173 0 0.003711850986951629 -0.0037521135949959029 0 0.0039928934328612564 -0.0040746622353768896 0 0.0040342587423998185 -0.0039836792709380129 0 0.003711850986951629 -0.0037521135949959029 0 0.0038603549754425048 -0.0036403514678442772 0 0.0037916086099254874 -0.0034969131743622936 0 0.0039593966461087555 -0.003770559715403173 0 0.0038603549754425048 -0.0036403514678442772 0 0.0039857756718873153 -0.0035445924513090284 0 0.0038603549754425048 -0.0036403514678442772 0 0.0037916086099254874 -0.0034969131743622936 0 0.0039857756718873153 -0.0035445924513090284 0 0.0039593966461087555 -0.003770559715403173 0 0.003711850986951629 -0.0037521135949959029 0 0.0038603549754425048 -0.0036403514678442772 0 0.0037916086099254874 -0.0034969131743622936 0 0.0039857756718873153 -0.0035445924513090284 0 0.0039855024715193992 -0.0033344309830152428 0 0.0043390083055977842 -0.0036685404811607975 0 0.0043858584180509483 -0.0035176357238585611 0 0.0041493198273913155 -0.0036440319432037918 0 0.0043390083055977842 -0.0036685404811607975 0 0.0041950463403172267 -0.0037749142850433048 0 0.0041493198273913155 -0.0036440319432037918 0 0.0039593966461087555 -0.003770559715403173 0 0.0041493198273913155 -0.0036440319432037918 0 0.0039857756718873153 -0.0035445924513090284 0 0.0039857756718873153 -0.0035445924513090284 0 0.0041373764133915752 -0.0034545959353061073 0 0.0039855024715193992 -0.0033344309830152428 0 0.0041493198273913155 -0.0036440319432037918 0 0.0039857756718873153 -0.0035445924513090284 0 0.0041373764133915752 -0.0034545959353061073 0 0.0043858584180509483 -0.0035176357238585611 0 0.0041373764133915752 -0.0034545959353061073 0 0.0042370156922810608 -0.0032580767571179963 0 0.0043858584180509483 -0.0035176357238585611 0 0.0041493198273913155 -0.0036440319432037918 0 0.0041373764133915752 -0.0034545959353061073 0 0.0042370156922810608 -0.0032580767571179963 0 0.0041201070403693351 -0.0031520604960041166 0 0.0039855024715193992 -0.0033344309830152428 0 0.0041373764133915752 -0.0034545959353061073 0 0.0042370156922810608 -0.0032580767571179963 0 0.0039855024715193992 -0.0033344309830152428 0 0.0041201070403693351 -0.0031520604960041166 0 0.0039855024715193992 -0.0033344309830152428 0 0.0039822611137807903 -0.0031336152206158838 0 0.0042370156922810608 -0.0032580767571179963 0 0.0041201070403693351 -0.0031520604960041166 0 0.0042536804455919706 -0.0030879843446244499 0 0.0036617374284913305 -0.003345139766011764 0 0.0037950708658493798 -0.0033389106911994332 0 0.0037528308601673687 -0.003213866769088131 0 0.0036617374284913305 -0.003345139766011764 0 0.0037916086099254874 -0.0034969131743622936 0 0.0037950708658493798 -0.0033389106911994332 0 0.0037950708658493798 -0.0033389106911994332 0 0.0039855024715193992 -0.0033344309830152428 0 0.0038715719994365872 -0.0032303597043241246 0 0.0037916086099254874 -0.0034969131743622936 0 0.0037950708658493798 -0.0033389106911994332 0 0.0039855024715193992 -0.0033344309830152428 0 0.0039855024715193992 -0.0033344309830152428 0 0.0039822611137807903 -0.0031336152206158838 0 0.0038715719994365872 -0.0032303597043241246 0 0.0039822611137807903 -0.0031336152206158838 0 0.0038715719994365872 -0.0032303597043241246 0 0.0038549923815839019 -0.0031128313922923877 0 0.0037445045246493596 -0.0030701131156274965 0 0.0037528308601673687 -0.003213866769088131 0 0.0038549923815839019 -0.0031128313922923877 0 0.0037950708658493798 -0.0033389106911994332 0 0.0038715719994365872 -0.0032303597043241246 0 0.0037528308601673687 -0.003213866769088131 0 0.0038715719994365872 -0.0032303597043241246 0 0.0037528308601673687 -0.003213866769088131 0 0.0038549923815839019 -0.0031128313922923877 0 0.0037445045246493596 -0.0030701131156274965 0 0.0038549923815839019 -0.0031128313922923877 0 0.0038355684015984573 -0.0029811409088857702 0 0.0038549923815839019 -0.0031128313922923877 0 0.0039434217138299395 -0.0030153573481943772 0 0.0038355684015984573 -0.0029811409088857702 0 0.0037445045246493596 -0.0030701131156274965 0 0.0037323969445106071 -0.0029447101246719782 0 0.0038355684015984573 -0.0029811409088857702 0 0.0039822611137807903 -0.0031336152206158838 0 0.0039434217138299395 -0.0030153573481943772 0 0.0041045931221925453 -0.002984251355578703 0 0.0039822611137807903 -0.0031336152206158838 0 0.0038549923815839019 -0.0031128313922923877 0 0.0039434217138299395 -0.0030153573481943772 0 0.0039434217138299395 -0.0030153573481943772 0 0.0039554918410457766 -0.002901738004935003 0 0.0041045931221925453 -0.002984251355578703 0 0.0039434217138299395 -0.0030153573481943772 0 0.0039554918410457766 -0.002901738004935003 0 0.0038355684015984573 -0.0029811409088857702 0 0.0037323969445106071 -0.0029447101246719782 0 0.0038394420501479329 -0.0028667426626335351 0 0.0037453533447819715 -0.0027845867555484085 0 0.0039554918410457766 -0.002901738004935003 0 0.0038355684015984573 -0.0029811409088857702 0 0.0038394420501479329 -0.0028667426626335351 0 0.0037323969445106071 -0.0029447101246719782 0 0.0038355684015984573 -0.0029811409088857702 0 0.0038394420501479329 -0.0028667426626335351 0 0.0041201070403693351 -0.0031520604960041166 0 0.0041045931221925453 -0.002984251355578703 0 0.0042536804455919706 -0.0030879843446244499 0 0.0041045931221925453 -0.002984251355578703 0 0.0042376409246604125 -0.0028976080308433494 0 0.0042536804455919706 -0.0030879843446244499 0 0.0041201070403693351 -0.0031520604960041166 0 0.0039822611137807903 -0.0031336152206158838 0 0.0041045931221925453 -0.002984251355578703 0 0.0041045931221925453 -0.002984251355578703 0 0.0041475444041903838 -0.0028259912908519935 0 0.004047554473312706 -0.0028119785245560303 0 0.0039554918410457766 -0.002901738004935003 0 0.0041045931221925453 -0.002984251355578703 0 0.004047554473312706 -0.0028119785245560303 0 0.0041045931221925453 -0.002984251355578703 0 0.0042376409246604125 -0.0028976080308433494 0 0.0041475444041903838 -0.0028259912908519935 0 0.0042376409246604125 -0.0028976080308433494 0 0.004333874683116151 -0.0029784633085076393 0 0.0042536804455919706 -0.0030879843446244499 0 0.0042376409246604125 -0.0028976080308433494 0 0.004333874683116151 -0.0029784633085076393 0 0.0043209130920953904 -0.0028180757157584444 0 0.004333874683116151 -0.0029784633085076393 0 0.0044237705887089571 -0.0029256649307359316 0 0.0043209130920953904 -0.0028180757157584444 0 0.004333874683116151 -0.0029784633085076393 0 0.0043401717808756362 -0.0030980836915596587 0 0.0044004353969061862 -0.0030461740336901895 0 0.004333874683116151 -0.0029784633085076393 0 0.0042536804455919706 -0.0030879843446244499 0 0.0043401717808756362 -0.0030980836915596587 0 0.0042370156922810608 -0.0032580767571179963 0 0.0042536804455919706 -0.0030879843446244499 0 0.0043259238644735298 -0.0032060743525933648 0 0.0042536804455919706 -0.0030879843446244499 0 0.0043401717808756362 -0.0030980836915596587 0 0.0043259238644735298 -0.0032060743525933648 0 0.0043401717808756362 -0.0030980836915596587 0 0.0043259238644735298 -0.0032060743525933648 0 0.0044201265143359886 -0.0031459093491196391 0 0.0042813104640417156 -0.003279598306290191 0 0.0042370156922810608 -0.0032580767571179963 0 0.0043259238644735298 -0.0032060743525933648 0 0.0044663168740469153 -0.0031926260024084828 0 0.0044187698781919327 -0.0032425057332262208 0 0.0044201265143359886 -0.0031459093491196391 0 0.0044663168740469153 -0.0031926260024084828 0 0.004505563680341885 -0.0031312531417284546 0 0.0044201265143359886 -0.0031459093491196391 0 0.0044187698781919327 -0.0032425057332262208 0 0.0043786839783142789 -0.0032155731483566696 0 0.0044201265143359886 -0.0031459093491196391 0 0.0043259238644735298 -0.0032060743525933648 0 0.0043786839783142789 -0.0032155731483566696 0 0.0044201265143359886 -0.0031459093491196391 0 0.0043401717808756362 -0.0030980836915596587 0 0.0044201265143359886 -0.0031459093491196391 0 0.0044004353969061862 -0.0030461740336901895 0 0.004505563680341885 -0.0031312531417284546 0 0.0044201265143359886 -0.0031459093491196391 0 0.0044669320477998421 -0.003045799835657061 0 0.0044669320477998421 -0.003045799835657061 0 0.0044004353969061862 -0.0030461740336901895 0 0.0044237705887089571 -0.0029256649307359316 0 0.0044201265143359886 -0.0031459093491196391 0 0.0044669320477998421 -0.003045799835657061 0 0.0044004353969061862 -0.0030461740336901895 0 0.004333874683116151 -0.0029784633085076393 0 0.0044004353969061862 -0.0030461740336901895 0 0.0044237705887089571 -0.0029256649307359316 0 0.004500591897520119 -0.0029640230347628073 0 0.0044669320477998421 -0.003045799835657061 0 0.0044237705887089571 -0.0029256649307359316 0 0.0044237705887089571 -0.0029256649307359316 0 0.0044939775634351012 -0.002868892260737904 0 0.0044042823932581385 -0.00275863198979515 0 0.004500591897520119 -0.0029640230347628073 0 0.0044237705887089571 -0.0029256649307359316 0 0.0044939775634351012 -0.002868892260737904 0 0.0044237705887089571 -0.0029256649307359316 0 0.0044042823932581385 -0.00275863198979515 0 0.0043209130920953904 -0.0028180757157584444 0 0.0045055058541890926 -0.0027554551678645946 0 0.0043189050395563465 -0.0026890861472873462 0 0.0042805725190609521 -0.0026232275759637035 0 0.004291903903411198 -0.0026357688820966151 0 0.004281320426669467 -0.0026322964476824121 0 0.004291903903411198 -0.0026357688820966151 0 0.004281320426669467 -0.0026322964476824121 0 0.0042833571270007439 -0.0026354908750329227 0 0.004291903903411198 -0.0026357688820966151 0 0.0042930041755446903 -0.0026349443276846877 0 0.0042833571270007439 -0.0026354908750329227 0 0.0042930041755446903 -0.0026349443276846877 0 0.0042953968805620277 -0.0026231132757720405 0 0.0042833571270007439 -0.0026354908750329227 0 0.0034735338358654498 -0.0025830037579128557 0 0.0035193001793283681 -0.0026510055142835078 0 0.0042884542409662796 -0.0026517521126120337 0 0.004252736343501067 -0.0026421402875422689 0 0.0042808461462651619 -0.0026220712642804345 0 0.004252736343501067 -0.0026421402875422689 0 0.0042499413677266609 -0.0026206003782124382 0 0.0042808461462651619 -0.0026220712642804345 0 0.0042930041755446903 -0.0026349443276846877 0 0.0042884542409662796 -0.0026517521126120337 0 0.0042808461462651619 -0.0026220712642804345 0 0.004291903903411198 -0.0026357688820966151 0 0.0042930041755446903 -0.0026349443276846877 0 0.0042884542409662796 -0.0026517521126120337 0 0.0043189050395563465 -0.0026890861472873462 0 0.004300186259730325 -0.0026576470263659255 0 0.0042884542409662796 -0.0026517521126120337 0 0.0042464209835796751 -0.0026713367046639664 0 0.004252736343501067 -0.0026421402875422689 0 0.0042884542409662796 -0.0026517521126120337 0 0.0042264128233214663 -0.0027367708942415705 0 0.0042464209835796751 -0.0026713367046639664 0 0.0042884542409662796 -0.0026517521126120337 0 0.0043209130920953904 -0.0028180757157584444 0 0.0042264128233214663 -0.0027367708942415705 0 0.0044042823932581385 -0.00275863198979515 0 0.0042884542409662796 -0.0026517521126120337 0 0.0043209130920953904 -0.0028180757157584444 0 0.0042376409246604125 -0.0028976080308433494 0 0.0043209130920953904 -0.0028180757157584444 0 0.0042264128233214663 -0.0027367708942415705 0 0.0042376409246604125 -0.0028976080308433494 0 0.0041475444041903838 -0.0028259912908519935 0 0.0042264128233214663 -0.0027367708942415705 0 0.004047554473312706 -0.0028119785245560303 0 0.0041069262545662365 -0.0026955841650206079 0 0.004013713360597808 -0.0027153816599436577 0 0.0041475444041903838 -0.0028259912908519935 0 0.004047554473312706 -0.0028119785245560303 0 0.0041069262545662365 -0.0026955841650206079 0 0.0041069262545662365 -0.0026955841650206079 0 0.0042264128233214663 -0.0027367708942415705 0 0.0041262296607682278 -0.0025823085647156906 0 0.0041069262545662365 -0.0026955841650206079 0 0.0040762462969808422 -0.0025743109637187556 0 0.0041262296607682278 -0.0025823085647156906 0 0.0041475444041903838 -0.0028259912908519935 0 0.0041069262545662365 -0.0026955841650206079 0 0.0042264128233214663 -0.0027367708942415705 0 0.004228427823281122 -0.0027237265251059801 0 0.0041834091265154603 -0.0026274737650696443 0 0.0039184586224826233 -0.0027962283121908682 0 0.0038861972189925256 -0.0026889716272515884 0 0.0037606170111447903 -0.002797039982445299 0 0.0038394420501479329 -0.0028667426626335351 0 0.0039184586224826233 -0.0027962283121908682 0 0.0037606170111447903 -0.002797039982445299 0 0.0040188549792593486 -0.0025985684938483289 0 0.0040422606537034262 -0.0027037891810638951 0 0.0038289641238167149 -0.002789789639298421 0 0.0040422606537034262 -0.0027037891810638951 0 0.0039554918410457766 -0.002901738004935003 0 0.0038394420501479329 -0.0028667426626335351 0 0.0039184586224826233 -0.0027962283121908682 0 0.004047554473312706 -0.0028119785245560303 0 0.0039184586224826233 -0.0027962283121908682 0 0.004013713360597808 -0.0027153816599436577 0 0.0039554918410457766 -0.002901738004935003 0 0.004047554473312706 -0.0028119785245560303 0 0.0039184586224826233 -0.0027962283121908682 0 0.0041069262545662365 -0.0026955841650206079 0 0.004013713360597808 -0.0027153816599436577 0 0.0040762462969808422 -0.0025743109637187556 0 0.004013713360597808 -0.0027153816599436577 0 0.0038861972189925256 -0.0026889716272515884 0 0.0040762462969808422 -0.0025743109637187556 0 0.0040188549792593486 -0.0025985684938483289 0 0.0040647585588158555 -0.0025758924697898014 0 0.0039184586224826233 -0.0027962283121908682 0 0.004013713360597808 -0.0027153816599436577 0 0.0038861972189925256 -0.0026889716272515884 0 0.0041511477805701354 -0.0025061397909309051 0 0.0041905470672833423 -0.002554553009719174 0 0.0042032905748027446 -0.0025135806388677422 0 0.0041511477805701354 -0.0025061397909309051 0 0.0041947813211443332 -0.0024700475383001544 0 0.0042032905748027446 -0.0025135806388677422 0 0.0041511477805701354 -0.0025061397909309051 0 0.0041905470672833423 -0.002554553009719174 0 0.0041361180195492288 -0.0025738756399348198 0 0.0041361180195492288 -0.0025738756399348198 0 0.0040762462969808422 -0.0025743109637187556 0 0.0041243475467144415 -0.0025770784083660016 0 0.0041511477805701354 -0.0025061397909309051 0 0.0041361180195492288 -0.0025738756399348198 0 0.0040762462969808422 -0.0025743109637187556 0 0.0040762462969808422 -0.0025743109637187556 0 0.0041243475467144415 -0.0025770784083660016 0 0.0041262296607682278 -0.0025823085647156906 0 0.0041361180195492288 -0.0025738756399348198 0 0.0041243475467144415 -0.0025770784083660016 0 0.0041750429140425304 -0.0025740616460916258 0 0.0041905470672833423 -0.002554553009719174 0 0.0041750429140425304 -0.0025740616460916258 0 0.0042247256622085522 -0.0025715828950985124 0 0.0041243475467144415 -0.0025770784083660016 0 0.0041750429140425304 -0.0025740616460916258 0 0.0042040402428530771 -0.0025833590225730098 0 0.0041905470672833423 -0.002554553009719174 0 0.0041361180195492288 -0.0025738756399348198 0 0.0041750429140425304 -0.0025740616460916258 0 0.0042464209835796751 -0.0026713367046639664 0 0.0042352968230033759 -0.0026570462765769013 0 0.004252736343501067 -0.0026421402875422689 0 0.0042264128233214663 -0.0027367708942415705 0 0.0042464209835796751 -0.0026713367046639664 0 0.0042352968230033759 -0.0026570462765769013 0 0.0041906911579937863 -0.0025902906617532714 0 0.0041834091265154603 -0.0026274737650696443 0 0.0042352968230033759 -0.0026570462765769013 0 0.0042500782977998603 -0.0026300142747853971 0 0.004252736343501067 -0.0026421402875422689 0 0.0042500782977998603 -0.0026300142747853971 0 0.0043040861566956646 -0.0025733789789278566 0 0.0042675419741874162 -0.002591638463555718 0 0.0042524567620027829 -0.0026275683693151395 0 0.0042755874244226801 -0.0025969418246311843 0 0.0042523085522372652 -0.002605105558957765 0 0.0042352968230033759 -0.0026570462765769013 0 0.0042500782977998603 -0.0026300142747853971 0 0.0042523085522372652 -0.002605105558957765 0 0.0042500782977998603 -0.0026300142747853971 0 0.0042675419741874162 -0.002591638463555718 0 0.0042500782977998603 -0.0026300142747853971 0 0.004252736343501067 -0.0026421402875422689 0 0.0042499413677266609 -0.0026206003782124382 0 0.0042523085522372652 -0.002605105558957765 0 0.0042741026207889438 -0.0025648979856291647 0 0.0042675419741874162 -0.002591638463555718 0 0.0043040861566956646 -0.0025733789789278566 0 0.0042741026207889438 -0.0025648979856291647 0 0.0042675419741874162 -0.002591638463555718 0 0.0042741026207889438 -0.0025648979856291647 0 0.0042974777932496717 -0.0025494385553942716 0 0.0042905191734464729 -0.0025385940879666135 0 0.0043040861566956646 -0.0025733789789278566 0 0.0042741026207889438 -0.0025648979856291647 0 0.0042974777932496717 -0.0025494385553942716 0 0.0043040861566956646 -0.0025733789789278566 0 0.0042974777932496717 -0.0025494385553942716 0 0.0043102398938092866 -0.0025413113015293064 0 0.0042974777932496717 -0.0025494385553942716 0 0.0043015713488108905 -0.0025371284736352769 0 0.0043102398938092866 -0.0025413113015293064 0 0.0041750429140425304 -0.0025740616460916258 0 0.0042040402428530771 -0.0025833590225730098 0 0.0042247256622085522 -0.0025715828950985124 0 0.0042040402428530771 -0.0025833590225730098 0 0.0042247256622085522 -0.0025715828950985124 0 0.0042737463066867291 -0.0025532364244248225 0 0.0042523085522372652 -0.002605105558957765 0 0.0042741026207889438 -0.0025648979856291647 0 0.0042628203807475902 -0.0025671009779905736 0 0.0041906911579937863 -0.0025902906617532714 0 0.004232262996119153 -0.0025728746506327727 0 0.0042741026207889438 -0.0025648979856291647 0 0.0042796873232837504 -0.0025457119368569783 0 0.0042905191734464729 -0.0025385940879666135 0 0.0042741026207889438 -0.0025648979856291647 0 0.0042628203807475902 -0.0025671009779905736 0 0.0042796873232837504 -0.0025457119368569783 0 0.004232262996119153 -0.0025728746506327727 0 0.0042640479517942536 -0.0025570014478289767 0 0.0042628203807475902 -0.0025671009779905736 0 0.0042796873232837504 -0.0025457119368569783 0 0.0042737463066867291 -0.0025532364244248225 0 0.0042879867766575201 -0.0025296208437691737 0 0.0042796873232837504 -0.0025457119368569783 0 0.0042737463066867291 -0.0025532364244248225 0 0.0042879867766575201 -0.0025296208437691737 0 0.0042796873232837504 -0.0025457119368569783 0 0.0042891756132734018 -0.002529810601537816 0 0.0042796873232837504 -0.0025457119368569783 0 0.0042891756132734018 -0.002529810601537816 0 0.0042905191734464729 -0.0025385940879666135 0 0.0042891756132734018 -0.002529810601537816 0 0.0042965210103017284 -0.0025271590091352422 0 0.0042951028351277667 -0.0025252720235560641 0 0.0042891756132734018 -0.002529810601537816 0 0.0042905191734464729 -0.0025385940879666135 0 0.0042965210103017284 -0.0025271590091352422 0 0.0042891756132734018 -0.002529810601537816 0 0.004300108784985459 -0.0025292072301463502 0 0.0042951028351277667 -0.0025252720235560641 0 0.0042879867766575201 -0.0025296208437691737 0 0.0042891756132734018 -0.002529810601537816 0 0.004300108784985459 -0.0025292072301463502 0 0.0042974777932496717 -0.0025494385553942716 0 0.0043015713488108905 -0.0025371284736352769 0 0.0042905191734464729 -0.0025385940879666135 0 0.0043015713488108905 -0.0025371284736352769 0 0.0042905191734464729 -0.0025385940879666135 0 0.0042997895014095398 -0.0025301664716969102 0 0.0042905191734464729 -0.0025385940879666135 0 0.0042965210103017284 -0.0025271590091352422 0 0.0042997895014095398 -0.0025301664716969102 0 0.0042965210103017284 -0.0025271590091352422 0 0.0043021880599850709 -0.0025247621051925585 0 0.0042997895014095398 -0.0025301664716969102 0 0.0043015713488108905 -0.0025371284736352769 0 0.0042997895014095398 -0.0025301664716969102 0 0.0043035855034334325 -0.0025261115393383667 0 0.0043021880599850709 -0.0025247621051925585 0 0.0043035855034334325 -0.0025261115393383667 0 0.0043063168511746379 -0.0025210555485244311 0 0.0043021880599850709 -0.0025247621051925585 0 0.0042997895014095398 -0.0025301664716969102 0 0.0043035855034334325 -0.0025261115393383667 0 0.0043035855034334325 -0.0025261115393383667 0 0.0043041298342235603 -0.0025212159971195673 0 0.0043032654673605241 -0.0025294425883790111 0 0.0043015713488108905 -0.0025371284736352769 0 0.0043035855034334325 -0.0025261115393383667 0 0.0043032654673605241 -0.0025294425883790111 0 0.0043035855034334325 -0.0025261115393383667 0 0.0043041298342235603 -0.0025212159971195673 0 0.0043063168511746379 -0.0025210555485244311 0 0.0043041298342235603 -0.0025212159971195673 0 0.0043032654673605241 -0.0025294425883790111 0 0.0042967565541268023 -0.0025159662432887109 0 0.0043015713488108905 -0.0025371284736352769 0 0.0043032654673605241 -0.0025294425883790111 0 0.0043102398938092866 -0.0025413113015293064 0 0.0043032654673605241 -0.0025294425883790111 0 0.0042987140713279951 -0.0025326203258709164 0 0.0043102398938092866 -0.0025413113015293064 0 0.0042993645894527687 -0.0025661417497943864 0 0.0042987140713279951 -0.0025326203258709164 0 0.0042637531088689767 -0.0025890108833053673 0 0.0042988862257329523 -0.0025356018249848128 0 0.0042871475298236743 -0.0025649411495344806 0 0.0042987140713279951 -0.0025326203258709164 0 0.0042967565541268023 -0.0025159662432887109 0 0.0043229327040738555 -0.0025537854903703253 0 0.0043032654673605241 -0.0025294425883790111 0 0.0042987140713279951 -0.0025326203258709164 0 0.0042967565541268023 -0.0025159662432887109 0 0.0042967565541268023 -0.0025159662432887109 0 0.0042572611469400721 -0.0024991147619391574 0 0.004287352041150219 -0.0025250866560268415 0 0.0044462268806734311 -0.0026456116931088285 0 0.0039006935299921055 -0.0021996347307703615 0 0.0039153439795780089 -0.0020835400273220821 0 0.0040313753634710174 -0.0013807591258304475 0 0.0035055467857154211 -0.0015758021191707781 0 0.0033237929257137005 -0.0016633967629323522 0 0.0035904198198745013 -0.0017627583843053761 0 0.0042967565541268023 -0.0025159662432887109 0 0.0042572611469400721 -0.0024991147619391574 0 0.0042345342774291516 -0.0024413789523326287 0 0.0033702365211157356 -0.0015204064300864881 0 0.0035055467857154211 -0.0015758021191707781 0 0.0033237929257137005 -0.0016633967629323522 0 0.0033702365211157356 -0.0015204064300864881 0 0.0035055467857154211 -0.0015758021191707781 0 0.0034217579568041464 -0.0013893768978367636 0 0.0039153439795780089 -0.0020835400273220821 0 0.0039006935299921055 -0.0021996347307703615 0 0.0035432732704253666 0.00019223753485194948 0 0.0031833351829367775 -4.5927173513169187e-07 0 0.0029996977044479847 0.00040692348275509665 0 0.0033702365211157356 -0.0015204064300864881 0 0.0033237929257137005 -0.0016633967629323522 0 0.0032293165247340469 -0.0014536932338409959 0 0.0033840130516393195 -0.00069298281490140414 0 0.0030193862561928787 -0.00053973313762920255 0 0.0033237929257137005 -0.0016633967629323522 0 0.0032293165247340469 -0.0014536932338409959 0 0.003057270022076352 -0.0015614439697525869 0 0.0030476197755481744 -0.0021341948289734149 0 0.0028189073820345661 -0.0018221215427869149 0 0.0032293165247340469 -0.0014536932338409959 0 0.0032916283775687384 -0.0012668108531238456 0 0.0030424088138451873 -0.0013611492940683587 0 0.0033702365211157356 -0.0015204064300864881 0 0.0032293165247340469 -0.0014536932338409959 0 0.0034217579568041464 -0.0013893768978367636 0 0.0032293165247340469 -0.0014536932338409959 0 0.0034217579568041464 -0.0013893768978367636 0 0.0032916283775687384 -0.0012668108531238456 0 0.0042993645894527687 -0.0025661417497943864 0 0.0042987140713279951 -0.0025326203258709164 0 0.0043229327040738555 -0.0025537854903703253 0 0.0039006935299921055 -0.0021996347307703615 0 0.0037595332254624107 -0.002449269721068206 0 0.0043229327040738555 -0.0025537854903703253 0 0.0043130436469469829 -0.0025752521075688498 0 0.0043348794674815394 -0.0025828684731203622 0 0.0037032867690592864 -0.0023077662379553969 0 0.0036523233401381055 -0.0021938612741725996 0 0.0036023383581052226 -0.0022139443789261459 0 0.0039006935299921055 -0.0021996347307703615 0 0.0030476197755481744 -0.0021341948289734149 0 0.0042993645894527687 -0.0025661417497943864 0 0.0043229327040738555 -0.0025537854903703253 0 0.0043130436469469829 -0.0025752521075688498 0 0.0043130436469469829 -0.0025752521075688498 0 0.0043348794674815394 -0.0025828684731203622 0 0.0042982966906403028 -0.0025998891270639004 0 0.0042993645894527687 -0.0025661417497943864 0 0.0043130436469469829 -0.0025752521075688498 0 0.0042982966906403028 -0.0025998891270639004 0 0.0042986125499443664 -0.002600324581009299 0 0.0042982966906403028 -0.0025998891270639004 0 0.0042945077267753633 -0.0026144944495742621 0 0.0037595332254624107 -0.002449269721068206 0 0.0043960014839022716 -0.002507930644397945 0 0.0026998894346427489 -0.0024604403589224655 0 0.002711883926124477 -0.0024545786250395269 0 0.0027136572549896188 -0.0025315376519846294 0 0.0026151207948571912 -0.0023042459775252542 0 0.0025429524731834978 -0.0022430187970233582 0 0.0026522221805814002 -0.0022223470563992082 0 0.002711883926124477 -0.0024545786250395269 0 0.0027136572549896188 -0.0025315376519846294 0 0.0027482599342131611 -0.0024976453003038991 0 0.0037595332254624107 -0.002449269721068206 0 0.0034735338358654498 -0.0025830037579128557 0 0.0026151207948571912 -0.0023042459775252542 0 0.0025429524731834978 -0.0022430187970233582 0 0.0026635332116074295 -0.0023879919653198006 0 0.0037595332254624107 -0.002449269721068206 0 0.0030476197755481744 -0.0021341948289734149 0 0.0030476197755481744 -0.0021341948289734149 0 0.0026674051351150436 -0.0024432803323838474 0 0.0042986125499443664 -0.002600324581009299 0 0.0042953968805620277 -0.0026231132757720405 0 0.0042945077267753633 -0.0026144944495742621 0 0.0042930041755446903 -0.0026349443276846877 0 0.0042953968805620277 -0.0026231132757720405 0 0.0042945077267753633 -0.0026144944495742621 0 0.0042930041755446903 -0.0026349443276846877 0 0.0042945077267753633 -0.0026144944495742621 0 0.0042808461462651619 -0.0026220712642804345 0 0.0042945077267753633 -0.0026144944495742621 0 0.0042808461462651619 -0.0026220712642804345 0 0.0042866124709674122 -0.0025993207545802195 0 0.0042499413677266609 -0.0026206003782124382 0 0.0042808461462651619 -0.0026220712642804345 0 0.0042637531088689767 -0.0025890108833053673 0 0.0042755874244226801 -0.0025969418246311843 0 0.0042871475298236743 -0.0025649411495344806 0 0.0042993645894527687 -0.0025661417497943864 0 0.0042637531088689767 -0.0025890108833053673 0 0.0042866124709674122 -0.0025993207545802195 0 0.0042808461462651619 -0.0026220712642804345 0 0.0042637531088689767 -0.0025890108833053673 0 0.0042866124709674122 -0.0025993207545802195 0 0.0042993645894527687 -0.0025661417497943864 0 0.0042982966906403028 -0.0025998891270639004 0 0.0042866124709674122 -0.0025993207545802195 0 0.0042982966906403028 -0.0025998891270639004 0 0.0042945077267753633 -0.0026144944495742621 0 0.0042866124709674122 -0.0025993207545802195 0 0.0051507698489691436 -0.001965545093916778 0 0.0049999831605790183 -0.0020860345365774449 0 0.0049999824203690911 -0.0018118452943149625 0 0.0051507698489691436 -0.001965545093916778 0 0.005326417353352827 -0.0019513684465642743 0 0.0052519380227672502 -0.0017247646333157314 0 0.0051507698489691436 -0.001965545093916778 0 0.0051777658312953693 -0.0021747437133020865 0 0.005326417353352827 -0.0019513684465642743 0 0.0046524735233709853 -0.0024173962952907316 0 0.0047995867907169613 -0.002258337684442877 0 0.0051507698489691436 -0.001965545093916778 0 0.0051777658312953693 -0.0021747437133020865 0 0.0049999831605790183 -0.0020860345365774449 0 0.0051777658312953693 -0.0021747437133020865 0 0.0049999831605790183 -0.0020860345365774449 0 0.0049999962882961851 -0.0023602209098794263 0 0.0046524735233709853 -0.0024173962952907316 0 0.0048419100793989679 -0.0024873971298281683 0 0.0051777658312953693 -0.0021747437133020865 0 0.0049999962882961851 -0.0023602209098794263 0 0.0050191770962599988 -0.0023907235763906023 0 0.0051668685287510627 -0.0026330833500513087 0 0.0050193957278504096 -0.0023912426399044324 0 0.0049999980243480031 -0.0024149117703192936 0 0.0049995764341610946 -0.0023605418027763309 0 0.0048419100793989679 -0.0024873971298281683 0 0.0049999997799780966 -0.0023602299967610705 0 0.005019752935460791 -0.0023910921333253768 0 0.0050000001034611443 -0.0024149067847196171 0 0.0048419100793989679 -0.0024873971298281683 0 0.0049996838598090291 -0.0024149209167068715 0 0.0041972516927342171 -0.0027535634960121672 0 0.0041655715963084565 -0.0026721764659900266 0 0.0042332996650393476 -0.0026862752406133878 0 0.0042168935713312239 -0.0026178272095114365 0 0.0042332996650393476 -0.0026862752406133878 0 0.0042675223438505628 -0.0026357354207974383 0 0.0042168935713312239 -0.0026178272095114365 0 0.0041655715963084565 -0.0026721764659900266 0 0.0042332996650393476 -0.0026862752406133878 0 0.0042332996650393476 -0.0026862752406133878 0 0.0042675223438505628 -0.0026357354207974383 0 0.0042931629030033731 -0.0026987940930118673 0 0.0042675223438505628 -0.0026357354207974383 0 0.004311089605691017 -0.0026762856858321329 0 0.0042931629030033731 -0.0026987940930118673 0 0.0042675223438505628 -0.0026357354207974383 0 0.004311089605691017 -0.0026762856858321329 0 0.0042957825144089613 -0.0026285260686234146 0 0.0042675223438505628 -0.0026357354207974383 0 0.0042957825144089613 -0.0026285260686234146 0 0.0042833252403784456 -0.0025878071750106259 0 0.0042957825144089613 -0.0026285260686234146 0 0.0042833252403784456 -0.0025878071750106259 0 0.004309313332315076 -0.0026051982942331192 0 0.0042675223438505628 -0.0026357354207974383 0 0.0042833252403784456 -0.0025878071750106259 0 0.0042596740512862562 -0.0025742112624008054 0 0.0042168935713312239 -0.0026178272095114365 0 0.0042675223438505628 -0.0026357354207974383 0 0.0042596740512862562 -0.0025742112624008054 0 0.0042833252403784456 -0.0025878071750106259 0 0.0042596740512862562 -0.0025742112624008054 0 0.0042848586308321876 -0.002550153396555553 0 0.0042833252403784456 -0.0025878071750106259 0 0.0042935550979289567 -0.0025636631531814644 0 0.0042848586308321876 -0.002550153396555553 0 0.0042833252403784456 -0.0025878071750106259 0 0.0042935550979289567 -0.0025636631531814644 0 0.004309313332315076 -0.0026051982942331192 0 0.0042975413114049611 -0.0025649254113336308 0 0.0043039562994880241 -0.002572843036058424 0 0.0042935550979289567 -0.0025636631531814644 0 0.0042710028660252527 -0.0025585464050649391 0 0.0042751823218312246 -0.0025423275986169395 0 0.0042710028660252527 -0.0025585464050649391 0 0.0042751823218312246 -0.0025423275986169395 0 0.0042445647535757185 -0.0025514730603585648 0 0.0042935550979289567 -0.0025636631531814644 0 0.0043481344673370857 -0.0026057307930181439 0 0.004309313332315076 -0.0026051982942331192 0 0.0042957825144089613 -0.0026285260686234146 0 0.004309313332315076 -0.0026051982942331192 0 0.0043312126568422985 -0.0026399860273868185 0 0.0043481344673370857 -0.0026057307930181439 0 0.004309313332315076 -0.0026051982942331192 0 0.0043312126568422985 -0.0026399860273868185 0 0.004311089605691017 -0.0026762856858321329 0 0.0042957825144089613 -0.0026285260686234146 0 0.0043312126568422985 -0.0026399860273868185 0 0.004311089605691017 -0.0026762856858321329 0 0.0043312126568422985 -0.0026399860273868185 0 0.0043365091342803495 -0.0026776722941916514 0 0.0043351482712691743 -0.0027108349354265254 0 0.004311089605691017 -0.0026762856858321329 0 0.0043365091342803495 -0.0026776722941916514 0 0.0043612468760950793 -0.0026929439739477629 0 0.0043365091342803495 -0.0026776722941916514 0 0.0043815739096516142 -0.002645558528258359 0 0.0043481344673370857 -0.0026057307930181439 0 0.0043312126568422985 -0.0026399860273868185 0 0.0043815739096516142 -0.002645558528258359 0 0.0043312126568422985 -0.0026399860273868185 0 0.0043365091342803495 -0.0026776722941916514 0 0.0043815739096516142 -0.002645558528258359 0 0.0043612468760950793 -0.0026929439739477629 0 0.0043815739096516142 -0.002645558528258359 0 0.0043848569106101397 -0.0026777453688527678 0 0.00438460746226746 -0.0027041313175515907 0 0.0043612468760950793 -0.0026929439739477629 0 0.0043848569106101397 -0.0026777453688527678 0 0.00438460746226746 -0.0027041313175515907 0 0.0043848569106101397 -0.0026777453688527678 0 0.0044100030522625875 -0.0026779726934459155 0 0.0043815739096516142 -0.002645558528258359 0 0.0043848569106101397 -0.0026777453688527678 0 0.0044100030522625875 -0.0026779726934459155 0 0.0040014324308313993 -0.0028079670722171253 0 0.0040422606537034262 -0.0027037891810638951 0 0.0043508599545791296 -0.0025725140604861392 0 0.0040422606537034262 -0.0027037891810638951 0 0.0042449336312625589 -0.0025136009550699801 0 0.0041947813211443332 -0.0024700475383001544 0 0.0042032905748027446 -0.0025135806388677422 0 0.0041905470672833423 -0.002554553009719174 0 0.0042032905748027446 -0.0025135806388677422 0 0.0042445647535757185 -0.0025514730603585648 0 0.0042449336312625589 -0.0025136009550699801 0 0.0042032905748027446 -0.0025135806388677422 0 0.0042445647535757185 -0.0025514730603585648 0 0.0042751823218312246 -0.0025423275986169395 0 0.0042449336312625589 -0.0025136009550699801 0 0.0042445647535757185 -0.0025514730603585648 0 0.0043039562994880241 -0.002572843036058424 0 0.0043508599545791296 -0.0025725140604861392 0 0.0042445647535757185 -0.0025514730603585648 0 0.0042247256622085522 -0.0025715828950985124 0 0.0042614267074394304 -0.0025649602408782915 0 0.0042710028660252527 -0.0025585464050649391 0 0.0042445647535757185 -0.0025514730603585648 0 0.0042614267074394304 -0.0025649602408782915 0 0.0041905470672833423 -0.002554553009719174 0 0.0042445647535757185 -0.0025514730603585648 0 0.0042247256622085522 -0.0025715828950985124 0 0.0042247256622085522 -0.0025715828950985124 0 0.0042614267074394304 -0.0025649602408782915 0 0.0042737463066867291 -0.0025532364244248225 0 0.0042614267074394304 -0.0025649602408782915 0 0.0042796373437278389 -0.0025515623514201012 0 0.0042737463066867291 -0.0025532364244248225 0 0.0042879867766575201 -0.0025296208437691737 0 0.0042737463066867291 -0.0025532364244248225 0 0.0043112962025142563 -0.0025110579264543431 0 0.0042879867766575201 -0.0025296208437691737 0 0.004300108784985459 -0.0025292072301463502 0 0.0043112962025142563 -0.0025110579264543431 0 0.004300108784985459 -0.0025292072301463502 0 0.0043815989684854858 -0.0024388838760591672 0 0.0043112962025142563 -0.0025110579264543431 0 0.0043815989684854858 -0.0024388838760591672 0 0.0042269043663540236 -0.002489772292661196 0 0.0048930045164440571 -0.0016598720743360885 0 0.0047845105281345973 -0.0023179035693539404 0 0.0044043928759649239 -0.0024341833654287605 0 0.0043815989684854858 -0.0024388838760591672 0 0.0042914092084628229 -0.0025254289690310162 0 0.0043112962025142563 -0.0025110579264543431 0 0.0042796373437278389 -0.0025515623514201012 0 0.0042737463066867291 -0.0025532364244248225 0 0.0043112962025142563 -0.0025110579264543431 0 0.0042796373437278389 -0.0025515623514201012 0 0.0042914092084628229 -0.0025254289690310162 0 0.0043112962025142563 -0.0025110579264543431 0 0.0042796373437278389 -0.0025515623514201012 0 0.0042914092084628229 -0.0025254289690310162 0 0.0042667968134038449 -0.0025481325555889184 0 0.0049461259672182005 -0.0018763591623486764 0 0.0049161175265974751 -0.002023370048364323 0 0.0042914092084628229 -0.0025254289690310162 0 0.0042269043663540236 -0.002489772292661196 0 0.0042667968134038449 -0.0025481325555889184 0 0.0043815989684854858 -0.0024388838760591672 0 0.0042914092084628229 -0.0025254289690310162 0 0.0042269043663540236 -0.002489772292661196 0 0.0056510800745808755 -0.0012807215077151541 0 0.0055713473592612795 -0.0012270939264202238 0 0.0055459026848990647 -0.0013322488222224816 0 0.0056510800745808755 -0.0012807215077151541 0 0.0055713473592612795 -0.0012270939264202238 0 0.0056152325136314173 -0.0011915697544252846 0 0.0055713473592612795 -0.0012270939264202238 0 0.0055459026848990647 -0.0013322488222224816 0 0.0054792810599384734 -0.0012601014219040753 0 0.0056510800745808755 -0.0012807215077151541 0 0.0055459026848990647 -0.0013322488222224816 0 0.005574064120824636 -0.0014972887243010836 0 0.0055459026848990647 -0.0013322488222224816 0 0.005574064120824636 -0.0014972887243010836 0 0.0054392531962521801 -0.0014062181331138878 0 0.0049161175265974751 -0.002023370048364323 0 0.0048690587925742631 -0.002139855016273888 0 0.0042667968134038449 -0.0025481325555889184 0 0.0042754577681664418 -0.0025603734619340617 0 0.0042848586308321876 -0.002550153396555553 0 0.0042796373437278389 -0.0025515623514201012 0 0.0042667968134038449 -0.0025481325555889184 0 0.0042754577681664418 -0.0025603734619340617 0 0.0042710028660252527 -0.0025585464050649391 0 0.0042614267074394304 -0.0025649602408782915 0 0.0042754577681664418 -0.0025603734619340617 0 0.0042614267074394304 -0.0025649602408782915 0 0.0042796373437278389 -0.0025515623514201012 0 0.0042754577681664418 -0.0025603734619340617 0 0.0042935550979289567 -0.0025636631531814644 0 0.0042710028660252527 -0.0025585464050649391 0 0.0042754577681664418 -0.0025603734619340617 0 0.0042935550979289567 -0.0025636631531814644 0 0.0042754577681664418 -0.0025603734619340617 0 0.0042848586308321876 -0.002550153396555553 0 0.005326417353352827 -0.0019513684465642743 0 0.0054612577977720261 -0.0017244323068888276 0 0.0052519380227672502 -0.0017247646333157314 0 0.0047995867907169613 -0.002258337684442877 0 0.0048690587925742631 -0.002139855016273888 0 0.0054046369543058713 -0.0015627328579000328 0 0.0052831305546148172 -0.0014684642720689182 0 0.0052519380227672502 -0.0017247646333157314 0 0.0054612577977720261 -0.0017244323068888276 0 0.0054046369543058713 -0.0015627328579000328 0 0.0052519380227672502 -0.0017247646333157314 0 0.005574064120824636 -0.0014972887243010836 0 0.0054612577977720261 -0.0017244323068888276 0 0.0054046369543058713 -0.0015627328579000328 0 0.005574064120824636 -0.0014972887243010836 0 0.0054046369543058713 -0.0015627328579000328 0 0.0054392531962521801 -0.0014062181331138878 0 0.0054392531962521801 -0.0014062181331138878 0 0.0054792810599384734 -0.0012601014219040753 0 0.0053463058551290014 -0.0012903477250227661 0 0.0055459026848990647 -0.0013322488222224816 0 0.0054392531962521801 -0.0014062181331138878 0 0.0054792810599384734 -0.0012601014219040753 0 0.0053463058551290014 -0.0012903477250227661 0 0.0051710556115941182 -0.0013406650354762079 0 0.0052762395309918376 -0.0011363764987988804 0 0.0053463058551290014 -0.0012903477250227661 0 0.0052831305546148172 -0.0014684642720689182 0 0.0051710556115941182 -0.0013406650354762079 0 0.0054046369543058713 -0.0015627328579000328 0 0.0054392531962521801 -0.0014062181331138878 0 0.0052831305546148172 -0.0014684642720689182 0 0.0054392531962521801 -0.0014062181331138878 0 0.0053463058551290014 -0.0012903477250227661 0 0.0052831305546148172 -0.0014684642720689182 0 0.0052831305546148172 -0.0014684642720689182 0 0.0051710556115941182 -0.0013406650354762079 0 0.0051530497437946264 -0.0015764241419650769 0 0.0051710556115941182 -0.0013406650354762079 0 0.0049999851162667516 -0.0012635011263630773 0 0.0049999808865305593 -0.0015376667273673962 0 0.0051710556115941182 -0.0013406650354762079 0 0.0049999808865305593 -0.0015376667273673962 0 0.0051530497437946264 -0.0015764241419650769 0 0.0049999808865305593 -0.0015376667273673962 0 0.0051530497437946264 -0.0015764241419650769 0 0.0049999824203690911 -0.0018118452943149625 0 0.0051530497437946264 -0.0015764241419650769 0 0.0052519380227672502 -0.0017247646333157314 0 0.0049999824203690911 -0.0018118452943149625 0 0.0052831305546148172 -0.0014684642720689182 0 0.0051530497437946264 -0.0015764241419650769 0 0.0052519380227672502 -0.0017247646333157314 0 0.0051507698489691436 -0.001965545093916778 0 0.0052519380227672502 -0.0017247646333157314 0 0.0049999824203690911 -0.0018118452943149625 0 0.0049999889313595445 -0.00071520056832248156 0 0.0051925212398774689 -0.00092764312813463628 0 0.0051835561204272365 -0.00065604300921217901 0 0.0051925212398774689 -0.00092764312813463628 0 0.0053439740191998219 -0.00083307808475800607 0 0.0051835561204272365 -0.00065604300921217901 0 0.0049999889313595445 -0.00071520056832248156 0 0.0051925212398774689 -0.00092764312813463628 0 0.0049999863292298141 -0.00098934201396744226 0 0.0051925212398774689 -0.00092764312813463628 0 0.0049999863292298141 -0.00098934201396744226 0 0.0051222692275949078 -0.0011303388742871464 0 0.0051710556115941182 -0.0013406650354762079 0 0.0049999851162667516 -0.0012635011263630773 0 0.0051222692275949078 -0.0011303388742871464 0 0.0049999851162667516 -0.0012635011263630773 0 0.0049999863292298141 -0.00098934201396744226 0 0.0051222692275949078 -0.0011303388742871464 0 0.0051710556115941182 -0.0013406650354762079 0 0.0051222692275949078 -0.0011303388742871464 0 0.0052762395309918376 -0.0011363764987988804 0 0.0051925212398774689 -0.00092764312813463628 0 0.0051222692275949078 -0.0011303388742871464 0 0.0052762395309918376 -0.0011363764987988804 0 0.0053815916644625456 -0.0010113341436074207 0 0.0052762395309918376 -0.0011363764987988804 0 0.0054208649742429329 -0.0011465239178481041 0 0.0051925212398774689 -0.00092764312813463628 0 0.0053815916644625456 -0.0010113341436074207 0 0.0052762395309918376 -0.0011363764987988804 0 0.0053463058551290014 -0.0012903477250227661 0 0.0052762395309918376 -0.0011363764987988804 0 0.0054208649742429329 -0.0011465239178481041 0 0.0054792810599384734 -0.0012601014219040753 0 0.0053463058551290014 -0.0012903477250227661 0 0.0054208649742429329 -0.0011465239178481041 0 0.0054792810599384734 -0.0012601014219040753 0 0.0054208649742429329 -0.0011465239178481041 0 0.0055252872028067118 -0.0011432394862719787 0 0.0054208649742429329 -0.0011465239178481041 0 0.0054911884121657244 -0.0010510877249093106 0 0.0055252872028067118 -0.0011432394862719787 0 0.0053815916644625456 -0.0010113341436074207 0 0.0054208649742429329 -0.0011465239178481041 0 0.0054911884121657244 -0.0010510877249093106 0 0.0053815916644625456 -0.0010113341436074207 0 0.0054570222861149362 -0.00093470269268735879 0 0.0054911884121657244 -0.0010510877249093106 0 0.0053815916644625456 -0.0010113341436074207 0 0.0054570222861149362 -0.00093470269268735879 0 0.0053439740191998219 -0.00083307808475800607 0 0.0054570222861149362 -0.00093470269268735879 0 0.0054439055344057937 -0.00080688195365009581 0 0.0055155161931978742 -0.00090667460960079692 0 0.0051925212398774689 -0.00092764312813463628 0 0.0053815916644625456 -0.0010113341436074207 0 0.0053439740191998219 -0.00083307808475800607 0 0.0053439740191998219 -0.00083307808475800607 0 0.0053498271935705343 -0.00058247420285475104 0 0.0051835561204272365 -0.00065604300921217901 0 0.0053439740191998219 -0.00083307808475800607 0 0.0054439055344057937 -0.00080688195365009581 0 0.0053498271935705343 -0.00058247420285475104 0 0.0054570222861149362 -0.00093470269268735879 0 0.0053439740191998219 -0.00083307808475800607 0 0.0054439055344057937 -0.00080688195365009581 0 0.0055411501987501421 -0.00086304410035181257 0 0.0056195926140251663 -0.00091751885763554839 0 0.0055168830139966304 -0.0007526704600603572 0 0.0054439055344057937 -0.00080688195365009581 0 0.0055411501987501421 -0.00086304410035181257 0 0.0055168830139966304 -0.0007526704600603572 0 0.0054439055344057937 -0.00080688195365009581 0 0.0055411501987501421 -0.00086304410035181257 0 0.0055155161931978742 -0.00090667460960079692 0 0.0055411501987501421 -0.00086304410035181257 0 0.0055756699006699736 -0.00093862789303431158 0 0.0055155161931978742 -0.00090667460960079692 0 0.0055190445883609718 -0.00058650201571926837 0 0.005462871298866359 -0.00052785535569220391 0 0.0055411501987501421 -0.00086304410035181257 0 0.0056195926140251663 -0.00091751885763554839 0 0.0055756699006699736 -0.00093862789303431158 0 0.005433646551041625 -0.00026502110444492894 0 0.005423388103237608 -0.00027625635648024057 0 0.0054249207888717385 -0.00030381300863857981 0 0.005433646551041625 -0.00026502110444492894 0 0.0054466542539864313 -0.00024702115576991465 0 0.005423388103237608 -0.00027625635648024057 0 0.0056107208415587997 -0.00098622213307535686 0 0.0055873397807919105 -0.00099804487596355366 0 0.0056191048895985569 -0.0010637581688707836 0 0.0056195926140251663 -0.00091751885763554839 0 0.0055756699006699736 -0.00093862789303431158 0 0.0056107208415587997 -0.00098622213307535686 0 0.0055756699006699736 -0.00093862789303431158 0 0.0056107208415587997 -0.00098622213307535686 0 0.0055873397807919105 -0.00099804487596355366 0 0.0055756699006699736 -0.00093862789303431158 0 0.0055873397807919105 -0.00099804487596355366 0 0.0055388908427322862 -0.00098625098390288228 0 0.0055756699006699736 -0.00093862789303431158 0 0.0055388908427322862 -0.00098625098390288228 0 0.0055155161931978742 -0.00090667460960079692 0 0.0054570222861149362 -0.00093470269268735879 0 0.0055388908427322862 -0.00098625098390288228 0 0.0055155161931978742 -0.00090667460960079692 0 0.0054570222861149362 -0.00093470269268735879 0 0.0055388908427322862 -0.00098625098390288228 0 0.0054911884121657244 -0.0010510877249093106 0 0.0055873397807919105 -0.00099804487596355366 0 0.0055388908427322862 -0.00098625098390288228 0 0.0055647087370679273 -0.0010590619110985814 0 0.0055388908427322862 -0.00098625098390288228 0 0.0054911884121657244 -0.0010510877249093106 0 0.0055647087370679273 -0.0010590619110985814 0 0.0054911884121657244 -0.0010510877249093106 0 0.0055647087370679273 -0.0010590619110985814 0 0.0055252872028067118 -0.0011432394862719787 0 0.0055647087370679273 -0.0010590619110985814 0 0.0055252872028067118 -0.0011432394862719787 0 0.0055958571099345702 -0.0011326887839250407 0 0.0055713473592612795 -0.0012270939264202238 0 0.0055252872028067118 -0.0011432394862719787 0 0.0055958571099345702 -0.0011326887839250407 0 0.0055713473592612795 -0.0012270939264202238 0 0.0054792810599384734 -0.0012601014219040753 0 0.0055252872028067118 -0.0011432394862719787 0 0.0056510800745808755 -0.0012807215077151541 0 0.0056152325136314173 -0.0011915697544252846 0 0.0056331276521766668 -0.0011407209513121643 0 0.0056152325136314173 -0.0011915697544252846 0 0.0055958571099345702 -0.0011326887839250407 0 0.0056331276521766668 -0.0011407209513121643 0 0.0055713473592612795 -0.0012270939264202238 0 0.0056152325136314173 -0.0011915697544252846 0 0.0055958571099345702 -0.0011326887839250407 0 0.0055958571099345702 -0.0011326887839250407 0 0.0056331276521766668 -0.0011407209513121643 0 0.0056191048895985569 -0.0010637581688707836 0 0.0055647087370679273 -0.0010590619110985814 0 0.0055958571099345702 -0.0011326887839250407 0 0.0056191048895985569 -0.0010637581688707836 0 0.0055873397807919105 -0.00099804487596355366 0 0.0055647087370679273 -0.0010590619110985814 0 0.0056191048895985569 -0.0010637581688707836 0 0.0056107208415587997 -0.00098622213307535686 0 0.0056191048895985569 -0.0010637581688707836 0 0.005626719747388236 -0.0010436332212346629 0 0.005626719747388236 -0.0010436332212346629 0 0.0056640199550581673 -0.0011052656352620797 0 0.0056215922995769474 -0.0010540462272102256 0 0.0056191048895985569 -0.0010637581688707836 0 0.005626719747388236 -0.0010436332212346629 0 0.0056640199550581673 -0.0011052656352620797 0 0.0053030174415815484 -0.0021140748923849533 0 0.0043815989684854858 -0.0024388838760591672 0 0.0048930045164440571 -0.0016598720743360885 0 0.0056510800745808755 -0.0012807215077151541 0 0.0056331276521766668 -0.0011407209513121643 0 0.0056640199550581673 -0.0011052656352620797 0 0.0056331276521766668 -0.0011407209513121643 0 0.0056191048895985569 -0.0010637581688707836 0 0.0056640199550581673 -0.0011052656352620797 0 0.0049461259672182005 -0.0018763591623486764 0 0.0052828032322944874 -0.0013990267381872904 0 0.0053030174415815484 -0.0021140748923849533 0 0.0048930045164440571 -0.0016598720743360885 0 0.0054897288817139633 -0.0015129615939894184 0 0.0053030174415815484 -0.0021140748923849533 0 0.0054897288817139633 -0.0015129615939894184 0 0.0056465270419926465 -0.0017097791285003183 0 0.0052828032322944874 -0.0013990267381872904 0 0.0055885052469309814 -0.0011069075090497111 0 0.0048930045164440571 -0.0016598720743360885 0 0.0054897288817139633 -0.0015129615939894184 0 0.0056223717481426825 -0.0010923760101760654 0 0.0056640199550581673 -0.0011052656352620797 0 0.0056223717481426825 -0.0010923760101760654 0 0.0056215922995769474 -0.0010540462272102256 0 0.0056223717481426825 -0.0010923760101760654 0 0.0055994599622517204 -0.00099022632970425313 0 0.0056215922995769474 -0.0010540462272102256 0 0.0055994599622517204 -0.00099022632970425313 0 0.0056215922995769474 -0.0010540462272102256 0 0.0056136969338709307 -0.00099390680564801219 0 0.0056195926140251663 -0.00091751885763554839 0 0.0056107208415587997 -0.00098622213307535686 0 0.0056136969338709307 -0.00099390680564801219 0 0.005626719747388236 -0.0010436332212346629 0 0.0056215922995769474 -0.0010540462272102256 0 0.0056136969338709307 -0.00099390680564801219 0 0.0056107208415587997 -0.00098622213307535686 0 0.005626719747388236 -0.0010436332212346629 0 0.0056136969338709307 -0.00099390680564801219 0 0.0056195926140251663 -0.00091751885763554839 0 0.0055994599622517204 -0.00099022632970425313 0 0.0056136969338709307 -0.00099390680564801219 0 0.0055190445883609718 -0.00058650201571926837 0 0.0055513597017845867 -0.00062149025643936805 0 0.005433646551041625 -0.00026502110444492894 0 0.0054958000998723998 -0.00025201016004284984 0 0.0054709745322269474 -0.0002456158305613625 0 0.005433646551041625 -0.00026502110444492894 0 0.0054709745322269474 -0.0002456158305613625 0 0.0054466542539864313 -0.00024702115576991465 0 0.0054958000998723998 -0.00025201016004284984 0 0.0054927777051245732 -0.00023661613482127753 0 0.0054977755124731471 -0.00023869584913621753 0 0.0054958000998723998 -0.00025201016004284984 0 0.0054709745322269474 -0.0002456158305613625 0 0.0054927777051245732 -0.00023661613482127753 0 0.0054916217929035479 -0.00022011714052305706 0 0.0054790833348178532 -0.00020063506501295585 0 0.0055020682557618541 -0.00020108122031615498 0 0.0054916217929035479 -0.00022011714052305706 0 0.0054736698242365076 -0.00022886440018824952 0 0.0054790833348178532 -0.00020063506501295585 0 0.0054916217929035479 -0.00022011714052305706 0 0.0055020682557618541 -0.00020108122031615498 0 0.0055037686516906164 -0.00022128282912515281 0 0.0054916217929035479 -0.00022011714052305706 0 0.0054927777051245732 -0.00023661613482127753 0 0.0055037686516906164 -0.00022128282912515281 0 0.0054916217929035479 -0.00022011714052305706 0 0.0054927777051245732 -0.00023661613482127753 0 0.0054736698242365076 -0.00022886440018824952 0 0.0054709745322269474 -0.0002456158305613625 0 0.0054927777051245732 -0.00023661613482127753 0 0.0054736698242365076 -0.00022886440018824952 0 0.0054709745322269474 -0.0002456158305613625 0 0.0054736698242365076 -0.00022886440018824952 0 0.0054466542539864313 -0.00024702115576991465 0 0.0054736698242365076 -0.00022886440018824952 0 0.0054466542539864313 -0.00024702115576991465 0 0.0054499705131552424 -0.00022143136220816948 0 0.0054466542539864313 -0.00024702115576991465 0 0.0054499705131552424 -0.00022143136220816948 0 0.0054280369141747747 -0.00021793841394832089 0 0.0054736698242365076 -0.00022886440018824952 0 0.0054499705131552424 -0.00022143136220816948 0 0.0054790833348178532 -0.00020063506501295585 0 0.0054499705131552424 -0.00022143136220816948 0 0.0054474947352970001 -0.00018516230098131713 0 0.0054790833348178532 -0.00020063506501295585 0 0.0054499705131552424 -0.00022143136220816948 0 0.0054474947352970001 -0.00018516230098131713 0 0.0054280369141747747 -0.00021793841394832089 0 0.0054474947352970001 -0.00018516230098131713 0 0.0054306726938388207 -0.00013019403679478345 0 0.0054070918150660417 -0.0001644493536433544 0 0.0054474947352970001 -0.00018516230098131713 0 0.005473798835329482 -0.0001531842131313265 0 0.0054790833348178532 -0.00020063506501295585 0 0.0054474947352970001 -0.00018516230098131713 0 0.005473798835329482 -0.0001531842131313265 0 0.0054306726938388207 -0.00013019403679478345 0 0.005473798835329482 -0.0001531842131313265 0 0.005497783000706578 -0.00017758919084910117 0 0.0055065781434992253 -0.00015470429019028646 0 0.005473798835329482 -0.0001531842131313265 0 0.0054790833348178532 -0.00020063506501295585 0 0.005497783000706578 -0.00017758919084910117 0 0.0054790833348178532 -0.00020063506501295585 0 0.0055020682557618541 -0.00020108122031615498 0 0.005497783000706578 -0.00017758919084910117 0 0.0055020682557618541 -0.00020108122031615498 0 0.0055145303583276056 -0.00017893063361287771 0 0.005497783000706578 -0.00017758919084910117 0 0.0055145303583276056 -0.00017893063361287771 0 0.0055065781434992253 -0.00015470429019028646 0 0.0055385428693492857 -0.00015400067953168556 0 0.0055145303583276056 -0.00017893063361287771 0 0.005497783000706578 -0.00017758919084910117 0 0.0055065781434992253 -0.00015470429019028646 0 0.0055065781434992253 -0.00015470429019028646 0 0.0054976914069065049 -0.00010020661539372328 0 0.0055385428693492857 -0.00015400067953168556 0 0.0054976914069065049 -0.00010020661539372328 0 0.0055044196289433071 -4.1066227229516532e-06 0 0.0055385428693492857 -0.00015400067953168556 0 0.0054994700472190475 -9.0161789096157733e-06 0 0.0055654698781193168 -0.00012378929853223736 0 0.005473798835329482 -0.0001531842131313265 0 0.0054976914069065049 -0.00010020661539372328 0 0.0054573158378539632 -9.3642324871704078e-05 0 0.005473798835329482 -0.0001531842131313265 0 0.0055065781434992253 -0.00015470429019028646 0 0.0054976914069065049 -0.00010020661539372328 0 0.0054976914069065049 -0.00010020661539372328 0 0.0054768763446174677 -5.8901694840036207e-05 0 0.0054573158378539632 -9.3642324871704078e-05 0 0.0054720856148615851 8.1302969727111018e-05 0 0.0055044196289433071 -4.1066227229516532e-06 0 0.0055763871846002348 -5.6458447304994128e-06 0 0.0054976914069065049 -0.00010020661539372328 0 0.0054768763446174677 -5.8901694840036207e-05 0 0.0055044196289433071 -4.1066227229516532e-06 0 0.0054720856148615851 8.1302969727111018e-05 0 0.0055044196289433071 -4.1066227229516532e-06 0 0.0054501148824740945 -3.2277560443089197e-05 0 0.0054768763446174677 -5.8901694840036207e-05 0 0.0055044196289433071 -4.1066227229516532e-06 0 0.0054501148824740945 -3.2277560443089197e-05 0 0.0054768763446174677 -5.8901694840036207e-05 0 0.0054501148824740945 -3.2277560443089197e-05 0 0.0054573158378539632 -9.3642324871704078e-05 0 0.0054501148824740945 -3.2277560443089197e-05 0 0.0054573158378539632 -9.3642324871704078e-05 0 0.0054146848737860369 -7.3498579876339065e-05 0 0.0054573158378539632 -9.3642324871704078e-05 0 0.0054306726938388207 -0.00013019403679478345 0 0.0054146848737860369 -7.3498579876339065e-05 0 0.005473798835329482 -0.0001531842131313265 0 0.0054573158378539632 -9.3642324871704078e-05 0 0.0054306726938388207 -0.00013019403679478345 0 0.0054306726938388207 -0.00013019403679478345 0 0.0053799463347603844 -0.00010387149314301661 0 0.0054070918150660417 -0.0001644493536433544 0 0.0054306726938388207 -0.00013019403679478345 0 0.0053799463347603844 -0.00010387149314301661 0 0.0054146848737860369 -7.3498579876339065e-05 0 0.0053878817401548105 5.9723749598680359e-05 0 0.0052986150004296047 4.7984216725250031e-05 0 0.0054501148824740945 -3.2277560443089197e-05 0 0.0053650955996997814 -1.3617355878138387e-05 0 0.0053799463347603844 -0.00010387149314301661 0 0.0054146848737860369 -7.3498579876339065e-05 0 0.0053239452882658132 1.5649341404935412e-05 0 0.0054490130405428971 -2.9295661249193998e-05 0 0.0053650955996997814 -1.3617355878138387e-05 0 0.0054501148824740945 -3.2277560443089197e-05 0 0.0054146848737860369 -7.3498579876339065e-05 0 0.0053650955996997814 -1.3617355878138387e-05 0 0.0053799463347603844 -0.00010387149314301661 0 0.0053058981967763121 -7.4390705484154979e-05 0 0.0053650955996997814 -1.3617355878138387e-05 0 0.0052717806500600737 1.9065133470349805e-05 0 0.0053058981967763121 -7.4390705484154979e-05 0 0.005469034415088927 -0.00015129716166670362 0 0.0054581597256821938 -0.00027763053243753239 0 0.0053830862101202932 -0.00024200078329118007 0 0.0053980701614614749 -0.00012771741812414133 0 0.00540135597523123 -0.00021598778289928536 0 0.0053799463347603844 -0.00010387149314301661 0 0.0053058981967763121 -7.4390705484154979e-05 0 0.0053462187860752932 -0.00017271681529951478 0 0.0053462187860752932 -0.00017271681529951478 0 0.0054070918150660417 -0.0001644493536433544 0 0.0054280369141747747 -0.00021793841394832089 0 0.0053799463347603844 -0.00010387149314301661 0 0.0053462187860752932 -0.00017271681529951478 0 0.0054070918150660417 -0.0001644493536433544 0 0.0054474947352970001 -0.00018516230098131713 0 0.0054070918150660417 -0.0001644493536433544 0 0.0054280369141747747 -0.00021793841394832089 0 0.0053462187860752932 -0.00017271681529951478 0 0.0054280369141747747 -0.00021793841394832089 0 0.005423388103237608 -0.00027625635648024057 0 0.0054466542539864313 -0.00024702115576991465 0 0.0054280369141747747 -0.00021793841394832089 0 0.005423388103237608 -0.00027625635648024057 0 0.00540135597523123 -0.00021598778289928536 0 0.0054208864175760221 -0.00027218660155414336 0 0.0054581597256821938 -0.00027763053243753239 0 0.005423388103237608 -0.00027625635648024057 0 0.0054249207888717385 -0.00030381300863857981 0 0.0054581597256821938 -0.00027763053243753239 0 0.0054249207888717385 -0.00030381300863857981 0 0.0054060428755569557 -0.00029803168690670619 0 0.0054439055344057937 -0.00080688195365009581 0 0.0055168830139966304 -0.0007526704600603572 0 0.0053498271935705343 -0.00058247420285475104 0 0.0054249207888717385 -0.00030381300863857981 0 0.0053356289816296407 -0.00035489587806575643 0 0.0054060428755569557 -0.00029803168690670619 0 0.005462871298866359 -0.00052785535569220391 0 0.0053299710437633768 -0.0004645854408947781 0 0.0053356289816296407 -0.00035489587806575643 0 0.0053830862101202932 -0.00024200078329118007 0 0.0052683043796650552 -0.00027474115180709999 0 0.0053356289816296407 -0.00035489587806575643 0 0.0054060428755569557 -0.00029803168690670619 0 0.0053830862101202932 -0.00024200078329118007 0 0.0054581597256821938 -0.00027763053243753239 0 0.0054060428755569557 -0.00029803168690670619 0 0.0053830862101202932 -0.00024200078329118007 0 0.005469034415088927 -0.00015129716166670362 0 0.0053830862101202932 -0.00024200078329118007 0 0.0053807937925481539 -0.00011393665770310411 0 0.0054433721829132056 2.5033907714405653e-05 0 0.005469034415088927 -0.00015129716166670362 0 0.0053807937925481539 -0.00011393665770310411 0 0.0054433721829132056 2.5033907714405653e-05 0 0.0053807937925481539 -0.00011393665770310411 0 0.0053101927984699178 -2.6173279979003999e-05 0 0.0052688443571164353 9.3379149134595218e-05 0 0.0053980701614614749 -0.00012771741812414133 0 0.0053807937925481539 -0.00011393665770310411 0 0.0053101927984699178 -2.6173279979003999e-05 0 0.0052853806266405651 -0.00015092158915099737 0 0.0053830862101202932 -0.00024200078329118007 0 0.0053807937925481539 -0.00011393665770310411 0 0.0052853806266405651 -0.00015092158915099737 0 0.0053830862101202932 -0.00024200078329118007 0 0.0052853806266405651 -0.00015092158915099737 0 0.0052683043796650552 -0.00027474115180709999 0 0.0052853806266405651 -0.00015092158915099737 0 0.0051684769816474699 -0.00020354027233082095 0 0.0052683043796650552 -0.00027474115180709999 0 0.0051684769816474699 -0.00020354027233082095 0 0.0051336625388570412 -0.00039102370268613617 0 0.0052683043796650552 -0.00027474115180709999 0 0.0053101927984699178 -2.6173279979003999e-05 0 0.0052853806266405651 -0.00015092158915099737 0 0.0051661956760941678 -1.6352076425479625e-05 0 0.0052853806266405651 -0.00015092158915099737 0 0.0051684769816474699 -0.00020354027233082095 0 0.0051661956760941678 -1.6352076425479625e-05 0 0.0051684769816474699 -0.00020354027233082095 0 0.0051661956760941678 -1.6352076425479625e-05 0 0.0050000000959530321 -0.00016677269120035838 0 0.0049999761244391479 0.00010741651042611822 0 0.0051661956760941678 -1.6352076425479625e-05 0 0.0050000000959530321 -0.00016677269120035838 0 0.0051684769816474699 -0.00020354027233082095 0 0.0050000000959530321 -0.00016677269120035838 0 0.0051336625388570412 -0.00039102370268613617 0 0.0050000000959530321 -0.00016677269120035838 0 0.0049999763537236499 -0.00044095320225705665 0 0.0051336625388570412 -0.00039102370268613617 0 0.0049999763537236499 -0.00044095320225705665 0 0.0051336625388570412 -0.00039102370268613617 0 0.0050891609392536424 -0.0005427583864437139 0 0.0053299710437633768 -0.0004645854408947781 0 0.0051365329802866627 -0.00039138158354478205 0 0.0053356289816296407 -0.00035489587806575643 0 0.0051336625388570412 -0.00039102370268613617 0 0.0052683043796650552 -0.00027474115180709999 0 0.0053498271935705343 -0.00058247420285475104 0 0.0051336625388570412 -0.00039102370268613617 0 0.0051835561204272365 -0.00065604300921217901 0 0.0051336625388570412 -0.00039102370268613617 0 0.0051835561204272365 -0.00065604300921217901 0 0.0050891609392536424 -0.0005427583864437139 0 0.0049999889313595445 -0.00071520056832248156 0 0.0049999763537236499 -0.00044095320225705665 0 0.0050891609392536424 -0.0005427583864437139 0 0.0049999889313595445 -0.00071520056832248156 0 0.0051835561204272365 -0.00065604300921217901 0 0.0050891609392536424 -0.0005427583864437139 0 0.0040402671036993444 0.00013881564417525397 0 0.0041165496118853494 -4.1488816700907721e-05 0 0.0038929840278448674 -7.108059936859095e-05 0 0.0039104265262096816 0.00014704961806489392 0 0.0040402671036993444 0.00013881564417525397 0 0.0038929840278448674 -7.108059936859095e-05 0 0.003930448841141067 -0.00034919344357260121 0 0.0045374059690469447 -0.00015313636541509833 0 0.003930448841141067 -0.00034919344357260121 0 0.0044634387773785289 -0.00034228053581208094 0 0.0039913474043256495 -0.00028159572509845262 0 0.0045277348138708269 -0.00031084315214496779 0 0.0044725595048467496 -0.00018135192640642293 0 0.0045374059690469447 -0.00015313636541509833 0 0.0044634387773785289 -0.00034228053581208094 0 0.0045374059690469447 -0.00015313636541509833 0 0.0053875733881173669 -0.0002311930419920644 0 0.0046124497391107364 -0.00031907495684987161 0 0.0045804524494317232 -0.00024413378454844401 0 0.0049274989154957805 -0.0001718243943368698 0 0.0046124497391107364 -0.00031907495684987161 0 0.0049274989154957805 -0.0001718243943368698 0 0.0053521574886592708 -0.00035862912736347958 0 0.0044634387773785289 -0.00034228053581208094 0 0.0050332455579036161 -0.00045997174127329426 0 0.0052037875519688739 -0.00019092245815796754 0 0.0052862439963122327 -0.00013588574440239848 0 0.0052715378548999353 -0.00019791314015147026 0 0.0051716136393477434 -0.00012565607477497983 0 0.0052037875519688739 -0.00019092245815796754 0 0.0052862439963122327 -0.00013588574440239848 0 0.0050332455579036161 -0.00045997174127329426 0 0.0053875733881173669 -0.0002311930419920644 0 0.0045374059690469447 -0.00015313636541509833 0 0.0046604559315200971 -0.00017024333608927863 0 0.0041165496118853494 -4.1488816700907721e-05 0 0.0038929840278448674 -7.108059936859095e-05 0 0.0041935878319402792 -0.00021924782771575664 0 0.0052037875519688739 -0.00019092245815796754 0 0.0052715378548999353 -0.00019791314015147026 0 0.0052346359105453003 -0.00024476827844209612 0 0.0046604559315200971 -0.00017024333608927863 0 0.0041600806135064288 3.708447595441752e-05 0 0.003543474703530218 0.00052952107697139695 0 0.0035340538053383608 0.00047183979092120195 0 0.0036187294124271577 0.00049207886313744863 0 0.003670223754135715 0.00027264653322480863 0 0.0041600806135064288 3.708447595441752e-05 0 0.003543474703530218 0.00052952107697139695 0 0.0034842893001763094 0.0005205187093292688 0 0.0035340538053383608 0.00047183979092120195 0 0.003543474703530218 0.00052952107697139695 0 0.0034842893001763094 0.0005205187093292688 0 0.0034559221384736168 0.00056948321233813023 0 0.0023392170134770526 0.00034394612175262163 0 0.0023349218290336098 0.0003450703308833949 0 0.0023211111862428062 0.00033716737291666926 0 0.0034842893001763094 0.0005205187093292688 0 0.0034624359295112599 0.00047704075745583457 0 0.003399235873060377 0.00054146529970650092 0 0.0028987960717704524 0.00040928334987282096 0 0.002861833403959976 0.00047061456783339327 0 0.0034842893001763094 0.0005205187093292688 0 0.0034559221384736168 0.00056948321233813023 0 0.003399235873060377 0.00054146529970650092 0 0.0034633039490581641 0.00016107824997050772 0 0.0034486735994700628 0.00047027736886686529 0 0.0034559221384736168 0.00056948321233813023 0 0.0034051541574058844 0.00055664287176545669 0 0.003399235873060377 0.00054146529970650092 0 0.0034633039490581641 0.00016107824997050772 0 0.0032643427617818558 3.2086436518487261e-05 0 0.0034490746836192592 0.00056239735111461998 0 0.0034051541574058844 0.00055664287176545669 0 0.003394658811809715 0.00059095849109923337 0 0.0033526458177644998 -0.00064768064349352646 0 0.0032608404880395641 -0.00049977673915979821 0 0.003034012410073401 -0.00048677205634014436 0 0.003670223754135715 0.00027264653322480863 0 0.0034633039490581641 0.00016107824997050772 0 0.0039104265262096816 0.00014704961806489392 0 0.0038929840278448674 -7.108059936859095e-05 0 0.0035869620352266931 8.2469786016739475e-05 0 0.003930448841141067 -0.00034919344357260121 0 0.0034633039490581641 0.00016107824997050772 0 0.003930448841141067 -0.00034919344357260121 0 0.0032864467487401482 -0.00055120384190142032 0 0.0039245699341545889 -0.000546502282169815 0 0.0032608404880395641 -0.00049977673915979821 0 0.0037289931364034739 -0.00039148218678765383 0 0.0039089344279686737 -0.00052288467563037808 0 0.0033526458177644998 -0.00064768064349352646 0 0.0032608404880395641 -0.00049977673915979821 0 0.0037289931364034739 -0.00039148218678765383 0 0.0035781335141498549 -9.3074154795610869e-05 0 0.0040475460684663732 -0.00030467746871509787 0 0.0036366197510439868 -0.00016492162826528585 0 0.0043058838171215448 -0.00056825946590374993 0 0.0032608404880395641 -0.00049977673915979821 0 0.0037289931364034739 -0.00039148218678765383 0 0.0034464923932576337 -0.00029286877204231474 0 0.0037289931364034739 -0.00039148218678765383 0 0.0034464923932576337 -0.00029286877204231474 0 0.0035781335141498549 -9.3074154795610869e-05 0 0.0032608404880395641 -0.00049977673915979821 0 0.0031378051447947804 -0.00035203749299962613 0 0.003034012410073401 -0.00048677205634014436 0 0.0032608404880395641 -0.00049977673915979821 0 0.0031378051447947804 -0.00035203749299962613 0 0.0032787365174563403 -0.0003080253325916193 0 0.0031378051447947804 -0.00035203749299962613 0 0.0032787365174563403 -0.0003080253325916193 0 0.0031558515331226666 -0.00020092416410712278 0 0.0032608404880395641 -0.00049977673915979821 0 0.0032787365174563403 -0.0003080253325916193 0 0.0034464923932576337 -0.00029286877204231474 0 0.0034464923932576337 -0.00029286877204231474 0 0.003315270295450369 -0.00015919871509979371 0 0.0035781335141498549 -9.3074154795610869e-05 0 0.0032787365174563403 -0.0003080253325916193 0 0.0034464923932576337 -0.00029286877204231474 0 0.003315270295450369 -0.00015919871509979371 0 0.0032787365174563403 -0.0003080253325916193 0 0.003315270295450369 -0.00015919871509979371 0 0.0031558515331226666 -0.00020092416410712278 0 0.0035432732704253666 0.00019223753485194948 0 0.0031833351829367775 -4.5927173513169187e-07 0 0.0037478431154752885 -0.00027398254716759902 0 0.003315270295450369 -0.00015919871509979371 0 0.0031191983023022576 9.7650971709280641e-05 0 0.0035781335141498549 -9.3074154795610869e-05 0 0.0031545226036474271 4.8183194456905116e-05 0 0.0036366197510439868 -0.00016492162826528585 0 0.003315270295450369 -0.00015919871509979371 0 0.0031558515331226666 -0.00020092416410712278 0 0.0031191983023022576 9.7650971709280641e-05 0 0.0035432732704253666 0.00019223753485194948 0 0.0037478431154752885 -0.00027398254716759902 0 0.0041121182946988709 -3.5249701385066516e-05 0 0.0033840130516393195 -0.00069298281490140414 0 0.0040313753634710174 -0.0013807591258304475 0 0.0043041298342235603 -0.0025212159971195673 0 0.0042967565541268023 -0.0025159662432887109 0 0.004287352041150219 -0.0025250866560268415 0 0.0037478431154752885 -0.00027398254716759902 0 0.0041121182946988709 -3.5249701385066516e-05 0 0.0043291314116484896 -0.00054548638166510433 0 0.0042264069630913795 -0.0010867285921805148 0 0.0043748237186536938 -0.0014298708074500547 0 0.0045194298771174327 -0.0011982936953965448 0 0.0040313753634710174 -0.0013807591258304475 0 0.0043058838171215448 -0.00056825946590374993 0 0.0043041298342235603 -0.0025212159971195673 0 0.004287352041150219 -0.0025250866560268415 0 0.0043034588693345588 -0.0025223582131646892 0 0.0040313753634710174 -0.0013807591258304475 0 0.0044171120744591419 -0.0018358752097744819 0 0.0044634387773785289 -0.00034228053581208094 0 0.0043058838171215448 -0.00056825946590374993 0 0.0039245699341545889 -0.000546502282169815 0 0.0041361026849254844 -0.00050325693236578256 0 0.0040496686428719798 -0.000301767980353848 0 0.0039245699341545889 -0.000546502282169815 0 0.0037289931364034739 -0.00039148218678765383 0 0.0040496686428719798 -0.000301767980353848 0 0.0037464947526458701 -0.00043399274572162395 0 0.0043058838171215448 -0.00056825946590374993 0 0.0043748237186536938 -0.0014298708074500547 0 0.0045194298771174327 -0.0011982936953965448 0 0.004814644180184108 -0.00131269878889906 0 0.0043058838171215448 -0.00056825946590374993 0 0.0051177433652812845 -0.0015349780089223028 0 0.0044663550446501429 -0.00086967808709471493 0 0.0049631428984409608 -0.0010829574544934308 0 0.0052108003500792562 -0.00066691485548707853 0 0.0043058838171215448 -0.00056825946590374993 0 0.0050332455579036161 -0.00045997174127329426 0 0.0045301422781214443 -0.00057732725897396346 0 0.0044313900068686787 -0.00034723727506906071 0 0.0048288806232195747 -0.00051527968583708591 0 0.0044171120744591419 -0.0018358752097744819 0 0.0051177433652812845 -0.0015349780089223028 0 0.0043041298342235603 -0.0025212159971195673 0 0.0043034588693345588 -0.0025223582131646892 0 0.0043063168511746379 -0.0025210555485244311 0 0.0043034588693345588 -0.0025223582131646892 0 0.0043063168511746379 -0.0025210555485244311 0 0.004309190596179728 -0.0025178086413218163 0 0.0043063168511746379 -0.0025210555485244311 0 0.0043049973451935652 -0.002518141955186526 0 0.004309190596179728 -0.0025178086413218163 0 0.005243683062945698 -0.0021118860193028617 0 0.0051177433652812845 -0.0015349780089223028 0 0.0043021880599850709 -0.0025247621051925585 0 0.0043063168511746379 -0.0025210555485244311 0 0.0043049973451935652 -0.002518141955186526 0 0.0042965210103017284 -0.0025271590091352422 0 0.0043021880599850709 -0.0025247621051925585 0 0.0043049973451935652 -0.002518141955186526 0 0.0061582835237971485 -0.0015976248129712417 0 0.0061728216155111639 -0.0015203534044570476 0 0.0060659466803136015 -0.0015159735866461679 0 0.0059817897855474755 -0.00098316094945890306 0 0.0061227987791512171 -0.0014236891495837422 0 0.0061582835237971485 -0.0015976248129712417 0 0.0061728216155111639 -0.0015203534044570476 0 0.0062312219605192053 -0.0015516505521574709 0 0.0050332455579036161 -0.00045997174127329426 0 0.0059817897855474755 -0.00098316094945890306 0 0.0059817897855474755 -0.00098316094945890306 0 0.0051177433652812845 -0.0015349780089223028 0 0.0049631428984409608 -0.0010829574544934308 0 0.0058317034588666718 -0.00090730969753257177 0 0.0052108003500792562 -0.00066691485548707853 0 0.0054931929098211828 -0.00022470950236776703 0 0.0055006958917144851 -0.0002236631917424147 0 0.00549791542083329 -0.00022329476262911174 0 0.0047845105281345973 -0.0023179035693539404 0 0.0050979381488150026 -0.0021530066491514403 0 0.0053030174415815484 -0.0021140748923849533 0 0.0056465270419926465 -0.0017097791285003183 0 0.0059245070563911763 -0.0017787268318269543 0 0.0054897288817139633 -0.0015129615939894184 0 0.0056465270419926465 -0.0017097791285003183 0 0.0058298373139317053 -0.0014774452242667868 0 0.0056465270419926465 -0.0017097791285003183 0 0.0059245070563911763 -0.0017787268318269543 0 0.0058298373139317053 -0.0014774452242667868 0 0.005243683062945698 -0.0021118860193028617 0 0.0050979381488150026 -0.0021530066491514403 0 0.0061582835237971485 -0.0015976248129712417 0 0.0059245070563911763 -0.0017787268318269543 0 0.0060125509968483705 -0.0016020901164680865 0 0.0042965210103017284 -0.0025271590091352422 0 0.0043049973451935652 -0.002518141955186526 0 0.0042951028351277667 -0.0025252720235560641 0 0.0059245070563911763 -0.0017787268318269543 0 0.0060125509968483705 -0.0016020901164680865 0 0.0058298373139317053 -0.0014774452242667868 0 0.0064687380292301954 -0.0012883549738538622 0 0.0061339187074662283 -0.0013626609227412746 0 0.0059171066955234679 -0.0010887696949874735 0 0.0059817897855474755 -0.00098316094945890306 0 0.0056963490565953541 -0.00061878141637379113 0 0.0061339187074662283 -0.0013626609227412746 0 0.0059395297510775229 -0.0012863421028984827 0 0.0058298373139317053 -0.0014774452242667868 0 0.0061227987791512171 -0.0014236891495837422 0 0.0058425409088224915 -0.0014808249388859097 0 0.0060125509968483705 -0.0016020901164680865 0 0.0060659466803136015 -0.0015159735866461679 0 0.0058298373139317053 -0.0014774452242667868 0 0.0061582835237971485 -0.0015976248129712417 0 0.0060125509968483705 -0.0016020901164680865 0 0.0060659466803136015 -0.0015159735866461679 0 0.0061339187074662283 -0.0013626609227412746 0 0.0059395297510775229 -0.0012863421028984827 0 0.0059171066955234679 -0.0010887696949874735 0 0.0054897288817139633 -0.0015129615939894184 0 0.0056223717481426825 -0.0010923760101760654 0 0.0057767154010478685 -0.0012499221006024095 0 0.0059395297510775229 -0.0012863421028984827 0 0.0058298373139317053 -0.0014774452242667868 0 0.0057767154010478685 -0.0012499221006024095 0 0.0059395297510775229 -0.0012863421028984827 0 0.0057767154010478685 -0.0012499221006024095 0 0.0059171066955234679 -0.0010887696949874735 0 0.0054897288817139633 -0.0015129615939894184 0 0.0058298373139317053 -0.0014774452242667868 0 0.0057767154010478685 -0.0012499221006024095 0 0.0056223717481426825 -0.0010923760101760654 0 0.0055994599622517204 -0.00099022632970425313 0 0.0059171066955234679 -0.0010887696949874735 0 0.0056223717481426825 -0.0010923760101760654 0 0.0057767154010478685 -0.0012499221006024095 0 0.0059171066955234679 -0.0010887696949874735 0 0.0054958000998723998 -0.00025201016004284984 0 0.0054894534081033576 -0.00022062424637140569 0 0.0054841590001214963 -0.00020403122403551228 0 0.0055513597017845867 -0.00062149025643936805 0 0.0056963490565953541 -0.00061878141637379113 0 0.0054958000998723998 -0.00025201016004284984 0 0.0054894534081033576 -0.00022062424637140569 0 0.005494452487497717 -0.00023483883252573869 0 0.0054894534081033576 -0.00022062424637140569 0 0.0054821732169515486 -0.00021452468816099722 0 0.0054919747829993305 -0.00023518870960834886 0 0.0054841590001214963 -0.00020403122403551228 0 0.0054829204611641699 -0.00019909950929300374 0 0.0054967812714123042 -0.00021316243596399752 0 0.0054728496810806954 -0.00019402155693551488 0 0.005431934012030246 -0.00018579805654842915 0 0.0054829204611641699 -0.00019909950929300374 0 0.0054257605064432779 -0.00018880597375204629 0 0.0053696365941981938 -0.00015225294552160626 0 0.0054821732169515486 -0.00021452468816099722 0 0.0054616039445135097 -0.00020748388719347069 0 0.0054701392902091108 -0.00022299855975899832 0 0.0054821732169515486 -0.00021452468816099722 0 0.0054829204611641699 -0.00019909950929300374 0 0.0054616039445135097 -0.00020748388719347069 0 0.0054894534081033576 -0.00022062424637140569 0 0.0054848280239909956 -0.00020906959925034741 0 0.0054841590001214963 -0.00020403122403551228 0 0.0054894534081033576 -0.00022062424637140569 0 0.0054821732169515486 -0.00021452468816099722 0 0.0054848280239909956 -0.00020906959925034741 0 0.0054821732169515486 -0.00021452468816099722 0 0.0054848280239909956 -0.00020906959925034741 0 0.0054829204611641699 -0.00019909950929300374 0 0.0054848280239909956 -0.00020906959925034741 0 0.0054841590001214963 -0.00020403122403551228 0 0.0054829204611641699 -0.00019909950929300374 0 0.0054829204611641699 -0.00019909950929300374 0 0.0054257605064432779 -0.00018880597375204629 0 0.0054616039445135097 -0.00020748388719347069 0 0.0054616039445135097 -0.00020748388719347069 0 0.0054341933035162793 -0.00021023226997675634 0 0.0054701392902091108 -0.00022299855975899832 0 0.0054257605064432779 -0.00018880597375204629 0 0.0054341933035162793 -0.00021023226997675634 0 0.0053934922893109048 -0.00019116614686601516 0 0.0054257605064432779 -0.00018880597375204629 0 0.0054616039445135097 -0.00020748388719347069 0 0.0054341933035162793 -0.00021023226997675634 0 0.005377090884341248 -0.00021683128285760123 0 0.0053088086324929009 -0.00020395448510072096 0 0.0053374006859586987 -0.00021146666263243481 0 0.0054698305364427411 -0.00024819721380871013 0 0.005377090884341248 -0.00021683128285760123 0 0.0055106430439041849 -0.00037662384502033043 0 0.0053545034167025224 -0.00023377065762070776 0 0.0054901303860623238 -0.00022952520546833655 0 0.0054341933035162793 -0.00021023226997675634 0 0.0054698305364427411 -0.00024819721380871013 0 0.005377090884341248 -0.00021683128285760123 0 0.0054341933035162793 -0.00021023226997675634 0 0.0054698305364427411 -0.00024819721380871013 0 0.0054701392902091108 -0.00022299855975899832 0 0.0054698305364427411 -0.00024819721380871013 0 0.0054992132972365776 -0.00023862811060210845 0 0.0054919747829993305 -0.00023518870960834886 0 0.0054821732169515486 -0.00021452468816099722 0 0.0054701392902091108 -0.00022299855975899832 0 0.0054919747829993305 -0.00023518870960834886 0 0.0054698305364427411 -0.00024819721380871013 0 0.0054701392902091108 -0.00022299855975899832 0 0.0054919747829993305 -0.00023518870960834886 0 0.0054894534081033576 -0.00022062424637140569 0 0.0054919747829993305 -0.00023518870960834886 0 0.005494452487497717 -0.00023483883252573869 0 0.0054919747829993305 -0.00023518870960834886 0 0.0054977755124731471 -0.00023869584913621753 0 0.005494452487497717 -0.00023483883252573869 0 0.0054992132972365776 -0.00023862811060210845 0 0.0054919747829993305 -0.00023518870960834886 0 0.0055026771559119683 -0.00023531864806934527 0 0.0054919747829993305 -0.00023518870960834886 0 0.0054977755124731471 -0.00023869584913621753 0 0.0055026771559119683 -0.00023531864806934527 0 0.0054927777051245732 -0.00023661613482127753 0 0.0054977755124731471 -0.00023869584913621753 0 0.0055026771559119683 -0.00023531864806934527 0 0.0054958000998723998 -0.00025201016004284984 0 0.0054977755124731471 -0.00023869584913621753 0 0.005494452487497717 -0.00023483883252573869 0 0.0052862439963122327 -0.00013588574440239848 0 0.0053628430216736776 -0.00018678535730853757 0 0.0053181969500011314 -0.00018837760900144445 0 0.0053875733881173669 -0.0002311930419920644 0 0.0053129679437528381 -0.00016073972377901209 0 0.0053875733881173669 -0.0002311930419920644 0 0.005431934012030246 -0.00018579805654842915 0 0.0052862439963122327 -0.00013588574440239848 0 0.0053181969500011314 -0.00018837760900144445 0 0.0052715378548999353 -0.00019791314015147026 0 0.0052796877036890974 -0.00014903013026377562 0 0.0053696365941981938 -0.00015225294552160626 0 0.0053628430216736776 -0.00018678535730853757 0 0.0055006958917144851 -0.0002236631917424147 0 0.00549791542083329 -0.00022329476262911174 0 0.0054967812714123042 -0.00021316243596399752 0 0.0055006958917144851 -0.0002236631917424147 0 0.0054841590001214963 -0.00020403122403551228 0 0.0054967812714123042 -0.00021316243596399752 0 0.0054257605064432779 -0.00018880597375204629 0 0.0053696365941981938 -0.00015225294552160626 0 0.0053934922893109048 -0.00019116614686601516 0 0.0053696365941981938 -0.00015225294552160626 0 0.0053934922893109048 -0.00019116614686601516 0 0.0053628430216736776 -0.00018678535730853757 0 0.0053934922893109048 -0.00019116614686601516 0 0.0053628430216736776 -0.00018678535730853757 0 0.005377090884341248 -0.00021683128285760123 0 0.0054341933035162793 -0.00021023226997675634 0 0.0053934922893109048 -0.00019116614686601516 0 0.005377090884341248 -0.00021683128285760123 0 0.0053628430216736776 -0.00018678535730853757 0 0.0053484275790404183 -0.00020656737935256412 0 0.0053181969500011314 -0.00018837760900144445 0 0.0053484275790404183 -0.00020656737935256412 0 0.0053566949051906858 -0.00022014389050116593 0 0.00531948853007818 -0.00021122477036503311 0 0.005377090884341248 -0.00021683128285760123 0 0.0053566949051906858 -0.00022014389050116593 0 0.0053374006859586987 -0.00021146666263243481 0 0.0053484275790404183 -0.00020656737935256412 0 0.00531948853007818 -0.00021122477036503311 0 0.0053181969500011314 -0.00018837760900144445 0 0.0053484275790404183 -0.00020656737935256412 0 0.005377090884341248 -0.00021683128285760123 0 0.0053566949051906858 -0.00022014389050116593 0 0.0053628430216736776 -0.00018678535730853757 0 0.0053484275790404183 -0.00020656737935256412 0 0.005377090884341248 -0.00021683128285760123 0 0.0053566949051906858 -0.00022014389050116593 0 0.0053508499115955096 -0.00022567912722308228 0 0.0053374006859586987 -0.00021146666263243481 0 0.0053566949051906858 -0.00022014389050116593 0 0.0053265437558833954 -0.00023088936206443493 0 0.00531948853007818 -0.00021122477036503311 0 0.0053566949051906858 -0.00022014389050116593 0 0.0053265437558833954 -0.00023088936206443493 0 0.0053508499115955096 -0.00022567912722308228 0 0.0053265437558833954 -0.00023088936206443493 0 0.00531948853007818 -0.00021122477036503311 0 0.0052817877006643647 -0.00023015566063548982 0 0.00531948853007818 -0.00021122477036503311 0 0.0052715378548999353 -0.00019791314015147026 0 0.0052817877006643647 -0.00023015566063548982 0 0.00531948853007818 -0.00021122477036503311 0 0.0053181969500011314 -0.00018837760900144445 0 0.0052715378548999353 -0.00019791314015147026 0 0.0052715378548999353 -0.00019791314015147026 0 0.0052817877006643647 -0.00023015566063548982 0 0.0052346359105453003 -0.00024476827844209612 0 0.0053265437558833954 -0.00023088936206443493 0 0.0052817877006643647 -0.00023015566063548982 0 0.0053350013298335674 -0.00028058762192081314 0 0.0052817877006643647 -0.00023015566063548982 0 0.0053350013298335674 -0.00028058762192081314 0 0.0052346359105453003 -0.00024476827844209612 0 0.0047476315873406158 2.6082359326719558e-05 0 0.0041600806135064288 3.708447595441752e-05 0 0.0036475272069632957 0.00024960920958378352 0 0.0037445071407915908 0.00029097385539852028 0 0.0038023776314060329 0.00016798090693509715 0 0.0053508499115955096 -0.00022567912722308228 0 0.0053459984517760578 -0.00020618760554015498 0 0.005357806326753937 -0.0001947034136927701 0 0.0053265437558833954 -0.00023088936206443493 0 0.0053508499115955096 -0.00022567912722308228 0 0.0053350013298335674 -0.00028058762192081314 0 0.0052264309006294285 -0.00021813180537302556 0 0.0047476315873406158 2.6082359326719558e-05 0 0.0053508499115955096 -0.00022567912722308228 0 0.0053459984517760578 -0.00020618760554015498 0 0.0053374006859586987 -0.00021146666263243481 0 0.0053459984517760578 -0.00020618760554015498 0 0.005357806326753937 -0.0001947034136927701 0 0.0053304771455659709 -0.00018221778166278523 0 0.0047476315873406158 2.6082359326719558e-05 0 0.0041015267785316899 0.0003537110407007681 0 0.0045932235806259193 0.0001126756650328268 0 0.0045645023395647685 0.00022005785670387362 0 0.0046419270480833 0.00028063348068440376 0 0.0047476315873406158 2.6082359326719558e-05 0 0.0051342693203750922 -2.2205584907084259e-05 0 0.0045932235806259193 0.0001126756650328268 0 0.0045645023395647685 0.00022005785670387362 0 0.0044917481840008096 0.00016797786275679047 0 0.0036395783586047809 0.000441183667560195 0 0.0036865273527377585 0.00034971952139039583 0 0.0036475272069632957 0.00024960920958378352 0 0.0037445071407915908 0.00029097385539852028 0 0.003668829904805234 0.00038011100275161348 0 0.0055037686516906164 -0.00022128282912515281 0 0.0055089722337799251 -0.00022719645015059254 0 0.0055172666370964388 -0.00020138430522149707 0 0.0055020682557618541 -0.00020108122031615498 0 0.0055037686516906164 -0.00022128282912515281 0 0.0055172666370964388 -0.00020138430522149707 0 0.0054927777051245732 -0.00023661613482127753 0 0.0055037686516906164 -0.00022128282912515281 0 0.0055026771559119683 -0.00023531864806934527 0 0.0055037686516906164 -0.00022128282912515281 0 0.0055026771559119683 -0.00023531864806934527 0 0.0055089722337799251 -0.00022719645015059254 0 0.0054992132972365776 -0.00023862811060210845 0 0.0055026771559119683 -0.00023531864806934527 0 0.0055089722337799251 -0.00022719645015059254 0 0.0055089722337799251 -0.00022719645015059254 0 0.0055163262911737294 -0.00023029932642356109 0 0.0055172666370964388 -0.00020138430522149707 0 0.005332846661072959 -0.00024692242950429168 0 0.0051342693203750922 -2.2205584907084259e-05 0 0.0054857618931302646 -0.0002751841530535466 0 0.0054901303860623238 -0.00022952520546833655 0 0.0053088086324929009 -0.00020395448510072096 0 0.0053374006859586987 -0.00021146666263243481 0 0.0053500682221834994 -0.00012929818373471201 0 0.0054698305364427411 -0.00024819721380871013 0 0.0054992132972365776 -0.00023862811060210845 0 0.0055163262911737294 -0.00023029932642356109 0 0.0053459984517760578 -0.00020618760554015498 0 0.0053374006859586987 -0.00021146666263243481 0 0.0053304771455659709 -0.00018221778166278523 0 0.0054992132972365776 -0.00023862811060210845 0 0.0055089722337799251 -0.00022719645015059254 0 0.0055163262911737294 -0.00023029932642356109 0 0.0053088086324929009 -0.00020395448510072096 0 0.0053000015089754646 -9.5501149475081963e-05 0 0.005248994612927077 -3.7486251235208039e-05 0 0.0054901303860623238 -0.00022952520546833655 0 0.0054365571680050264 -0.00010392110422320741 0 0.0051342693203750922 -2.2205584907084259e-05 0 0.00531170488758749 -0.00010811291023787307 0 0.0053595855237641979 -0.00012731215805793737 0 0.0053000015089754646 -9.5501149475081963e-05 0 0.0053074064574658809 -3.3535917566717875e-05 0 0.0053000015089754646 -9.5501149475081963e-05 0 0.005248994612927077 -3.7486251235208039e-05 0 0.0053074064574658809 -3.3535917566717875e-05 0 0.0053088086324929009 -0.00020395448510072096 0 0.0053500682221834994 -0.00012929818373471201 0 0.0053000015089754646 -9.5501149475081963e-05 0 0.0055163262911737294 -0.00023029932642356109 0 0.0055172666370964388 -0.00020138430522149707 0 0.0055385428693492857 -0.00015400067953168556 0 0.0055145303583276056 -0.00017893063361287771 0 0.0055172666370964388 -0.00020138430522149707 0 0.0055385428693492857 -0.00015400067953168556 0 0.0054901303860623238 -0.00022952520546833655 0 0.0055654698781193168 -0.00012378929853223736 0 0.0056272804308872167 -0.00019413201877514416 0 0.0055718586238670273 -0.00010300080671366929 0 0.0056099260399779102 -0.0001082768211382074 0 0.0055020682557618541 -0.00020108122031615498 0 0.0055145303583276056 -0.00017893063361287771 0 0.0055172666370964388 -0.00020138430522149707 0 0.005248994612927077 -3.7486251235208039e-05 0 0.0052722026471448327 1.7927695314884604e-05 0 0.0051963939304744602 0.00017614131538421131 0 0.0054365571680050264 -0.00010392110422320741 0 0.0053491912128177084 0.000276154185434405 0 0.0055718586238670273 -0.00010300080671366929 0 0.0056099260399779102 -0.0001082768211382074 0 0.0055831697140130386 -2.1363101114397669e-05 0 0.0053595855237641979 -0.00012731215805793737 0 0.0053074064574658809 -3.3535917566717875e-05 0 0.0053546260838443493 7.5505880567343898e-05 0 0.0051342693203750922 -2.2205584907084259e-05 0 0.0048015190317210561 0.00028544826154670877 0 0.0052718181573489717 -1.0134156296789652e-05 0 0.0051938509880687499 0.0003228835466674589 0 0.0052722026471448327 1.7927695314884604e-05 0 0.0053546260838443493 7.5505880567343898e-05 0 0.0052514879019791962 0.00013475612593019786 0 0.0052722026471448327 1.7927695314884604e-05 0 0.0053074064574658809 -3.3535917566717875e-05 0 0.0053546260838443493 7.5505880567343898e-05 0 0.005248994612927077 -3.7486251235208039e-05 0 0.0052722026471448327 1.7927695314884604e-05 0 0.0053074064574658809 -3.3535917566717875e-05 0 0.0050053173847594374 0.00072283834516088149 0 0.0050165108008383722 0.0003201853995743156 0 0.0047862062319078916 0.00044889071918548489 0 0.0047125926035270138 0.00061890686320870603 0 0.0048015190317210561 0.00028544826154670877 0 0.0048015190317210561 0.00028544826154670877 0 0.0051938509880687499 0.0003228835466674589 0 0.0056099260399779102 -0.0001082768211382074 0 0.0055933076525689065 -1.5027006159121592e-05 0 0.0055831697140130386 -2.1363101114397669e-05 0 0.0052722026471448327 1.7927695314884604e-05 0 0.0052524881931749479 0.00014492532059120903 0 0.0051963939304744602 0.00017614131538421131 0 0.005016508981113491 0.0008200179582503837 0 0.0051938509880687499 0.0003228835466674589 0 0.0055044196289433071 -4.1066227229516532e-06 0 0.0055718586238670273 -0.00010300080671366929 0 0.0055831697140130386 -2.1363101114397669e-05 0 0.0055044196289433071 -4.1066227229516532e-06 0 0.0055763871846002348 -5.6458447304994128e-06 0 0.0055831697140130386 -2.1363101114397669e-05 0 0.0053173790507885406 0.00082424166824862416 0 0.0053834773879101435 0.00040513578641297309 0 0.0052546650344722882 0.00047729373016757191 0 0.0051938509880687499 0.0003228835466674589 0 0.0053491912128177084 0.000276154185434405 0 0.0052014148640155298 0.00074459608443478386 0 0.0053491912128177084 0.000276154185434405 0 0.0054180083739451919 0.00043593266570703159 0 0.0055231911793588665 0.00020712472657244139 0 0.0055933076525689065 -1.5027006159121592e-05 0 0.0055726859739180894 -9.3304723028256248e-07 0 0.0055831697140130386 -2.1363101114397669e-05 0 0.0051921390582201502 0.00074472713893643954 0 0.0052575274224271355 0.00047748439896378505 0 0.0051595897156638485 0.00053208468172704379 0 0.0053491912128177084 0.000276154185434405 0 0.0054180083739451919 0.00043593266570703159 0 0.003664743462115812 0.00038311361509649791 0 0.003668829904805234 0.00038011100275161348 0 0.0036364790208446031 0.00037199706665380899 0 0.0036400903966927367 0.00044137086412118748 0 0.003664743462115812 0.00038311361509649791 0 0.0036356210061827465 0.00039970712802135427 0 0.0037445071407915908 0.00029097385539852028 0 0.003664743462115812 0.00038311361509649791 0 0.003668829904805234 0.00038011100275161348 0 0.003664743462115812 0.00038311361509649791 0 0.0036462335553748893 0.00038508925110544663 0 0.0036438200217272202 0.00037639007293724462 0 0.0036344008331982126 0.00038087673539860024 0 0.0036462335553748893 0.00038508925110544663 0 0.0036356210061827465 0.00039970712802135427 0 0.0036344008331982126 0.00038087673539860024 0 0.0036462335553748893 0.00038508925110544663 0 0.0036438200217272202 0.00037639007293724462 0 0.003664743462115812 0.00038311361509649791 0 0.0036462335553748893 0.00038508925110544663 0 0.0036356210061827465 0.00039970712802135427 0 0.0045645023395647685 0.00022005785670387362 0 0.0044917481840008096 0.00016797786275679047 0 0.0044876013261020377 0.00034436327280597576 0 0.0045645023395647685 0.00022005785670387362 0 0.0044876013261020377 0.00034436327280597576 0 0.0045941048958881778 0.00028615266462585497 0 0.0045645023395647685 0.00022005785670387362 0 0.0046419270480833 0.00028063348068440376 0 0.0045941048958881778 0.00028615266462585497 0 0.0044206504956636177 0.00037910897982108778 0 0.0045941048958881778 0.00028615266462585497 0 0.0045674672727495248 0.00044742058965501467 0 0.0048015190317210561 0.00028544826154670877 0 0.0044759966277091905 0.00034858592361650771 0 0.0046419270480833 0.00028063348068440376 0 0.0045941048958881778 0.00028615266462585497 0 0.0045674672727495248 0.00044742058965501467 0 0.0044116723690714775 0.00061257584349066303 0 0.0044206504956636177 0.00037910897982108778 0 0.0045674672727495248 0.00044742058965501467 0 0.0045867763129793628 0.0006338961211708765 0 0.0044116723690714775 0.00061257584349066303 0 0.0045674672727495248 0.00044742058965501467 0 0.0045867763129793628 0.0006338961211708765 0 0.0045674672727495248 0.00044742058965501467 0 0.0047071326152931135 0.00052318892224686628 0 0.0046419270480833 0.00028063348068440376 0 0.0045674672727495248 0.00044742058965501467 0 0.0047071326152931135 0.00052318892224686628 0 0.003664743462115812 0.00038311361509649791 0 0.0036438200217272202 0.00037639007293724462 0 0.0036364790208446031 0.00037199706665380899 0 0.0041015267785316899 0.0003537110407007681 0 0.0041699790846145878 0.00039197079461750586 0 0.0036344008331982126 0.00038087673539860024 0 0.0036438200217272202 0.00037639007293724462 0 0.0036372360926788068 0.00036559368065252999 0 0.0036438200217272202 0.00037639007293724462 0 0.0036364790208446031 0.00037199706665380899 0 0.0036372360926788068 0.00036559368065252999 0 0.0036459056414124848 0.00039749762287559536 0 0.0036364790208446031 0.00037199706665380899 0 0.0036372360926788068 0.00036559368065252999 0 0.0032239398080179818 0.00075226066016222776 0 0.0035727853411553216 0.00035492249533092545 0 0.0036121870337387269 0.00033040354722763815 0 0.0036136202001733758 0.00037171018690973035 0 0.003569158624440634 0.00037568612529984067 0 0.0032239398080179818 0.00075226066016222776 0 0.0027492601673959104 0.00062212565964918788 0 0.0036121870337387269 0.00033040354722763815 0 0.0036372360926788068 0.00036559368065252999 0 0.0036136202001733758 0.00037171018690973035 0 0.0036344008331982126 0.00038087673539860024 0 0.0036372360926788068 0.00036559368065252999 0 0.0036136202001733758 0.00037171018690973035 0 0.0019128378594158917 0.0010875573246426266 0 0.0020831076612087022 0.0010364569424507059 0 0.0020598160961787662 0.00084049327268999818 0 0.0020831076612087022 0.0010364569424507059 0 0.0020598160961787662 0.00084049327268999818 0 0.0023226678547275227 0.00087169999366179486 0 0.003569158624440634 0.00037568612529984067 0 0.0035833346562489784 0.00043320084993398621 0 0.003519030440194611 0.00042176800940301915 0 0.0027492601673959104 0.00062212565964918788 0 0.0028763547208217537 0.00049279845919142861 0 0.003569158624440634 0.00037568612529984067 0 0.0036099465489029228 0.00039769287910179608 0 0.0035833346562489784 0.00043320084993398621 0 0.0036344008331982126 0.00038087673539860024 0 0.0036136202001733758 0.00037171018690973035 0 0.0036099465489029228 0.00039769287910179608 0 0.0036344008331982126 0.00038087673539860024 0 0.0036356210061827465 0.00039970712802135427 0 0.0036099465489029228 0.00039769287910179608 0 0.0036136202001733758 0.00037171018690973035 0 0.003569158624440634 0.00037568612529984067 0 0.0036099465489029228 0.00039769287910179608 0 0.0036356210061827465 0.00039970712802135427 0 0.0036099465489029228 0.00039769287910179608 0 0.0036156923141988399 0.00041953877898643651 0 0.0036400903966927367 0.00044137086412118748 0 0.0036156923141988399 0.00041953877898643651 0 0.0035833346562489784 0.00043320084993398621 0 0.0036400903966927367 0.00044137086412118748 0 0.0036356210061827465 0.00039970712802135427 0 0.0036156923141988399 0.00041953877898643651 0 0.0036099465489029228 0.00039769287910179608 0 0.0036156923141988399 0.00041953877898643651 0 0.0035833346562489784 0.00043320084993398621 0 0.0035833346562489784 0.00043320084993398621 0 0.0035340538053383608 0.00047183979092120195 0 0.003519030440194611 0.00042176800940301915 0 0.0035833346562489784 0.00043320084993398621 0 0.0035340538053383608 0.00047183979092120195 0 0.0036187294124271577 0.00049207886313744863 0 0.0036400903966927367 0.00044137086412118748 0 0.0035833346562489784 0.00043320084993398621 0 0.0036187294124271577 0.00049207886313744863 0 0.0036395783586047809 0.000441183667560195 0 0.0041600806135064288 3.708447595441752e-05 0 0.0023281348211859672 0.00039532157933385982 0 0.0025112158373341072 0.0004033953030003553 0 0.0023398158455314819 0.00040491858571712382 0 0.0023298747903303572 0.00034228177613007443 0 0.0023349218290336098 0.0003450703308833949 0 0.0023398158455314819 0.00040491858571712382 0 0.0023392170134770526 0.00034394612175262163 0 0.0023349218290336098 0.0003450703308833949 0 0.0035340538053383608 0.00047183979092120195 0 0.0034624359295112599 0.00047704075745583457 0 0.003519030440194611 0.00042176800940301915 0 0.0034842893001763094 0.0005205187093292688 0 0.0035340538053383608 0.00047183979092120195 0 0.0034624359295112599 0.00047704075745583457 0 0.0023398158455314819 0.00040491858571712382 0 0.0023392170134770526 0.00034394612175262163 0 0.0022139105064464737 0.00057448354256459371 0 0.0028987960717704524 0.00040928334987282096 0 0.0028763547208217537 0.00049279845919142861 0 0.0023398158455314819 0.00040491858571712382 0 0.0022139105064464737 0.00057448354256459371 0 0.0024273340010528203 0.0006375410715628606 0 0.0023398158455314819 0.00040491858571712382 0 0.0024273340010528203 0.0006375410715628606 0 0.0025866441364200371 0.00047070043011323968 0 0.0024273340010528203 0.0006375410715628606 0 0.0023226678547275227 0.00087169999366179486 0 0.0026803036128768875 0.000798334985749087 0 0.0022139105064464737 0.00057448354256459371 0 0.0024273340010528203 0.0006375410715628606 0 0.0023226678547275227 0.00087169999366179486 0 0.0020598160961787662 0.00084049327268999818 0 0.0022139105064464737 0.00057448354256459371 0 0.0023226678547275227 0.00087169999366179486 0 0.0020831076612087022 0.0010364569424507059 0 0.0022452444339200596 0.0011441331416437708 0 0.0023226678547275227 0.00087169999366179486 0 0.0025584149298109619 0.0010661265936007078 0 0.0023226678547275227 0.00087169999366179486 0 0.0026803036128768875 0.000798334985749087 0 0.0020503403226157426 0.001458140524316873 0 0.0022257561266222918 0.0011340524395386077 0 0.0015368361807508823 0.0018464138458932629 0 0.0019043245540296665 0.0016554264057024094 0 0.0017219160619385155 0.0014929525660544475 0 0.0017219160619385155 0.0014929525660544475 0 0.0019909793804212621 0.0014216879966294995 0 0.0018986924884187384 0.0011565065954393002 0 0.0022257561266222918 0.0011340524395386077 0 0.0021609893299474356 0.0008695257201690004 0 0.0019043245540296665 0.0016554264057024094 0 0.0017219160619385155 0.0014929525660544475 0 0.0019909793804212621 0.0014216879966294995 0 0.0021488580199104683 0.0018049935133696794 0 0.0020563439488251269 0.001813468585033967 0 0.0021615932875609545 0.0019441108939825581 0 0.00199189030237846 0.0019452902500741974 0 0.0020563439488251269 0.001813468585033967 0 0.0020003554482695128 0.0018193341028312669 0 0.0018700202734128896 0.001965293615357782 0 0.0021231984574570924 0.0016992840255962136 0 0.0018391215350162338 0.0020122827403374491 0 0.00199189030237846 0.0019452902500741974 0 0.0020003554482695128 0.0018193341028312669 0 0.0019200611568419585 0.0019069109085164916 0 0.0019043245540296665 0.0016554264057024094 0 0.0022020148273863742 0.0015997426045425995 0 0.0019043245540296665 0.0016554264057024094 0 0.0022020148273863742 0.0015997426045425995 0 0.0019909793804212621 0.0014216879966294995 0 0.0019909793804212621 0.0014216879966294995 0 0.0022145637404195522 0.0013916602341643752 0 0.0021884228648214005 0.0012353595390509956 0 0.0022020148273863742 0.0015997426045425995 0 0.0019909793804212621 0.0014216879966294995 0 0.0022145637404195522 0.0013916602341643752 0 0.0022145637404195522 0.0013916602341643752 0 0.0021884228648214005 0.0012353595390509956 0 0.0024735403928392266 0.0013101725098721207 0 0.0021488580199104683 0.0018049935133696794 0 0.0020563439488251269 0.001813468585033967 0 0.0021762636555952069 0.0015956924914845392 0 0.0022020148273863742 0.0015997426045425995 0 0.0022145637404195522 0.0013916602341643752 0 0.0024735403928392266 0.0013101725098721207 0 0.0021231984574570924 0.0016992840255962136 0 0.0022108989984398297 0.0014682749222846372 0 0.0020563439488251269 0.001813468585033967 0 0.0020003554482695128 0.0018193341028312669 0 0.0021762636555952069 0.0015956924914845392 0 0.0018538168716080974 0.0014153858848521056 0 0.0020624171615873876 0.0012289171466338571 0 0.0021030487472150396 0.0014855938596693319 0 0.0019730355765931952 0.0013309706004235452 0 0.0022108989984398297 0.0014682749222846372 0 0.0019909793804212621 0.0014216879966294995 0 0.0021884228648214005 0.0012353595390509956 0 0.0018986924884187384 0.0011565065954393002 0 0.0019730355765931952 0.0013309706004235452 0 0.0021609893299474356 0.0008695257201690004 0 0.0021609893299474356 0.0008695257201690004 0 0.0020034917178059749 0.00067072602510394677 0 0.0018538168716080974 0.0014153858848521056 0 0.0016068720401548101 0.0013465393326153969 0 0.0017724073208233782 0.0010071449820550987 0 0.0018538168716080974 0.0014153858848521056 0 0.0020624171615873876 0.0012289171466338571 0 0.0017724073208233782 0.0010071449820550987 0 0.0024273340010528203 0.0006375410715628606 0 0.0026803036128768875 0.000798334985749087 0 0.0025866441364200371 0.00047070043011323968 0 0.0025112158373341072 0.0004033953030003553 0 0.0021609893299474356 0.0008695257201690004 0 0.0026803036128768875 0.000798334985749087 0 0.0025866441364200371 0.00047070043011323968 0 0.002807741068214885 0.00053263051883724408 0 0.0023132581179381158 0.00033665704050343473 0 0.0023133321294641399 0.00033745376318505176 0 0.0022990082870506601 0.00033151675973039818 0 0.0023298747903303572 0.00034228177613007443 0 0.0023132581179381158 0.00033665704050343473 0 0.0023133321294641399 0.00033745376318505176 0 0.0023298747903303572 0.00034228177613007443 0 0.0023133321294641399 0.00033745376318505176 0 0.0023349218290336098 0.0003450703308833949 0 0.0023133321294641399 0.00033745376318505176 0 0.0023349218290336098 0.0003450703308833949 0 0.0023211111862428062 0.00033716737291666926 0 0.003399235873060377 0.00054146529970650092 0 0.003394658811809715 0.00059095849109923337 0 0.0033309234113279452 0.00061415698046852281 0 0.002861833403959976 0.00047061456783339327 0 0.0027420067487818689 0.00027449006755262095 0 0.0034051541574058844 0.00055664287176545669 0 0.003399235873060377 0.00054146529970650092 0 0.003394658811809715 0.00059095849109923337 0 0.0022989069248614334 0.00032672061946332749 0 0.0022998904413154011 0.0003259723509984251 0 0.0022908574300852585 0.00032203376945020575 0 0.0023211111862428062 0.00033716737291666926 0 0.0022989069248614334 0.00032672061946332749 0 0.0022998904413154011 0.0003259723509984251 0 0.0023133321294641399 0.00033745376318505176 0 0.0022989069248614334 0.00032672061946332749 0 0.0022990082870506601 0.00033151675973039818 0 0.0023133321294641399 0.00033745376318505176 0 0.0023211111862428062 0.00033716737291666926 0 0.0022989069248614334 0.00032672061946332749 0 0.0020624171615873876 0.0012289171466338571 0 0.0017724073208233782 0.0010071449820550987 0 0.0021195305971865416 0.00095371428483373964 0 0.0017724073208233782 0.0010071449820550987 0 0.0019521713294134283 0.00064920440919548524 0 0.0021195305971865416 0.00095371428483373964 0 0.0022989069248614334 0.00032672061946332749 0 0.0022653782961907835 0.00030866678892759982 0 0.0022908574300852585 0.00032203376945020575 0 0.0020034917178059749 0.00067072602510394677 0 0.0021137650892235449 0.00048018141988836934 0 0.0022989069248614334 0.00032672061946332749 0 0.0022990082870506601 0.00033151675973039818 0 0.0022653782961907835 0.00030866678892759982 0 0.0022653782961907835 0.00030866678892759982 0 0.0022774078373630582 0.00031867024779464685 0 0.0022559882339259654 0.00032009200677001051 0 0.0022653782961907835 0.00030866678892759982 0 0.0022774078373630582 0.00031867024779464685 0 0.0022908574300852585 0.00032203376945020575 0 0.0022774078373630582 0.00031867024779464685 0 0.0022908574300852585 0.00032203376945020575 0 0.0022875479905143633 0.00032264482912090352 0 0.0022653782961907835 0.00030866678892759982 0 0.0022244368713992091 0.00032298098006774067 0 0.0022559882339259654 0.00032009200677001051 0 0.0021137650892235449 0.00048018141988836934 0 0.0021727396598717826 0.00033731492861857219 0 0.0022653782961907835 0.00030866678892759982 0 0.0022244368713992091 0.00032298098006774067 0 0.0021799792491260152 0.00032389995574575451 0 0.0022244368713992091 0.00032298098006774067 0 0.0022559882339259654 0.00032009200677001051 0 0.0022485415921153469 0.00033046641065493596 0 0.0022244368713992091 0.00032298098006774067 0 0.0022485415921153469 0.00033046641065493596 0 0.002194653559590469 0.00035063468651110047 0 0.0022244368713992091 0.00032298098006774067 0 0.0021799792491260152 0.00032389995574575451 0 0.002194653559590469 0.00035063468651110047 0 0.0022776213716094672 0.0003274203732137496 0 0.0022881196122523503 0.00032560220472846571 0 0.0022875479905143633 0.00032264482912090352 0 0.0022774078373630582 0.00031867024779464685 0 0.0022776213716094672 0.0003274203732137496 0 0.0022875479905143633 0.00032264482912090352 0 0.0022559882339259654 0.00032009200677001051 0 0.0022485415921153469 0.00033046641065493596 0 0.0022776213716094672 0.0003274203732137496 0 0.0022774078373630582 0.00031867024779464685 0 0.0022559882339259654 0.00032009200677001051 0 0.0022776213716094672 0.0003274203732137496 0 0.0022485415921153469 0.00033046641065493596 0 0.0022776213716094672 0.0003274203732137496 0 0.0022919002856959959 0.00034501576534951125 0 0.0024968095296047242 -3.6786622828053532e-06 0 0.0024715260401198466 0.00025404032529961784 0 0.0022919002856959959 0.00034501576534951125 0 0.0022776213716094672 0.0003274203732137496 0 0.0022881196122523503 0.00032560220472846571 0 0.0022919002856959959 0.00034501576534951125 0 0.0024006255535043101 0.0001499759540058067 0 0.0022968810632003128 0.00032613654803994658 0 0.0024968095296047242 -3.6786622828053532e-06 0 0.0024715260401198466 0.00025404032529961784 0 0.0026768979615982495 0.0002746595005024546 0 0.0024968095296047242 -3.6786622828053532e-06 0 0.0028173131921274898 -2.2266089048206187e-05 0 0.0026768979615982495 0.0002746595005024546 0 0.0031191983023022576 9.7650971709280641e-05 0 0.0028173131921274898 -2.2266089048206187e-05 0 0.0026768979615982495 0.0002746595005024546 0 0.0031545226036474271 4.8183194456905116e-05 0 0.0027138274828698086 0.00025447692777045108 0 0.0031191983023022576 9.7650971709280641e-05 0 0.0030052618418837957 -9.3489180625943224e-05 0 0.0028173131921274898 -2.2266089048206187e-05 0 0.0031558515331226666 -0.00020092416410712278 0 0.0031191983023022576 9.7650971709280641e-05 0 0.0030052618418837957 -9.3489180625943224e-05 0 0.0028173131921274898 -2.2266089048206187e-05 0 0.0029605559992621835 -0.00026449793294782889 0 0.0027178878774971379 -0.0003243371388832904 0 0.0030052618418837957 -9.3489180625943224e-05 0 0.0028173131921274898 -2.2266089048206187e-05 0 0.0029605559992621835 -0.00026449793294782889 0 0.0031558515331226666 -0.00020092416410712278 0 0.0030052618418837957 -9.3489180625943224e-05 0 0.0029605559992621835 -0.00026449793294782889 0 0.0031378051447947804 -0.00035203749299962613 0 0.0031558515331226666 -0.00020092416410712278 0 0.0029605559992621835 -0.00026449793294782889 0 0.0031378051447947804 -0.00035203749299962613 0 0.003034012410073401 -0.00048677205634014436 0 0.0029605559992621835 -0.00026449793294782889 0 0.003034012410073401 -0.00048677205634014436 0 0.0029605559992621835 -0.00026449793294782889 0 0.0027178878774971379 -0.0003243371388832904 0 0.0032643427617818558 3.2086436518487261e-05 0 0.0027420067487818689 0.00027449006755262095 0 0.0022998904413154011 0.0003259723509984251 0 0.0022908574300852585 0.00032203376945020575 0 0.0022955418381450442 0.00032375638846344562 0 0.0027420067487818689 0.00027449006755262095 0 0.0024918991209763328 0.00036158756105373078 0 0.0022908574300852585 0.00032203376945020575 0 0.0022875479905143633 0.00032264482912090352 0 0.0022955418381450442 0.00032375638846344562 0 0.0022881196122523503 0.00032560220472846571 0 0.0022875479905143633 0.00032264482912090352 0 0.0022955418381450442 0.00032375638846344562 0 0.0022881196122523503 0.00032560220472846571 0 0.0022997680775452447 0.000323572152906635 0 0.0022955418381450442 0.00032375638846344562 0 0.0024006255535043101 0.0001499759540058067 0 0.0027420067487818689 0.00027449006755262095 0 0.0024968095296047242 -3.6786622828053532e-06 0 0.0028173131921274898 -2.2266089048206187e-05 0 0.0027178878774971379 -0.0003243371388832904 0 0.0025987626189213752 0.00059331336147783957 0 0.0025315098356218594 0.00042116657689850781 0 0.0023906780026812374 0.00049742591330978133 0 0.0025987626189213752 0.00059331336147783957 0 0.0023906780026812374 0.00049742591330978133 0 0.0024819739827260769 0.000762784754149338 0 0.0025987626189213752 0.00059331336147783957 0 0.0027345874942756422 0.00045441760235470993 0 0.0025315098356218594 0.00042116657689850781 0 0.0028160185164786034 0.00064856346246064801 0 0.0027345874942756422 0.00045441760235470993 0 0.0030593838244713993 0.00049710504759282298 0 0.0025987626189213752 0.00059331336147783957 0 0.0028160185164786034 0.00064856346246064801 0 0.0027345874942756422 0.00045441760235470993 0 0.0027345874942756422 0.00045441760235470993 0 0.0028495576332637205 0.00027320065679075798 0 0.0030593838244713993 0.00049710504759282298 0 0.0027345874942756422 0.00045441760235470993 0 0.0028495576332637205 0.00027320065679075798 0 0.0025838043350441954 0.00023938092744735039 0 0.0027345874942756422 0.00045441760235470993 0 0.0025838043350441954 0.00023938092744735039 0 0.0025315098356218594 0.00042116657689850781 0 0.0025838043350441954 0.00023938092744735039 0 0.0025315098356218594 0.00042116657689850781 0 0.0023925363124543122 0.0003225515351975309 0 0.0025838043350441954 0.00023938092744735039 0 0.0023925363124543122 0.0003225515351975309 0 0.0024249410124526256 0.00014199644436979126 0 0.0023925363124543122 0.0003225515351975309 0 0.0022931808582248884 0.00037521024116573507 0 0.0022122915632431018 0.00029380607559713969 0 0.0023925363124543122 0.0003225515351975309 0 0.0022122915632431018 0.00029380607559713969 0 0.0022803984752154168 0.00012906869115926147 0 0.0022931808582248884 0.00037521024116573507 0 0.0022175109108198174 0.00044090336241409849 0 0.0023906780026812374 0.00049742591330978133 0 0.0023925363124543122 0.0003225515351975309 0 0.0022931808582248884 0.00037521024116573507 0 0.0023906780026812374 0.00049742591330978133 0 0.0025315098356218594 0.00042116657689850781 0 0.0023925363124543122 0.0003225515351975309 0 0.0023906780026812374 0.00049742591330978133 0 0.0021799792491260152 0.00032389995574575451 0 0.0022122915632431018 0.00029380607559713969 0 0.002194653559590469 0.00035063468651110047 0 0.0021799792491260152 0.00032389995574575451 0 0.0022122915632431018 0.00029380607559713969 0 0.0022175109108198174 0.00044090336241409849 0 0.0022931808582248884 0.00037521024116573507 0 0.0022122915632431018 0.00029380607559713969 0 0.0022175109108198174 0.00044090336241409849 0 0.0019521713294134283 0.00064920440919548524 0 0.0021799792491260152 0.00032389995574575451 0 0.0022175109108198174 0.00044090336241409849 0 0.0019521713294134283 0.00064920440919548524 0 0.0022175109108198174 0.00044090336241409849 0 0.0022179468481037766 0.00058615553570242913 0 0.0022175109108198174 0.00044090336241409849 0 0.0022179468481037766 0.00058615553570242913 0 0.0023906780026812374 0.00049742591330978133 0 0.0022179468481037766 0.00058615553570242913 0 0.0023906780026812374 0.00049742591330978133 0 0.0022934358180347085 0.0007744464119904753 0 0.0023906780026812374 0.00049742591330978133 0 0.0022934358180347085 0.0007744464119904753 0 0.0024819739827260769 0.000762784754149338 0 0.0022934358180347085 0.0007744464119904753 0 0.002396186997360552 0.00095285652025498219 0 0.0024819739827260769 0.000762784754149338 0 0.0019521713294134283 0.00064920440919548524 0 0.0022934358180347085 0.0007744464119904753 0 0.0021195305971865416 0.00095371428483373964 0 0.0019521713294134283 0.00064920440919548524 0 0.0022179468481037766 0.00058615553570242913 0 0.0022934358180347085 0.0007744464119904753 0 0.0022934358180347085 0.0007744464119904753 0 0.0021195305971865416 0.00095371428483373964 0 0.002396186997360552 0.00095285652025498219 0 0.0021195305971865416 0.00095371428483373964 0 0.002396186997360552 0.00095285652025498219 0 0.0022989082704065337 0.0011613193581732138 0 0.002396186997360552 0.00095285652025498219 0 0.0026904815190747851 0.00094563206303740761 0 0.0025162917129418522 0.0011315563957958064 0 0.002396186997360552 0.00095285652025498219 0 0.0024819739827260769 0.000762784754149338 0 0.0026904815190747851 0.00094563206303740761 0 0.0026904815190747851 0.00094563206303740761 0 0.0026801622141055981 0.0011200409271676672 0 0.0025162917129418522 0.0011315563957958064 0 0.0024819739827260769 0.000762784754149338 0 0.0026825305548753143 0.00075163559657362574 0 0.0026904815190747851 0.00094563206303740761 0 0.0025987626189213752 0.00059331336147783957 0 0.0024819739827260769 0.000762784754149338 0 0.0026825305548753143 0.00075163559657362574 0 0.0025987626189213752 0.00059331336147783957 0 0.0028160185164786034 0.00064856346246064801 0 0.0026825305548753143 0.00075163559657362574 0 0.0028160185164786034 0.00064856346246064801 0 0.0028269796547039207 0.0008085403853759363 0 0.0030026319909765664 0.00072038921658178711 0 0.0028160185164786034 0.00064856346246064801 0 0.0026825305548753143 0.00075163559657362574 0 0.0028269796547039207 0.0008085403853759363 0 0.0026825305548753143 0.00075163559657362574 0 0.0028269796547039207 0.0008085403853759363 0 0.0026904815190747851 0.00094563206303740761 0 0.0026904815190747851 0.00094563206303740761 0 0.0028499200917734657 0.0011748420266301373 0 0.0029837224292384515 0.00095231471382309905 0 0.0028269796547039207 0.0008085403853759363 0 0.0026904815190747851 0.00094563206303740761 0 0.0029837224292384515 0.00095231471382309905 0 0.0026904815190747851 0.00094563206303740761 0 0.0028499200917734657 0.0011748420266301373 0 0.0026801622141055981 0.0011200409271676672 0 0.0028499200917734657 0.0011748420266301373 0 0.0026801622141055981 0.0011200409271676672 0 0.002667144493167491 0.001265354255039465 0 0.0026801622141055981 0.0011200409271676672 0 0.0025162917129418522 0.0011315563957958064 0 0.002667144493167491 0.001265354255039465 0 0.0025162917129418522 0.0011315563957958064 0 0.002667144493167491 0.001265354255039465 0 0.0024857415265492197 0.0013586873963624367 0 0.002667144493167491 0.001265354255039465 0 0.0027550636160544994 0.0015139521558192514 0 0.0024857415265492197 0.0013586873963624367 0 0.0027550636160544994 0.0015139521558192514 0 0.0024857415265492197 0.0013586873963624367 0 0.0024759419658046903 0.0016328620720227689 0 0.0028436376516120516 0.0011983942771609938 0 0.0027191677800296782 0.0015331343969173345 0 0.0028499200917734657 0.0011748420266301373 0 0.0026806625573939803 0.0015586823671763462 0 0.003032607419186453 0.0014907149281288478 0 0.0028499200917734657 0.0011748420266301373 0 0.002667144493167491 0.001265354255039465 0 0.0027550636160544994 0.0015139521558192514 0 0.0020624171615873876 0.0012289171466338571 0 0.0022989082704065337 0.0011613193581732138 0 0.0022336718786211784 0.0013568570556701217 0 0.0020624171615873876 0.0012289171466338571 0 0.0021195305971865416 0.00095371428483373964 0 0.0022989082704065337 0.0011613193581732138 0 0.0025162917129418522 0.0011315563957958064 0 0.0022989082704065337 0.0011613193581732138 0 0.0024857415265492197 0.0013586873963624367 0 0.002396186997360552 0.00095285652025498219 0 0.0025162917129418522 0.0011315563957958064 0 0.0022989082704065337 0.0011613193581732138 0 0.0024857415265492197 0.0013586873963624367 0 0.0022336718786211784 0.0013568570556701217 0 0.0024759419658046903 0.0016328620720227689 0 0.0022989082704065337 0.0011613193581732138 0 0.0024857415265492197 0.0013586873963624367 0 0.0022336718786211784 0.0013568570556701217 0 0.0020624171615873876 0.0012289171466338571 0 0.0022336718786211784 0.0013568570556701217 0 0.0021030487472150396 0.0014855938596693319 0 0.0022336718786211784 0.0013568570556701217 0 0.0020742686536479008 0.0015227234660529596 0 0.0024759419658046903 0.0016328620720227689 0 0.0021958441218641431 0.0014047425743915394 0 0.0022108989984398297 0.0014682749222846372 0 0.0021488580199104683 0.0018049935133696794 0 0.0021762636555952069 0.0015956924914845392 0 0.0022310178726130891 0.0018013216415354021 0 0.0021762636555952069 0.0015956924914845392 0 0.0023779082865683279 0.0017866179127334033 0 0.0022310178726130891 0.0018013216415354021 0 0.0022108989984398297 0.0014682749222846372 0 0.0024296561234576994 0.0016512576924753331 0 0.0021762636555952069 0.0015956924914845392 0 0.0024759419658046903 0.0016328620720227689 0 0.0023779082865683279 0.0017866179127334033 0 0.0024759419658046903 0.0016328620720227689 0 0.0023779082865683279 0.0017866179127334033 0 0.0026318448973569647 0.0018688414277199727 0 0.0024548533593880461 0.001963917775859188 0 0.0023779082865683279 0.0017866179127334033 0 0.0026318448973569647 0.0018688414277199727 0 0.0024548533593880461 0.001963917775859188 0 0.0023779082865683279 0.0017866179127334033 0 0.0023184200514479339 0.0019204717661852743 0 0.0023779082865683279 0.0017866179127334033 0 0.0023184200514479339 0.0019204717661852743 0 0.0022310178726130891 0.0018013216415354021 0 0.0023184200514479339 0.0019204717661852743 0 0.0021615932875609545 0.0019441108939825581 0 0.0022310178726130891 0.0018013216415354021 0 0.0021488580199104683 0.0018049935133696794 0 0.0021615932875609545 0.0019441108939825581 0 0.0022310178726130891 0.0018013216415354021 0 0.0026806625573939803 0.0015586823671763462 0 0.0025546246677195456 0.0019120653430976728 0 0.0028092158597611142 0.0018868355561603284 0 0.0026806625573939803 0.0015586823671763462 0 0.0028092158597611142 0.0018868355561603284 0 0.0029099695617451466 0.0017031846240337888 0 0.0027550636160544994 0.0015139521558192514 0 0.0024759419658046903 0.0016328620720227689 0 0.0026318448973569647 0.0018688414277199727 0 0.0027191677800296782 0.0015331343969173345 0 0.0025933036331478036 0.0018898808240478773 0 0.0026774261260206862 0.0021384779590813883 0 0.0025546246677195456 0.0019120653430976728 0 0.0028092158597611142 0.0018868355561603284 0 0.0028638871861925092 0.0020726528877318432 0 0.0028092158597611142 0.0018868355561603284 0 0.0031133760943651279 0.0018688052994521914 0 0.0028092158597611142 0.0018868355561603284 0 0.0029099695617451466 0.0017031846240337888 0 0.0031133760943651279 0.0018688052994521914 0 0.0026806625573939803 0.0015586823671763462 0 0.0029099695617451466 0.0017031846240337888 0 0.003032607419186453 0.0014907149281288478 0 0.0029099695617451466 0.0017031846240337888 0 0.0031133760943651279 0.0018688052994521914 0 0.003032607419186453 0.0014907149281288478 0 0.0031133760943651279 0.0018688052994521914 0 0.00338946677835881 0.001509058907537438 0 0.003032607419186453 0.0014907149281288478 0 0.003039616919769048 0.0022321204087322106 0 0.0031133760943651279 0.0018688052994521914 0 0.0034210970035619291 0.0019444470132889619 0 0.0024476630875949453 0.0022633618806812963 0 0.0014768527265690235 0.0025465291831170897 0 0.0012172219868070463 0.002964607519990128 0 0.0012620769759505517 0.0029777113333933269 0 0.001223474611898766 0.0030012060775492081 0 0.0012172219868070463 0.002964607519990128 0 0.001223474611898766 0.0030012060775492081 0 0.001168379537390179 0.0029834092048919695 0 0.0018555587277442774 0.0019959537071554167 0 0.0017634044866320904 0.0018905798596785721 0 0.0018573629230328153 0.0018691884389258381 0 0.0018555587277442774 0.0019959537071554167 0 0.0018573629230328153 0.0018691884389258381 0 0.0019326566826951492 0.0019329325377232978 0 0.0014768527265690235 0.0025465291831170897 0 0.0010354946117455857 0.0024888644869094463 0 0.0024476630875949453 0.0022633618806812963 0 0.0026173199794196638 0.0016933649321112221 0 0.0031133760943651279 0.0018688052994521914 0 0.0034210970035619291 0.0019444470132889619 0 0.00338946677835881 0.001509058907537438 0 0.0017790693410475126 0.0020602977663750246 0 0.0018555587277442774 0.0019959537071554167 0 0.0017634044866320904 0.0018905798596785721 0 0.0012527799347279388 0.0014610997357287978 0 0.0010354946117455857 0.0024888644869094463 0 0.0018573629230328153 0.0018691884389258381 0 0.0018717016548685545 0.0017660712851544367 0 0.0019326566826951492 0.0019329325377232978 0 0.0017634044866320904 0.0018905798596785721 0 0.0018573629230328153 0.0018691884389258381 0 0.0018717016548685545 0.0017660712851544367 0 0.0012527799347279388 0.0014610997357287978 0 0.0011437339731329938 0.00086179603980190229 0 0.0012292518858583686 0.00097855717970321294 0 0.0012806218519395536 0.00094063919400013362 0 0.0012089527205851138 0.00092052932755277333 0 0.0017634044866320904 0.0018905798596785721 0 0.0018717016548685545 0.0017660712851544367 0 0.0017526008013439992 0.001717385878248097 0 0.0012527799347279388 0.0014610997357287978 0 0.002393837955217473 0.0011871107728205442 0 0.001246376958969392 0.0010088602399797289 0 0.0011002965509088549 0.00096810804264578314 0 0.0012089527205851138 0.00092052932755277333 0 0.0026173199794196638 0.0016933649321112221 0 0.002393837955217473 0.0011871107728205442 0 0.0033597683617468451 0.0010987244863181799 0 0.0031162139790643886 0.0012227281377545228 0 0.0029837224292384515 0.00095231471382309905 0 0.00338946677835881 0.001509058907537438 0 0.0033597683617468451 0.0010987244863181799 0 0.0031162139790643886 0.0012227281377545228 0 0.0028499200917734657 0.0011748420266301373 0 0.0031162139790643886 0.0012227281377545228 0 0.0029837224292384515 0.00095231471382309905 0 0.0028499200917734657 0.0011748420266301373 0 0.0031162139790643886 0.0012227281377545228 0 0.003032607419186453 0.0014907149281288478 0 0.00338946677835881 0.001509058907537438 0 0.0031162139790643886 0.0012227281377545228 0 0.003032607419186453 0.0014907149281288478 0 -0.0011823773478090475 0.0030384141760827874 0 -0.00090350627927535576 0.0028074847222143975 0 -0.00054692536415797631 0.0028029303547376159 0 -0.00038088713714024827 0.0028001447771959257 0 -0.00047152190686667109 0.0030453184169462687 0 -0.00069961303135968977 0.0029679772173376801 0 -0.00054692536415797631 0.0028029303547376159 0 -0.00047152190686667109 0.0030453184169462687 0 -0.0010936765682005261 0.0035074832601549632 0 -0.00098702537891255139 0.0033923071195165371 0 -0.0010428845847821563 0.0033728353908834413 0 -0.0011823773478090475 0.0030384141760827874 0 -0.00071972823548550446 0.0030404176155015973 0 -0.00098702537891255139 0.0033923071195165371 0 -0.0010428845847821563 0.0033728353908834413 0 -0.00087953413241350796 0.0032804556789209479 0 -0.0011460348978782238 0.0038713041057197388 0 -0.00076173376318012609 0.0034516495106942631 0 -0.001137327771635988 0.0042320507939751584 0 -0.0011374582180749496 0.0042653287126840547 0 -0.0011012907342123875 0.0042529935243304081 0 -0.00071972823548550446 0.0030404176155015973 0 -0.00076173376318012609 0.0034516495106942631 0 -0.00054692536415797631 0.0028029303547376159 0 -0.00039466723093842075 0.002645448117873244 0 -0.00038088713714024827 0.0028001447771959257 0 -0.00039466723093842075 0.002645448117873244 0 -0.0002427756718249232 0.0026917846552682715 0 -0.00038088713714024827 0.0028001447771959257 0 -0.0002427756718249232 0.0026917846552682715 0 -0.00038088713714024827 0.0028001447771959257 0 -0.0001431117350481967 0.0028277315631549046 0 -0.00032425659606446708 0.0030356074000776096 0 -0.00076173376318012609 0.0034516495106942631 0 -0.0002148856267305249 0.0025476186347071208 0 -0.00039466723093842075 0.002645448117873244 0 -0.0002427756718249232 0.0026917846552682715 0 -0.00013093263750432242 0.0029631650806884878 0 -0.00049986105070100133 0.0027186481798789444 0 -0.00030585724389133289 0.0029408260733451074 0 -0.00038088713714024827 0.0028001447771959257 0 -0.00047152190686667109 0.0030453184169462687 0 -0.00030585724389133289 0.0029408260733451074 0 -0.00038088713714024827 0.0028001447771959257 0 -0.0001431117350481967 0.0028277315631549046 0 -0.00030585724389133289 0.0029408260733451074 0 -0.0001431117350481967 0.0028277315631549046 0 -0.00024543014074960201 0.0031241609093473417 0 -4.4844025879108968e-05 0.0029328703359226761 0 -0.0001431117350481967 0.0028277315631549046 0 -0.0002158746606939059 0.0030591085511272563 0 -4.4844025879108968e-05 0.0029328703359226761 0 -0.0001431117350481967 0.0028277315631549046 0 5.3911175619131026e-05 0.0026967922849655173 0 -4.586729892317579e-05 0.0024523618706163478 0 -0.00010960852610432643 0.0026430193738940086 0 5.3911175619131026e-05 0.0026967922849655173 0 -0.0001431117350481967 0.0028277315631549046 0 -0.00010960852610432643 0.0026430193738940086 0 5.3911175619131026e-05 0.0026967922849655173 0 -0.0002427756718249232 0.0026917846552682715 0 -0.0001431117350481967 0.0028277315631549046 0 -0.00010960852610432643 0.0026430193738940086 0 -0.0002148856267305249 0.0025476186347071208 0 -0.0002427756718249232 0.0026917846552682715 0 -0.00010960852610432643 0.0026430193738940086 0 0.001223474611898766 0.0030012060775492081 0 0.001168379537390179 0.0029834092048919695 0 0.0011891190526739902 0.0030217533056709884 0 -4.4844025879108968e-05 0.0029328703359226761 0 5.3911175619131026e-05 0.0026967922849655173 0 0.00014925733506159267 0.0029252932021159011 0 0.0006047294043965008 0.00286617865856819 0 0.0010354946117455857 0.0024888644869094463 0 0.00088490655250234745 0.0019711915083897203 0 0.00084738746613495801 0.0018951116200578478 0 0.000800919049169887 0.0019467809237993317 0 0.00084738746613495801 0.0018951116200578478 0 0.000800919049169887 0.0019467809237993317 0 0.00079701621956223233 0.0019323782485029281 0 0.0010354946117455857 0.0024888644869094463 0 5.775221386562356e-05 0.0021272279156237263 0 0.0012806218519395536 0.00094063919400013362 0 0.001340420646671929 0.00093988649089480659 0 0.0013523426819481961 0.0010298207639889913 0 0.0012292518858583686 0.00097855717970321294 0 0.0012806218519395536 0.00094063919400013362 0 0.0013523426819481961 0.0010298207639889913 0 0.0012527799347279388 0.0014610997357287978 0 0.00076123699610552628 0.001569801141107757 0 -1.6017808024940234e-05 0.0014577674649155345 0 -1.9500063723306366e-05 0.0015161407277612241 0 5.0313942099038353e-05 0.0014579492923683724 0 -1.6017808024940234e-05 0.0014577674649155345 0 -1.9500063723306366e-05 0.0015161407277612241 0 -4.6236655658784694e-05 0.0015056729331866931 0 -6.1011830304906002e-05 0.0014239634912935843 0 -1.6017808024940234e-05 0.0014577674649155345 0 -4.6236655658784694e-05 0.0015056729331866931 0 0.00063686882321904953 0.0011691891611193849 0 0.00076123699610552628 0.001569801141107757 0 -6.1011830304906002e-05 0.0014239634912935843 0 -1.6017808024940234e-05 0.0014577674649155345 0 -9.7795034596576132e-07 0.0013925295392517567 0 -4.4844025879108968e-05 0.0029328703359226761 0 0.00014925733506159267 0.0029252932021159011 0 -9.4112262784382589e-05 0.0031018453692116866 0 5.775221386562356e-05 0.0021272279156237263 0 -0.00049986105070100133 0.0027186481798789444 0 0.00084738746613495801 0.0018951116200578478 0 0.0007800524657686482 0.0019400327820337957 0 0.00079701621956223233 0.0019323782485029281 0 0.0007800524657686482 0.0019400327820337957 0 0.00079892139684628171 0.0019454028374326076 0 0.00079701621956223233 0.0019323782485029281 0 5.775221386562356e-05 0.0021272279156237263 0 0.00076123699610552628 0.001569801141107757 0 0.00076123699610552628 0.001569801141107757 0 0.0007948431488369194 0.0017831446964756436 0 -4.4844025879108968e-05 0.0029328703359226761 0 -9.4112262784382589e-05 0.0031018453692116866 0 -0.0002158746606939059 0.0030591085511272563 0 -0.0012980374512529356 0.0025766126093027517 0 -0.001299422771090856 0.0025742531707372705 0 -0.0012973994119074253 0.0025816559225401454 0 -0.00035606321194551316 0.0022197766062744214 0 -0.00039446017149132289 0.0022073194927998015 0 -0.00041508019548063831 0.0022604610562515131 0 -0.00030585724389133289 0.0029408260733451074 0 -0.00024543014074960201 0.0031241609093473417 0 -0.00047152190686667109 0.0030453184169462687 0 -0.00049986105070100133 0.0027186481798789444 0 -0.00090350627927535576 0.0028074847222143975 0 5.775221386562356e-05 0.0021272279156237263 0 -0.00065084705759264579 0.0019673716820879108 0 -0.00049986105070100133 0.0027186481798789444 0 -0.00065084705759264579 0.0019673716820879108 0 -0.0012980374512529356 0.0025766126093027517 0 -0.0013005433014908932 0.0025680108895034517 0 -0.001299422771090856 0.0025742531707372705 0 -1.6017808024940234e-05 0.0014577674649155345 0 5.0313942099038353e-05 0.0014579492923683724 0 -9.7795034596576132e-07 0.0013925295392517567 0 -0.0012958136567895963 0.0025767920924720613 0 -0.001299422771090856 0.0025742531707372705 0 -0.0013073034899827951 0.002552280916146375 0 -0.0013005433014908932 0.0025680108895034517 0 -0.001299422771090856 0.0025742531707372705 0 -0.0013073034899827951 0.002552280916146375 0 -0.0012924771549734074 0.0025887115936309695 0 -0.0012958136567895963 0.0025767920924720613 0 -0.0012973994119074253 0.0025816559225401454 0 -0.0012958136567895963 0.0025767920924720613 0 -0.001299422771090856 0.0025742531707372705 0 -0.0012973994119074253 0.0025816559225401454 0 -0.00067205292142203169 0.001477398548398266 0 -0.00082651291832119736 0.0015685602418277923 0 -0.00077243014120498418 0.0014073916743710174 0 -0.00036924162671115549 0.0014682599272591559 0 -0.0001765483984061872 0.00093756352665785609 0 -0.00067205292142203169 0.001477398548398266 0 -0.00071383667720119174 0.00159803437560841 0 -0.00082651291832119736 0.0015685602418277923 0 -0.00065084705759264579 0.0019673716820879108 0 -0.0011032217419098662 0.0021284035138868966 0 -0.00087764067623142118 0.0017326016193051849 0 -0.00071383667720119174 0.00159803437560841 0 -0.00082651291832119736 0.0015685602418277923 0 7.9426709417026827e-05 0.0013638523690268156 0 1.6292514578365577e-05 0.0013091800122356902 0 -9.7795034596576132e-07 0.0013925295392517567 0 5.0313942099038353e-05 0.0014579492923683724 0 7.9426709417026827e-05 0.0013638523690268156 0 -9.7795034596576132e-07 0.0013925295392517567 0 -0.00065084705759264579 0.0019673716820879108 0 -0.00036924162671115549 0.0014682599272591559 0 1.9391220490220968e-05 0.00081814560377900666 0 -0.0001765483984061872 0.00093756352665785609 0 7.3050436570899074e-05 0.00034423196797270066 0 2.2596704108037932e-05 0.00036515404060609137 0 6.3262533655383767e-07 0.00036615250717399785 0 7.3050436570899074e-05 0.00034423196797270066 0 9.1812150683768029e-05 0.00038973046205928208 0 2.2596704108037932e-05 0.00036515404060609137 0 7.9426709417026827e-05 0.0013638523690268156 0 1.6292514578365577e-05 0.0013091800122356902 0 0.00010701484832443058 0.0012710063553546609 0 1.9391220490220968e-05 0.00081814560377900666 0 0.00045619216430224088 0.00088275377477668715 0 1.6292514578365577e-05 0.0013091800122356902 0 -9.7795034596576132e-07 0.0013925295392517567 0 -7.3740999817094861e-05 0.0013442373577373357 0 7.3050436570899074e-05 0.00034423196797270066 0 0.00013244729297889511 0.00037128647611499121 0 0.00016825216860098644 0.00031376740989904603 0 7.3050436570899074e-05 0.00034423196797270066 0 0.00013244729297889511 0.00037128647611499121 0 9.1812150683768029e-05 0.00038973046205928208 0 -6.1011830304906002e-05 0.0014239634912935843 0 -9.7795034596576132e-07 0.0013925295392517567 0 -7.3740999817094861e-05 0.0013442373577373357 0 0.00063686882321904953 0.0011691891611193849 0 0.00045619216430224088 0.00088275377477668715 0 0.001340420646671929 0.00093988649089480659 0 0.0013013415710261961 0.00089484138838635764 0 0.0013265515404318154 0.00084473976380333141 0 0.0013013415710261961 0.00089484138838635764 0 0.0013151707931672624 0.00084908142453194216 0 0.0013265515404318154 0.00084473976380333141 0 0.0012806218519395536 0.00094063919400013362 0 0.001340420646671929 0.00093988649089480659 0 0.0013013415710261961 0.00089484138838635764 0 0.0012806218519395536 0.00094063919400013362 0 0.0013013415710261961 0.00089484138838635764 0 0.0012562020370556399 0.000879986584785106 0 0.0013013415710261961 0.00089484138838635764 0 0.0012872422837621495 0.00086645827787822235 0 0.0012562020370556399 0.000879986584785106 0 0.0013013415710261961 0.00089484138838635764 0 0.0012872422837621495 0.00086645827787822235 0 0.0013151707931672624 0.00084908142453194216 0 0.0012872422837621495 0.00086645827787822235 0 0.0012808184227877178 0.00083561176786713359 0 0.0013151707931672624 0.00084908142453194216 0 0.0012872422837621495 0.00086645827787822235 0 0.0012808184227877178 0.00083561176786713359 0 0.0012562020370556399 0.000879986584785106 0 0.0012808184227877178 0.00083561176786713359 0 0.0013269251292389603 0.00084396140091137881 0 0.0012668487538180398 0.00077464372660053158 0 0.0013269251292389603 0.00084396140091137881 0 0.0012668487538180398 0.00077464372660053158 0 0.0013025020235167568 0.00070854443587859274 0 0.00045619216430224088 0.00088275377477668715 0 0.00073913862559625088 0.0005147533005804046 0 0.00013244729297889511 0.00037128647611499121 0 0.00016825216860098644 0.00031376740989904603 0 0.0001867461357346438 0.00040860973462069505 0 0.0012808184227877178 0.00083561176786713359 0 0.0013151707931672624 0.00084908142453194216 0 0.0013269251292389603 0.00084396140091137881 0 0.000607259730580815 0.0008409652419927462 0 0.00045619216430224088 0.00088275377477668715 0 0.0001867461357346438 0.00040860973462069505 0 0.00016292981346144157 0.00046036835727922878 0 0.00013584862229825288 0.00041646984299872349 0 0.00073913862559625088 0.0005147533005804046 0 0.001043687088590887 0.00045268913748438335 0 0.0001867461357346438 0.00040860973462069505 0 0.00016292981346144157 0.00046036835727922878 0 0.00020737580917791932 0.00049951528269857111 0 -2.4025040992581353e-05 0.00034630926629145633 0 -1.7127054834207061e-05 0.00030352893424705234 0 -5.4591378694609592e-05 0.00026662068366407172 0 0.00016292981346144157 0.00046036835727922878 0 0.00010075290998630679 0.00046193136843051755 0 0.00013584862229825288 0.00041646984299872349 0 0.00016292981346144157 0.00046036835727922878 0 0.00010075290998630679 0.00046193136843051755 0 0.00018084001555078997 0.00054503954567858715 0 0.00010075290998630679 0.00046193136843051755 0 0.00013584862229825288 0.00041646984299872349 0 9.1812150683768029e-05 0.00038973046205928208 0 0.00013244729297889511 0.00037128647611499121 0 0.00013584862229825288 0.00041646984299872349 0 9.1812150683768029e-05 0.00038973046205928208 0 0.00013244729297889511 0.00037128647611499121 0 0.0001867461357346438 0.00040860973462069505 0 0.00013584862229825288 0.00041646984299872349 0 0.00010075290998630679 0.00046193136843051755 0 9.1812150683768029e-05 0.00038973046205928208 0 2.2596704108037932e-05 0.00036515404060609137 0 1.3474254088130471e-06 0.00045307674746174225 0 2.9599065618534795e-05 0.00035188614689618568 0 -2.4025040992581353e-05 0.00034630926629145633 0 2.2596704108037932e-05 0.00036515404060609137 0 1.1492032504790194e-06 0.0003488633776729645 0 2.2596704108037932e-05 0.00036515404060609137 0 1.1492032504790194e-06 0.0003488633776729645 0 9.3403695492084005e-06 0.00035556700245076284 0 -2.4025040992581353e-05 0.00034630926629145633 0 -5.0274477365388128e-06 0.00033084084690629271 0 1.1492032504790194e-06 0.0003488633776729645 0 -2.4025040992581353e-05 0.00034630926629145633 0 -5.0274477365388128e-06 0.00033084084690629271 0 -1.7127054834207061e-05 0.00030352893424705234 0 -5.0274477365388128e-06 0.00033084084690629271 0 3.4957500623601063e-06 0.00032217666750044882 0 -1.7127054834207061e-05 0.00030352893424705234 0 -5.0274477365388128e-06 0.00033084084690629271 0 4.3639866692437887e-06 0.00033666558155927219 0 3.4957500623601063e-06 0.00032217666750044882 0 4.3639866692437887e-06 0.00033666558155927219 0 1.1492032504790194e-06 0.0003488633776729645 0 9.3403695492084005e-06 0.00035556700245076284 0 -5.0274477365388128e-06 0.00033084084690629271 0 4.3639866692437887e-06 0.00033666558155927219 0 1.1492032504790194e-06 0.0003488633776729645 0 4.3639866692437887e-06 0.00033666558155927219 0 1.0770880315091485e-05 0.00034498830718934309 0 1.4068821868277678e-05 0.00033446800122525534 0 4.3639866692437887e-06 0.00033666558155927219 0 1.0770880315091485e-05 0.00034498830718934309 0 9.3403695492084005e-06 0.00035556700245076284 0 4.3639866692437887e-06 0.00033666558155927219 0 1.4068821868277678e-05 0.00033446800122525534 0 3.4957500623601063e-06 0.00032217666750044882 0 1.0770880315091485e-05 0.00034498830718934309 0 1.4068821868277678e-05 0.00033446800122525534 0 1.3551765719271819e-05 0.00035235844466565628 0 2.5544357998312535e-05 0.00033828876777500775 0 1.4068821868277678e-05 0.00033446800122525534 0 1.3551765719271819e-05 0.00035235844466565628 0 1.3551765719271819e-05 0.00035235844466565628 0 9.3403695492084005e-06 0.00035556700245076284 0 6.3262533655383767e-07 0.00036615250717399785 0 1.0770880315091485e-05 0.00034498830718934309 0 1.3551765719271819e-05 0.00035235844466565628 0 9.3403695492084005e-06 0.00035556700245076284 0 2.2596704108037932e-05 0.00036515404060609137 0 9.3403695492084005e-06 0.00035556700245076284 0 6.3262533655383767e-07 0.00036615250717399785 0 6.1375610832381584e-05 0.00020913052950885909 0 -0.0001765483984061872 0.00093756352665785609 0 0.0030026319909765664 0.00072038921658178711 0 0.0029837224292384515 0.00095231471382309905 0 0.0033081535015763697 0.00067101459976364863 0 0.0028269796547039207 0.0008085403853759363 0 0.0030026319909765664 0.00072038921658178711 0 0.0029837224292384515 0.00095231471382309905 0 0.0033289253880987597 0.0010731752067679775 0 0.0029837224292384515 0.00095231471382309905 0 0.0033081535015763697 0.00067101459976364863 0 0.002393837955217473 0.0011871107728205442 0 0.003388261514175052 0.00097940955505783659 0 0.0011002965509088549 0.00096810804264578314 0 0.0011192855357933591 0.00085519744461239446 0 0.0012089527205851138 0.00092052932755277333 0 0.0011002965509088549 0.00096810804264578314 0 0.0011192855357933591 0.00085519744461239446 0 0.0010828377796983351 0.00067352017999930056 0 0.002393837955217473 0.0011871107728205442 0 0.0021601409016525769 0.00061729947180267644 0 0.0011192855357933591 0.00085519744461239446 0 0.0012089527205851138 0.00092052932755277333 0 0.0011974414129151294 0.00083905180848737508 0 0.0012806218519395536 0.00094063919400013362 0 0.0012089527205851138 0.00092052932755277333 0 0.0012562020370556399 0.000879986584785106 0 0.0012089527205851138 0.00092052932755277333 0 0.0012562020370556399 0.000879986584785106 0 0.0011974414129151294 0.00083905180848737508 0 0.0012350788485199935 0.0008098998086772816 0 0.0011974414129151294 0.00083905180848737508 0 0.0011996086854609105 0.00072381341442698342 0 0.0012808184227877178 0.00083561176786713359 0 0.0012668487538180398 0.00077464372660053158 0 0.0012350788485199935 0.0008098998086772816 0 0.0012808184227877178 0.00083561176786713359 0 0.0012562020370556399 0.000879986584785106 0 0.0012350788485199935 0.0008098998086772816 0 0.0012562020370556399 0.000879986584785106 0 0.0012350788485199935 0.0008098998086772816 0 0.0011974414129151294 0.00083905180848737508 0 0.0012668487538180398 0.00077464372660053158 0 0.0012350788485199935 0.0008098998086772816 0 0.0011996086854609105 0.00072381341442698342 0 0.0011192855357933591 0.00085519744461239446 0 0.0010828377796983351 0.00067352017999930056 0 0.0012812285543166366 0.00058367664380476784 0 0.0011075087658708707 0.00085665196821454309 0 0.0012911950124639511 0.00063874897804946636 0 0.0011192855357933591 0.00085519744461239446 0 0.0011974414129151294 0.00083905180848737508 0 0.0011996086854609105 0.00072381341442698342 0 0.0010828377796983351 0.00067352017999930056 0 0.0012812285543166366 0.00058367664380476784 0 0.0010583850577840326 0.00033843800568562855 0 0.0012668487538180398 0.00077464372660053158 0 0.0013025020235167568 0.00070854443587859274 0 0.0011996086854609105 0.00072381341442698342 0 0.0012911950124639511 0.00063874897804946636 0 0.001043687088590887 0.00045268913748438335 0 0.0012812285543166366 0.00058367664380476784 0 0.0012748297008958358 0.00031100947786286159 0 0.0014272553487966516 0.00029589066410608045 0 0.0013025020235167568 0.00070854443587859274 0 0.0011996086854609105 0.00072381341442698342 0 0.001275114723879282 0.00057573986852323068 0 0.0012812285543166366 0.00058367664380476784 0 0.0012748297008958358 0.00031100947786286159 0 0.0010583850577840326 0.00033843800568562855 0 0.0032809066637908453 0.00025050282821078234 0 0.0030436167676266158 0.00027792053625551365 0 0.0031139980467918106 0.00013363450837276228 0 0.0032809066637908453 0.00025050282821078234 0 0.0030593838244713993 0.00049710504759282298 0 0.0030436167676266158 0.00027792053625551365 0 0.0033081535015763697 0.00067101459976364863 0 0.0032809066637908453 0.00025050282821078234 0 0.0030593838244713993 0.00049710504759282298 0 0.0021601409016525769 0.00061729947180267644 0 0.0022240348138303232 0.00036836901859633699 0 0.0030026319909765664 0.00072038921658178711 0 0.0033081535015763697 0.00067101459976364863 0 0.0030593838244713993 0.00049710504759282298 0 0.0028160185164786034 0.00064856346246064801 0 0.0030026319909765664 0.00072038921658178711 0 0.0030593838244713993 0.00049710504759282298 0 0.0028495576332637205 0.00027320065679075798 0 0.0030593838244713993 0.00049710504759282298 0 0.0030436167676266158 0.00027792053625551365 0 0.0028495576332637205 0.00027320065679075798 0 0.0030436167676266158 0.00027792053625551365 0 0.0029501124266065742 0.0001083842078418875 0 0.0030436167676266158 0.00027792053625551365 0 0.0029501124266065742 0.0001083842078418875 0 0.0031139980467918106 0.00013363450837276228 0 0.0029501124266065742 0.0001083842078418875 0 0.0030692780867969129 -3.8669762967788353e-05 0 0.0031139980467918106 0.00013363450837276228 0 0.0029501124266065742 0.0001083842078418875 0 0.0028933926299442025 -8.0095916327952289e-05 0 0.0030692780867969129 -3.8669762967788353e-05 0 0.0030692780867969129 -3.8669762967788353e-05 0 0.0029901365914870776 -0.00013992808728926565 0 0.0030778534845870053 -0.00015966542306619449 0 0.0028933926299442025 -8.0095916327952289e-05 0 0.0030692780867969129 -3.8669762967788353e-05 0 0.0029901365914870776 -0.00013992808728926565 0 0.0030778534845870053 -0.00015966542306619449 0 0.0031063504380864056 -0.00021775549068452904 0 0.0030223790770044921 -0.00023302959804557633 0 0.0029901365914870776 -0.00013992808728926565 0 0.0030778534845870053 -0.00015966542306619449 0 0.0030223790770044921 -0.00023302959804557633 0 0.0029901365914870776 -0.00013992808728926565 0 0.0028832585969462772 -0.00023610340357728909 0 0.0030223790770044921 -0.00023302959804557633 0 0.0028933926299442025 -8.0095916327952289e-05 0 0.0029901365914870776 -0.00013992808728926565 0 0.0028832585969462772 -0.00023610340357728909 0 0.0030692780867969129 -3.8669762967788353e-05 0 0.0032362484655701225 -0.00017419546403402161 0 0.0031139980467918106 0.00013363450837276228 0 0.0032303936705797278 -0.00017593365083144749 0 0.0031868566387320109 -0.00018369888440588456 0 0.0031187941080073503 -0.00028121762424315668 0 0.0018059756998631534 -0.00034703503657061073 0 0.0023502915252930964 -0.00025935991967532962 0 0.0030692780867969129 -3.8669762967788353e-05 0 0.0030778534845870053 -0.00015966542306619449 0 0.0031868566387320109 -0.00018369888440588456 0 0.0031868566387320109 -0.00018369888440588456 0 0.0031063504380864056 -0.00021775549068452904 0 0.0031187941080073503 -0.00028121762424315668 0 0.0030778534845870053 -0.00015966542306619449 0 0.0031868566387320109 -0.00018369888440588456 0 0.0031063504380864056 -0.00021775549068452904 0 0.0030692780867969129 -3.8669762967788353e-05 0 0.0032362484655701225 -0.00017419546403402161 0 0.0031868566387320109 -0.00018369888440588456 0 0.0032809066637908453 0.00025050282821078234 0 0.0032362484655701225 -0.00017419546403402161 0 0.0031139980467918106 0.00013363450837276228 0 0.0022240348138303232 0.00036836901859633699 0 0.0018059756998631534 -0.00034703503657061073 0 0.0010583850577840326 0.00033843800568562855 0 0.0010406618545834524 1.8297075191596616e-05 0 0.0011838341093217076 0.00018120705457785213 0 0.0012748297008958358 0.00031100947786286159 0 0.0010583850577840326 0.00033843800568562855 0 0.0011838341093217076 0.00018120705457785213 0 0.0012748297008958358 0.00031100947786286159 0 0.0013725878415936218 0.00025111280908366899 0 0.001312020583778891 0.00018472763600497382 0 0.0012748297008958358 0.00031100947786286159 0 0.0013725878415936218 0.00025111280908366899 0 0.0014272553487966516 0.00029589066410608045 0 0.0012748297008958358 0.00031100947786286159 0 0.0011838341093217076 0.00018120705457785213 0 0.001312020583778891 0.00018472763600497382 0 0.0013725878415936218 0.00025111280908366899 0 0.001312020583778891 0.00018472763600497382 0 0.0013961576801061295 0.0001883046829021097 0 0.001312020583778891 0.00018472763600497382 0 0.0013961576801061295 0.0001883046829021097 0 0.0014253457529885098 9.266805672848015e-05 0 0.00069255244678125038 -0.0012876303848484438 0 0.00078810745887375 -0.0011659557558820661 0 0.00058924915689012353 -0.0011810987410791124 0 0.00069255244678125038 -0.0012876303848484438 0 0.00058924915689012353 -0.0011810987410791124 0 0.00046617387816291555 -0.0013258786487231032 0 0.00090164254763843322 -0.00061869212112203287 0 0.00048292544237040305 -0.0010097175587361422 0 0.001312020583778891 0.00018472763600497382 0 0.0012335176472478193 5.7024352190916169e-05 0 0.0014253457529885098 9.266805672848015e-05 0 0.0011838341093217076 0.00018120705457785213 0 0.001312020583778891 0.00018472763600497382 0 0.0012335176472478193 5.7024352190916169e-05 0 3.805254273129899e-05 -0.0019015187327923477 0 0.00048292544237040305 -0.0010097175587361422 0 0.00092436761534841496 -0.0012446972805646049 0 0.00069255244678125038 -0.0012876303848484438 0 0.00078810745887375 -0.0011659557558820661 0 0.0018059756998631534 -0.00034703503657061073 0 0.00090164254763843322 -0.00061869212112203287 0 0.0010406618545834524 1.8297075191596616e-05 0 0.0011838341093217076 0.00018120705457785213 0 0.0012335176472478193 5.7024352190916169e-05 0 0.00078810745887375 -0.0011659557558820661 0 0.00071319330525001395 -0.0010329611744115787 0 0.00093774882573116418 -0.0010380125862191971 0 -0.00010769772650901799 -0.0021426446586981984 0 0.0013207620267019497 -0.0010771219470897321 0 0.00078810745887375 -0.0011659557558820661 0 0.00071319330525001395 -0.0010329611744115787 0 0.00058924915689012353 -0.0011810987410791124 0 -0.00041844381570167196 -0.0025104100533040316 0 -0.00036705261034680818 -0.002666662932486831 0 -0.0002925091029830156 -0.0025755648275894247 0 -0.00041844381570167196 -0.0025104100533040316 0 -0.00020324927329853457 -0.0024373210868841103 0 -0.0002925091029830156 -0.0025755648275894247 0 -0.00010769772650901799 -0.0021426446586981984 0 3.805254273129899e-05 -0.0019015187327923477 0 -0.00052444301992087385 -0.0027214079553074975 0 -0.00041844381570167196 -0.0025104100533040316 0 -0.00046299447983642688 -0.0027229120326289226 0 -0.00041844381570167196 -0.0025104100533040316 0 -0.00046299447983642688 -0.0027229120326289226 0 -0.00036705261034680818 -0.002666662932486831 0 -0.00010769772650901799 -0.0021426446586981984 0 -0.00029978390020310593 -0.0022470811253623353 0 -0.00036705261034680818 -0.002666662932486831 0 -0.00037902419839129823 -0.0027655251992344918 0 -0.00029830880237015654 -0.0027140052653094049 0 -0.00046299447983642688 -0.0027229120326289226 0 -0.00036705261034680818 -0.002666662932486831 0 -0.00037902419839129823 -0.0027655251992344918 0 -0.00036705261034680818 -0.002666662932486831 0 -0.0002925091029830156 -0.0025755648275894247 0 -0.00029830880237015654 -0.0027140052653094049 0 -0.0004865932395545921 -0.0027307298187241179 0 -0.00046299447983642688 -0.0027229120326289226 0 -0.0004511655714504338 -0.0027933385419637718 0 -0.00046299447983642688 -0.0027229120326289226 0 -0.00037902419839129823 -0.0027655251992344918 0 -0.0004511655714504338 -0.0027933385419637718 0 -0.0004511655714504338 -0.0027933385419637718 0 -0.00048078858375583654 -0.0028182781964554314 0 -0.00044501201582543824 -0.0028725513521000784 0 -0.0004511655714504338 -0.0027933385419637718 0 -0.00038322463015134499 -0.0028452452723332997 0 -0.00044501201582543824 -0.0028725513521000784 0 -0.00037902419839129823 -0.0027655251992344918 0 -0.0004511655714504338 -0.0027933385419637718 0 -0.00038322463015134499 -0.0028452452723332997 0 -0.00037902419839129823 -0.0027655251992344918 0 -0.00038322463015134499 -0.0028452452723332997 0 -0.00029646508757576537 -0.002809263948106737 0 -0.0004865932395545921 -0.0027307298187241179 0 -0.00051495471260832118 -0.0028342658074295064 0 -0.00056056758163503374 -0.0028398276279354043 0 -0.00010769772650901799 -0.0021426446586981984 0 -0.00062612869008139859 -0.0029436913895633057 0 -7.0285088256570667e-05 -0.002264336346395245 0 -0.00067407985485699255 -0.0022418383317147185 0 -0.00056056758163503374 -0.0028398276279354043 0 -0.0004865932395545921 -0.0027307298187241179 0 -0.0004511655714504338 -0.0027933385419637718 0 -0.00048078858375583654 -0.0028182781964554314 0 -0.0004865932395545921 -0.0027307298187241179 0 -0.00048078858375583654 -0.0028182781964554314 0 -0.00051495471260832118 -0.0028342658074295064 0 -0.00048078858375583654 -0.0028182781964554314 0 -0.00049139271989916394 -0.0028716808305925177 0 -0.00044501201582543824 -0.0028725513521000784 0 -0.00048078858375583654 -0.0028182781964554314 0 -0.00051495471260832118 -0.0028342658074295064 0 -0.00049139271989916394 -0.0028716808305925177 0 0.0013207620267019497 -0.0010771219470897321 0 0.00083548925503928561 -0.0019223380358443678 0 0.0020487729236095546 -0.00043938941348425377 0 0.0019445981575961404 -0.00052370939654077756 0 0.0019550366589211644 -0.00034611144449278998 0 -0.00067407985485699255 -0.0022418383317147185 0 -0.00071785326222500794 -0.002915935768299792 0 -0.00056056758163503374 -0.0028398276279354043 0 0.0020487729236095546 -0.00043938941348425377 0 0.0021669498335155552 -0.00037281172369271493 0 0.0021255371094367459 -0.00051461495275292076 0 0.0020487729236095546 -0.00043938941348425377 0 0.0021669498335155552 -0.00037281172369271493 0 0.0019550366589211644 -0.00034611144449278998 0 0.0020487729236095546 -0.00043938941348425377 0 0.0021255371094367459 -0.00051461495275292076 0 0.0019445981575961404 -0.00052370939654077756 0 0.0029551928846609432 -0.00039791952916950433 0 0.0028832585969462772 -0.00023610340357728909 0 0.0030223790770044921 -0.00023302959804557633 0 0.0029551928846609432 -0.00039791952916950433 0 0.0030223790770044921 -0.00023302959804557633 0 0.0031187941080073503 -0.00028121762424315668 0 0.0032303936705797278 -0.00017593365083144749 0 0.0032030904166829911 -0.00040836114457659016 0 0.0031187941080073503 -0.00028121762424315668 0 0.0031063504380864056 -0.00021775549068452904 0 0.0030223790770044921 -0.00023302959804557633 0 0.0031187941080073503 -0.00028121762424315668 0 0.0029551928846609432 -0.00039791952916950433 0 0.0032030904166829911 -0.00040836114457659016 0 0.0031187941080073503 -0.00028121762424315668 0 0.002778630684958571 -0.00043351884031265467 0 0.0013207620267019497 -0.0010771219470897321 0 0.0018059756998631534 -0.00034703503657061073 0 0.0013207620267019497 -0.0010771219470897321 0 0.00092436761534841496 -0.0012446972805646049 0 0.00078810745887375 -0.0011659557558820661 0 0.00093774882573116418 -0.0010380125862191971 0 -0.00014968520780278744 -0.001256578770789756 0 -0.00022412636641732593 -0.0012934154041973295 0 -0.00017965019721803203 -0.0013485187005179654 0 -6.6284703854370781e-06 -0.0022227180027533152 0 -3.8800858505772488e-05 -0.0022389929945847639 0 1.3164755803829466e-05 -0.0022477547243151897 0 4.5501934258339423e-05 -0.00033112031503566722 0 0.00023815211426845182 -0.0014520607089651887 0 4.6008698154604743e-05 -0.0010650064609603674 0 4.6586424980982904e-05 -0.0010533291994872438 0 2.0290893814264275e-05 -0.001073665061241213 0 4.6008698154604743e-05 -0.0010650064609603674 0 2.4966188615904814e-05 -0.0010797032080362987 0 2.0290893814264275e-05 -0.001073665061241213 0 5.6834100426054894e-05 -0.0016705529598344451 0 -9.192907083112629e-05 -0.0021821149207640212 0 5.6834100426054894e-05 -0.0016705529598344451 0 0.00023815211426845182 -0.0014520607089651887 0 -4.8970399255431051e-05 -0.0011630179126288045 0 5.6834100426054894e-05 -0.0016705529598344451 0 4.5501934258339423e-05 -0.00033112031503566722 0 8.4089918055807699e-06 -5.4998459217682873e-05 0 2.2632029486578502e-05 0.00031690583584395923 0 3.4957500623601063e-06 0.00032217666750044882 0 -6.079596067054557e-06 0.00030593509808321626 0 0.00015493946370951354 -0.00056599789587917699 0 0.00013781944416243699 -0.0005659461111514072 0 0.00013430309572153961 -0.00057836285857770862 0 2.2632029486578502e-05 0.00031690583584395923 0 1.4068821868277678e-05 0.00033446800122525534 0 3.4957500623601063e-06 0.00032217666750044882 0 0.00015493946370951354 -0.00056599789587917699 0 0.00013781944416243699 -0.0005659461111514072 0 0.00012400272717878576 -0.00056254973944805636 0 0.00013781944416243699 -0.0005659461111514072 0 0.0001274926626887635 -0.0005667460472593835 0 0.00012400272717878576 -0.00056254973944805636 0 0.00013533246671318088 -0.00061735057368485799 0 0.00026359705563067185 -0.00066586699183702059 0 0.00013781944416243699 -0.0005659461111514072 0 0.00012823136806900271 -0.00056976461107241571 0 0.00013430309572153961 -0.00057836285857770862 0 8.4089918055807699e-06 -5.4998459217682873e-05 0 -8.505009309476701e-05 0.0002900450986433113 0 3.4957500623601063e-06 0.00032217666750044882 0 -6.079596067054557e-06 0.00030593509808321626 0 -1.7127054834207061e-05 0.00030352893424705234 0 3.7541601363752034e-05 0.00024166267379447612 0 -7.2751283326072641e-06 0.00024472329968839717 0 -1.7127054834207061e-05 0.00030352893424705234 0 8.4089918055807699e-06 -5.4998459217682873e-05 0 -2.7172684645274017e-07 4.276534880606754e-05 0 4.6060828179243509e-05 0.00021813070038823778 0 2.9126326785773983e-05 0.00024003338082430087 0 -7.2751283326072641e-06 0.00024472329968839717 0 0.00026359705563067185 -0.00066586699183702059 0 8.4089918055807699e-06 -5.4998459217682873e-05 0 0.00044021308803319533 -0.0020931300111431796 0 0.00032477060568063222 -0.0022852695189351678 0 0.000161239481951104 -0.0022757049145362609 0 0.00044021308803319533 -0.0020931300111431796 0 0.00048644307170776432 -0.0022634018817587536 0 0.00032477060568063222 -0.0022852695189351678 0 0.00026359705563067185 -0.00066586699183702059 0 0.00023815211426845182 -0.0014520607089651887 0 0.00044021308803319533 -0.0020931300111431796 0 0.00055106708322965334 -0.0022299693353418503 0 0.00048644307170776432 -0.0022634018817587536 0 0.00061243805763288412 -0.0023053141926120181 0 0.00054962602075719392 -0.0022305759886410261 0 0.00048644307170776432 -0.0022634018817587536 0 0.00023815211426845182 -0.0014520607089651887 0 0.00024626533868542239 -0.0015734119277054329 0 0.00061243805763288412 -0.0023053141926120181 0 0.00048644307170776432 -0.0022634018817587536 0 0.00034173675615259175 -0.0024292376321067744 0 5.6834100426054894e-05 -0.0016705529598344451 0 0.00015653965754073497 -0.0023132414936881643 0 0.00048644307170776432 -0.0022634018817587536 0 0.00032477060568063222 -0.0022852695189351678 0 0.00034173675615259175 -0.0024292376321067744 0 0.00032477060568063222 -0.0022852695189351678 0 0.00034173675615259175 -0.0024292376321067744 0 0.00019151637322588645 -0.0023919302174050441 0 0.00026359705563067185 -0.00066586699183702059 0 1.5367913411632626e-05 -0.0011545933426797806 0 0.00044021308803319533 -0.0020931300111431796 0 0.000161239481951104 -0.0022757049145362609 0 -6.4623612100196437e-05 -0.0021946020390444213 0 0.00032477060568063222 -0.0022852695189351678 0 0.00019151637322588645 -0.0023919302174050441 0 0.000161239481951104 -0.0022757049145362609 0 0.00019151637322588645 -0.0023919302174050441 0 6.2759948294556866e-05 -0.0024121464887982918 0 0.000161239481951104 -0.0022757049145362609 0 6.2759948294556866e-05 -0.0024121464887982918 0 -1.2671148067249665e-05 -0.0022915456950170872 0 0.000161239481951104 -0.0022757049145362609 0 6.2759948294556866e-05 -0.0024121464887982918 0 -1.2671148067249665e-05 -0.0022915456950170872 0 -6.4632779010971467e-05 -0.0024243843115263485 0 -1.2671148067249665e-05 -0.0022915456950170872 0 0.000161239481951104 -0.0022757049145362609 0 -6.4623612100196437e-05 -0.0021946020390444213 0 -2.4025040992581353e-05 0.00034630926629145633 0 -5.4591378694609592e-05 0.00026662068366407172 0 -0.0001184569562115097 0.00023164708543208315 0 -7.2751283326072641e-06 0.00024472329968839717 0 -5.4591378694609592e-05 0.00026662068366407172 0 -0.00010229870325656224 0.00019700682492686136 0 4.6060828179243509e-05 0.00021813070038823778 0 -7.2751283326072641e-06 0.00024472329968839717 0 -0.00010229870325656224 0.00019700682492686136 0 1.3474254088130471e-06 0.00045307674746174225 0 0.00033098208361702754 4.9850247242780291e-05 0 -7.2751283326072641e-06 0.00024472329968839717 0 -1.7127054834207061e-05 0.00030352893424705234 0 -5.4591378694609592e-05 0.00026662068366407172 0 -5.4591378694609592e-05 0.00026662068366407172 0 -0.0001184569562115097 0.00023164708543208315 0 -0.00010229870325656224 0.00019700682492686136 0 0.00016292981346144157 0.00046036835727922878 0 0.00018084001555078997 0.00054503954567858715 0 0.00020737580917791932 0.00049951528269857111 0 0.0014876732104327644 0.00016970821017399198 0 0.0014272553487966516 0.00029589066410608045 0 0.0014205440885670531 0.0002236973180940647 0 0.00033098208361702754 4.9850247242780291e-05 0 0.001043687088590887 0.00045268913748438335 0 0.0013725878415936218 0.00025111280908366899 0 0.0014272553487966516 0.00029589066410608045 0 0.0014205440885670531 0.0002236973180940647 0 0.0014876732104327644 0.00016970821017399198 0 0.0013961576801061295 0.0001883046829021097 0 0.0014253457529885098 9.266805672848015e-05 0 0.0013725878415936218 0.00025111280908366899 0 0.0014205440885670531 0.0002236973180940647 0 0.0013961576801061295 0.0001883046829021097 0 0.0014876732104327644 0.00016970821017399198 0 0.0014205440885670531 0.0002236973180940647 0 0.0013961576801061295 0.0001883046829021097 0 0.00033098208361702754 4.9850247242780291e-05 0 0.00048292544237040305 -0.0010097175587361422 0 0.00048292544237040305 -0.0010097175587361422 0 1.5367913411632626e-05 -0.0011545933426797806 0 0.00033098208361702754 4.9850247242780291e-05 0 1.5367913411632626e-05 -0.0011545933426797806 0 0.00027589698353368551 -0.00084261786027810097 0 0.00029648826007660389 -0.00082105537183407775 0 0.00026517545870688149 -0.00082591484534061171 0 -0.00023880158891415897 -0.0022397216809158923 0 -6.3147559786074317e-05 -0.0022020850122284443 0 -0.00012232786845792841 -0.0023179404276860291 0 -1.2671148067249665e-05 -0.0022915456950170872 0 -6.3147559786074317e-05 -0.0022020850122284443 0 -0.00012232786845792841 -0.0023179404276860291 0 0.00019969360224446675 -0.0017854099852124075 0 1.5367913411632626e-05 -0.0011545933426797806 0 -1.2671148067249665e-05 -0.0022915456950170872 0 -0.00012232786845792841 -0.0023179404276860291 0 -6.4632779010971467e-05 -0.0024243843115263485 0 -0.00012232786845792841 -0.0023179404276860291 0 -6.4632779010971467e-05 -0.0024243843115263485 0 -0.00020324927329853457 -0.0024373210868841103 0 -0.00041844381570167196 -0.0025104100533040316 0 -0.00023880158891415897 -0.0022397216809158923 0 -0.00020324927329853457 -0.0024373210868841103 0 -0.00023880158891415897 -0.0022397216809158923 0 -0.00012232786845792841 -0.0023179404276860291 0 -0.00020324927329853457 -0.0024373210868841103 0 -0.00024168172158329837 -0.0027316571952964853 0 -0.00029830880237015654 -0.0027140052653094049 0 -0.00019555356942725047 -0.0026952032504478111 0 -0.00029830880237015654 -0.0027140052653094049 0 6.8843115958440785e-05 -0.0025616077013347637 0 1.513468463354364e-05 -0.0025470763557161368 0 -0.00029175045686299325 -0.0027260949754298329 0 -6.5513065341570243e-05 -0.0024924126430062323 0 -0.00020324927329853457 -0.0024373210868841103 0 -0.0002925091029830156 -0.0025755648275894247 0 -0.00016033362715376162 -0.0025395087697137283 0 -0.00016033362715376162 -0.0025395087697137283 0 -0.00029830880237015654 -0.0027140052653094049 0 1.513468463354364e-05 -0.0025470763557161368 0 -6.4632779010971467e-05 -0.0024243843115263485 0 -0.00020324927329853457 -0.0024373210868841103 0 -0.00016033362715376162 -0.0025395087697137283 0 -6.4632779010971467e-05 -0.0024243843115263485 0 -0.00016033362715376162 -0.0025395087697137283 0 1.513468463354364e-05 -0.0025470763557161368 0 -0.0002925091029830156 -0.0025755648275894247 0 -0.00016033362715376162 -0.0025395087697137283 0 -0.00029830880237015654 -0.0027140052653094049 0 -0.00024168172158329837 -0.0027316571952964853 0 -0.00029830880237015654 -0.0027140052653094049 0 -0.00029646508757576537 -0.002809263948106737 0 -0.00037902419839129823 -0.0027655251992344918 0 -0.00029830880237015654 -0.0027140052653094049 0 -0.00029646508757576537 -0.002809263948106737 0 -0.00029646508757576537 -0.002809263948106737 0 -0.00025240924915724658 -0.0029054409720616859 0 -0.0003244392141511657 -0.0028972342614770608 0 -0.00038322463015134499 -0.0028452452723332997 0 -0.00029646508757576537 -0.002809263948106737 0 -0.0003244392141511657 -0.0028972342614770608 0 -0.00029646508757576537 -0.002809263948106737 0 -0.00022551240761153345 -0.0028288027038606998 0 -0.00025240924915724658 -0.0029054409720616859 0 -0.00024168172158329837 -0.0027316571952964853 0 -0.00029646508757576537 -0.002809263948106737 0 -0.00022551240761153345 -0.0028288027038606998 0 -0.00024168172158329837 -0.0027316571952964853 0 -0.00022551240761153345 -0.0028288027038606998 0 -0.00016505333614762766 -0.0028006832741377038 0 -0.00022551240761153345 -0.0028288027038606998 0 -0.00015664851561295612 -0.0028866355782930686 0 -0.00025240924915724658 -0.0029054409720616859 0 -0.00022551240761153345 -0.0028288027038606998 0 -0.00016505333614762766 -0.0028006832741377038 0 -0.00015664851561295612 -0.0028866355782930686 0 -0.00016505333614762766 -0.0028006832741377038 0 -9.0958779827579578e-05 -0.0028141483425344824 0 -0.00015664851561295612 -0.0028866355782930686 0 -0.00016505333614762766 -0.0028006832741377038 0 -0.00010502965982372379 -0.0027331336308484221 0 -9.0958779827579578e-05 -0.0028141483425344824 0 -0.00024822426416446988 -0.0027585079631500982 0 -9.4781267589738778e-05 -0.002567269427504452 0 -0.00024168172158329837 -0.0027316571952964853 0 -0.00016505333614762766 -0.0028006832741377038 0 -0.00010502965982372379 -0.0027331336308484221 0 -0.00024168172158329837 -0.0027316571952964853 0 -0.00019555356942725047 -0.0026952032504478111 0 -0.00012428109959992145 -0.0027146440023948339 0 0.00019151637322588645 -0.0023919302174050441 0 6.2759948294556866e-05 -0.0024121464887982918 0 6.5743086627520475e-05 -0.0025585505468474529 0 -6.5513065341570243e-05 -0.0024924126430062323 0 -3.9141995903365624e-05 -0.0025019733067065076 0 6.2759948294556866e-05 -0.0024121464887982918 0 -6.4632779010971467e-05 -0.0024243843115263485 0 1.513468463354364e-05 -0.0025470763557161368 0 6.2759948294556866e-05 -0.0024121464887982918 0 6.5743086627520475e-05 -0.0025585505468474529 0 1.513468463354364e-05 -0.0025470763557161368 0 0.00015653965754073497 -0.0023132414936881643 0 -6.5513065341570243e-05 -0.0024924126430062323 0 0.00034173675615259175 -0.0024292376321067744 0 0.00019151637322588645 -0.0023919302174050441 0 6.5743086627520475e-05 -0.0025585505468474529 0 -6.5513065341570243e-05 -0.0024924126430062323 0 -9.4781267589738778e-05 -0.002567269427504452 0 -3.8800858505772488e-05 -0.0022389929945847639 0 -7.158586540136938e-05 -0.0022554896520796267 0 -4.2070931655503106e-05 -0.0022615715138379769 0 -9.4781267589738778e-05 -0.002567269427504452 0 -1.4757473971531134e-05 -0.0026592631604388634 0 -9.4781267589738778e-05 -0.002567269427504452 0 -9.192907083112629e-05 -0.0021821149207640212 0 -3.8800858505772488e-05 -0.0022389929945847639 0 -4.2070931655503106e-05 -0.0022615715138379769 0 1.3164755803829466e-05 -0.0022477547243151897 0 -0.00010502965982372379 -0.0027331336308484221 0 -9.0958779827579578e-05 -0.0028141483425344824 0 1.7020797266035522e-05 -0.0027756895866043125 0 -9.0958779827579578e-05 -0.0028141483425344824 0 1.7020797266035522e-05 -0.0027756895866043125 0 -4.7261243610118806e-05 -0.0028903206190565504 0 -9.0958779827579578e-05 -0.0028141483425344824 0 -4.7261243610118806e-05 -0.0028903206190565504 0 -0.00015664851561295612 -0.0028866355782930686 0 8.2917435056359339e-05 -0.0027223442048577178 0 -1.4757473971531134e-05 -0.0026592631604388634 0 0.00014094375576118479 -0.0028176691625894277 0 5.0407400435391131e-05 -0.0028760347255550474 0 1.7020797266035522e-05 -0.0027756895866043125 0 5.0407400435391131e-05 -0.0028760347255550474 0 1.7020797266035522e-05 -0.0027756895866043125 0 -4.7261243610118806e-05 -0.0028903206190565504 0 -0.00014334190025274259 -0.0025140456704005761 0 -4.3137837968784758e-05 -0.0025413263745154313 0 -8.6092636447919484e-06 -0.002488235613482501 0 5.8777901889779598e-05 -0.0025705355113412928 0 -4.3137837968784758e-05 -0.0025413263745154313 0 -8.6092636447919484e-06 -0.002488235613482501 0 2.4075678417582076e-05 -0.0030726483113244596 0 -6.4502446295566028e-05 -0.0031177581248572881 0 6.1530425009476264e-05 -0.003170114452954956 0 2.4075678417582076e-05 -0.0030726483113244596 0 6.6201876355562715e-05 -0.0029807145021227086 0 -4.4699536234655421e-05 -0.0030067339017579566 0 9.9713440693922719e-05 -0.0030928556083653054 0 2.4075678417582076e-05 -0.0030726483113244596 0 6.1530425009476264e-05 -0.003170114452954956 0 9.9713440693922719e-05 -0.0030928556083653054 0 2.4075678417582076e-05 -0.0030726483113244596 0 6.6201876355562715e-05 -0.0029807145021227086 0 6.6201876355562715e-05 -0.0029807145021227086 0 -4.7261243610118806e-05 -0.0028903206190565504 0 -4.4699536234655421e-05 -0.0030067339017579566 0 5.0407400435391131e-05 -0.0028760347255550474 0 6.6201876355562715e-05 -0.0029807145021227086 0 -4.7261243610118806e-05 -0.0028903206190565504 0 0.00012585040114870716 -0.0029138618059668104 0 5.0407400435391131e-05 -0.0028760347255550474 0 6.6201876355562715e-05 -0.0029807145021227086 0 -4.7261243610118806e-05 -0.0028903206190565504 0 -0.00012086590011924179 -0.0029706461589603709 0 -4.4699536234655421e-05 -0.0030067339017579566 0 -4.7261243610118806e-05 -0.0028903206190565504 0 -0.00012086590011924179 -0.0029706461589603709 0 -0.00015664851561295612 -0.0028866355782930686 0 -0.0001235556328187461 -0.003050473187754088 0 -4.4699536234655421e-05 -0.0030067339017579566 0 -6.4502446295566028e-05 -0.0031177581248572881 0 -0.00012086590011924179 -0.0029706461589603709 0 -0.0001235556328187461 -0.003050473187754088 0 -4.4699536234655421e-05 -0.0030067339017579566 0 2.4075678417582076e-05 -0.0030726483113244596 0 -4.4699536234655421e-05 -0.0030067339017579566 0 -6.4502446295566028e-05 -0.0031177581248572881 0 -0.0001235556328187461 -0.003050473187754088 0 -6.4502446295566028e-05 -0.0031177581248572881 0 -0.00017357469340279074 -0.0031257361332245673 0 -0.0001235556328187461 -0.003050473187754088 0 -0.00020471261528405503 -0.0030118465722596952 0 -0.00017357469340279074 -0.0031257361332245673 0 -0.00020471261528405503 -0.0030118465722596952 0 -0.00026924967410542664 -0.0030992519918096231 0 -0.00017357469340279074 -0.0031257361332245673 0 -0.00012086590011924179 -0.0029706461589603709 0 -0.0001235556328187461 -0.003050473187754088 0 -0.00020471261528405503 -0.0030118465722596952 0 -0.00020471261528405503 -0.0030118465722596952 0 -0.00015664851561295612 -0.0028866355782930686 0 -0.00025240924915724658 -0.0029054409720616859 0 -0.00012086590011924179 -0.0029706461589603709 0 -0.00020471261528405503 -0.0030118465722596952 0 -0.00015664851561295612 -0.0028866355782930686 0 -0.00020471261528405503 -0.0030118465722596952 0 -0.00025240924915724658 -0.0029054409720616859 0 -0.00029984188136209417 -0.0029912105700205523 0 -0.00025240924915724658 -0.0029054409720616859 0 -0.0003244392141511657 -0.0028972342614770608 0 -0.00029984188136209417 -0.0029912105700205523 0 -0.0003244392141511657 -0.0028972342614770608 0 -0.00029984188136209417 -0.0029912105700205523 0 -0.00039083598784290835 -0.0029492017123592239 0 -0.00029984188136209417 -0.0029912105700205523 0 -0.00026924967410542664 -0.0030992519918096231 0 -0.00036832913746177246 -0.0030731822304994076 0 -0.00020471261528405503 -0.0030118465722596952 0 -0.00029984188136209417 -0.0029912105700205523 0 -0.00026924967410542664 -0.0030992519918096231 0 -0.00026924967410542664 -0.0030992519918096231 0 -0.00034083329348102157 -0.0031775174705517819 0 -0.00036832913746177246 -0.0030731822304994076 0 -0.00026924967410542664 -0.0030992519918096231 0 -0.00034083329348102157 -0.0031775174705517819 0 -0.00025478232263700912 -0.0032003723228510063 0 -0.00034083329348102157 -0.0031775174705517819 0 -0.00025478232263700912 -0.0032003723228510063 0 -0.0003159293218369932 -0.003275081556087368 0 -0.00029687086493015161 -0.003376138938396946 0 -0.0003159293218369932 -0.003275081556087368 0 -0.00035193140555010558 -0.0033457137204874129 0 -0.00029687086493015161 -0.003376138938396946 0 -0.0003159293218369932 -0.003275081556087368 0 -0.00024054072245122563 -0.0033034925688653983 0 -0.00029687086493015161 -0.003376138938396946 0 -0.00023912096698303672 -0.003391205141326366 0 -0.00024054072245122563 -0.0033034925688653983 0 -0.00025478232263700912 -0.0032003723228510063 0 -0.0003159293218369932 -0.003275081556087368 0 -0.00024054072245122563 -0.0033034925688653983 0 -0.00025478232263700912 -0.0032003723228510063 0 -0.00024054072245122563 -0.0033034925688653983 0 -0.00017562452284975623 -0.0032411956381380416 0 -0.00023912096698303672 -0.003391205141326366 0 -0.00024054072245122563 -0.0033034925688653983 0 -0.00015169880763686735 -0.0033374497605575195 0 -0.00024054072245122563 -0.0033034925688653983 0 -0.00015169880763686735 -0.0033374497605575195 0 -0.00017562452284975623 -0.0032411956381380416 0 -0.00025478232263700912 -0.0032003723228510063 0 -0.00017562452284975623 -0.0032411956381380416 0 -0.00017357469340279074 -0.0031257361332245673 0 -0.00026924967410542664 -0.0030992519918096231 0 -0.00025478232263700912 -0.0032003723228510063 0 -0.00017357469340279074 -0.0031257361332245673 0 -0.00017562452284975623 -0.0032411956381380416 0 -0.00017357469340279074 -0.0031257361332245673 0 -0.00011942321777945807 -0.0031801624329818486 0 -6.4502446295566028e-05 -0.0031177581248572881 0 -0.00011942321777945807 -0.0031801624329818486 0 -6.0754093078226653e-05 -0.0032469978389448348 0 -0.00017562452284975623 -0.0032411956381380416 0 -0.00011942321777945807 -0.0031801624329818486 0 -6.0754093078226653e-05 -0.0032469978389448348 0 -6.4502446295566028e-05 -0.0031177581248572881 0 -0.00017357469340279074 -0.0031257361332245673 0 -0.00011942321777945807 -0.0031801624329818486 0 -0.00015169880763686735 -0.0033374497605575195 0 -0.00017562452284975623 -0.0032411956381380416 0 -6.0754093078226653e-05 -0.0032469978389448348 0 -4.6170874618887101e-05 -0.0033941754423271998 0 -0.00015169880763686735 -0.0033374497605575195 0 -6.0754093078226653e-05 -0.0032469978389448348 0 0.00019410467601433168 -0.0033648952105216397 0 4.0826227120287629e-05 -0.0033186739982748845 0 6.1530425009476264e-05 -0.003170114452954956 0 -4.6170874618887101e-05 -0.0033941754423271998 0 -6.0754093078226653e-05 -0.0032469978389448348 0 4.0826227120287629e-05 -0.0033186739982748845 0 0.00019410467601433168 -0.0033648952105216397 0 7.3175477260720991e-05 -0.0034297323827175521 0 4.0826227120287629e-05 -0.0033186739982748845 0 -4.6170874618887101e-05 -0.0033941754423271998 0 7.3175477260720991e-05 -0.0034297323827175521 0 4.0826227120287629e-05 -0.0033186739982748845 0 -6.4502446295566028e-05 -0.0031177581248572881 0 -6.0754093078226653e-05 -0.0032469978389448348 0 6.1530425009476264e-05 -0.003170114452954956 0 -6.0754093078226653e-05 -0.0032469978389448348 0 4.0826227120287629e-05 -0.0033186739982748845 0 6.1530425009476264e-05 -0.003170114452954956 0 0.0013875187911576283 -0.0017636139069700022 0 0.0016132657412533391 -0.0018411378622352796 0 0.0013715533277211195 -0.0020085346409476064 0 0.00046082992173679805 -0.0027853988933876383 0 0.00083548925503928561 -0.0019223380358443678 0 -0.00063795105986064692 -0.0030827742538428933 0 -0.00057698294782541979 -0.0030037652798643017 0 -0.00062386303945078932 -0.0028957736743050575 0 0.00046082992173679805 -0.0027853988933876383 0 0.0018732484960228802 -0.002319935702501177 0 0.0016429831396722609 -0.0027557555600553874 0 0.0018221284834452115 -0.0028145342048850569 0 0.0017479896561417975 -0.0027190275026948933 0 0.0018405425223172696 -0.0027480602763389262 0 0.0018221284834452115 -0.0028145342048850569 0 0.0017479896561417975 -0.0027190275026948933 0 0.0016337842657610222 -0.0020474922586222939 0 0.0016132657412533391 -0.0018411378622352796 0 0.0013715533277211195 -0.0020085346409476064 0 0.0020600327165664185 -0.001152585008893774 0 0.00083548925503928561 -0.0019223380358443678 0 -0.00057698294782541979 -0.0030037652798643017 0 -0.00062386303945078932 -0.0028957736743050575 0 -0.00057017703060896008 -0.0029497058852077187 0 -0.00059716411353535372 -0.0029059541627843421 0 -0.00054785741492885908 -0.0028842802097369231 0 -0.00057017703060896008 -0.0029497058852077187 0 -0.00059716411353535372 -0.0029059541627843421 0 -0.00062386303945078932 -0.0028957736743050575 0 -0.00057017703060896008 -0.0029497058852077187 0 0.00019941576617588089 -0.0020041524054537035 0 0.00083548925503928561 -0.0019223380358443678 0 -0.00059716411353535372 -0.0029059541627843421 0 -0.00071785326222500794 -0.002915935768299792 0 -0.00056056758163503374 -0.0028398276279354043 0 -0.00059716411353535372 -0.0029059541627843421 0 -0.00056056758163503374 -0.0028398276279354043 0 -0.00054785741492885908 -0.0028842802097369231 0 -0.00051495471260832118 -0.0028342658074295064 0 -0.00056056758163503374 -0.0028398276279354043 0 -0.00054785741492885908 -0.0028842802097369231 0 -0.00054785741492885908 -0.0028842802097369231 0 -0.00052576454624092659 -0.0028958290410004022 0 -0.00057017703060896008 -0.0029497058852077187 0 -0.00051495471260832118 -0.0028342658074295064 0 -0.00054785741492885908 -0.0028842802097369231 0 -0.00052576454624092659 -0.0028958290410004022 0 -0.00049139271989916394 -0.0028716808305925177 0 -0.00049276333012655544 -0.0029415651127244142 0 -0.00044501201582543824 -0.0028725513521000784 0 -0.00051495471260832118 -0.0028342658074295064 0 -0.00052576454624092659 -0.0028958290410004022 0 -0.00049139271989916394 -0.0028716808305925177 0 -0.00052576454624092659 -0.0028958290410004022 0 -0.00049139271989916394 -0.0028716808305925177 0 -0.00049276333012655544 -0.0029415651127244142 0 -0.00057698294782541979 -0.0030037652798643017 0 -0.00049276333012655544 -0.0029415651127244142 0 -0.00057017703060896008 -0.0029497058852077187 0 -0.00052576454624092659 -0.0028958290410004022 0 -0.00049276333012655544 -0.0029415651127244142 0 -0.00057017703060896008 -0.0029497058852077187 0 -0.00038322463015134499 -0.0028452452723332997 0 -0.0003244392141511657 -0.0028972342614770608 0 -0.00039083598784290835 -0.0029492017123592239 0 -0.00049276333012655544 -0.0029415651127244142 0 -0.00044501201582543824 -0.0028725513521000784 0 -0.00039083598784290835 -0.0029492017123592239 0 -0.00038322463015134499 -0.0028452452723332997 0 -0.00044501201582543824 -0.0028725513521000784 0 -0.00039083598784290835 -0.0029492017123592239 0 -0.00049276333012655544 -0.0029415651127244142 0 -0.00039083598784290835 -0.0029492017123592239 0 -0.00048084962857610457 -0.0030380868323549924 0 -0.00036832913746177246 -0.0030731822304994076 0 -0.00048084962857610457 -0.0030380868323549924 0 -0.00043734180995581737 -0.0031829913341880865 0 -0.00029984188136209417 -0.0029912105700205523 0 -0.00039083598784290835 -0.0029492017123592239 0 -0.00036832913746177246 -0.0030731822304994076 0 -0.00039083598784290835 -0.0029492017123592239 0 -0.00036832913746177246 -0.0030731822304994076 0 -0.00048084962857610457 -0.0030380868323549924 0 -0.00063795105986064692 -0.0030827742538428933 0 -0.00057698294782541979 -0.0030037652798643017 0 -0.00048084962857610457 -0.0030380868323549924 0 -0.00063795105986064692 -0.0030827742538428933 0 -0.00048084962857610457 -0.0030380868323549924 0 -0.00043734180995581737 -0.0031829913341880865 0 -0.00057698294782541979 -0.0030037652798643017 0 -0.00049276333012655544 -0.0029415651127244142 0 -0.00048084962857610457 -0.0030380868323549924 0 -0.00052694575982543447 -0.0031642145540232113 0 -0.00049555829767256216 -0.003218635326218341 0 -0.00043734180995581737 -0.0031829913341880865 0 -0.00049555829767256216 -0.003218635326218341 0 -0.00043734180995581737 -0.0031829913341880865 0 -0.00047823648707127903 -0.0032840179433176594 0 0.00046082992173679805 -0.0027853988933876383 0 -0.00084820569107007984 -0.0032148155319011791 0 -0.00034083329348102157 -0.0031775174705517819 0 -0.00036832913746177246 -0.0030731822304994076 0 -0.00043734180995581737 -0.0031829913341880865 0 -0.00034083329348102157 -0.0031775174705517819 0 -0.00043734180995581737 -0.0031829913341880865 0 -0.00040423254248078688 -0.0032810623802909584 0 -0.00043734180995581737 -0.0031829913341880865 0 -0.00040423254248078688 -0.0032810623802909584 0 -0.00047823648707127903 -0.0032840179433176594 0 -0.00034083329348102157 -0.0031775174705517819 0 -0.0003159293218369932 -0.003275081556087368 0 -0.00040423254248078688 -0.0032810623802909584 0 -0.00046431906904995611 -0.0033498802821772073 0 -0.00041747856722040871 -0.0033510553684153277 0 -0.00040423254248078688 -0.0032810623802909584 0 -0.00041747856722040871 -0.0033510553684153277 0 -0.00035193140555010558 -0.0033457137204874129 0 -0.00040423254248078688 -0.0032810623802909584 0 -0.0003159293218369932 -0.003275081556087368 0 -0.00035193140555010558 -0.0033457137204874129 0 -0.00040423254248078688 -0.0032810623802909584 0 -0.00049555829767256216 -0.003218635326218341 0 -0.00047823648707127903 -0.0032840179433176594 0 -0.00052982138780592646 -0.003247541710160084 0 -0.00046431906904995611 -0.0033498802821772073 0 -0.00040423254248078688 -0.0032810623802909584 0 -0.00047823648707127903 -0.0032840179433176594 0 0.00098439662486548402 -0.0029696115562560712 0 0.00054238766990568135 -0.0029292558016779839 0 -0.00049525173250669424 -0.0033003130264717077 0 -0.00051900355098120064 -0.0033160362346425372 0 -0.00052982138780592646 -0.003247541710160084 0 -0.00049525173250669424 -0.0033003130264717077 0 -0.00047823648707127903 -0.0032840179433176594 0 -0.00052982138780592646 -0.003247541710160084 0 0.0016693809962428354 -0.0024060132952108491 0 0.0016584731044703828 -0.002581571719954494 0 0.0017752063334143314 -0.0025305959865850039 0 -0.00052694575982543447 -0.0031642145540232113 0 -0.00049555829767256216 -0.003218635326218341 0 -0.00052982138780592646 -0.003247541710160084 0 0.00046082992173679805 -0.0027853988933876383 0 0.00054238766990568135 -0.0029292558016779839 0 0.0016429831396722609 -0.0027557555600553874 0 0.0016584731044703828 -0.002581571719954494 0 0.0017479896561417975 -0.0027190275026948933 0 0.0016584731044703828 -0.002581571719954494 0 0.0017479896561417975 -0.0027190275026948933 0 0.0018119997784268355 -0.0026493809898823534 0 0.0018405425223172696 -0.0027480602763389262 0 0.0017479896561417975 -0.0027190275026948933 0 0.0018119997784268355 -0.0026493809898823534 0 0.0018119997784268355 -0.0026493809898823534 0 0.0017752063334143314 -0.0025305959865850039 0 0.0018706917739076997 -0.0025852557030058981 0 0.0016584731044703828 -0.002581571719954494 0 0.0018119997784268355 -0.0026493809898823534 0 0.0017752063334143314 -0.0025305959865850039 0 0.0018306689945471446 -0.0024297971861928802 0 0.0017752063334143314 -0.0025305959865850039 0 0.0018808230899705599 -0.00251084054501602 0 0.0019937957244826232 -0.00245626219923255 0 0.0018808230899705599 -0.00251084054501602 0 0.0019557043734866279 -0.0025176926551190599 0 0.0018808230899705599 -0.00251084054501602 0 0.0019557043734866279 -0.0025176926551190599 0 0.0019251270656954903 -0.0025695456030412709 0 0.0019557043734866279 -0.0025176926551190599 0 0.0019251270656954903 -0.0025695456030412709 0 0.0019745049648241717 -0.0026002437891624167 0 0.0018808230899705599 -0.00251084054501602 0 0.0019251270656954903 -0.0025695456030412709 0 0.0018706917739076997 -0.0025852557030058981 0 0.0019251270656954903 -0.0025695456030412709 0 0.0018706917739076997 -0.0025852557030058981 0 0.0019080809466115931 -0.0026384911794907779 0 0.0017752063334143314 -0.0025305959865850039 0 0.0018808230899705599 -0.00251084054501602 0 0.0018706917739076997 -0.0025852557030058981 0 0.0020910533871148222 -0.0025725221219778018 0 0.0020631717041076081 -0.0025680746332968898 0 0.0021253898087539042 -0.0026753053474533996 0 0.003095645588055865 -0.0029496322456602758 0 0.0030220744108800245 -0.0028815470908183463 0 0.0030623082229375514 -0.0028856581371639899 0 0.0028499223514064365 -0.0027635320964365909 0 0.0023172489638710525 -0.0026712126003865383 0 0.0019486409541718381 -0.0025565623713400881 0 0.0023172489638710525 -0.0026712126003865383 0 0.0019937957244826232 -0.00245626219923255 0 0.0019557043734866279 -0.0025176926551190599 0 0.0020460287015902552 -0.002533572047480245 0 0.0031108731492576415 -0.0029521729610172227 0 0.003095645588055865 -0.0029496322456602758 0 0.0030623082229375514 -0.0028856581371639899 0 0.003142020143284365 -0.0030328194934828271 0 0.0028499223514064365 -0.0027635320964365909 0 0.0031081921541452275 -0.0029787236446209794 0 0.003095645588055865 -0.0029496322456602758 0 0.0030220744108800245 -0.0028815470908183463 0 0.0024158654970043167 -0.0029553453429899132 0 0.0023172489638710525 -0.0026712126003865383 0 0.0020342474212990702 -0.0025292928596099191 0 0.0019745049648241717 -0.0026002437891624167 0 0.0020331390111187888 -0.0026452364135940501 0 0.0019557043734866279 -0.0025176926551190599 0 0.0020342474212990702 -0.0025292928596099191 0 0.0019745049648241717 -0.0026002437891624167 0 0.0023172489638710525 -0.0026712126003865383 0 0.0020523948391693069 -0.0025957278695033642 0 0.0020342474212990702 -0.0025292928596099191 0 0.0020331390111187888 -0.0026452364135940501 0 0.0021253898087539042 -0.0026753053474533996 0 0.0019745049648241717 -0.0026002437891624167 0 0.0020331390111187888 -0.0026452364135940501 0 0.0019727010221775071 -0.0026926662446282871 0 0.0020331390111187888 -0.0026452364135940501 0 0.0019727010221775071 -0.0026926662446282871 0 0.0020589331349332917 -0.0027224967890184001 0 0.0020331390111187888 -0.0026452364135940501 0 0.0020589331349332917 -0.0027224967890184001 0 0.0021253898087539042 -0.0026753053474533996 0 0.0018119997784268355 -0.0026493809898823534 0 0.0018706917739076997 -0.0025852557030058981 0 0.0019080809466115931 -0.0026384911794907779 0 0.0019745049648241717 -0.0026002437891624167 0 0.0019727010221775071 -0.0026926662446282871 0 0.0019080809466115931 -0.0026384911794907779 0 0.0019251270656954903 -0.0025695456030412709 0 0.0019745049648241717 -0.0026002437891624167 0 0.0019080809466115931 -0.0026384911794907779 0 0.0019727010221775071 -0.0026926662446282871 0 0.0019080809466115931 -0.0026384911794907779 0 0.0018932290401503266 -0.0027090210026321001 0 0.0018405425223172696 -0.0027480602763389262 0 0.0018119997784268355 -0.0026493809898823534 0 0.0018932290401503266 -0.0027090210026321001 0 0.0018119997784268355 -0.0026493809898823534 0 0.0019080809466115931 -0.0026384911794907779 0 0.0018932290401503266 -0.0027090210026321001 0 0.0018405425223172696 -0.0027480602763389262 0 0.0018932290401503266 -0.0027090210026321001 0 0.0019316241660603105 -0.0027631870903656406 0 0.0018405425223172696 -0.0027480602763389262 0 0.0018808911527017661 -0.0027981992424957768 0 0.0019316241660603105 -0.0027631870903656406 0 0.0018732484960228802 -0.002319935702501177 0 0.0019520450102745574 -0.002444835999213967 0 0.0018221284834452115 -0.0028145342048850569 0 0.0018808911527017661 -0.0027981992424957768 0 0.0019865333231516152 -0.0028612690130544916 0 0.0018405425223172696 -0.0027480602763389262 0 0.0018221284834452115 -0.0028145342048850569 0 0.0018808911527017661 -0.0027981992424957768 0 0.0018808911527017661 -0.0027981992424957768 0 0.0019316241660603105 -0.0027631870903656406 0 0.0019932605493601738 -0.002859875069168205 0 0.001973567533513848 -0.0028425595821686303 0 0.0019520450102745574 -0.002444835999213967 0 0.0019727010221775071 -0.0026926662446282871 0 0.0019316241660603105 -0.0027631870903656406 0 0.002006684710147763 -0.0027658318467039681 0 0.0019727010221775071 -0.0026926662446282871 0 0.0018932290401503266 -0.0027090210026321001 0 0.0019316241660603105 -0.0027631870903656406 0 0.002006684710147763 -0.0027658318467039681 0 0.0019932605493601738 -0.002859875069168205 0 0.0021121115017259506 -0.0027889066390757271 0 0.0019727010221775071 -0.0026926662446282871 0 0.002006684710147763 -0.0027658318467039681 0 0.0020589331349332917 -0.0027224967890184001 0 0.002006684710147763 -0.0027658318467039681 0 0.0020589331349332917 -0.0027224967890184001 0 0.0021121115017259506 -0.0027889066390757271 0 0.0019316241660603105 -0.0027631870903656406 0 0.002006684710147763 -0.0027658318467039681 0 0.0019932605493601738 -0.002859875069168205 0 0.0019932605493601738 -0.002859875069168205 0 0.0021308588534629937 -0.0028960558825923089 0 0.0021121115017259506 -0.0027889066390757271 0 0.0018321166867142531 -0.0019189351975847421 0 0.0019769631350002336 -0.002017999012843638 0 0.0018855997398267087 -0.0020795466451094683 0 0.0021414398074583178 -0.0022045746882533913 0 0.00217383548543815 -0.0022090561215201009 0 0.0021670953423347213 -0.002213836275284081 0 0.0019520450102745574 -0.002444835999213967 0 0.0021645090610863905 -0.0025531871624863162 0 0.0019520450102745574 -0.002444835999213967 0 0.0020957280498045778 -0.0021372439516049945 0 0.0016337842657610222 -0.0020474922586222939 0 0.0018321166867142531 -0.0019189351975847421 0 0.0018855997398267087 -0.0020795466451094683 0 0.0016337842657610222 -0.0020474922586222939 0 0.0016132657412533391 -0.0018411378622352796 0 0.0018321166867142531 -0.0019189351975847421 0 0.002291719480865526 -0.0028604551239590228 0 0.002198093157996957 -0.002854294748900422 0 0.0022578650099489067 -0.0029093350396670456 0 0.002291719480865526 -0.0028604551239590228 0 0.002198093157996957 -0.002854294748900422 0 0.0022001602710121702 -0.0028052760513368421 0 0.0022407240073494994 -0.0028961440847212294 0 0.002248875316599138 -0.0027360709982410516 0 0.0021645090610863905 -0.0025531871624863162 0 0.002248875316599138 -0.0027360709982410516 0 0.0021308588534629937 -0.0028960558825923089 0 0.002198093157996957 -0.002854294748900422 0 0.002260868637776115 -0.0029399487961587253 0 0.0021308588534629937 -0.0028960558825923089 0 0.002198093157996957 -0.002854294748900422 0 0.0021121115017259506 -0.0027889066390757271 0 0.0021121115017259506 -0.0027889066390757271 0 0.0021253898087539042 -0.0026753053474533996 0 0.0021905069109785075 -0.0027168302019171149 0 0.002198093157996957 -0.002854294748900422 0 0.0022001602710121702 -0.0028052760513368421 0 0.0021121115017259506 -0.0027889066390757271 0 0.0022001602710121702 -0.0028052760513368421 0 0.0021121115017259506 -0.0027889066390757271 0 0.0021905069109785075 -0.0027168302019171149 0 0.0020589331349332917 -0.0027224967890184001 0 0.0021121115017259506 -0.0027889066390757271 0 0.0021253898087539042 -0.0026753053474533996 0 0.0030817652065227292 -0.0026033654365984278 0 0.0031574914026509309 -0.0027392083593383095 0 0.0030384184199556711 -0.0027409181250258484 0 0.0026940569679487626 -0.0027646588745186369 0 0.0026377606502513032 -0.0027027255508156618 0 0.002291719480865526 -0.0028604551239590228 0 0.0022001602710121702 -0.0028052760513368421 0 0.0021905069109785075 -0.0027168302019171149 0 0.0031574914026509309 -0.0027392083593383095 0 0.0031176613949005223 -0.002834830858068565 0 0.0030384184199556711 -0.0027409181250258484 0 0.0028499223514064365 -0.0027635320964365909 0 0.0026377606502513032 -0.0027027255508156618 0 0.0032266183080597978 -0.0028488762735427824 0 0.0031574914026509309 -0.0027392083593383095 0 0.0031176613949005223 -0.002834830858068565 0 0.0020910533871148222 -0.0025725221219778018 0 0.0021253898087539042 -0.0026753053474533996 0 0.0021905069109785075 -0.0027168302019171149 0 0.0030389727577775742 -0.0029674132857305459 0 0.0030792811081726159 -0.0029737510372332592 0 0.0030855978735452524 -0.0029412471062685349 0 0.0030389727577775742 -0.0029674132857305459 0 0.0030855978735452524 -0.0029412471062685349 0 0.0030188630327627856 -0.0029207661216370581 0 0.0028499223514064365 -0.0027635320964365909 0 0.00313583152032691 -0.0028974845729674331 0 0.0029766093376533301 -0.0029863099488607156 0 0.0030389727577775742 -0.0029674132857305459 0 0.0030188630327627856 -0.0029207661216370581 0 0.0029766093376533301 -0.0029863099488607156 0 0.0030188630327627856 -0.0029207661216370581 0 0.0029456963425241569 -0.0028900808565421898 0 0.0029240998408507014 -0.0029586109040389257 0 0.0029766093376533301 -0.0029863099488607156 0 0.0029456963425241569 -0.0028900808565421898 0 0.00313583152032691 -0.0028974845729674331 0 0.0029468180829647569 -0.0028535144785820682 0 0.0029456963425241569 -0.0028900808565421898 0 0.0028892225922295591 -0.0029217532946930183 0 0.0028393834482529456 -0.002828642160981232 0 0.0029240998408507014 -0.0029586109040389257 0 0.0029456963425241569 -0.0028900808565421898 0 0.0028892225922295591 -0.0029217532946930183 0 0.002989263647277363 -0.0028270435699679674 0 0.0029231532386218887 -0.00275650266291375 0 0.0030384184199556711 -0.0027409181250258484 0 0.0029468180829647569 -0.0028535144785820682 0 0.0028501712575076995 -0.0028326379449254134 0 0.002989263647277363 -0.0028270435699679674 0 0.0029231532386218887 -0.00275650266291375 0 0.0028393834482529456 -0.002828642160981232 0 0.0031176613949005223 -0.002834830858068565 0 0.002989263647277363 -0.0028270435699679674 0 0.0030384184199556711 -0.0027409181250258484 0 0.0037963222247922391 -0.0028720732582680369 0 0.0045055058541890926 -0.0027554551678645946 0 0.0042462008931637828 -0.0026092576656323294 0 0.0042805725190609521 -0.0026232275759637035 0 0.0042645822782244672 -0.0026305211212161511 0 0.004500591897520119 -0.0029640230347628073 0 0.0045648447719993067 -0.0029558098704162801 0 0.0044939775634351012 -0.002868892260737904 0 0.0028479183092897627 -0.0029582318320300065 0 0.0028892225922295591 -0.0029217532946930183 0 0.0028393834482529456 -0.002828642160981232 0 0.0028479183092897627 -0.0029582318320300065 0 0.0028393834482529456 -0.002828642160981232 0 0.0027883777890652982 -0.0028142162621988915 0 0.0037963222247922391 -0.0028720732582680369 0 0.0034916374542835254 -0.0026935110814678663 0 0.0029231532386218887 -0.00275650266291375 0 0.0028393834482529456 -0.002828642160981232 0 0.0028461820363100748 -0.0027207900766558373 0 0.0028393834482529456 -0.002828642160981232 0 0.0027883777890652982 -0.0028142162621988915 0 0.0028461820363100748 -0.0027207900766558373 0 0.004281320426669467 -0.0026322964476824121 0 0.0042645822782244672 -0.0026305211212161511 0 0.0042833571270007439 -0.0026354908750329227 0 0.0042805725190609521 -0.0026232275759637035 0 0.004281320426669467 -0.0026322964476824121 0 0.0042645822782244672 -0.0026305211212161511 0 0.0027883777890652982 -0.0028142162621988915 0 0.0027355842525376116 -0.0026517650577767404 0 0.0028461820363100748 -0.0027207900766558373 0 0.0034916374542835254 -0.0026935110814678663 0 0.0035193001793283681 -0.0026510055142835078 0 0.0027355842525376116 -0.0026517650577767404 0 0.0028461820363100748 -0.0027207900766558373 0 0.0028501410056593025 -0.0026288725866104243 0 0.0028461820363100748 -0.0027207900766558373 0 0.0028501410056593025 -0.0026288725866104243 0 0.0029392473945334388 -0.0026683952336913276 0 0.0027355842525376116 -0.0026517650577767404 0 0.0028501410056593025 -0.0026288725866104243 0 0.0028115395190622381 -0.0025433302267497101 0 0.0028501410056593025 -0.0026288725866104243 0 0.0029346937705978702 -0.002553977893704536 0 0.0028115395190622381 -0.0025433302267497101 0 0.0027136572549896188 -0.0025315376519846294 0 0.0027355842525376116 -0.0026517650577767404 0 0.0027583869016544367 -0.0025417245297546199 0 0.0027355842525376116 -0.0026517650577767404 0 0.0027583869016544367 -0.0025417245297546199 0 0.0028115395190622381 -0.0025433302267497101 0 0.0030817652065227292 -0.0026033654365984278 0 0.0030384184199556711 -0.0027409181250258484 0 0.0029392473945334388 -0.0026683952336913276 0 0.0029231532386218887 -0.00275650266291375 0 0.0030384184199556711 -0.0027409181250258484 0 0.0029392473945334388 -0.0026683952336913276 0 0.0029231532386218887 -0.00275650266291375 0 0.0028461820363100748 -0.0027207900766558373 0 0.0029392473945334388 -0.0026683952336913276 0 0.0030817652065227292 -0.0026033654365984278 0 0.0029392473945334388 -0.0026683952336913276 0 0.0029346937705978702 -0.002553977893704536 0 0.0028501410056593025 -0.0026288725866104243 0 0.0029392473945334388 -0.0026683952336913276 0 0.0029346937705978702 -0.002553977893704536 0 0.0026940569679487626 -0.0027646588745186369 0 0.0027076672997488884 -0.0025349515881714579 0 0.0027076672997488884 -0.0025349515881714579 0 0.0023503012099785592 -0.001971681057018147 0 0.0023294188538843632 -0.0029211297128769378 0 0.0022628826059983664 -0.0028892321383493019 0 0.002291086557484692 -0.0029303825984190969 0 0.0023294188538843632 -0.0029211297128769378 0 0.0023625828552212421 -0.0029422023039160105 0 0.002291086557484692 -0.0029303825984190969 0 0.002291719480865526 -0.0028604551239590228 0 0.0023294188538843632 -0.0029211297128769378 0 0.0023625828552212421 -0.0029422023039160105 0 0.002291719480865526 -0.0028604551239590228 0 0.0023294188538843632 -0.0029211297128769378 0 0.0022578650099489067 -0.0029093350396670456 0 0.0023412464618163291 -0.0029245779970107862 0 0.002248875316599138 -0.0027360709982410516 0 0.0030817652065227292 -0.0026033654365984278 0 0.0029346937705978702 -0.002553977893704536 0 0.0029916104816354373 -0.0024424286104670376 0 0.0029346937705978702 -0.002553977893704536 0 0.0028930802849182497 -0.0024800604891904291 0 0.0029916104816354373 -0.0024424286104670376 0 0.0028930802849182497 -0.0024800604891904291 0 0.0029916104816354373 -0.0024424286104670376 0 0.0028261453600355959 -0.0023790249476644538 0 0.0027003904039273473 -0.0022403230864341565 0 0.0026944987467604105 -0.0022341454869348348 0 0.0027003573519418659 -0.0022248310222050954 0 0.0027076672997488884 -0.0025349515881714579 0 0.0026325313325296427 -0.0022786159150481812 0 0.0027076672997488884 -0.0025349515881714579 0 0.0027745424179181563 -0.0023032461694297082 0 0.0027054626655378415 -0.0022454868016030765 0 0.0027003904039273473 -0.0022403230864341565 0 0.0026843322523099574 -0.002260717335311802 0 0.0026981497163218416 -0.0022303594672239803 0 0.0026944987467604105 -0.0022341454869348348 0 0.0026816876542001778 -0.0022222427870969767 0 0.0024373361544660745 -0.00047062863539633793 0 0.0024469139404181689 -0.00047709618637885607 0 0.0024361313369402541 -0.0004755863550433019 0 0.0024373361544660745 -0.00047062863539633793 0 0.0024469139404181689 -0.00047709618637885607 0 0.0024645889656096849 -0.00054634614377059977 0 0.0025758009348993203 -0.0013795929765731618 0 0.0023503012099785592 -0.001971681057018147 0 0.0026981497163218416 -0.0022303594672239803 0 0.0027003904039273473 -0.0022403230864341565 0 0.0026944987467604105 -0.0022341454869348348 0 0.0028115395190622381 -0.0025433302267497101 0 0.0028261453600355959 -0.0023790249476644538 0 0.0026635332116074295 -0.0023879919653198006 0 0.0027136572549896188 -0.0025315376519846294 0 0.0027583869016544367 -0.0025417245297546199 0 0.0027482599342131611 -0.0024976453003038991 0 0.0027583869016544367 -0.0025417245297546199 0 0.0028115395190622381 -0.0025433302267497101 0 0.0027482599342131611 -0.0024976453003038991 0 0.0028145037227259558 -0.0025418003420713893 0 0.0026674051351150436 -0.0024432803323838474 0 0.0029346937705978702 -0.002553977893704536 0 0.0028930802849182497 -0.0024800604891904291 0 0.0028115395190622381 -0.0025433302267497101 0 0.0028930802849182497 -0.0024800604891904291 0 0.0028115395190622381 -0.0025433302267497101 0 0.0028261453600355959 -0.0023790249476644538 0 0.0027003904039273473 -0.0022403230864341565 0 0.0026843322523099574 -0.002260717335311802 0 0.0026925734162352465 -0.0022341998436354324 0 0.0026843322523099574 -0.002260717335311802 0 0.0026743751580137441 -0.0022403828431029845 0 0.0026925734162352465 -0.0022341998436354324 0 0.0026151207948571912 -0.0023042459775252542 0 0.0026843322523099574 -0.002260717335311802 0 0.0026743751580137441 -0.0022403828431029845 0 0.0026100130121089762 -0.0023052986065577011 0 0.0027745424179181563 -0.0023032461694297082 0 0.0026151207948571912 -0.0023042459775252542 0 0.0028261453600355959 -0.0023790249476644538 0 0.0026635332116074295 -0.0023879919653198006 0 0.0026151207948571912 -0.0023042459775252542 0 0.0026522221805814002 -0.0022223470563992082 0 0.0026743751580137441 -0.0022403828431029845 0 0.0030424088138451873 -0.0013611492940683587 0 0.0027916479648818064 -0.0014569361743479541 0 0.003057270022076352 -0.0015614439697525869 0 0.0032293165247340469 -0.0014536932338409959 0 0.0030424088138451873 -0.0013611492940683587 0 0.003057270022076352 -0.0015614439697525869 0 0.0026522221805814002 -0.0022223470563992082 0 0.0026743751580137441 -0.0022403828431029845 0 0.0026877916848409306 -0.0022111853632297259 0 0.0028189073820345661 -0.0018221215427869149 0 0.002633553423798821 -0.0010267831770110194 0 0.0026743751580137441 -0.0022403828431029845 0 0.0026925734162352465 -0.0022341998436354324 0 0.0026877916848409306 -0.0022111853632297259 0 0.0025248113546960322 0.00057072825574876575 0 0.0026768979615982495 0.0002746595005024546 0 0.0029996977044479847 0.00040692348275509665 0 0.002633553423798821 -0.0010267831770110194 0 0.0030193862561928787 -0.00053973313762920255 0 0.002633553423798821 -0.0010267831770110194 0 0.0022292341522195756 -1.5856701745085945e-05 0 0.0025248113546960322 0.00057072825574876575 0 0.0023510663099945333 0.00040786980608567292 0 0.0023856118515109262 0.00032081787499416625 0 0.0025248113546960322 0.00057072825574876575 0 0.0024715260401198466 0.00025404032529961784 0 0.0026768979615982495 0.0002746595005024546 0 0.0025248113546960322 0.00057072825574876575 0 0.0024715260401198466 0.00025404032529961784 0 0.0023856118515109262 0.00032081787499416625 0 0.0031833351829367775 -4.5927173513169187e-07 0 0.0026768979615982495 0.0002746595005024546 0 0.0029996977044479847 0.00040692348275509665 0 0.0024373361544660745 -0.00047062863539633793 0 0.0024410639801711919 -0.00047984348473647213 0 0.0024361313369402541 -0.0004755863550433019 0 0.0019695552034833786 -6.0293909427719316e-05 0 0.0017631674843750287 -0.00012632264692896439 0 0.0020687064119815552 -0.00025334350203066368 0 0.0023733985635123198 -0.00086662129875649636 0 0.0021761075587670552 -0.00029121213729203213 0 0.0019695552034833786 -6.0293909427719316e-05 0 0.0017631674843750287 -0.00012632264692896439 0 0.0018246866479985171 -2.7123375135663647e-07 0 0.0025758009348993203 -0.0013795929765731618 0 0.0023733985635123198 -0.00086662129875649636 0 0.0027003904039273473 -0.0022403230864341565 0 0.0026925734162352465 -0.0022341998436354324 0 0.0027003573519418659 -0.0022248310222050954 0 0.0024270928422384166 -0.00072393033598119503 0 0.0023606363044382595 -0.00069917254862885336 0 0.0023895817907267445 -0.00073784121041039791 0 0.002633553423798821 -0.0010267831770110194 0 0.0023733985635123198 -0.00086662129875649636 0 0.0026925734162352465 -0.0022341998436354324 0 0.0026877916848409306 -0.0022111853632297259 0 0.0027003573519418659 -0.0022248310222050954 0 0.0017631674843750287 -0.00012632264692896439 0 0.001652978300083547 3.2044514486870208e-05 0 0.0018246866479985171 -2.7123375135663647e-07 0 0.0023733985635123198 -0.00086662129875649636 0 0.0022292341522195756 -1.5856701745085945e-05 0 0.0022292341522195756 -1.5856701745085945e-05 0 0.0020320267960994972 0.00026053628389729441 0 0.0022485415921153469 0.00033046641065493596 0 0.0022919002856959959 0.00034501576534951125 0 0.002194653559590469 0.00035063468651110047 0 0.001652978300083547 3.2044514486870208e-05 0 0.0018246866479985171 -2.7123375135663647e-07 0 0.0019157708107396644 0.00015381983589826272 0 0.0023096753188431682 0.0004231409091166444 0 0.0022919002856959959 0.00034501576534951125 0 0.002194653559590469 0.00035063468651110047 0 0.0025248113546960322 0.00057072825574876575 0 0.0023026633884308187 0.00047470433223160892 0 0.0023510663099945333 0.00040786980608567292 0 0.0023096753188431682 0.0004231409091166444 0 0.0023510663099945333 0.00040786980608567292 0 0.0022919002856959959 0.00034501576534951125 0 0.0022292341522195756 -1.5856701745085945e-05 0 0.002196309165553021 0.00010879308101991449 0 0.0024715260401198466 0.00025404032529961784 0 0.0023856118515109262 0.00032081787499416625 0 0.0022919002856959959 0.00034501576534951125 0 0.0023510663099945333 0.00040786980608567292 0 0.0023856118515109262 0.00032081787499416625 0 0.0022919002856959959 0.00034501576534951125 0 0.0019695552034833786 -6.0293909427719316e-05 0 0.0018246866479985171 -2.7123375135663647e-07 0 0.0019157708107396644 0.00015381983589826272 0 0.0019695552034833786 -6.0293909427719316e-05 0 0.0019157708107396644 0.00015381983589826272 0 0.0021285373688960099 4.1912728804526638e-05 0 0.0022122915632431018 0.00029380607559713969 0 0.0021285373688960099 4.1912728804526638e-05 0 0.0022803984752154168 0.00012906869115926147 0 0.0022114619800441748 0.00029724552580214192 0 0.0020320267960994972 0.00026053628389729441 0 0.0022122915632431018 0.00029380607559713969 0 0.0019157708107396644 0.00015381983589826272 0 0.0021285373688960099 4.1912728804526638e-05 0 0.0021285373688960099 4.1912728804526638e-05 0 0.0022880199998286188 -9.4103943851304897e-05 0 0.0022803984752154168 0.00012906869115926147 0 0.0019695552034833786 -6.0293909427719316e-05 0 0.0021285373688960099 4.1912728804526638e-05 0 0.0021385409847106702 -0.00012966273108100902 0 0.0021285373688960099 4.1912728804526638e-05 0 0.0021385409847106702 -0.00012966273108100902 0 0.0022880199998286188 -9.4103943851304897e-05 0 0.0021385409847106702 -0.00012966273108100902 0 0.0020687064119815552 -0.00025334350203066368 0 0.0022446330930891594 -0.00028727856033478408 0 0.0021385409847106702 -0.00012966273108100902 0 0.0022880199998286188 -9.4103943851304897e-05 0 0.0022446330930891594 -0.00028727856033478408 0 0.0019695552034833786 -6.0293909427719316e-05 0 0.0021385409847106702 -0.00012966273108100902 0 0.0020687064119815552 -0.00025334350203066368 0 0.0024511081092389165 -0.00013591069265823987 0 0.0024747216877073351 -0.00030517849663950195 0 0.0023689491755656353 -0.00026674613504484271 0 0.0024511081092389165 -0.00013591069265823987 0 0.0022880199998286188 -9.4103943851304897e-05 0 0.0023689491755656353 -0.00026674613504484271 0 0.0022880199998286188 -9.4103943851304897e-05 0 0.0022446330930891594 -0.00028727856033478408 0 0.0023689491755656353 -0.00026674613504484271 0 0.0024511081092389165 -0.00013591069265823987 0 0.0022880199998286188 -9.4103943851304897e-05 0 0.0023970541537321603 1.4797769281303749e-05 0 0.0024511081092389165 -0.00013591069265823987 0 0.0023970541537321603 1.4797769281303749e-05 0 0.0025380499660835553 3.035932730621703e-05 0 0.0023970541537321603 1.4797769281303749e-05 0 0.0022803984752154168 0.00012906869115926147 0 0.0024249410124526256 0.00014199644436979126 0 0.0023970541537321603 1.4797769281303749e-05 0 0.0024249410124526256 0.00014199644436979126 0 0.0025380499660835553 3.035932730621703e-05 0 0.0022880199998286188 -9.4103943851304897e-05 0 0.0023970541537321603 1.4797769281303749e-05 0 0.0022803984752154168 0.00012906869115926147 0 0.0023925363124543122 0.0003225515351975309 0 0.0022803984752154168 0.00012906869115926147 0 0.0024249410124526256 0.00014199644436979126 0 0.0025838043350441954 0.00023938092744735039 0 0.0024249410124526256 0.00014199644436979126 0 0.0025380499660835553 3.035932730621703e-05 0 0.0025838043350441954 0.00023938092744735039 0 0.0025380499660835553 3.035932730621703e-05 0 0.0027401071537217609 7.6039159290738607e-05 0 0.0025380499660835553 3.035932730621703e-05 0 0.0027401071537217609 7.6039159290738607e-05 0 0.0026551765787921604 -9.0817836127954005e-05 0 0.0029501124266065742 0.0001083842078418875 0 0.0028933926299442025 -8.0095916327952289e-05 0 0.0027401071537217609 7.6039159290738607e-05 0 0.0028495576332637205 0.00027320065679075798 0 0.0025838043350441954 0.00023938092744735039 0 0.0027401071537217609 7.6039159290738607e-05 0 0.0028495576332637205 0.00027320065679075798 0 0.0029501124266065742 0.0001083842078418875 0 0.0027401071537217609 7.6039159290738607e-05 0 0.0028933926299442025 -8.0095916327952289e-05 0 0.0027296814584492901 -0.00022232080144946482 0 0.0026551765787921604 -9.0817836127954005e-05 0 0.0028933926299442025 -8.0095916327952289e-05 0 0.0027401071537217609 7.6039159290738607e-05 0 0.0026551765787921604 -9.0817836127954005e-05 0 0.0028933926299442025 -8.0095916327952289e-05 0 0.0028832585969462772 -0.00023610340357728909 0 0.0027296814584492901 -0.00022232080144946482 0 0.0024511081092389165 -0.00013591069265823987 0 0.0025380499660835553 3.035932730621703e-05 0 0.0026551765787921604 -9.0817836127954005e-05 0 0.0027296814584492901 -0.00022232080144946482 0 0.0026551765787921604 -9.0817836127954005e-05 0 0.0025641528574409708 -0.00021690013262437772 0 0.0024511081092389165 -0.00013591069265823987 0 0.0026551765787921604 -9.0817836127954005e-05 0 0.0025641528574409708 -0.00021690013262437772 0 0.0024511081092389165 -0.00013591069265823987 0 0.0025641528574409708 -0.00021690013262437772 0 0.0024747216877073351 -0.00030517849663950195 0 0.0024367797281275136 -0.00044576231181443933 0 0.0024193266603259643 -0.00043643490419121336 0 0.0022901353832960572 -0.00049116479055992632 0 0.0023486850485586108 -0.00044444889088857402 0 0.0023992710733391309 -0.00043301991636462007 0 0.0024747216877073351 -0.00030517849663950195 0 0.0025764395947023254 -0.00031281432110743455 0 0.0023992710733391309 -0.00043301991636462007 0 0.0025764395947023254 -0.00031281432110743455 0 0.002696754769945959 -0.00040300495042950012 0 0.0023992710733391309 -0.00043301991636462007 0 0.0025641528574409708 -0.00021690013262437772 0 0.0024747216877073351 -0.00030517849663950195 0 0.0025764395947023254 -0.00031281432110743455 0 0.0027296814584492901 -0.00022232080144946482 0 0.0025764395947023254 -0.00031281432110743455 0 0.002696754769945959 -0.00040300495042950012 0 0.0027296814584492901 -0.00022232080144946482 0 0.0025641528574409708 -0.00021690013262437772 0 0.0025764395947023254 -0.00031281432110743455 0 0.002778630684958571 -0.00043351884031265467 0 0.0024367797281275136 -0.00044576231181443933 0 0.0029551928846609432 -0.00039791952916950433 0 0.0028832585969462772 -0.00023610340357728909 0 0.002696754769945959 -0.00040300495042950012 0 0.0028832585969462772 -0.00023610340357728909 0 0.0027296814584492901 -0.00022232080144946482 0 0.002696754769945959 -0.00040300495042950012 0 0.0021669498335155552 -0.00037281172369271493 0 0.0022901353832960572 -0.00049116479055992632 0 0.0023437061527216024 -0.00039649823196393055 0 0.0020600327165664185 -0.001152585008893774 0 0.0020731758482312448 -0.0012352095830679085 0 0.0021669498335155552 -0.00037281172369271493 0 0.0021255371094367459 -0.00051461495275292076 0 0.0022901353832960572 -0.00049116479055992632 0 0.0023486850485586108 -0.00044444889088857402 0 0.0023437061527216024 -0.00039649823196393055 0 0.0023968426033354755 -0.00042835241736682974 0 0.0022901353832960572 -0.00049116479055992632 0 0.0023486850485586108 -0.00044444889088857402 0 0.0023437061527216024 -0.00039649823196393055 0 0.00217383548543815 -0.0022090561215201009 0 0.0021670953423347213 -0.002213836275284081 0 0.0021897398087328749 -0.0022228790790578181 0 0.00217383548543815 -0.0022090561215201009 0 0.0021897398087328749 -0.0022228790790578181 0 0.0022019130889513626 -0.0022152637578572339 0 0.0023437061527216024 -0.00039649823196393055 0 0.0024163262779778711 -0.00041338933835987219 0 0.0023968426033354755 -0.00042835241736682974 0 0.0020731758482312448 -0.0012352095830679085 0 0.0023000683247963475 -0.001307039814072919 0 0.0019769631350002336 -0.002017999012843638 0 0.0018855997398267087 -0.0020795466451094683 0 0.0021172535157014242 -0.0021048369670629112 0 0.0024163262779778711 -0.00041338933835987219 0 0.0024205868813585523 -0.00044279976807529934 0 0.0023968426033354755 -0.00042835241736682974 0 0.0020957280498045778 -0.0021372439516049945 0 0.0023000683247963475 -0.001307039814072919 0 0.0024469139404181689 -0.00047709618637885607 0 0.0025376543864062059 -0.0005719226114498301 0 0.0024645889656096849 -0.00054634614377059977 0 0.002248875316599138 -0.0027360709982410516 0 0.0023503012099785592 -0.001971681057018147 0 0.0023000683247963475 -0.001307039814072919 0 0.0023503012099785592 -0.001971681057018147 0 0.0021897398087328749 -0.0022228790790578181 0 0.0022019130889513626 -0.0022152637578572339 0 0.002211570597567632 -0.0022250286797085863 0 0.0020687064119815552 -0.00025334350203066368 0 0.0022446330930891594 -0.00028727856033478408 0 0.0023879036290445641 -0.00041700192737565133 0 0.0021761075587670552 -0.00029121213729203213 0 0.0024189334709980811 -0.00043712615033328171 0 0.0024469139404181689 -0.00047709618637885607 0 0.0024163262779778711 -0.00041338933835987219 0 0.0024205868813585523 -0.00044279976807529934 0 0.0024247351399879651 -0.00026880430325611519 0 0.0023000683247963475 -0.001307039814072919 0 0.0024361313369402541 -0.0004755863550433019 0 0.0023879036290445641 -0.00041700192737565133 0 0.0024091969884257598 -0.00043758350348182455 0 0.0024469139404181689 -0.00047709618637885607 0 0.0024205868813585523 -0.00044279976807529934 0 0.0024361313369402541 -0.0004755863550433019 0 0.0024205868813585523 -0.00044279976807529934 0 0.0024361313369402541 -0.0004755863550433019 0 0.0024091969884257598 -0.00043758350348182455 0 0.0022446330930891594 -0.00028727856033478408 0 0.0023496886982199779 -0.0003316117717994291 0 0.0023879036290445641 -0.00041700192737565133 0 0.0022446330930891594 -0.00028727856033478408 0 0.0023689491755656353 -0.00026674613504484271 0 0.0023496886982199779 -0.0003316117717994291 0 0.0024747216877073351 -0.00030517849663950195 0 0.0023689491755656353 -0.00026674613504484271 0 0.0023959390701343117 -0.00035637114551555541 0 0.0024747216877073351 -0.00030517849663950195 0 0.0023959390701343117 -0.00035637114551555541 0 0.0023992710733391309 -0.00043301991636462007 0 0.0023959390701343117 -0.00035637114551555541 0 0.0023496886982199779 -0.0003316117717994291 0 0.0023879036290445641 -0.00041700192737565133 0 0.0023689491755656353 -0.00026674613504484271 0 0.0023959390701343117 -0.00035637114551555541 0 0.0023496886982199779 -0.0003316117717994291 0 0.0023959390701343117 -0.00035637114551555541 0 0.0023879036290445641 -0.00041700192737565133 0 0.0023992710733391309 -0.00043301991636462007 0 0.0023486850485586108 -0.00044444889088857402 0 0.0023992710733391309 -0.00043301991636462007 0 0.0023968426033354755 -0.00042835241736682974 0 0.0023879036290445641 -0.00041700192737565133 0 0.0023992710733391309 -0.00043301991636462007 0 0.0023968426033354755 -0.00042835241736682974 0 0.0024205868813585523 -0.00044279976807529934 0 0.0023968426033354755 -0.00042835241736682974 0 0.0024091969884257598 -0.00043758350348182455 0 0.0023879036290445641 -0.00041700192737565133 0 0.0023968426033354755 -0.00042835241736682974 0 0.0024091969884257598 -0.00043758350348182455 0 
</DataArray>
</PointData>
<CellData Scalars="region_id,cross_section_updated," Vectors="" Tensors="stress,">
<DataArray type="Float64" Name="region_id" format="ascii">
5 5 5 5 5 5 5 5 5 5 5 5 5 5 5 6 5 5 5 5 5 5 5 5 6 5 5 5 5 6 5 5 5 5 5 6 5 5 5 5 5 5 6 5 5 5 5 5 6 5 5 5 5 5 5 5 5 6 5 5 6 5 5 5 5 5 6 5 5 6 6 5 5 6 5 6 5 5 5 5 5 5 6 5 5 5 5 5 5 5 5 5 6 5 5 5 5 5 5 5 5 5 5 6 5 5 6 5 5 5 6 5 5 5 5 5 5 5 5 5 5 5 6 5 5 6 5 6 5 5 5 6 5 5 6 5 6 5 5 5 6 5 5 5 6 5 5 5 6 5 6 6 5 5 5 6 6 5 5 5 5 5 5 5 5 5 5 5 5 5 5 5 5 5 5 5 5 5 5 5 5 5 5 5 5 5 5 5 5 5 5 5 5 5 6 5 5 5 5 5 5 5 5 5 5 5 5 5 5 5 5 5 5 5 5 5 5 5 5 5 5 5 5 5 5 6 5 5 5 5 5 5 5 5 6 6 5 5 5 5 5 6 5 5 5 5 5 5 5 5 5 5 5 5 6 5 5 5 5 6 5 5 6 6 5 6 5 5 5 6 5 6 5 5 5 5 6 5 5 5 5 6 5 5 5 5 5 5 5 5 5 5 5 5 5 5 5 5 5 5 5 5 5 5 5 5 5 5 5 5 5 5 5 6 5 5 5 5 5 5 5 5 5 5 5 5 5 5 5 5 5 5 5 5 6 5 5 5 5 5 5 5 6 5 5 6 5 5 5 5 5 5 6 5 5 5 5 5 5 5 5 5 5 5 5 5 5 5 6 5 5 5 5 6 5 5 6 5 6 5 5 5 5 5 5 5 6 5 5 5 5 6 5 5 5 5 5 5 5 5 5 5 5 5 6 5 5 5 5 5 5 5 5 5 5 5 5 5 5 5 5 5 5 5 5 5 5 5 5 5 5 5 5 5 5 5 5 6 5 5 6 5 5 5 5 5 5 5 5 6 5 5 5 5 5 5 5 5 5 5 6 5 5 5 6 6 5 5 5 6 5 5 5 5 5 5 5 5 5 5 6 5 5 6 5 5 6 5 5 5 5 5 5 5 5 5 5 5 5 6 5 5 5 5 5 5 6 5 5 6 5 5 5 5 5 5 6 5 5 5 5 6 6 5 5 5 6 5 6 5 5 5 5 5 5 5 6 5 5 5 5 5 5 5 5 5 5 5 5 5 5 5 6 6 5 5 5 5 5 5 5 5 5 5 5 6 5 5 5 5 5 5 5 5 5 5 5 5 5 5 5 5 5 5 5 5 5 5 6 5 6 5 5 5 6 5 5 5 5 5 5 6 5 5 5 5 5 5 5 5 5 5 5 5 5 5 5 5 5 5 5 5 5 5 5 5 5 5 5 5 5 5 5 5 5 5 5 5 6 5 5 6 5 5 5 5 5 5 5 5 6 5 5 5 5 5 5 5 5 5 5 5 5 5 5 5 5 5 5 5 5 5 6 5 5 6 5 5 5 6 5 5 6 5 5 5 5 6 5 6 5 5 5 5 6 5 5 5 5 6 6 5 5 5 6 5 6 5 5 5 5 5 5 5 5 5 6 6 5 6 5 5 5 5 5 5 5 5 5 5 5 5 5 5 5 5 5 5 5 5 5 5 5 6 5 5 6 5 5 5 5 5 5 5 5 5 5 6 5 5 5 5 5 5 6 5 5 5 6 5 5 5 5 5 5 5 5 5 5 5 5 5 5 5 5 6 5 5 6 5 5 5 6 5 5 6 6 5 5 5 5 5 6 5 5 5 5 5 5 5 5 6 5 5 5 5 5 5 5 5 6 5 6 5 5 5 6 5 6 5 5 5 5 5 6 5 6 5 5 5 5 5 6 5 5 6 5 5 5 5 6 6 5 5 5 6 5 5 5 5 6 5 5 6 5 5 5 5 5 5 5 5 5 5 5 5 5 5 6 5 5 5 5 6 5 5 5 6 5 6 6 5 5 5 5 5 5 5 6 6 5 5 5 5 6 5 6 5 5 6 5 5 6 5 5 5 5 5 5 5 5 5 6 6 5 5 5 6 6 5 5 5 5 6 5 6 5 5 6 5 5 5 5 6 5 5 5 5 6 6 5 5 5 5 5 5 5 6 6 5 5 6 5 5 5 5 5 5 5 6 5 5 6 5 5 6 6 5 5 5 5 6 5 5 5 5 5 6 5 5 5 5 5 5 5 5 5 5 5 5 5 5 5 5 6 5 5 5 5 6 5 6 5 6 5 5 5 5 5 6 5 5 5 5 5 5 5 6 5 5 5 5 5 5 5 5 5 5 5 5 6 5 6 5 5 6 5 5 5 5 5 5 6 5 6 5 5 5 5 5 5 6 5 5 5 6 5 5 5 5 5 6 5 5 5 6 5 6 6 5 5 6 5 5 5 5 5 5 5 6 5 6 5 5 5 5 5 5 5 5 5 6 5 5 6 6 5 5 5 5 5 6 5 6 5 5 5 5 6 5 6 5 6 5 5 5 5 5 5 5 5 5 5 5 6 5 5 5 5 5 5 6 5 5 5 5 5 5 5 5 6 5 5 6 5 6 5 5 5 5 6 5 5 5 5 5 5 5 5 5 5 5 5 6 6 5 5 5 6 6 5 6 6 6 6 5 5 5 5 5 5 6 5 5 5 5 5 5 5 5 5 5 6 6 5 5 5 5 5 5 5 5 5 5 5 5 5 5 5 5 6 5 6 5 5 5 5 5 6 5 6 5 5 5 5 5 5 6 5 5 5 5 5 5 5 5 5 5 5 5 5 5 5 5 5 5 5 5 5 6 5 5 5 5 5 5 5 5 5 5 6 5 5 6 5 5 5 5 5 5 5 6 6 6 5 5 6 5 5 5 5 5 5 5 5 5 5 5 5 5 5 5 5 5 6 5 5 6 5 5 5 5 6 6 6 6 5 6 5 6 5 5 5 5 5 5 5 5 6 5 5 6 5 5 5 5 5 5 5 6 5 5 5 6 5 6 5 5 5 5 6 5 5 6 5 5 5 5 5 5 5 5 5 5 5 5 5 5 5 5 5 5 5 5 5 5 6 5 5 5 6 5 5 5 5 5 5 5 6 5 5 5 6 5 5 5 5 5 5 5 5 5 6 5 5 5 5 5 6 5 5 5 6 6 5 5 5 5 5 5 5 6 5 5 5 5 6 5 5 6 5 5 5 5 5 5 6 5 5 5 5 5 5 5 5 5 5 5 5 5 5 5 5 5 5 5 5 5 5 5 5 5 5 5 5 5 5 5 6 5 5 5 5 5 5 5 6 5 6 5 5 5 6 5 5 5 5 5 6 5 5 5 5 5 5 5 5 5 5 5 5 5 5 5 5 5 5 5 5 5 5 6 5 5 5 6 5 5 5 6 5 5 5 5 5 5 5 5 5 6 5 5 5 5 5 5 6 5 5 6 5 5 5 5 5 5 5 5 5 6 5 5 5 5 5 5 5 5 5 5 6 5 5 5 5 5 5 5 5 5 5 5 5 5 5 6 5 5 6 5 5 5 5 5 6 5 5 5 5 5 5 5 5 5 6 5 5 5 5 5 5 5 6 5 5 5 6 5 5 5 5 5 5 5 5 5 5 5 5 5 5 5 5 5 5 5 5 5 5 5 5 5 5 5 6 5 5 5 5 5 5 5 5 5 5 5 5 5 5 5 5 5 5 5 6 5 5 5 5 5 5 5 5 5 5 5 5 5 5 5 5 5 5 5 5 6 5 5 5 5 5 5 5 5 6 5 5 5 5 5 5 5 5 5 5 6 5 6 5 5 5 5 6 5 5 5 5 5 5 5 5 5 5 5 5 5 5 5 5 5 5 5 5 5 5 5 5 5 5 5 6 5 5 6 5 5 5 5 5 5 6 5 5 5 6 5 5 5 5 5 6 5 5 5 6 5 5 5 5 6 5 5 5 5 5 6 5 5 5 5 5 5 5 5 5 5 6 5 6 5 5 6 5 6 5 5 5 5 5 5 6 5 5 5 5 5 5 5 5 6 5 5 5 6 5 6 5 5 5 5 5 5 5 5 5 5 6 5 5 5 5 5 5 5 5 5 5 5 5 5 5 5 5 5 5 5 5 5 5 5 5 5 5 5 5 5 5 5 5 5 5 5 5 5 5 5 5 5 5 5 5 5 5 5 5 5 5 5 5 5 5 5 5 5 5 5 5 6 5 5 5 5 5 5 5 6 5 5 5 6 5 6 5 5 5 5 5 5 5 5 5 6 5 5 5 5 5 5 5 5 5 5 5 5 5 5 5 5 5 5 5 5 5 5 5 5 5 5 5 5 5 5 5 5 5 5 5 5 5 5 5 5 5 5 5 5 5 5 5 5 5 5 5 5 5 5 5 5 6 5 5 5 5 5 5 5 5 5 5 5 5 5 6 5 5 5 5 5 5 5 5 5 5 5 5 5 5 6 5 5 5 5 5 6 5 5 5 5 5 5 5 5 5 5 5 5 5 5 5 5 5 5 5 5 5 5 5 5 5 5 5 5 6 5 6 5 5 5 5 5 6 5 5 6 5 5 5 5 5 5 5 5 5 5 5 5 5 6 5 5 5 5 5 6 5 5 5 5 5 5 5 5 5 5 5 5 5 5 5 5 5 5 5 5 6 5 5 5 5 5 6 5 5 5 5 5 5 6 5 5 5 5 5 5 5 5 5 5 5 5 5 5 5 6 5 5 6 5 5 5 5 5 5 5 5 5 5 5 5 5 5 5 5 5 5 5 5 5 6 5 5 5 6 5 5 5 5 5 5 5 5 5 5 5 5 5 5 5 5 5 5 5 5 5 5 5 5 5 5 5 5 5 5 5 5 5 5 5 5 6 5 5 5 6 6 5 6 5 5 5 5 5 5 5 5 5 5 5 5 5 5 6 5 5 5 5 5 5 5 5 5 5 5 5 5 5 5 5 5 5 5 5 5 5 5 5 5 5 6 5 5 5 5 5 5 5 5 5 5 5 6 5 5 5 6 5 5 5 5 5 6 5 5 5 5 5 5 5 6 5 5 5 5 5 5 5 5 5 5 6 5 5 5 5 5 5 5 5 5 6 5 5 5 5 5 5 5 5 5 5 5 5 5 5 5 6 5 5 5 6 5 6 5 5 6 6 5 5 5 5 5 6 5 5 5 5 5 5 5 5 6 6 6 5 5 5 6 5 5 6 6 5 5 5 5 5 5 5 5 5 5 5 5 5 5 5 5 5 5 5 5 5 5 5 5 5 5 5 5 5 5 5 5 5 5 5 5 5 5 5 5 5 5 5 5 5 5 5 5 5 5 5 5 5 5 6 5 5 5 5 6 5 5 5 5 5 6 5 5 5 5 5 5 5 5 5 5 5 5 6 5 5 5 5 6 5 5 5 5 5 5 5 5 5 5 5 5 5 5 5 5 5 5 5 5 5 5 5 5 5 5 6 5 6 5 5 5 5 5 5 5 5 5 5 6 5 5 5 6 5 5 5 5 5 5 6 5 5 5 5 5 5 6 5 5 5 5 5 6 6 6 6 5 5 5 5 5 5 5 5 5 5 5 5 5 5 5 5 5 5 5 6 5 6 5 5 5 5 5 5 5 6 5 5 5 5 5 6 5 5 5 6 5 5 6 6 5 6 6 6 5 5 5 5 5 5 5 5 6 5 5 6 6 6 5 5 5 6 6 5 5 6 5 5 5 6 5 5 5 6 5 5 5 5 5 5 5 5 5 5 5 5 6 5 5 5 5 5 5 5 5 5 5 6 5 5 5 5 5 5 5 6 5 5 5 6 5 5 5 5 5 5 5 6 5 5 5 5 5 5 5 5 5 5 5 5 5 5 5 5 5 5 5 5 5 5 6 5 5 5 5 5 5 5 5 5 5 5 5 5 5 5 5 5 5 5 5 5 5 5 6 5 5 6 5 5 5 5 5 5 5 5 5 5 5 5 5 5 5 5 5 5 5 5 5 5 5 5 5 6 5 5 5 5 5 5 5 5 5 5 5 5 5 6 5 5 5 5 5 5 5 5 5 5 5 5 5 6 5 5 6 5 5 5 5 5 5 5 5 6 5 5 5 6 5 5 5 5 5 5 5 6 5 6 5 6 5 5 6 5 6 5 5 5 5 5 6 5 6 5 5 5 6 5 5 5 5 5 5 5 5 5 5 5 5 6 5 5 5 5 6 5 5 6 5 5 5 5 5 5 5 6 5 5 5 6 5 5 5 5 6 5 5 6 5 5 6 5 6 5 5 5 5 5 5 5 5 5 6 5 5 5 5 6 6 5 5 5 5 5 5 5 5 6 5 6 5 5 5 6 6 5 5 5 5 5 5 5 6 5 5 5 5 5 6 5 5 5 6 5 5 5 5 5 5 5 6 5 5 5 5 5 5 5 5 5 5 5 5 6 5 5 6 5 5 5 5 5 5 5 5 5 5 6 5 5 5 5 5 5 5 5 5 5 5 5 6 5 5 5 5 5 5 5 5 5 5 5 5 5 5 5 6 5 5 5 6 5 5 5 5 5 5 5 5 5 5 5 5 5 5 5 6 5 6 5 5 5 5 5 5 5 5 5 5 5 5 5 6 5 5 5 5 5 5 5 5 5 5 5 5 5 5 5 5 5 5 5 5 5 5 5 5 5 5 5 5 5 5 5 5 5 5 5 5 5 5 5 5 5 5 5 5 5 5 6 5 5 5 5 5 6 5 5 5 5 5 5 5 5 5 5 5 5 5 5 5 5 5 6 5 5 5 5 5 5 5 5 5 5 5 5 5 5 5 5 5 5 5 5 5 5 5 5 5 5 5 5 5 5 5 5 5 6 5 5 5 6 5 5 5 5 5 5 5 5 5 5 5 6 5 5 5 5 5 5 6 5 5 5 5 5 6 5 5 5 5 5 5 5 5 5 5 5 6 5 5 5 5 6 5 5 6 5 5 5 5 6 6 6 6 5 5 6 6 5 6 6 5 5 5 5 5 5 5 5 5 5 6 5 5 5 5 5 5 5 5 5 5 5 5 5 5 5 5 6 5 6 5 5 6 5 5 5 6 5 5 5 6 5 5 5 5 5 5 5 5 5 5 6 5 5 5 5 5 5 5 5 5 5 6 5 5 5 5 5 5 6 5 5 5 5 5 5 5 5 5 5 5 5 5 5 6 5 5 5 5 6 5 5 5 5 5 6 5 5 5 5 5 5 5 5 5 5 5 5 5 5 5 5 5 5 5 5 5 5 5 5 5 5 5 5 5 5 5 5 5 5 5 5 5 5 5 5 5 5 5 5 5 5 5 5 5 5 5 5 5 5 5 5 5 5 5 5 5 5 5 5 5 5 5 5 5 5 5 5 5 5 5 5 5 5 6 5 5 5 5 5 5 5 5 5 5 5 5 5 5 5 5 5 6 5 5 5 5 5 5 5 6 5 5 5 5 6 5 5 5 5 5 5 5 5 5 5 6 5 5 5 6 5 6 5 5 5 5 5 6 5 5 6 6 5 5 5 5 5 5 5 6 5 5 5 5 5 5 5 5 5 5 5 5 6 5 5 5 5 6 5 5 5 5 5 5 5 5 6 6 5 5 5 5 5 5 5 5 5 5 5 5 5 6 5 6 5 5 6 5 5 6 5 5 5 5 5 5 5 6 5 5 5 6 5 5 5 5 5 6 5 5 5 5 5 5 6 5 5 5 5 5 5 5 5 5 5 6 5 5 5 5 5 5 5 5 5 5 5 5 5 6 5 5 5 5 5 5 5 5 5 5 5 5 6 5 5 5 5 6 5 5 5 6 6 5 5 5 5 5 5 5 6 6 5 5 5 5 5 6 5 5 5 5 5 5 5 6 5 5 6 5 5 5 5 5 6 5 5 5 5 5 5 5 6 5 5 5 5 6 5 5 5 5 5 5 5 5 5 5 5 5 5 5 5 5 5 6 5 5 5 5 5 5 5 6 5 5 5 5 5 5 5 5 5 5 5 5 5 5 5 5 5 5 6 5 5 5 5 5 5 5 5 5 5 6 5 5 5 5 5 5 5 5 5 5 5 5 5 5 5 5 5 5 5 5 5 5 5 5 5 6 5 5 5 5 5 5 5 6 5 5 5 5 5 6 5 6 6 5 5 5 5 5 5 5 5 5 5 5 5 5 5 5 5 6 5 5 5 6 5 5 5 5 5 6 5 5 5 5 5 5 5 5 5 5 5 6 5 5 6 5 5 5 5 5 5 5 5 5 5 5 5 5 5 5 5 5 5 5 5 5 5 5 5 5 5 5 5 5 5 5 5 5 5 5 5 6 5 6 5 5 5 6 5 5 5 5 5 5 5 5 5 5 5 5 5 6 5 5 5 6 5 5 5 5 5 5 5 5 5 5 5 5 5 5 5 5 5 5 5 5 5 5 5 5 5 5 6 5 5 5 6 5 5 5 5 5 5 5 5 5 5 5 5 6 5 5 5 6 5 5 5 5 5 6 5 5 5 5 5 5 5 5 5 5 5 5 5 5 5 5 5 5 5 5 5 6 5 5 5 5 5 5 5 5 5 5 5 5 5 5 5 5 6 5 6 5 5 5 5 5 5 5 5 5 5 5 5 5 5 5 5 5 5 5 6 5 5 6 5 5 5 5 5 5 6 5 5 5 5 5 5 5 5 5 5 5 5 5 6 5 6 6 5 5 5 5 6 5 5 5 5 5 5 5 5 5 5 5 5 5 5 5 5 5 5 5 5 5 5 5 5 6 5 5 5 5 5 5 5 5 5 5 5 5 6 5 5 5 5 6 5 6 5 5 5 5 5 6 5 5 5 5 5 5 5 5 5 5 5 6 6 6 5 5 6 6 5 5 5 5 5 6 5 5 6 5 5 5 5 5 5 5 6 5 5 5 5 5 5 5 5 5 5 5 5 5 5 6 5 5 5 5 5 5 5 5 5 6 5 5 6 5 5 6 5 6 5 5 6 5 6 5 6 5 5 5 6 5 6 5 6 6 6 5 5 5 6 5 5 6 6 6 5 5 5 6 5 5 5 6 6 5 5 5 6 6 6 5 5 5 5 5 5 5 5 5 5 5 6 5 5 5 5 5 5 6 5 5 6 5 5 5 5 5 5 5 5 5 5 5 5 5 5 6 5 5 6 6 5 6 5 6 5 5 5 5 5 5 5 5 5 6 5 5 5 5 5 6 5 5 5 5 5 5 5 5 5 5 5 5 6 5 5 5 5 6 6 5 5 5 5 6 6 5 6 6 5 5 5 5 5 5 5 5 5 5 5 6 6 5 5 5 5 5 5 5 5 5 5 5 5 5 5 5 5 5 5 5 5 5 5 5 5 6 5 5 5 5 5 6 5 6 5 5 5 5 5 5 5 5 5 5 5 6 5 5 5 6 5 5 5 5 5 5 5 5 5 5 5 5 5 5 5 5 5 5 5 5 5 5 6 5 5 5 6 5 5 5 5 5 5 5 5 5 5 5 5 5 5 5 5 5 5 5 5 5 5 5 5 5 5 5 5 5 5 5 5 5 5 5 5 5 5 5 5 5 5 5 5 5 5 6 5 5 6 5 5 5 6 5 5 5 5 5 5 5 5 5 5 5 5 5 5 5 5 5 5 5 5 5 5 5 5 5 5 6 6 5 6 5 5 6 6 5 5 6 6 5 5 5 5 5 5 6 5 5 5 5 5 5 5 6 5 6 5 6 5 5 5 5 6 5 5 5 5 5 6 5 5 5 5 5 5 5 5 5 5 5 5 6 6 6 5 5 5 6 5 5 5 5 5 5 5 6 5 6 5 6 5 6 5 5 5 6 6 5 5 5 5 5 5 5 5 5 5 6 5 6 5 5 5 5 5 6 5 6 5 5 5 5 5 5 5 5 5 6 6 5 5 6 5 6 6 5 5 5 5 6 6 5 5 5 6 5 5 6 5 5 5 5 6 5 5 5 5 6 5 6 5 5 5 5 5 5 5 5 6 5 5 6 5 5 6 5 5 5 5 6 5 6 5 6 6 5 6 5 6 6 5 5 6 6 6 6 6 5 5 5 5 5 5 5 5 5 5 5 5 5 5 5 5 5 5 6 5 5 5 6 6 5 5 5 5 5 5 6 5 5 5 6 6 5 5 5 5 5 6 5 6 5 6 6 5 5 5 5 5 6 5 6 5 6 5 5 6 5 5 5 6 5 5 6 6 5 6 5 6 5 5 5 6 6 5 6 6 5 5 5 5 5 5 5 5 5 6 5 6 5 5 5 6 5 5 6 6 5 6 5 5 5 5 5 6 6 5 5 6 5 5 5 5 5 5 5 5 6 5 5 5 5 5 6 5 6 6 5 5 5 5 6 5 6 5 6 5 6 5 5 5 5 5 5 6 5 5 5 5 5 5 5 5 5 5 5 5 5 5 6 5 6 5 5 6 5 5 5 5 5 5 5 5 6 5 6 5 5 5 6 5 5 5 5 5 6 5 5 5 5 6 5 6 5 6 5 5 5 6 5 5 5 6 5 6 5 6 5 6 5 6 5 5 5 5 5 5 5 5 5 5 5 5 5 5 5 5 5 5 5 5 5 5 5 6 5 5 5 5 5 5 5 5 5 5 5 5 5 5 5 5 5 5 5 5 5 5 5 5 5 5 5 5 5 5 5 5 5 5 5 5 6 6 5 5 5 5 5 5 6 5 5 6 5 6 5 6 5 5 5 6 5 5 6 5 5 6 5 5 6 5 5 5 5 5 5 5 5 5 5 5 5 5 5 5 5 5 5 5 5 5 6 5 5 5 5 5 5 5 6 5 6 5 5 5 5 5 5 5 5 5 5 5 5 5 5 6 5 5 5 5 5 5 5 5 5 5 5 5 6 5 5 5 5 5 5 6 5 6 6 5 5 5 5 5 5 5 5 6 5 5 5 5 5 5 5 5 5 6 5 5 5 5 5 5 5 5 5 5 5 5 5 5 5 6 5 5 5 6 5 5 5 5 5 5 5 5 5 5 5 5 5 5 5 5 6 5 6 5 5 5 6 5 5 6 5 5 5 5 5 5 5 5 5 5 5 5 5 5 5 5 5 5 5 6 5 5 6 5 5 5 5 5 5 5 5 5 5 5 5 5 5 5 5 5 5 5 5 5 5 5 5 5 5 5 5 5 5 5 5 5 5 5 5 5 5 5 5 5 5 5 5 5 5 5 6 5 5 5 5 5 5 5 5 5 5 5 5 6 5 5 5 5 5 5 6 5 5 6 6 5 6 6 6 5 5 5 5 5 6 5 5 6 6 5 5 6 5 6 6 6 5 5 6 5 5 5 5 6 5 5 5 5 5 6 5 5 5 5 5 5 6 5 6 5 6 5 5 5 5 5 5 5 5 6 5 5 5 5 5 5 5 5 5 5 6 5 5 6 5 5 5 5 5 5 5 5 5 5 5 6 5 5 5 5 5 5 5 5 6 6 5 5 6 5 5 5 5 6 5 5 6 5 5 5 6 5 6 6 5 5 5 6 5 6 6 5 6 5 5 6 6 5 5 6 5 5 5 6 6 5 5 5 5 6 5 5 5 5 6 5 6 6 5 6 6 5 5 5 5 5 5 5 5 6 5 5 5 5 5 5 5 6 6 5 5 6 5 5 5 6 5 6 5 6 6 5 6 5 5 6 5 6 5 5 6 6 5 5 5 5 5 6 5 5 5 5 6 6 5 5 5 5 5 6 5 5 6 5 5 5 5 5 5 5 6 5 5 5 6 5 5 5 5 5 6 5 5 5 6 5 6 5 5 5 5 5 6 5 5 5 5 5 5 5 5 6 5 5 5 5 5 5 5 5 5 6 5 5 5 5 5 5 5 5 5 6 6 5 5 5 5 5 5 6 5 6 5 5 5 6 6 5 5 6 5 5 5 5 5 5 5 5 5 5 5 5 5 5 5 5 5 5 5 5 5 5 5 5 5 5 5 5 5 5 5 5 5 5 6 5 5 6 5 5 5 6 5 5 5 6 5 5 5 5 5 5 6 6 5 5 5 5 5 5 6 5 5 5 5 5 5 5 5 5 5 5 6 5 5 5 6 5 5 5 5 5 5 5 5 5 5 5 6 5 5 5 5 5 6 5 6 5 5 5 6 5 5 6 6 5 6 5 5 5 5 5 6 5 5 5 5 5 5 5 5 5 6 5 5 5 6 5 5 5 5 5 5 6 5 5 5 6 5 5 5 5 5 5 5 5 5 5 6 5 5 6 5 6 6 5 5 6 5 6 6 6 5 5 5 5 5 5 5 6 6 5 5 5 6 5 5 6 5 5 5 5 5 5 5 5 5 6 5 6 5 6 5 5 5 5 5 5 5 5 5 6 5 5 5 5 6 5 5 5 5 5 5 5 5 5 5 6 5 5 5 5 6 5 5 5 5 5 5 5 5 5 5 5 5 6 6 6 5 5 5 5 5 5 5 6 5 5 6 5 6 5 5 5 5 5 6 6 5 5 5 5 5 5 5 5 5 6 5 5 6 6 5 5 5 5 6 5 6 5 5 5 5 6 5 5 5 6 5 5 5 5 5 5 5 5 5 5 5 5 5 5 5 5 5 5 5 5 5 5 5 5 5 5 6 6 5 5 5 5 6 5 6 6 5 6 5 5 5 5 5 5 5 5 5 5 6 5 5 5 5 5 5 5 6 5 5 5 6 5 5 5 5 6 5 5 5 5 5 5 6 5 5 5 5 5 5 6 6 5 6 5 6 5 5 5 5 5 5 6 5 5 5 5 5 6 5 5 5 5 5 5 6 5 5 5 5 5 5 5 6 5 5 5 6 5 5 5 6 5 5 5 6 6 5 6 5 5 5 5 5 5 5 5 5 5 5 5 5 5 5 5 5 5 5 5 5 5 6 6 5 6 5 5 5 5 6 5 5 6 5 5 6 5 5 5 5 6 5 5 6 6 5 5 5 5 6 5 5 5 5 5 5 5 5 5 5 5 5 5 5 6 5 5 5 5 6 5 5 5 6 5 5 5 5 6 5 6 5 6 5 6 5 5 6 5 5 5 5 5 5 6 6 5 5 6 5 5 5 5 6 5 5 5 5 5 5 5 5 5 5 5 6 5 5 5 5 6 6 6 5 5 6 6 5 5 6 6 5 5 5 5 5 6 5 5 5 5 5 6 6 5 6 5 5 5 5 5 5 5 5 5 5 6 5 5 5 5 5 5 5 5 5 5 5 5 5 5 5 5 5 5 5 5 5 5 5 5 5 5 6 5 5 5 6 5 5 6 5 5 5 5 5 5 5 5 5 5 5 6 5 5 5 5 5 5 5 5 5 5 5 5 5 5 5 5 5 5 5 5 6 6 5 5 5 5 6 5 5 6 5 6 5 5 5 5 5 6 5 6 5 5 5 6 6 5 5 5 5 6 6 5 5 5 5 5 5 5 5 5 5 5 6 6 6 5 5 5 6 5 6 5 5 6 5 5 5 5 6 5 5 5 6 5 6 5 6 5 5 5 6 6 6 6 5 5 6 5 5 6 5 5 6 6 5 5 6 5 5 6 5 5 5 6 5 5 5 5 5 5 5 5 5 5 5 5 5 5 5 5 5 5 5 5 5 5 5 5 5 5 5 6 5 5 5 5 5 6 5 5 6 5 5 5 5 5 5 5 5 6 5 5 5 5 5 5 5 5 5 5 5 5 6 5 5 5 5 5 5 6 5 6 5 5 5 5 5 6 5 5 5 5 5 6 5 5 6 5 5 5 6 5 5 5 6 5 5 5 5 5 5 5 5 6 5 5 5 5 5 5 5 5 5 6 5 5 5 5 5 5 5 5 6 5 5 6 5 5 5 5 5 5 5 5 5 5 5 5 5 5 5 6 5 5 6 5 5 6 5 5 6 5 6 5 5 5 5 5 5 5 5 5 5 5 6 5 5 6 5 5 5 5 6 5 5 6 5 5 5 6 5 5 5 6 5 6 6 5 5 5 6 5 5 5 5 6 5 5 5 5 5 6 5 5 6 6 6 5 5 5 5 5 5 5 6 5 6 5 5 6 5 5 5 5 5 6 5 5 6 5 6 6 5 5 5 5 5 6 5 5 5 5 5 5 5 6 5 5 6 5 5 6 5 6 5 5 5 5 5 5 6 5 6 5 5 5 5 5 5 5 5 5 5 5 5 5 5 6 6 5 5 6 5 5 5 6 5 5 5 5 5 5 5 5 5 5 6 5 5 6 5 5 5 5 5 5 5 5 6 5 5 5 5 5 5 5 5 5 5 5 5 5 5 5 5 5 5 5 5 5 5 5 5 6 5 6 5 5 5 5 5 5 6 5 5 6 5 5 5 5 5 6 5 5 5 5 6 6 5 6 5 5 5 5 5 5 6 6 5 5 5 5 5 5 6 5 5 5 6 5 5 5 5 5 5 5 6 5 5 5 5 5 6 5 5 5 5 5 5 6 5 5 5 5 6 6 5 5 5 5 5 5 5 5 6 5 6 5 5 6 5 6 5 6 5 6 5 5 5 6 5 5 5 5 5 5 6 5 5 5 5 6 5 6 5 5 6 5 5 5 5 5 5 5 5 5 5 6 5 5 5 5 5 6 5 5 6 5 5 5 5 5 5 6 5 5 5 5 5 5 5 5 5 5 5 5 5 5 6 5 5 5 5 5 5 6 5 5 5 5 6 5 5 5 5 5 5 5 6 5 5 5 5 6 5 5 5 5 5 5 5 5 5 5 5 5 5 5 5 5 5 5 5 5 5 6 5 5 5 5 5 6 5 5 5 5 5 5 5 5 5 5 5 5 5 5 5 5 5 5 5 5 5 5 5 5 5 5 5 5 6 6 5 5 5 5 6 5 6 5 5 5 5 5 5 5 5 5 5 5 5 5 5 5 5 5 5 5 5 5 5 5 5 5 5 5 5 5 6 5 5 5 6 5 5 5 5 5 5 5 5 5 5 5 5 5 5 5 5 5 5 5 6 5 5 5 5 5 5 5 5 5 5 5 5 5 5 5 5 5 5 5 5 5 5 5 5 5 5 5 5 5 5 5 5 5 5 5 5 5 6 5 5 5 5 5 5 5 5 6 5 5 5 5 5 5 5 5 5 6 6 5 5 5 5 5 5 5 5 5 5 5 6 5 5 5 5 5 5 6 5 5 5 5 5 5 5 5 5 5 5 5 5 5 5 6 5 6 5 6 6 5 6 5 5 5 5 6 5 5 5 5 5 5 5 5 5 5 5 5 5 6 5 5 5 5 6 5 5 5 5 5 5 5 5 5 5 5 5 5 5 5 5 5 5 5 5 5 5 5 6 5 5 6 5 5 5 5 5 5 5 5 5 5 5 5 5 5 5 5 5 5 5 5 5 5 6 5 6 6 5 5 5 5 5 5 5 5 6 5 6 5 5 5 5 5 5 6 5 5 5 6 5 5 5 5 6 6 5 5 5 5 5 5 5 5 5 5 5 5 5 6 5 5 5 5 5 6 5 5 6 5 5 5 5 5 5 6 5 5 5 5 5 5 5 5 5 5 5 5 6 5 5 5 5 5 5 5 6 5 5 5 5 5 5 5 5 5 5 6 5 6 5 5 5 6 6 5 5 6 5 6 6 5 5 5 5 5 6 5 6 5 5 5 5 5 5 5 5 5 5 5 5 5 5 5 6 5 5 5 6 5 5 6 5 6 5 6 5 5 6 6 5 5 5 5 5 5 6 5 5 6 5 5 5 5 5 6 5 5 6 5 6 5 6 5 5 5 6 5 6 6 5 5 6 5 5 6 5 5 5 6 5 5 5 5 5 5 6 5 5 6 6 5 6 5 5 6 5 5 5 5 5 6 5 5 5 5 5 5 6 5 5 6 5 6 6 5 5 5 5 5 6 5 5 5 5 5 5 5 5 6 5 6 5 5 5 6 5 5 6 5 5 5 5 6 5 5 5 5 5 5 5 5 5 6 5 5 5 5 5 6 5 5 5 5 6 5 5 5 5 5 6 5 5 5 5 6 5 5 5 5 5 5 5 5 5 5 5 5 5 6 5 5 5 6 5 6 5 5 6 5 5 5 6 5 5 5 5 5 6 5 5 5 5 5 5 5 5 5 5 5 5 5 6 6 5 5 5 5 5 6 5 6 5 5 6 5 6 5 5 6 5 5 5 5 6 6 6 5 5 5 6 5 6 5 5 5 5 6 6 5 5 5 6 5 5 5 5 5 5 5 5 5 5 6 5 6 5 5 5 5 5 5 5 5 5 5 5 5 5 5 5 5 6 5 5 5 5 5 5 6 6 5 5 6 5 5 5 5 5 5 6 5 5 5 5 5 5 5 5 5 5 5 5 6 5 5 5 5 5 5 5 5 5 5 5 6 5 5 5 5 5 5 5 5 5 5 6 5 5 5 6 5 5 5 5 5 5 5 5 6 5 5 6 5 5 5 5 5 6 5 5 5 5 5 6 5 6 5 5 5 5 5 5 5 5 5 5 5 5 5 5 5 5 5 5 5 5 5 5 5 5 5 5 5 5 5 5 5 5 5 5 5 5 5 5 5 5 5 5 5 5 5 5 5 6 5 5 5 5 5 5 6 5 5 5 5 5 5 5 5 5 5 5 5 5 5 5 6 5 6 5 5 5 5 5 5 5 5 5 5 5 5 5 6 5 5 5 5 6 5 5 5 5 5 5 5 5 5 5 5 5 6 6 5 5 5 5 5 5 5 5 5 5 5 5 5 5 5 5 5 5 5 5 5 5 5 5 5 5 5 5 5 5 5 5 5 5 5 5 5 6 5 5 5 5 5 5 5 5 5 5 5 5 5 5 5 5 5 5 6 5 6 6 6 5 5 5 6 5 5 6 6 5 5 5 6 5 5 5 5 5 5 6 5 5 5 5 5 5 5 5 5 6 6 5 5 5 6 5 5 6 5 5 6 5 5 6 5 5 5 6 5 6 5 6 5 5 6 5 5 5 6 5 5 5 6 6 5 5 5 5 5 5 5 5 5 6 5 6 5 5 5 6 5 6 5 5 5 6 5 6 6 5 5 5 5 5 5 6 6 5 5 6 6 5 5 5 6 5 5 6 5 5 6 5 5 5 5 6 5 6 5 6 5 5 5 6 5 6 5 5 5 5 6 6 5 6 5 5 5 5 6 5 5 5 6 6 6 6 6 5 5 6 5 5 6 6 6 5 5 6 6 6 5 5 6 5 5 6 6 5 6 5 6 6 5 5 5 5 6 6 5 5 5 6 5 6 5 5 5 5 5 5 6 5 5 5 5 6 5 5 6 5 6 5 6 5 6 5 5 6 5 5 5 5 5 5 5 5 5 5 5 6 5 5 5 6 6 5 6 5 5 5 5 6 5 5 5 6 5 6 5 5 5 5 6 6 5 5 5 5 6 5 5 6 6 5 5 6 6 5 5 6 5 5 5 6 6 5 5 5 5 6 5 6 5 6 5 6 5 6 5 5 6 6 5 5 6 5 5 6 5 6 6 5 5 6 5 5 6 5 6 5 6 5 6 5 5 6 5 5 5 5 5 6 6 5 5 5 5 5 5 5 5 5 5 5 5 5 5 6 5 6 5 5 6 5 5 5 5 6 5 5 6 5 6 5 5 5 5 5 5 5 5 5 5 6 5 5 5 5 5 5 5 5 5 5 5 5 5 5 5 6 6 5 5 5 6 6 5 5 5 5 6 5 5 5 5 5 6 5 5 5 5 5 6 5 5 5 5 5 5 5 5 5 5 5 5 5 5 6 5 5 6 6 5 6 5 5 6 5 5 6 5 5 5 5 5 5 6 5 5 6 5 6 5 5 5 5 5 5 5 5 5 5 5 5 5 6 5 5 5 6 5 5 6 5 5 6 5 5 5 6 5 6 5 5 6 5 5 6 5 6 5 5 6 5 5 5 5 6 5 5 5 5 6 5 5 5 6 5 5 5 5 5 6 5 5 5 5 5 5 5 5 6 5 5 5 5 5 5 5 5 5 5 6 5 6 5 5 5 6 5 5 5 5 5 5 5 5 5 5 5 5 5 5 5 5 5 5 5 5 5 5 5 5 5 5 5 5 5 5 5 5 5 5 5 5 5 6 5 5 5 6 5 5 5 5 5 5 5 5 5 5 5 5 5 5 5 5 6 5 5 5 5 6 5 5 5 5 5 5 5 5 5 5 5 5 5 5 5 5 6 5 5 5 5 5 5 5 5 5 5 5 5 5 5 5 5 5 5 5 5 5 5 5 5 5 5 5 5 5 5 6 5 6 5 5 5 6 5 5 5 5 5 5 5 5 5 5 5 5 5 5 5 5 5 5 5 5 5 5 6 5 5 5 6 5 5 5 5 6 5 5 5 5 5 5 6 5 5 5 5 5 5 5 5 6 5 5 5 5 5 5 6 5 5 6 6 5 5 5 6 6 5 5 6 5 6 5 6 6 5 5 5 5 6 5 6 5 5 5 5 6 5 5 6 5 6 5 5 5 6 6 6 5 6 5 6 5 6 5 6 6 5 6 6 5 5 5 6 5 6 5 5 5 5 5 6 5 6 5 5 5 5 5 6 5 6 5 6 5 5 5 5 5 6 5 5 6 5 5 5 5 6 5 5 5 5 6 5 6 5 5 6 5 5 5 6 5 5 5 5 5 5 5 5 5 5 5 5 5 5 5 5 5 5 5 6 5 5 5 6 5 5 5 6 5 5 5 5 6 5 5 5 5 5 5 5 5 5 5 5 5 5 5 5 5 5 5 5 5 5 5 5 5 5 5 5 5 6 5 5 5 5 5 5 5 5 5 5 5 5 5 6 5 5 5 5 5 5 5 5 5 6 5 6 5 5 5 5 6 5 5 5 5 5 5 6 5 5 5 5 6 6 5 6 5 6 5 5 5 5 6 5 5 6 6 5 5 5 5 5 6 6 5 5 6 5 6 5 6 6 5 5 5 5 5 6 5 6 5 6 6 5 5 6 6 5 6 5 6 5 5 5 6 5 5 5 6 5 5 6 6 6 6 5 6 5 5 5 5 6 6 5 5 6 5 5 6 5 5 6 5 5 5 5 5 5 5 6 5 5 5 5 6 6 5 6 6 5 5 5 5 6 5 5 6 5 6 5 5 5 6 6 6 6 5 5 6 5 5 5 5 6 5 5 5 5 6 6 5 5 6 5 5 5 5 5 5 5 5 6 5 6 5 6 5 5 5 5 5 5 5 5 5 5 5 6 5 5 5 5 6 5 5 6 5 5 5 5 6 5 5 5 6 5 6 5 5 6 5 5 5 5 5 5 5 5 5 5 5 5 5 6 5 6 5 5 5 5 5 5 5 5 5 5 5 5 5 5 5 5 5 5 5 5 5 6 6 5 5 5 5 6 5 5 5 5 5 5 5 6 5 5 5 5 6 5 5 5 5 5 6 5 5 5 5 5 5 5 5 5 5 5 5 5 5 5 5 5 6 5 5 5 5 5 5 5 5 5 5 5 5 5 5 5 6 5 5 5 5 5 5 5 6 5 6 5 5 5 5 5 5 6 5 5 6 5 6 5 5 5 5 5 5 5 5 5 6 5 5 5 5 5 6 5 5 5 5 5 5 5 5 5 5 5 6 5 5 5 6 5 5 6 5 5 5 6 5 6 5 5 6 5 6 5 5 5 5 6 5 5 5 5 5 6 5 5 6 6 5 5 5 6 5 6 6 5 5 5 6 5 5 5 5 5 5 5 5 5 5 5 6 5 5 5 5 5 5 5 5 5 5 5 5 5 5 5 5 5 5 5 5 5 5 5 6 5 5 6 5 6 5 5 6 6 5 6 5 5 5 6 5 5 5 5 6 5 5 5 5 5 6 6 6 5 5 6 5 5 5 5 5 5 5 5 6 5 5 5 5 5 5 6 5 6 5 5 5 5 6 6 5 5 5 5 5 5 6 5 6 5 5 5 6 5 5 5 6 5 5 6 5 5 6 5 5 5 6 5 5 6 5 5 5 6 5 5 5 5 5 5 5 5 5 5 5 5 6 5 5 5 5 5 5 6 5 5 5 5 6 5 5 5 5 6 5 6 5 5 6 5 5 5 5 5 5 5 5 5 5 5 6 5 5 5 5 5 5 5 5 5 5 5 5 5 5 5 5 5 5 5 5 5 5 5 5 6 5 5 5 5 5 5 5 5 5 5 5 5 6 5 5 5 5 5 5 5 5 5 5 5 5 5 5 5 5 5 5 5 5 5 5 5 5 5 5 5 5 5 5 5 5 5 5 5 5 5 5 5 5 6 5 5 5 5 5 6 5 5 5 5 5 5 5 5 5 5 5 5 5 5 5 5 5 5 5 5 5 5 5 5 5 5 5 5 5 5 5 5 5 5 6 5 5 5 5 5 6 6 5 5 5 5 5 6 5 5 5 5 6 5 5 5 5 5 5 5 5 5 6 5 5 5 5 5 5 5 5 5 5 5 5 5 5 5 5 5 5 5 5 6 5 6 5 5 6 6 5 6 6 5 5 5 5 6 6 5 6 5 6 5 5 5 6 6 5 6 5 5 5 5 6 5 6 5 5 5 5 6 5 5 5 5 5 6 5 5 6 5 5 5 5 5 5 5 5 5 5 6 5 5 5 5 5 5 5 5 5 5 5 5 6 5 5 5 5 5 6 5 5 5 5 5 5 5 5 5 5 5 5 5 5 5 5 5 5 5 5 5 5 5 6 5 5 5 5 5 5 5 6 5 5 6 5 5 5 5 5 5 5 5 5 5 5 6 5 6 5 5 5 5 5 6 5 6 6 5 5 5 6 5 5 5 6 6 5 5 5 5 5 5 5 5 5 5 5 5 5 5 5 5 5 5 5 5 5 5 5 5 5 5 5 5 5 5 5 5 6 5 5 5 5 5 5 5 5 5 5 5 5 6 5 5 5 6 5 5 5 5 5 5 5 5 5 5 5 5 5 5 5 5 5 5 5 5 5 5 5 5 5 5 5 5 6 5 5 5 5 6 6 6 5 6 6 5 5 5 6 5 5 5 5 5 5 6 5 5 5 5 5 5 5 5 5 5 5 5 5 5 5 5 5 5 5 5 5 5 5 5 5 5 5 5 5 6 5 5 5 6 5 5 5 5 5 5 5 5 5 5 5 5 6 5 5 5 5 6 5 5 5 6 5 5 5 5 6 5 6 5 5 5 5 5 5 6 5 6 5 5 5 5 5 6 5 5 5 5 6 5 5 5 6 5 5 5 5 5 5 5 6 5 5 6 5 5 6 5 5 5 5 5 5 5 5 5 5 5 5 5 5 5 5 5 5 5 5 5 5 5 6 5 6 5 5 5 6 5 6 5 6 6 5 5 5 5 5 5 5 5 6 5 5 5 5 5 5 5 5 5 5 5 5 5 5 5 5 5 5 5 6 5 5 5 5 5 5 5 5 6 5 5 5 5 5 5 5 5 5 5 5 5 5 5 5 5 5 5 5 5 5 5 5 5 5 5 5 5 5 5 5 5 5 5 5 5 5 5 5 5 5 5 5 5 5 5 5 5 5 5 5 5 5 5 5 5 5 5 5 5 5 5 5 6 5 5 5 5 6 5 5 5 5 6 5 5 5 5 5 5 5 5 5 5 5 6 5 5 6 6 5 5 5 5 5 6 5 5 5 5 5 5 5 5 5 5 5 5 5 6 5 5 6 5 5 5 5 5 5 5 5 5 5 5 5 6 5 5 6 5 5 5 5 5 5 5 5 5 5 5 5 5 5 5 5 5 5 5 5 5 5 6 5 5 5 6 6 5 5 5 5 6 5 5 6 5 6 5 5 5 5 6 5 5 6 5 5 5 5 6 5 5 5 6 5 6 6 5 5 5 5 5 6 5 5 5 5 5 5 5 6 5 5 6 5 5 6 5 6 5 5 5 5 5 5 5 5 5 5 5 5 5 6 5 5 5 5 5 5 5 5 5 5 5 5 5 5 5 6 6 5 5 5 5 6 5 5 5 5 5 5 5 5 5 6 5 5 5 5 6 5 5 5 5 5 5 5 6 5 5 5 5 5 5 5 6 5 5 5 5 5 5 5 5 5 5 5 5 5 5 5 5 5 5 5 5 5 5 5 5 5 5 5 5 5 5 5 5 5 5 5 5 5 5 5 5 5 5 5 6 5 5 5 5 5 5 5 5 5 5 5 5 5 5 5 5 5 5 5 5 5 5 5 5 5 5 5 5 6 5 5 6 5 5 5 5 5 5 5 5 6 5 5 5 5 5 5 5 5 5 5 5 5 5 5 5 5 5 5 5 5 5 5 5 5 5 5 5 6 5 5 5 5 5 5 5 5 5 5 5 5 5 5 5 6 5 5 5 5 6 5 5 5 5 5 5 6 5 5 5 5 6 5 5 5 5 5 5 6 5 5 5 5 5 5 5 5 5 5 5 5 6 5 5 5 5 5 5 5 6 6 5 6 6 5 5 6 5 5 6 6 5 5 6 5 6 5 5 5 5 6 5 6 5 6 5 5 6 5 6 6 5 5 5 6 5 5 5 5 5 5 5 5 5 5 5 6 5 5 6 5 5 5 6 5 6 6 5 5 6 5 6 5 6 5 6 5 5 5 6 5 5 5 6 5 6 6 5 5 6 5 5 5 6 5 5 5 5 6 5 6 5 5 5 5 5 5 5 5 5 5 6 5 5 5 6 5 5 5 5 5 5 5 5 5 5 5 5 5 6 5 5 5 5 5 5 5 5 5 5 5 5 6 6 5 5 5 5 5 5 5 5 5 5 5 5 5 5 5 5 5 5 5 5 5 5 5 6 5 5 5 6 5 5 6 5 6 5 6 5 5 5 5 5 5 5 6 6 5 5 5 5 5 6 6 5 5 5 5 5 6 5 5 5 6 5 5 6 6 5 5 5 5 6 6 5 5 6 5 5 5 6 6 6 5 5 6 5 5 5 5 5 5 5 5 5 5 5 6 5 5 5 5 5 5 6 5 5 5 6 5 6 5 5 5 5 5 6 5 5 5 5 5 5 5 5 5 5 5 6 6 5 5 5 5 5 6 5 5 5 5 5 5 5 6 5 5 6 5 5 5 6 5 5 5 5 5 5 5 5 6 5 5 6 5 6 6 5 5 5 6 5 5 5 5 5 5 6 5 5 5 5 5 5 5 5 6 5 5 5 5 5 6 5 5 5 5 5 5 5 5 5 5 5 6 5 5 5 6 5 5 5 5 5 5 5 5 6 5 6 5 5 5 6 5 5 5 5 5 5 5 5 5 5 5 5 5 5 5 5 5 5 5 5 5 5 5 5 5 5 5 5 5 5 5 5 5 5 5 5 5 5 5 5 5 5 5 5 5 5 6 5 5 5 5 5 5 5 5 5 5 6 5 5 6 5 5 5 5 5 5 5 5 5 5 6 5 5 5 5 5 5 5 6 5 5 5 5 6 6 5 5 6 5 5 6 5 5 6 5 6 5 5 5 5 5 6 5 5 5 6 5 6 5 6 5 5 5 6 5 6 5 5 5 5 5 5 5 5 5 5 5 6 5 5 6 5 5 6 5 5 5 6 5 5 6 5 5 6 6 5 5 5 5 6 6 6 5 5 5 5 5 5 5 6 5 6 5 5 5 6 6 5 5 5 6 5 5 5 5 6 5 5 5 5 5 5 5 5 5 5 6 5 5 6 5 6 5 5 5 5 5 5 5 5 6 5 5 5 5 5 5 5 5 5 5 5 5 5 5 5 5 6 5 5 5 6 5 5 6 5 5 5 5 5 5 5 5 5 6 5 5 5 6 5 5 5 5 5 5 6 5 5 5 5 5 5 5 5 5 5 5 5 5 5 5 6 5 5 5 5 5 6 5 5 5 5 5 5 5 5 5 6 5 5 6 5 6 5 5 6 5 5 5 6 5 5 6 5 5 5 5 5 5 5 5 5 5 6 5 5 5 5 5 6 5 5 5 5 5 5 5 5 5 5 6 6 5 5 5 6 5 5 6 6 6 6 5 5 5 5 5 6 5 6 5 5 6 5 6 5 5 6 5 5 6 5 6 5 5 6 5 5 5 5 5 5 5 5 5 6 5 5 5 5 6 5 5 5 5 6 6 6 5 5 5 6 5 5 5 5 5 5 6 5 5 5 5 5 5 5 5 5 5 5 5 5 5 5 5 6 5 5 5 6 5 5 6 5 6 5 6 6 5 5 5 5 6 5 5 5 5 5 5 5 5 5 5 5 5 5 5 5 5 5 5 5 5 5 5 5 5 5 5 5 5 5 5 5 5 5 5 5 5 5 5 5 5 5 5 5 5 5 5 5 5 5 5 5 5 6 5 6 5 5 5 6 5 5 5 6 5 5 5 5 5 5 5 5 5 5 5 5 5 5 5 5 5 5 5 5 5 5 6 5 5 5 5 5 5 5 5 5 6 5 5 5 5 6 5 5 5 5 5 5 5 5 5 5 5 5 5 5 6 6 5 5 6 5 6 5 5 6 5 5 5 5 5 5 5 5 5 5 5 5 6 5 5 5 6 5 5 5 5 5 5 5 5 5 6 6 5 5 5 5 6 6 5 5 5 5 5 5 5 6 5 5 6 5 5 5 5 6 5 5 5 6 5 5 5 6 5 5 6 5 5 5 5 6 5 5 5 5 5 6 5 5 5 5 5 5 5 5 5 5 5 6 6 5 5 5 5 6 5 5 5 5 6 6 5 5 5 5 6 5 5 5 5 6 5 5 5 5 5 6 5 5 5 5 5 6 5 5 6 6 5 5 5 5 5 5 6 5 6 5 5 6 5 5 6 6 5 5 5 5 5 6 5 5 5 5 5 6 5 5 5 5 5 5 5 5 5 5 5 5 5 5 5 5 5 5 5 5 5 5 5 5 5 5 5 5 5 6 5 5 5 5 5 5 6 5 5 5 6 5 5 5 5 5 5 6 5 5 6 5 6 6 5 5 6 5 6 5 5 5 5 5 5 5 5 5 5 5 5 5 5 
</DataArray>
<DataArray type="Float64" Name="stress" NumberOfComponents="9" format="ascii">
171.57915442710555 -389.40898069309446 0 -389.40898069309446 -0.15057646470813779 0 0 0 0 -0.063903975060870075 -405.2474451138221 0 -405.2474451138221 240.88993238731837 0 0 0 0 100.25293402779062 -279.95312271156126 0 -279.95312271156126 347.69602307170226 0 0 0 0 147.86324138485907 -310.95354042380859 0 -310.95354042380859 168.75701667832118 0 0 0 0 67.811932796978908 -329.62531394555185 0 -329.62531394555185 357.99416130632744 0 0 0 0 194.91905595115259 -315.49422070129094 0 -315.49422070129094 168.67041243935637 0 0 0 0 234.78397887387518 -273.89497757894287 0 -273.89497757894287 0.16904589911200674 0 0 0 0 195.90694657391577 -311.19579831291867 0 -311.19579831291867 78.125770961027229 0 0 0 0 244.54867997592373 -231.83881630590349 0 -231.83881630590349 38.270417561507657 0 0 0 0 233.32482679337954 -165.98136205254377 0 -165.98136205254377 112.44552584210214 0 0 0 0 178.06837513335631 -231.13939512828892 0 -231.13939512828892 39.853987688500638 0 0 0 0 170.54885501578883 -252.46623842242752 0 -252.46623842242752 151.46787441614288 0 0 0 0 55.282279713359458 -196.15004925236917 0 -196.15004925236917 187.6768966620657 0 0 0 0 120.39193558551779 -133.80158509080229 0 -133.80158509080229 110.16818717159913 0 0 0 0 23.895792645807887 -86.991893305118538 0 -86.991893305118538 -5.6408586646393815 0 0 0 0 -5.1713250669821065 -6.5198683004913462 0 -6.5198683004913462 -6.4279221456190712 0 0 0 0 145.02763061206997 -171.29982520170233 0 -171.29982520170233 119.71013696060982 0 0 0 0 182.57939484167821 -180.15372426602215 0 -180.15372426602215 100.80757586348045 0 0 0 0 164.90078193780391 -262.67672982136082 0 -262.67672982136082 158.75335004135377 0 0 0 0 107.82921947200157 -273.61308274048133 0 -273.61308274048133 293.65102885668466 0 0 0 0 185.85835981202672 -275.98708840804738 0 -275.98708840804738 165.76695784207368 0 0 0 0 159.64987548658519 -272.23263164517812 0 -272.23263164517812 273.00013623676205 0 0 0 0 115.8950180350439 -274.05248998649949 0 -274.05248998649949 355.13323397860586 0 0 0 0 192.63026158892256 -228.66172001279463 0 -228.66172001279463 297.14525752047302 0 0 0 0 -1.0460623848460671 -0.53268120706737676 0 -0.53268120706737676 0.48769143552720351 0 0 0 0 185.21020567517917 -317.23238985304488 0 -317.23238985304488 305.87260790239588 0 0 0 0 -55.365990046379011 35.480867428048441 0 35.480867428048441 15.1511302826475 0 0 0 0 -2.7021477094323245 -25.447627457864314 0 -25.447627457864314 22.711570965306237 0 0 0 0 20.670092049818777 -13.504388465127704 0 -13.504388465127704 22.946922447230463 0 0 0 0 -3.5207931836927742 -0.80609799773421997 0 -0.80609799773421997 1.3075770433037484 0 0 0 0 -3.6615973766745356 -12.85175704801631 0 -12.85175704801631 26.036263485435484 0 0 0 0 -228.0787787400559 25.472124397949301 0 25.472124397949301 113.40241071117725 0 0 0 0 -102.19208072501169 -74.76301270582826 0 -74.76301270582826 116.53083371909088 0 0 0 0 177.3103861603413 -138.88507216129437 0 -138.88507216129437 89.813179168248098 0 0 0 0 38.482193970443404 -114.42904387283579 0 -114.42904387283579 54.888310836983692 0 0 0 0 -6.9263611646758072 -8.5531084588774213 0 -8.5531084588774213 -9.9090217236629208 0 0 0 0 148.1653160051992 -136.53582858717709 0 -136.53582858717709 -134.21794379941275 0 0 0 0 -25.410580190322435 52.512493805004851 0 52.512493805004851 -31.407503094611002 0 0 0 0 -117.02569350055001 -5.3004846135709158 0 -5.3004846135709158 13.584190185150874 0 0 0 0 72.986283443398861 26.886620903086623 0 26.886620903086623 -32.798058931622109 0 0 0 0 6.4077330328891549 38.760154139206861 0 38.760154139206861 -6.171079289071713 0 0 0 0 45.135039849121313 5.4274933583474194 0 5.4274933583474194 2.1222465768632901 0 0 0 0 13.743095151582171 -5.075464789178012 0 -5.075464789178012 -0.81009833827951283 0 0 0 0 -10.381859120341232 -10.965984352740747 0 -10.965984352740747 1.3883012170717848 0 0 0 0 8.1654163633356802 -19.119759714825705 0 -19.119759714825705 -0.61494060750919743 0 0 0 0 0.70337807773103123 -22.381794014850129 0 -22.381794014850129 11.990485731237641 0 0 0 0 2.4342937619403529 -12.361465853974551 0 -12.361465853974551 25.889042798604351 0 0 0 0 0.66059897343438934 -22.395027972798744 0 -22.395027972798744 23.394612206812099 0 0 0 0 -5.7065188440116863 -10.365976343414296 0 -10.365976343414296 -10.077616819814693 0 0 0 0 92.145069200145599 -12.461266688322667 0 -12.461266688322667 -18.765834272804568 0 0 0 0 8.4208569013680972 -13.752509142110284 0 -13.752509142110284 -19.885207108932718 0 0 0 0 4.9639304165628744 -11.415247790029838 0 -11.415247790029838 -13.049179441553861 0 0 0 0 4.9615301097890665 -11.178951486056562 0 -11.178951486056562 -13.436286337757338 0 0 0 0 5.4611998931322887 -11.619412464162451 0 -11.619412464162451 -13.128620786008469 0 0 0 0 5.9139261457348766 -13.06712268487081 0 -13.06712268487081 -14.424846151740439 0 0 0 0 5.6008590905075835 -11.332891401410961 0 -11.332891401410961 -13.65214107589054 0 0 0 0 5.4944047846656758 -11.141967470373856 0 -11.141967470373856 -13.847242995780107 0 0 0 0 1.7578484916942898 -10.373108212030074 0 -10.373108212030074 4.2371079811067682 0 0 0 0 5.0757167238516558 -11.37451100650469 0 -11.37451100650469 -10.603264943754766 0 0 0 0 4.7028412834552 -12.543912054106841 0 -12.543912054106841 -12.86181539338061 0 0 0 0 -2.0642251895041106 -8.0060885156121806 0 -8.0060885156121806 -5.978130638331848 0 0 0 0 3.0472121853053977 -12.201485569191391 0 -12.201485569191391 -6.9663630396480585 0 0 0 0 16.783742040906873 -14.322638244693735 0 -14.322638244693735 -2.3007097849317688 0 0 0 0 2.6880837435846843 -13.694254715456282 0 -13.694254715456282 -9.4789796562026822 0 0 0 0 4.7372100352949928 -14.171159556497514 0 -14.171159556497514 -12.840269068641547 0 0 0 0 2.4197948101300426 -25.2903800144868 0 -25.2903800144868 17.897808150088323 0 0 0 0 -3.4429591288357955 -2.5940317218614517 0 -2.5940317218614517 3.306728257596685 0 0 0 0 -15.918307185827871 -13.212859699728142 0 -13.212859699728142 12.054064631265646 0 0 0 0 10.325936695111523 -13.941913987827775 0 -13.941913987827775 18.010161793295993 0 0 0 0 11.21789159759517 -8.8469094854717643 0 -8.8469094854717643 -0.0079954791854426333 0 0 0 0 -0.72582764668862332 -3.7467270541578408 0 -3.7467270541578408 2.946558697979178 0 0 0 0 10.02120029103753 -14.884092194990444 0 -14.884092194990444 9.3977443078611032 0 0 0 0 52.069147516707744 -153.08877283352558 0 -153.08877283352558 408.76545295173673 0 0 0 0 4.9176134350556779 -3.4229386644476865 0 -3.4229386644476865 1.7333054725052328 0 0 0 0 13.520752318985615 -3.9086671423633561 0 -3.9086671423633561 -10.480282633616298 0 0 0 0 -0.13331218340983497 -1.9267889151235131 0 -1.9267889151235131 1.172761477674964 0 0 0 0 0.19366175148297771 -52.687637518957672 0 -52.687637518957672 94.372789899259715 0 0 0 0 -33.224535661387563 -16.796470206923459 0 -16.796470206923459 108.06005931091931 0 0 0 0 77.042146990043875 -1.3842481774668158 0 -1.3842481774668158 -31.681879327205024 0 0 0 0 195.2377191984051 -336.1731320406152 0 -336.1731320406152 376.61834994580022 0 0 0 0 -19.332102857857535 -7.6160688828313141 0 -7.6160688828313141 7.0914012060220557 0 0 0 0 190.15928532252957 -51.842947834312874 0 -51.842947834312874 -71.509127924931818 0 0 0 0 2.0272795151584049 -0.84822409333391846 0 -0.84822409333391846 0.71244862748793381 0 0 0 0 0.30416330466688757 -178.3745209839939 0 -178.3745209839939 666.84223306272543 0 0 0 0 17.514108086572378 -255.25688585041007 0 -255.25688585041007 1001.3232172755679 0 0 0 0 7.4607798294628083 -162.92420340737453 0 -162.92420340737453 453.27123436683723 0 0 0 0 123.88859757784303 -340.89426829713057 0 -340.89426829713057 463.96468635861129 0 0 0 0 141.02904618480352 -292.92203137448814 0 -292.92203137448814 350.80099530045482 0 0 0 0 81.78131200725602 -319.95277811624828 0 -319.95277811624828 508.95865484720343 0 0 0 0 65.544925051613973 -263.83404924203478 0 -263.83404924203478 352.15210500203648 0 0 0 0 104.59912347986392 -234.67199684912828 0 -234.67199684912828 369.20065441404768 0 0 0 0 50.045438385095622 -138.61498876669248 0 -138.61498876669248 320.55323195325036 0 0 0 0 6.6747866243924285 -8.4065305414069957 0 -8.4065305414069957 8.5798653175555302 0 0 0 0 0.13754868686100963 -57.525965641276798 0 -57.525965641276798 -59.19391435970374 0 0 0 0 -157.7288936699133 -291.42725412875825 0 -291.42725412875825 -185.14927882226493 0 0 0 0 -148.01889491095153 -81.985997429071176 0 -81.985997429071176 -43.45431768905064 0 0 0 0 -66.727544657966973 -152.6661207160123 0 -152.6661207160123 17.952809210117266 0 0 0 0 4.7347854538884349 -8.9484049715993024 0 -8.9484049715993024 41.740244424398043 0 0 0 0 -138.40810429305202 -105.09994497927892 0 -105.09994497927892 0.089239414369306672 0 0 0 0 -140.47042968848746 -97.732521699830158 0 -97.732521699830158 -19.767869332534246 0 0 0 0 -188.94756433752923 -199.28370112394566 0 -199.28370112394566 -86.004435421184098 0 0 0 0 -137.70011338276345 -84.78973357234463 0 -84.78973357234463 -29.080475709895836 0 0 0 0 -145.62613570763642 -86.119158081482055 0 -86.119158081482055 -0.025235054450604366 0 0 0 0 2.4536528838303582 -6.399159063518626 0 -6.399159063518626 7.2546742677604286 0 0 0 0 -150.15573515692085 -67.252885003501433 0 -67.252885003501433 -25.511598403259995 0 0 0 0 -137.82701771080701 -84.961854184798653 0 -84.961854184798653 -20.687265846607261 0 0 0 0 0.82342774728331847 -1.3033560147212881 0 -1.3033560147212881 1.6777456299235496 0 0 0 0 2.2952214032993652 -14.335715191649797 0 -14.335715191649797 -14.139471567984856 0 0 0 0 4.8610937189637298 -9.9658956089822368 0 -9.9658956089822368 -11.186866665570051 0 0 0 0 5.2185039009964385 -9.4292810438237211 0 -9.4292810438237211 -13.049022673231889 0 0 0 0 4.6631850086744251 -7.5231602065389342 0 -7.5231602065389342 9.1160845191670461 0 0 0 0 1.1330064958274306 -26.064689548188653 0 -26.064689548188653 -33.70442433903645 0 0 0 0 7.646342768040995 -6.5636864167718159 0 -6.5636864167718159 -16.173232562057365 0 0 0 0 9.1578029642914771 -3.2450936425839245 0 -3.2450936425839245 -14.16885130919195 0 0 0 0 6.4644164298188116 0.12065527599770576 0 0.12065527599770576 0.43106373661066755 0 0 0 0 3.4152630638491246 -5.57582852491214 0 -5.57582852491214 -8.1761591369227062 0 0 0 0 2.7564831097834031 -5.0688244566713365 0 -5.0688244566713365 -1.2296306494572491 0 0 0 0 4.3196166627246839 -6.2101989424545536 0 -6.2101989424545536 -10.138070845783659 0 0 0 0 6.1875427558989031 -6.0416377822775758 0 -6.0416377822775758 -8.1800640755618588 0 0 0 0 3.9005536804461372 -7.9489124352958243 0 -7.9489124352958243 -9.6640124670020668 0 0 0 0 2.4876763107061493 -11.22673830187918 0 -11.22673830187918 -5.3631521056649945 0 0 0 0 1.2864059613129939 -3.1246742453840852 0 -3.1246742453840852 2.9054694289330241e-05 0 0 0 0 0.42402283036752664 -5.2811228441783413 0 -5.2811228441783413 -6.3468062898486046 0 0 0 0 0.59481314973527333 -49.445289844612489 0 -49.445289844612489 1.0579661190117804 0 0 0 0 81.348267019999184 -11.887658190919865 0 -11.887658190919865 11.070034284197391 0 0 0 0 0.10252671397164548 -0.83234645144053943 0 -0.83234645144053943 -1.721068114180035 0 0 0 0 -91.747302677592415 -6.9075850598528632 0 -6.9075850598528632 19.15717304710779 0 0 0 0 0.33111675782635075 0.27414052264330735 0 0.27414052264330735 -0.70277476061077238 0 0 0 0 44.274980947851873 -23.443680788492202 0 -23.443680788492202 -12.708622984806425 0 0 0 0 -8.5113647928264982 -66.759701714552648 0 -66.759701714552648 -0.021820981556427387 0 0 0 0 -16.377844093421118 -28.271326515570763 0 -28.271326515570763 26.628405799785924 0 0 0 0 -0.70502414536699476 -6.0401347301534258 0 -6.0401347301534258 -8.5557381330567388 0 0 0 0 37.336208325887128 10.125346514802004 0 10.125346514802004 -5.6034973338464624 0 0 0 0 -3.9103615612402791 -31.001208435543049 0 -31.001208435543049 7.354712238110416 0 0 0 0 -0.6902027070539849 -3.0231892096326085 0 -3.0231892096326085 2.702446838377405 0 0 0 0 368.03142012913122 -150.96044349376552 0 -150.96044349376552 -560.98708524831636 0 0 0 0 -0.36473529784614911 -1.9639817872932284 0 -1.9639817872932284 1.0541457158280707 0 0 0 0 -4.9430238353925233 20.319593554633684 0 20.319593554633684 7.3547122381325725 0 0 0 0 -54.356698227074503 -11.175387551159019 0 -11.175387551159019 20.827490169787779 0 0 0 0 -0.20047527127098874 -27.293378119953559 0 -27.293378119953559 0.0036162667331329692 0 0 0 0 0.39514597207302771 -0.039713235117570633 0 -0.039713235117570633 0.76309583297643258 0 0 0 0 361.5329856146891 119.44309672021745 0 119.44309672021745 189.0075863121383 0 0 0 0 268.28131479555668 -235.15917902748697 0 -235.15917902748697 -8.7232080714820768 0 0 0 0 -151.04201150606332 50.752724656811552 0 50.752724656811552 128.25409684309852 0 0 0 0 -2.0570262309418439 -2.4109437996821406 0 -2.4109437996821406 -1.9388431995648361 0 0 0 0 239.43326487152081 -174.58733453060904 0 -174.58733453060904 10.48617317813887 0 0 0 0 -81.337884666678292 -99.434729880582381 0 -99.434729880582381 348.16308941412717 0 0 0 0 2.2564472088115508 -8.4723191913990377 0 -8.4723191913990377 -7.3079174999902534 0 0 0 0 -0.99654997222518826 -2.4141583814051035 0 -2.4141583814051035 -0.83804732085283007 0 0 0 0 -34.63946990399927 5.3407532135579459 0 5.3407532135579459 -9.241930432846857 0 0 0 0 2.3205036518858364 -0.70040998705428237 0 -0.70040998705428237 -2.0884705552395317 0 0 0 0 -2.5119883918827437 -4.8120672907044124 0 -4.8120672907044124 -5.3514205996860369 0 0 0 0 -1.6722518967746964 -29.250011536347529 0 -29.250011536347529 0.78959603682051238 0 0 0 0 -70.974348370485131 -31.434444583168442 0 -31.434444583168442 28.038505692633407 0 0 0 0 24.657184942552703 -15.840505686015149 0 -15.840505686015149 -61.100628252585011 0 0 0 0 -1.3027743988733942 -1.4521424753174799 0 -1.4521424753174799 -1.7401372373956505 0 0 0 0 0.017797979641430928 0.2509129666268084 0 0.2509129666268084 0.075848428249777555 0 0 0 0 -14.185285486208159 15.706839644481079 0 15.706839644481079 21.825815570384748 0 0 0 0 -37.864409828017415 -18.235680409530232 0 -18.235680409530232 -23.973420990158047 0 0 0 0 -7.4225408640368187 -39.115406366062871 0 -39.115406366062871 -49.070503169506992 0 0 0 0 -1.5754564314593154 -24.702052316174559 0 -24.702052316174559 -23.436117004537664 0 0 0 0 1.6159579683499032 -50.99552438329647 0 -50.99552438329647 -94.309146928716473 0 0 0 0 -59.538048396922932 -89.389299010972536 0 -89.389299010972536 -57.129742948629882 0 0 0 0 12.508693587192283 -37.773439759780558 0 -37.773439759780558 -32.851087758288713 0 0 0 0 -24.989980086535979 3.4394311959426886 0 3.4394311959426886 29.215246708645282 0 0 0 0 -21.130142513448845 -56.49823889842537 0 -56.49823889842537 -39.45366240617841 0 0 0 0 -26.280230139885134 -55.62384742330778 0 -55.62384742330778 -24.098404249503801 0 0 0 0 -15.223256760805725 -51.614218409528348 0 -51.614218409528348 -50.124375866686023 0 0 0 0 -30.361790927595393 -51.171371084571547 0 -51.171371084571547 -24.043171962629458 0 0 0 0 -63.296067726762885 -98.811937046081312 0 -98.811937046081312 -54.149508538642181 0 0 0 0 -36.373476258402661 -87.207980240788856 0 -87.207980240788856 -20.07704410520796 0 0 0 0 -17.498784036582947 -71.835477338851888 0 -71.835477338851888 -73.571594903552977 0 0 0 0 -25.887813360861401 -29.472232215715849 0 -29.472232215715849 33.400732115233041 0 0 0 0 -19.478643259997625 -31.345498166558173 0 -31.345498166558173 -6.6980349977671949 0 0 0 0 -19.15378823305673 -23.982303902648255 0 -23.982303902648255 0.23008866883901646 0 0 0 0 14.280121563958119 -3.5414951942957487 0 -3.5414951942957487 -4.0520438575276785 0 0 0 0 1.2617892219996065 -13.296664846476233 0 -13.296664846476233 -10.682765103973907 0 0 0 0 -5.2231504723540638 -5.8380570455321958 0 -5.8380570455321958 2.4290798602487484 0 0 0 0 17.701957880982263 6.0378509055826726 0 6.0378509055826726 -4.3285070530482699 0 0 0 0 16.217155539169369 -13.59199792080048 0 -13.59199792080048 -10.57855803955681 0 0 0 0 20.551678868565432 9.4006333911138427 0 9.4006333911138427 12.487537858314226 0 0 0 0 64.354412470863281 -33.352113811766685 0 -33.352113811766685 34.66383488543579 0 0 0 0 12.845583953563619 -8.7135464184311786 0 -8.7135464184311786 3.5557531149497663 0 0 0 0 -0.7482497910687016 1.8902122462354782 0 1.8902122462354782 14.157214239266978 0 0 0 0 18.646030282630363 6.4198360606681035 0 6.4198360606681035 42.531201196801703 0 0 0 0 26.008850808824718 -46.377584284623936 0 -46.377584284623936 62.959948681558672 0 0 0 0 3.1212659594139041 -9.8548722441896643 0 -9.8548722441896643 19.371737137533273 0 0 0 0 -28.707928176452697 -92.050058689065736 0 -92.050058689065736 34.422680901703529 0 0 0 0 126.92699548409291 -20.983560425898759 0 -20.983560425898759 27.004939027361615 0 0 0 0 4.7780762809652515 -33.56965969356861 0 -33.56965969356861 80.09554450624637 0 0 0 0 67.376094262825063 -83.782535867591832 0 -83.782535867591832 90.905513447464955 0 0 0 0 18.979599584497919 -46.117541498603714 0 -46.117541498603714 99.594034497424673 0 0 0 0 146.19846774953623 -172.13319924374264 0 -172.13319924374264 176.64162960801696 0 0 0 0 -12.171244569738519 -95.670027118179405 0 -95.670027118179405 328.93870777337543 0 0 0 0 2.4004069580103646 -1.3786392892241768 0 -1.3786392892241768 0.26739588319606789 0 0 0 0 55.150720727693624 -31.25200518685233 0 -31.25200518685233 -8.1569659538763517 0 0 0 0 -3.492115107985228 -16.25204544510143 0 -16.25204544510143 61.143014457786194 0 0 0 0 -14.011956287256908 -44.581992182654176 0 -44.581992182654176 197.36278595611864 0 0 0 0 7.6796134923297359 -52.892285366906435 0 -52.892285366906435 124.12629054256649 0 0 0 0 18.602792883237271 -115.52322261030167 0 -115.52322261030167 134.11917641056971 0 0 0 0 -38.572272223824257 -51.26207651895038 0 -51.26207651895038 171.65385211211697 0 0 0 0 0.67278016293857945 -124.89895894395431 0 -124.89895894395431 188.39097769593172 0 0 0 0 15.593285320641371 -140.24078677814168 0 -140.24078677814168 201.18203477210955 0 0 0 0 31.090428492345382 -37.27497445225481 0 -37.27497445225481 58.612940703473214 0 0 0 0 15.637000298258499 -38.947407042507621 0 -38.947407042507621 58.433713986975363 0 0 0 0 7.4199817782019863 5.3501399644634944 0 5.3501399644634944 -9.4137234659247042 0 0 0 0 71.026619202697475 -19.42143138469055 0 -19.42143138469055 75.425530574890217 0 0 0 0 16.94119603459967 -30.81335436151403 0 -30.81335436151403 113.14761442827876 0 0 0 0 89.737583676316717 -53.1343071948736 0 -53.1343071948736 104.34418908593216 0 0 0 0 118.07952186254442 -97.546939694451339 0 -97.546939694451339 129.62271090592731 0 0 0 0 138.82295007366702 -86.189623390258021 0 -86.189623390258021 102.01718172292021 0 0 0 0 117.37576464423364 -38.837431103450399 0 -38.837431103450399 66.7600194629199 0 0 0 0 120.33748933211973 -52.690483537717228 0 -52.690483537717228 73.898539127096683 0 0 0 0 215.92050967932573 -135.61132159907868 0 -135.61132159907868 74.26934947240261 0 0 0 0 243.34154719064099 -15.723035247258849 0 -15.723035247258849 59.622688037100488 0 0 0 0 46.859456621717982 -93.734343025123962 0 -93.734343025123962 70.339066953530676 0 0 0 0 96.372339443305918 4.6182052628487327 0 4.6182052628487327 66.667506941616011 0 0 0 0 19.141937659699806 -46.718774740210506 0 -46.718774740210506 47.692474972362106 0 0 0 0 16.440618045608062 -30.853414014869486 0 -30.853414014869486 86.081844216595073 0 0 0 0 4.4649607720511995 -35.010885923717069 0 -35.010885923717069 -9.5456831600768055 0 0 0 0 144.09822191409239 -63.236074988339169 0 -63.236074988339169 -189.90927630934311 0 0 0 0 -19.742325652317959 -114.05264795929907 0 -114.05264795929907 -182.83187064911999 0 0 0 0 1.9407704451068639 -196.11703567586801 0 -196.11703567586801 -64.681817325834345 0 0 0 0 -80.613417779959036 -301.75827067506702 0 -301.75827067506702 -289.95411133369998 0 0 0 0 -163.19758840985378 -105.10971100313009 0 -105.10971100313009 -127.39396939089602 0 0 0 0 1.1549037743212622 0.32148694349537266 0 0.32148694349537266 -0.17440232804121791 0 0 0 0 193.93392243657581 0.9523429664222931 0 0.9523429664222931 -563.84434899793769 0 0 0 0 79.780196572251953 35.309706979096518 0 35.309706979096518 -532.24017214019204 0 0 0 0 240.87690589607973 -214.22573821189008 0 -214.22573821189008 -1.9052048046451091 0 0 0 0 285.02250767044006 -152.41029635571067 0 -152.41029635571067 36.033753218936909 0 0 0 0 85.425278890418667 -21.487624734715155 0 -21.487624734715155 173.6523469529111 0 0 0 0 84.188192422278007 0.11391391725464928 0 0.11391391725464928 -388.03893665070336 0 0 0 0 32.474284431703381 21.175626240531983 0 21.175626240531983 14.115812761808229 0 0 0 0 77.983197547575401 -102.63118480144476 0 -102.63118480144476 134.50024034916214 0 0 0 0 3.4019176333506138 -0.88701915767961026 0 -0.88701915767961026 -0.32553722182322709 0 0 0 0 2.5026368652356652 -0.45907411984288693 0 -0.45907411984288693 -0.25984908687058716 0 0 0 0 106.9806066271824 -139.49172066910035 0 -139.49172066910035 -243.49574395978016 0 0 0 0 10.716956552837473 -160.51423796788958 0 -160.51423796788958 -25.10967863836413 0 0 0 0 18.457962531016619 -84.463495912930966 0 -84.463495912930966 -175.49306714046543 0 0 0 0 0.013296999484737171 -41.49024226362053 0 -41.49024226362053 -208.73456843052554 0 0 0 0 15.312352472740713 28.85862056955807 0 28.85862056955807 -11.900408076824533 0 0 0 0 5.6977865761760533 -0.83565998273722641 0 -0.83565998273722641 -0.68227713869588769 0 0 0 0 -13.562440040257115 -27.911321132768535 0 -27.911321132768535 88.366716971664573 0 0 0 0 71.540988629474214 -14.015227319999781 0 -14.015227319999781 -14.167398368801514 0 0 0 0 95.206578290104517 -106.21218552511436 0 -106.21218552511436 83.611093951579278 0 0 0 0 119.44916551815913 -103.59061201372242 0 -103.59061201372242 70.310176132958077 0 0 0 0 121.05423945150324 -98.697797101171091 0 -98.697797101171091 63.65972902969952 0 0 0 0 116.84498156161317 -99.789277283222873 0 -99.789277283222873 85.235101964216028 0 0 0 0 117.29651791243487 -107.97824987454169 0 -107.97824987454169 105.96172901482623 0 0 0 0 137.26329884490769 -96.424979089126282 0 -96.424979089126282 72.443472601990379 0 0 0 0 88.511325286961437 -120.34639657669459 0 -120.34639657669459 156.13904110720523 0 0 0 0 151.82807621796383 -103.1277635746028 0 -103.1277635746028 37.808666090034421 0 0 0 0 -44.462083943168182 -56.130483865960969 0 -56.130483865960969 135.50357934524618 0 0 0 0 22.346184843148876 -8.082521871056997 0 -8.082521871056997 -10.57860936626787 0 0 0 0 -0.066621750792798196 -0.087458552898057818 0 -0.087458552898057818 0.47515288304494874 0 0 0 0 2.5633032494324652 -4.0051402382550805 0 -4.0051402382550805 76.749469238266101 0 0 0 0 19.273317619225054 -23.478195343340758 0 -23.478195343340758 -15.140947816587868 0 0 0 0 11.810135157868899 -8.8932890764108379 0 -8.8932890764108379 -40.078228979271444 0 0 0 0 -2.645999682816182 -5.9833428095289491 0 -5.9833428095289491 -15.646277607151205 0 0 0 0 -0.16836371089993918 -1.0489793583119678 0 -1.0489793583119678 -0.20910115916726468 0 0 0 0 -24.468569868002305 -11.2664054668262 0 -11.2664054668262 23.951546010177026 0 0 0 0 -7.8326798567104561 -29.667871225517047 0 -29.667871225517047 -14.390864145442606 0 0 0 0 0.62835663701028466 -0.22181713983018447 0 -0.22181713983018447 0.23385272335714902 0 0 0 0 5.548709345988641 -2.5858902722496211 0 -2.5858902722496211 0.59183946551802968 0 0 0 0 7.1563275040471126 -1.9059299562718479 0 -1.9059299562718479 -3.7540255779686049 0 0 0 0 4.7593819130092712 -1.4097646968924522 0 -1.4097646968924522 -0.47131144461376095 0 0 0 0 4.7780496556733851 -3.2492116443072518 0 -3.2492116443072518 -2.099219764118061 0 0 0 0 -26.931086142967615 -68.976960256157327 0 -68.976960256157327 -73.966825172583412 0 0 0 0 -25.116909852476965 -71.201056411859781 0 -71.201056411859781 -97.25998153954788 0 0 0 0 2.2341280384651565 -0.12914825475903591 0 -0.12914825475903591 -1.1051207670625907 0 0 0 0 -50.595738418771361 -61.836709908120611 0 -61.836709908120611 -64.081981902531879 0 0 0 0 5.772195252141632 -3.2428151523567799 0 -3.2428151523567799 0.3606575406148913 0 0 0 0 8.5235202102344374 -8.9751043587234562 0 -8.9751043587234562 -1.6484054146894778 0 0 0 0 7.6822937991128128 -9.7724820767334677 0 -9.7724820767334677 3.7628713255744515 0 0 0 0 38.206772132757578 -10.555249223675901 0 -10.555249223675901 -4.2699465208943366 0 0 0 0 10.792010402914457 -12.463922696657391 0 -12.463922696657391 -6.2620425919171794 0 0 0 0 12.210805836529975 -4.3466258721214857 0 -4.3466258721214857 1.2285366061918968 0 0 0 0 9.9769833852087686 -12.094273411116092 0 -12.094273411116092 -4.890096467949661 0 0 0 0 21.448415621665845 -16.907597056004306 0 -16.907597056004306 -30.857800709848561 0 0 0 0 5.7588257434799743 -23.815919116960686 0 -23.815919116960686 -11.864751503518164 0 0 0 0 5.9325852012698306 -20.429720953041851 0 -20.429720953041851 22.585973552336327 0 0 0 0 -0.21747471006071351 -0.060814653024330312 0 -0.060814653024330312 -0.035217030981556263 0 0 0 0 16.647939115038753 9.3813799360896155 0 9.3813799360896155 -92.481011751811366 0 0 0 0 3.451698058817783 -32.861198246822823 0 -32.861198246822823 -25.570310563723069 0 0 0 0 -0.70606637868968392 1.6613827233886695 0 1.6613827233886695 26.934962953138893 0 0 0 0 17.594752415913263 -2.3319280188671883 0 -2.3319280188671883 11.156715950171929 0 0 0 0 22.950496993043998 -18.301751796861936 0 -18.301751796861936 11.737689669490464 0 0 0 0 -0.23478630074600915 2.979197206259073 0 2.979197206259073 -3.8194564962432196 0 0 0 0 30.196140912115879 -46.549039587797779 0 -46.549039587797779 65.816271047584451 0 0 0 0 22.068690205651365 -22.950399959783454 0 -22.950399959783454 33.122249031717729 0 0 0 0 5.1967467889335239 -7.5883304273829708 0 -7.5883304273829708 36.625365739176232 0 0 0 0 14.859872955326864 -37.739145472745804 0 -37.739145472745804 54.865164548749817 0 0 0 0 3.4667853860210016 -24.226297230307409 0 -24.226297230307409 86.686745553524815 0 0 0 0 18.948301428237755 -73.106851706767429 0 -73.106851706767429 120.30000492516228 0 0 0 0 12.630582086243066 -47.497086761906075 0 -47.497086761906075 79.193980411697339 0 0 0 0 40.090743515633221 -87.912504823804738 0 -87.912504823804738 104.32528940311613 0 0 0 0 51.883042803547141 -60.036369832632772 0 -60.036369832632772 58.45522971417995 0 0 0 0 36.275725067551321 -65.96617218708559 0 -65.96617218708559 61.170953383591041 0 0 0 0 73.112534173738823 -104.63771437117111 0 -104.63771437117111 71.715181052697517 0 0 0 0 45.60369012222327 -120.62951314960537 0 -120.62951314960537 117.8118633884751 0 0 0 0 57.076081302755483 -131.2752570437392 0 -131.2752570437392 109.80258791552615 0 0 0 0 36.782490224648427 -124.74073093593688 0 -124.74073093593688 121.02189653813548 0 0 0 0 47.317410043226118 -128.92424722518808 0 -128.92424722518808 105.04468081901723 0 0 0 0 35.952622297631024 -127.95032069179069 0 -127.95032069179069 113.76411950234979 0 0 0 0 27.372990727062643 -97.689184509778443 0 -97.689184509778443 96.80989534481705 0 0 0 0 28.097818943289042 -113.45924798374402 0 -113.45924798374402 148.58708017502431 0 0 0 0 38.197182169806183 -130.3271492676613 0 -130.3271492676613 133.09413364317652 0 0 0 0 49.360509054764407 -117.13996995559955 0 -117.13996995559955 128.33265844375683 0 0 0 0 55.013740454969593 -135.99049289005961 0 -135.99049289005961 173.72493113069595 0 0 0 0 50.785419629606622 -137.60794790545515 0 -137.60794790545515 120.53559973133179 0 0 0 0 67.530936937850129 -107.18026273830765 0 -107.18026273830765 97.585404242281584 0 0 0 0 57.836863011907553 -111.13890695474856 0 -111.13890695474856 95.99042922887611 0 0 0 0 122.06685069302694 -100.29358175687412 0 -100.29358175687412 76.350158553267647 0 0 0 0 -0.64535054925977775 -0.39722156102313733 0 -0.39722156102313733 4.0179469574041669 0 0 0 0 113.11945503083916 -133.15538476373786 0 -133.15538476373786 110.45386187826989 0 0 0 0 256.47870922155562 -144.56192422340428 0 -144.56192422340428 104.74351862926233 0 0 0 0 118.0791052563352 -88.569771906590006 0 -88.569771906590006 94.601695608296723 0 0 0 0 148.68210785152235 -98.983416497186425 0 -98.983416497186425 94.493751378435263 0 0 0 0 148.31794091550182 -144.01672793162561 0 -144.01672793162561 110.40999229974967 0 0 0 0 100.01545442048337 -172.61108787416151 0 -172.61108787416151 251.51405416232774 0 0 0 0 114.70788734461166 -109.72391717865412 0 -109.72391717865412 178.92463484931795 0 0 0 0 79.158408470628729 -116.40458876349953 0 -116.40458876349953 153.45873418811971 0 0 0 0 17.853464021394757 -71.958128123653296 0 -71.958128123653296 122.94084911391747 0 0 0 0 29.555007272960211 -109.40331466180669 0 -109.40331466180669 191.86473951016887 0 0 0 0 18.094521904003614 -64.589939731705272 0 -64.589939731705272 109.52520323127283 0 0 0 0 28.436413075540258 -45.064179033446635 0 -45.064179033446635 134.52597847149127 0 0 0 0 36.153626909683908 -102.88881315677685 0 -102.88881315677685 217.92142264084032 0 0 0 0 114.26385711309922 -90.428723432505194 0 -90.428723432505194 122.14345792421227 0 0 0 0 102.55055086035554 -81.037913462713959 0 -81.037913462713959 252.46219636114984 0 0 0 0 136.10862172554152 -82.893596130219521 0 -82.893596130219521 151.09327412822131 0 0 0 0 91.770541023127407 -113.2593627467777 0 -113.2593627467777 227.17500680750527 0 0 0 0 -52.10801509074463 -75.10804874865994 0 -75.10804874865994 229.75211942927126 0 0 0 0 327.42028291272436 -288.34075926444757 0 -288.34075926444757 204.32625240384732 0 0 0 0 126.71027390271115 -196.98150396134866 0 -196.98150396134866 332.01849576519999 0 0 0 0 -0.15630961236127661 -0.28540800586841897 0 -0.28540800586841897 1.5997143563028828 0 0 0 0 27.637603157978447 -40.389111851080088 0 -40.389111851080088 85.205905706288831 0 0 0 0 -155.42420560974278 47.384382067654769 0 47.384382067654769 181.98634360144024 0 0 0 0 37.496342666851888 -110.0733066865173 0 -110.0733066865173 -117.33182391657465 0 0 0 0 42.268439937348376 -152.72722890561886 0 -152.72722890561886 138.15825332882923 0 0 0 0 14.765989729166904 -211.79739562359555 0 -211.79739562359555 -187.32460572487071 0 0 0 0 -45.745575130817087 -109.35393149763831 0 -109.35393149763831 294.90440141029558 0 0 0 0 65.735149434258346 -109.56523275155268 0 -109.56523275155268 -379.34046512571911 0 0 0 0 -0.4883217602059915 -1.2002473774008422 0 -1.2002473774008422 -0.12606708676788037 0 0 0 0 -33.252317209799003 -38.320029927822361 0 -38.320029927822361 227.50154521699096 0 0 0 0 -4.42405153782056 -60.621137843311772 0 -60.621137843311772 211.94302904912303 0 0 0 0 -2.032463260382805 -2.367878424865431 0 -2.367878424865431 -0.24724064749021846 0 0 0 0 -24.312693725341887 -57.039973034270588 0 -57.039973034270588 -98.105724051891229 0 0 0 0 59.156828731811402 -76.300865809388597 0 -76.300865809388597 73.628348383565935 0 0 0 0 -4.5065938407642534 -34.421081154676358 0 -34.421081154676358 -123.25001272368172 0 0 0 0 -5.258955959372372 -13.192138180086829 0 -13.192138180086829 -31.586176357704971 0 0 0 0 -5.1157269275827275 -16.335040405555446 0 -16.335040405555446 -87.195915212183536 0 0 0 0 19.088263446519704 -11.28098338241125 0 -11.28098338241125 -29.463958066080522 0 0 0 0 0.35964487978431237 -0.74040289938946557 0 -0.74040289938946557 0.86775073645036116 0 0 0 0 3.2884305960069469 36.439165917227911 0 36.439165917227911 398.26954533305616 0 0 0 0 17.571691314874442 38.357301586651374 0 38.357301586651374 215.57090151117518 0 0 0 0 38.525420172669783 -52.866812237319436 0 -52.866812237319436 206.62977931593741 0 0 0 0 62.45071021439071 -67.637789722382877 0 -67.637789722382877 270.6606403773294 0 0 0 0 47.146519576646824 -23.833618362465586 0 -23.833618362465586 186.78008953065 0 0 0 0 82.265707345301053 -36.983723911312154 0 -36.983723911312154 182.38360579450091 0 0 0 0 29.044813318309025 -6.0158417037710024 0 -6.0158417037710024 208.91925883914473 0 0 0 0 70.860790667187757 -44.041042509238196 0 -44.041042509238196 182.64964122533488 0 0 0 0 63.35878704472907 -62.72611240147171 0 -62.72611240147171 137.31637128028797 0 0 0 0 74.725265754197608 -37.47548261491329 0 -37.47548261491329 126.25231806336888 0 0 0 0 54.672856161721938 -29.040781947527648 0 -29.040781947527648 122.7950391173049 0 0 0 0 54.41236914556066 -25.843937172893675 0 -25.843937172893675 107.51673049550391 0 0 0 0 36.324612627904571 -42.700087273723511 0 -42.700087273723511 187.97048943582956 0 0 0 0 39.422698119294182 -46.240830130939003 0 -46.240830130939003 152.25748374022805 0 0 0 0 7.3859942659400986 -9.0702082948823772 0 -9.0702082948823772 -14.559023656011732 0 0 0 0 -3.2923666034413017 -5.5473873778405327 0 -5.5473873778405327 -4.1691847058197666 0 0 0 0 -1.5769792702003542 -8.7319313989155489 0 -8.7319313989155489 -2.7239337557766703 0 0 0 0 0.65721848831026364 -3.8532149651630334 0 -3.8532149651630334 -3.2097668962796888 0 0 0 0 -3.5822986555831449 -9.0319366411104056 0 -9.0319366411104056 0.40684437061690915 0 0 0 0 -0.67512404400622472 -9.198682021267814 0 -9.198682021267814 -0.30631898174033267 0 0 0 0 0.26489688258413935 -1.3711426409950747 0 -1.3711426409950747 -0.97164557138756269 0 0 0 0 -4.9267251847759326 -10.452313083474564 0 -10.452313083474564 6.4921023055135265 0 0 0 0 11.716969602413883 -0.10280246132970206 0 -0.10280246132970206 -9.0888300285296282 0 0 0 0 -3.7459649870852409 -5.1517045431310464 0 -5.1517045431310464 -2.6381448087545536 0 0 0 0 -3.6862927863294317 -10.641322256753483 0 -10.641322256753483 -16.013755374522816 0 0 0 0 0.19031904658295673 -0.29495432053074211 0 -0.29495432053074211 -0.52637569907537074 0 0 0 0 0.017617381165578927 -30.064503383828313 0 -30.064503383828313 11.190013765004551 0 0 0 0 -2.5023183574958239 -21.517386872351381 0 -21.517386872351381 30.382100930570687 0 0 0 0 12.619031733116572 -18.441611713169095 0 -18.441611713169095 6.2061512938398664 0 0 0 0 4.1103314983630526 -26.94370043192248 0 -26.94370043192248 0.42973345547216013 0 0 0 0 21.443525026683346 -9.0863459345509909 0 -9.0863459345509909 -15.826801980983873 0 0 0 0 4.9915038085346168 -16.239325913863468 0 -16.239325913863468 4.2164487571080826 0 0 0 0 -0.03704610171917011 -32.396836249758053 0 -32.396836249758053 -16.418681377682333 0 0 0 0 -0.70970068579903511 0.11229988758327991 0 0.11229988758327991 0.13680670362060354 0 0 0 0 6.8114437623346475 7.388372260222468 0 7.388372260222468 -54.0719791409756 0 0 0 0 2.3514696749789437 -5.3877733407014148 0 -5.3877733407014148 -4.9853550372317841 0 0 0 0 11.961917272285064 -14.199880826794015 0 -14.199880826794015 -2.4381319142630673 0 0 0 0 30.07547942637575 -19.756288570471952 0 -19.756288570471952 -11.01198348910566 0 0 0 0 -3.7768152253617231 -5.7375666625456034 0 -5.7375666625456034 -5.8344692840776027 0 0 0 0 6.0900916501041138 -9.7737298226732037 0 -9.7737298226732037 -3.8516907659677599 0 0 0 0 3.1659349811561697 -9.2985401036139592 0 -9.2985401036139592 -5.1499292696280463 0 0 0 0 3.6676920913414506 -7.4279993772238413 0 -7.4279993772238413 -6.0042030521399283 0 0 0 0 4.1602395408617667 -9.7052905176278728 0 -9.7052905176278728 -11.224982702920897 0 0 0 0 5.5563835480243142 -7.5392978804766244 0 -7.5392978804766244 -8.0872473896142765 0 0 0 0 6.4678752407153297 -8.33587963810578 0 -8.33587963810578 -10.935371076699084 0 0 0 0 6.3447169382434367 -9.0407906089549215 0 -9.0407906089549215 -12.882896049771194 0 0 0 0 5.0080408574067405 -11.541101894223175 0 -11.541101894223175 -12.882831278262529 0 0 0 0 4.9012711628856778 -4.6816168195568935 0 -4.6816168195568935 -6.5226743827670361 0 0 0 0 10.548861465735172 -5.8661703806169498 0 -5.8661703806169498 -10.653200126711454 0 0 0 0 4.6273474913941754 -5.1683060580917299 0 -5.1683060580917299 -5.5548898766901402 0 0 0 0 3.6473998292294709 -7.8068830557049296 0 -7.8068830557049296 -7.0745914295330294 0 0 0 0 13.192231504029831 -3.8392927031938964 0 -3.8392927031938964 1.4932229352984336 0 0 0 0 12.322046304656396 -11.952628401958009 0 -11.952628401958009 -16.428278824816516 0 0 0 0 12.37441467561257 -6.8733093282999107 0 -6.8733093282999107 -14.054738673579777 0 0 0 0 10.804437168259028 -9.8530454313849987 0 -9.8530454313849987 -18.68412926122619 0 0 0 0 8.9260717147535615 -8.6821970420398884 0 -8.6821970420398884 -12.627085246656861 0 0 0 0 15.542168698728346 -3.7197369928294393 0 -3.7197369928294393 -9.4514432352557378 0 0 0 0 16.909365202442132 -11.705952573247941 0 -11.705952573247941 -14.320655518358308 0 0 0 0 12.320989778226249 -10.221095448824826 0 -10.221095448824826 -14.714035930975115 0 0 0 0 20.79965752228884 -7.2685739619165872 0 -7.2685739619165872 -10.775402024618415 0 0 0 0 11.631542338931467 -6.2804290745198159 0 -6.2804290745198159 -6.2423645714693521 0 0 0 0 26.168890811622987 -8.5726244892020986 0 -8.5726244892020986 2.973754705866213 0 0 0 0 17.85186922640969 0.29983665855365871 0 0.29983665855365871 0.1523828257313653 0 0 0 0 26.84796881546572 -9.6003655709218947 0 -9.6003655709218947 -9.9047050172162017 0 0 0 0 1.547696519523015 -5.8339229183575299 0 -5.8339229183575299 -5.5938668697763205 0 0 0 0 11.032194521198107 -1.7808898713078634 0 -1.7808898713078634 -5.1520815919770939 0 0 0 0 -2.1283910057918547 -6.2497674536916747 0 -6.2497674536916747 1.4117301959702786 0 0 0 0 3.1425190703666885 -1.6885528474276725 0 -1.6885528474276725 1.9077056872938556 0 0 0 0 -1.4700216189717139 -7.1622397759340402 0 -7.1622397759340402 1.9113080284223543 0 0 0 0 9.0160461759351165 1.0841894722907455 0 1.0841894722907455 4.2379784831509824 0 0 0 0 -8.7311416849443049 -9.9244278870442031 0 -9.9244278870442031 10.190561309871782 0 0 0 0 10.93117618416818 4.6591714553042038 0 4.6591714553042038 8.9459289283204271 0 0 0 0 -11.108499035972272 -12.484272135057836 0 -12.484272135057836 -5.9590509296976961 0 0 0 0 -4.7082030504429895 -13.687613048518415 0 -13.687613048518415 -5.8930186094739838 0 0 0 0 31.856318320087667 -22.617884932882589 0 -22.617884932882589 24.35190688182638 0 0 0 0 24.678575766100039 -4.075775142097541 0 -4.075775142097541 12.514053396691452 0 0 0 0 9.0324448933688686 -1.3247243029541167 0 -1.3247243029541167 9.8850429700942186 0 0 0 0 37.617078231474807 -7.6737361136060827 0 -7.6737361136060827 3.104758764838607 0 0 0 0 45.252809029236232 -26.533014465603173 0 -26.533014465603173 11.234873147908729 0 0 0 0 34.498987969212976 -23.417560149140627 0 -23.417560149140627 22.155577550561929 0 0 0 0 62.856478792589769 -85.370395144424947 0 -85.370395144424947 39.992401172517475 0 0 0 0 106.65260695022789 -70.365493920958215 0 -70.365493920958215 26.556446432016855 0 0 0 0 40.78711183798714 10.737588427256469 0 10.737588427256469 -12.594741899957626 0 0 0 0 165.97419700585391 -49.462682123613959 0 -49.462682123613959 -59.346051230847479 0 0 0 0 1.6018594124437087 -0.94188873218328517 0 -0.94188873218328517 0.50033758957462027 0 0 0 0 158.10808128561985 -170.63547746529821 0 -170.63547746529821 73.729241106926111 0 0 0 0 57.696751003828467 -124.45028158692639 0 -124.45028158692639 182.27062815341333 0 0 0 0 4.1400452483217975 -2.2647160946099345 0 -2.2647160946099345 0.96146683154467283 0 0 0 0 -2.905546260835763 -32.835942002557204 0 -32.835942002557204 -37.350908761718983 0 0 0 0 -12.601442161074374 -22.473085849085692 0 -22.473085849085692 5.1837116606404265 0 0 0 0 -54.74087233888531 -123.75913809161102 0 -123.75913809161102 -53.989966029071184 0 0 0 0 -42.313457279042268 -79.392638473073475 0 -79.392638473073475 -108.28243155150767 0 0 0 0 -10.410840872687913 -156.46969633106255 0 -156.46969633106255 -114.00144226869816 0 0 0 0 -16.984624875911322 -91.647569541134089 0 -91.647569541134089 -65.524672759159785 0 0 0 0 -29.673904679157204 -86.039110984940464 0 -86.039110984940464 -224.47776358160081 0 0 0 0 -14.920254568560267 -155.99947072565192 0 -155.99947072565192 -187.13437301184968 0 0 0 0 5.8497959277798728 -2.4722231036592586 0 -2.4722231036592586 0.78671597388898107 0 0 0 0 -6.3387533136592538 -20.505472588036241 0 -20.505472588036241 -17.699365996605593 0 0 0 0 -1.7902940337753535 -10.691766915760127 0 -10.691766915760127 -10.061434982643732 0 0 0 0 -2.2447450275039955 -10.368230631020879 0 -10.368230631020879 -2.7574687215128506 0 0 0 0 -0.46114982816470729 -7.9828007339719989 0 -7.9828007339719989 -0.58507741985158646 0 0 0 0 -9.7508512369349774 -9.9600580613619059 0 -9.9600580613619059 2.8840801734195338 0 0 0 0 -0.10344760333071905 -11.531878252439464 0 -11.531878252439464 -21.20980055853579 0 0 0 0 -2.9723702466872055 -31.800303240926496 0 -31.800303240926496 -66.553815319126443 0 0 0 0 -9.7816543226508657 -30.721166772890683 0 -30.721166772890683 -12.11737486844504 0 0 0 0 8.2246061946825648 -11.771870017613765 0 -11.771870017613765 4.7557506305674906 0 0 0 0 4.4779671200612938 -9.012724286978937 0 -9.012724286978937 -6.0076724348518837 0 0 0 0 -2.4336121854092738 -4.7973810932070862 0 -4.7973810932070862 -1.4765206247598357 0 0 0 0 15.822332663467932 -20.854541986090908 0 -20.854541986090908 -401.39644781424158 0 0 0 0 1.1475125414362992 -12.156841388175508 0 -12.156841388175508 -7.4571024632032277 0 0 0 0 19.549067124178691 -73.323089678349788 0 -73.323089678349788 -223.53989148237633 0 0 0 0 6.3316639962420425 -2.8344334557118671 0 -2.8344334557118671 -0.013440692752087813 0 0 0 0 0.97535297674298249 -0.96561238085138967 0 -0.96561238085138967 -0.6884068119369644 0 0 0 0 0.033492049551568925 -85.344798967696079 0 -85.344798967696079 -343.15006026702122 0 0 0 0 -147.49068420464391 -138.95870336387634 0 -138.95870336387634 -22.493178396205622 0 0 0 0 -136.55231729866136 1.8581996111452099 0 1.8581996111452099 -0.45965522916958435 0 0 0 0 -0.89270514093977482 -0.97115151452305781 0 -0.97115151452305781 0.40631633851722881 0 0 0 0 -71.212280346699117 -29.606882743816641 0 -29.606882743816641 -227.46946127623232 0 0 0 0 -20.171943259224918 -100.14699999610178 0 -100.14699999610178 -106.47904604842006 0 0 0 0 -51.981731953936105 -177.81565121676067 0 -177.81565121676067 -233.4953717906842 0 0 0 0 4.1685228146216105 -151.58276972955582 0 -151.58276972955582 -63.466790260201378 0 0 0 0 -0.09124927931043203 -136.49206552410305 0 -136.49206552410305 -109.15675164919639 0 0 0 0 -23.221951704126695 -59.712721367745417 0 -59.712721367745417 61.433821775250181 0 0 0 0 0.14106849285963108 -152.36191739950209 0 -152.36191739950209 135.86493548802355 0 0 0 0 9.1047743832359629 -76.206876868392555 0 -76.206876868392555 99.585450893601774 0 0 0 0 -41.142174477801746 -113.04874062899898 0 -113.04874062899898 107.51771231311886 0 0 0 0 -47.765958371427132 -20.711388987733585 0 -20.711388987733585 443.7805250378151 0 0 0 0 0.3738001426859654 -0.48692428116744946 0 -0.48692428116744946 0.4259792160297371 0 0 0 0 -14.689266457591657 -64.592258088030121 0 -64.592258088030121 46.966758110453952 0 0 0 0 -50.104404135472578 -139.48315618106835 0 -139.48315618106835 27.109136035614938 0 0 0 0 0.8608619089515912 -1.7143339053153754 0 -1.7143339053153754 0.64502907337079574 0 0 0 0 -48.219999690306395 -59.451259191881718 0 -59.451259191881718 235.32472733167197 0 0 0 0 -62.111008367050999 -102.64232458378751 0 -102.64232458378751 49.352930392682538 0 0 0 0 0.90645783648045608 -2.1614356352443718 0 -2.1614356352443718 0.73957686808817602 0 0 0 0 64.965763633810639 -132.05073927229228 0 -132.05073927229228 136.56752848403539 0 0 0 0 35.136025373378288 -103.33473149885003 0 -103.33473149885003 -16.723057054534252 0 0 0 0 -46.374383721079539 -48.213614119685531 0 -48.213614119685531 241.26589653846213 0 0 0 0 276.63423393604535 -87.580408681478275 0 -87.580408681478275 227.94745220489472 0 0 0 0 -39.212485635453049 -206.39477812163295 0 -206.39477812163295 462.65526010946269 0 0 0 0 0.18659663694597839 -106.06665976014665 0 -106.06665976014665 -95.649390783677632 0 0 0 0 -17.547630042534365 38.312073851424429 0 38.312073851424429 169.4266309505515 0 0 0 0 -0.17492457224761893 -116.25164288269366 0 -116.25164288269366 236.83889934730257 0 0 0 0 -0.028861994676981553 -131.79772098882552 0 -131.79772098882552 275.44201505705996 0 0 0 0 36.446343259420246 -123.38759606682197 0 -123.38759606682197 274.47176552238102 0 0 0 0 -45.956321578270035 -141.97772524504882 0 -141.97772524504882 502.33600845546607 0 0 0 0 -28.443820596781734 -107.96243437022326 0 -107.96243437022326 258.46504212247874 0 0 0 0 0.10246923254844997 -0.57204837603864078 0 -0.57204837603864078 4.098281796277913 0 0 0 0 -120.74485151671979 -12.064951608032516 0 -12.064951608032516 473.54340344320281 0 0 0 0 29.354089927341192 30.279090548766817 0 30.279090548766817 3.2194201265547235 0 0 0 0 -55.56945247465228 97.715253509504237 0 97.715253509504237 203.6986908118588 0 0 0 0 176.40923286517318 -247.84144812495902 0 -247.84144812495902 208.60703110941722 0 0 0 0 -7.9458203324174974 -16.263178064701151 0 -16.263178064701151 40.449109640976985 0 0 0 0 -43.320754441398549 -16.077483973190141 0 -16.077483973190141 68.050643855523049 0 0 0 0 0.17495489366671357 -1.2934752599959047 0 -1.2934752599959047 10.112421732125288 0 0 0 0 -76.153172756564118 -21.750905748744287 0 -21.750905748744287 38.099735837965454 0 0 0 0 53.546385348727199 -51.560510200206409 0 -51.560510200206409 -10.509277544786528 0 0 0 0 -1.0246438065874663 -1.9865884489351302 0 -1.9865884489351302 -3.0244972600522715 0 0 0 0 47.389055283065318 -47.796950461063716 0 -47.796950461063716 -18.317509622240323 0 0 0 0 17.747546797465475 10.137749459048791 0 10.137749459048791 0.13816761436203251 0 0 0 0 -11.804557074770855 20.354471777221534 0 20.354471777221534 4.6807166018709268 0 0 0 0 8.3345057219376031 1.3657399283204086 0 1.3657399283204086 10.800107854454723 0 0 0 0 27.223433906470746 -18.739616933479738 0 -18.739616933479738 19.924355306659663 0 0 0 0 0.001032819134707097 -1.9095118922930396 0 -1.9095118922930396 0.25677772991296877 0 0 0 0 0.44106307989178006 -0.46318337151224398 0 -0.46318337151224398 0.62083490937416919 0 0 0 0 -0.0028593683125061483 -1.910144578726084 0 -1.910144578726084 0.25673171979360632 0 0 0 0 19.583881024326729 65.818133194763277 0 65.818133194763277 122.14393203214968 0 0 0 0 45.728293146441501 2.7981015880413906 0 2.7981015880413906 -4.2460652410454713 0 0 0 0 -4.1343231986320461 22.417245981503584 0 22.417245981503584 -5.4209085691712744 0 0 0 0 1.0778525292959671 0.48709508689054104 0 0.48709508689054104 0.29527608652693083 0 0 0 0 6.6866897113251582 -4.0517288923529664 0 -4.0517288923529664 0.72641945432857469 0 0 0 0 6.4706507630799024 -10.936648012988371 0 -10.936648012988371 -0.85453311271885468 0 0 0 0 15.433242628212611 -6.5473966423332968 0 -6.5473966423332968 4.4442844608379346 0 0 0 0 33.533661074714473 -27.336747977498817 0 -27.336747977498817 11.531800387436306 0 0 0 0 -0.79756090586818829 -1.0680588195418386 0 -1.0680588195418386 0.1811597093700037 0 0 0 0 6.3604208313563504 -5.2577562147470758 0 -5.2577562147470758 -1.8333845587676478 0 0 0 0 0.090862955233305343 -1.8566418467097705 0 -1.8566418467097705 -2.8005396173723831 0 0 0 0 6.7817394238431916 -6.6166755250212645 0 -6.6166755250212645 -2.2506168048867039 0 0 0 0 44.795444034960383 -6.0042948502564286 0 -6.0042948502564286 -2.7826003679319911 0 0 0 0 44.870077494228099 -5.8121266971179466 0 -5.8121266971179466 -12.782230670285571 0 0 0 0 58.326024334457543 -17.653652420396611 0 -17.653652420396611 -19.380684035431841 0 0 0 0 54.686790831239705 1.4799839383631479 0 1.4799839383631479 -7.3843977744636504 0 0 0 0 -125.71774065424688 15.571522986734408 0 15.571522986734408 18.913993399995888 0 0 0 0 -32.349303723382945 -72.136224458820834 0 -72.136224458820834 3.9239340722515408 0 0 0 0 -0.37777438928257467 -0.56415704038478154 0 -0.56415704038478154 -1.0296284193703009 0 0 0 0 -215.65155353836599 40.215357784074968 0 40.215357784074968 92.455103223396691 0 0 0 0 -23.082493734407763 57.842554377136366 0 57.842554377136366 61.525319842940462 0 0 0 0 114.2260885324672 -49.195567436140891 0 -49.195567436140891 1.886268031605141 0 0 0 0 -122.8668135092521 -47.49283120052678 0 -47.49283120052678 173.90269496531619 0 0 0 0 -20.969458509944161 -117.98148501154446 0 -117.98148501154446 321.35361508802544 0 0 0 0 -52.557548372496967 -16.309350715913752 0 -16.309350715913752 185.17957687819307 0 0 0 0 47.73588770286915 -35.641594656371126 0 -35.641594656371126 161.75770474049568 0 0 0 0 -2.7679816693507746 -27.48641750195975 0 -27.48641750195975 169.0780338215468 0 0 0 0 33.317860774155633 -68.612521371113417 0 -68.612521371113417 145.81256571564177 0 0 0 0 34.873157450885628 -46.804860285211362 0 -46.804860285211362 139.97510858720671 0 0 0 0 45.967977164082185 -45.6373709025886 0 -45.6373709025886 110.25079289512178 0 0 0 0 37.52428595305355 -60.892631685481319 0 -60.892631685481319 116.87196444404799 0 0 0 0 47.12616951435848 -63.781714966717118 0 -63.781714966717118 92.373631079290135 0 0 0 0 85.325531064891493 -90.26078894652187 0 -90.26078894652187 108.65817815447554 0 0 0 0 18.760965876316732 -8.3560213769239908 0 -8.3560213769239908 -12.80851032895589 0 0 0 0 3.8552929906589384 0.51024322281159584 0 0.51024322281159584 0.39461014568466268 0 0 0 0 -3.3355076068507294 -4.3017214592598094 0 -4.3017214592598094 0.24103123331864396 0 0 0 0 44.758947398872351 -43.080474946513277 0 -43.080474946513277 78.948425171037343 0 0 0 0 51.377881808085476 -78.442035588921044 0 -78.442035588921044 117.10544751852831 0 0 0 0 53.777112002435388 -88.171982885973648 0 -88.171982885973648 179.2550973802779 0 0 0 0 47.77219965653785 -69.037121185637943 0 -69.037121185637943 120.99316828453993 0 0 0 0 27.273360092898656 -68.204362143600065 0 -68.204362143600065 171.35270916278114 0 0 0 0 85.825326083770051 -144.60131169243732 0 -144.60131169243732 162.67290551034375 0 0 0 0 36.876159047539659 -110.28702304734179 0 -110.28702304734179 150.59997691744684 0 0 0 0 -82.922367567308356 -131.17159164756049 0 -131.17159164756049 336.45746151405365 0 0 0 0 11.800965122261914 -64.185715113982951 0 -64.185715113982951 231.56869288167672 0 0 0 0 56.793639620049362 -157.53159485819697 0 -157.53159485819697 245.91794931560275 0 0 0 0 -52.655892442970071 -150.36352030610078 0 -150.36352030610078 557.08358413603946 0 0 0 0 0.36130774896839313 -1.142024542219632 0 -1.142024542219632 0.50382087736390169 0 0 0 0 -19.240098716782086 -108.01410466381003 0 -108.01410466381003 327.51564802695202 0 0 0 0 -56.139296840142379 -111.28309759797344 0 -111.28309759797344 33.876540759151794 0 0 0 0 33.498403902531209 -178.86267532783086 0 -178.86267532783086 -181.63782422707231 0 0 0 0 -44.969468047280316 -71.979338368191748 0 -71.979338368191748 8.9868945444154633 0 0 0 0 84.73042341945802 -117.89149122522167 0 -117.89149122522167 92.857313152377174 0 0 0 0 72.925443649565295 -109.9793435485152 0 -109.9793435485152 89.010253800243845 0 0 0 0 36.655384691928248 -208.57265487587978 0 -208.57265487587978 93.328920207438387 0 0 0 0 157.34758917185354 -169.33573448531934 0 -169.33573448531934 52.289975844952551 0 0 0 0 -43.222299659541022 -127.44573415370996 0 -127.44573415370996 192.72984364727336 0 0 0 0 164.73763901818592 -76.803867991332083 0 -76.803867991332083 110.83462198051348 0 0 0 0 29.348515741692609 -121.36690947201123 0 -121.36690947201123 132.43943506386358 0 0 0 0 83.038322339418698 -91.217805081321274 0 -91.217805081321274 80.263019626880123 0 0 0 0 32.527666588690408 -102.36252205405481 0 -102.36252205405481 88.342707081518711 0 0 0 0 31.567553861088527 -81.523988331829969 0 -81.523988331829969 45.449303755967776 0 0 0 0 -14.084358313541088 -96.108608743385048 0 -96.108608743385048 95.287815213705471 0 0 0 0 33.041690574872518 -110.62161880175518 0 -110.62161880175518 77.92187752945938 0 0 0 0 20.084599858582806 -115.09222747630338 0 -115.09222747630338 106.19428729833436 0 0 0 0 41.099266044700926 -81.259000051004705 0 -81.259000051004705 45.62971865703912 0 0 0 0 -17.312132694978573 -20.929816463803036 0 -20.929816463803036 33.602373458959192 0 0 0 0 113.55762544738536 -75.325082676194597 0 -75.325082676194597 37.745969211306146 0 0 0 0 236.19742207428317 -247.80989225493249 0 -247.80989225493249 115.60794024307324 0 0 0 0 308.27804711907083 -115.39454316689626 0 -115.39454316689626 -36.642344204418805 0 0 0 0 -0.76013161070926571 -0.24801975295452294 0 -0.24801975295452294 4.5624435394582541 0 0 0 0 113.61048899625894 57.485316012294788 0 57.485316012294788 382.74836433446399 0 0 0 0 0.36775873898211398 -0.41205449751179302 0 -0.41205449751179302 2.9979594064353137 0 0 0 0 4.2671931234035583 -75.415846984830068 0 -75.415846984830068 19.084145017916853 0 0 0 0 -10.782975949756292 -79.499901509097981 0 -79.499901509097981 64.825907342980372 0 0 0 0 247.3887077392601 -313.63321585718268 0 -313.63321585718268 102.53243421632396 0 0 0 0 -0.33815283773666138 -0.2360087326565008 0 -0.2360087326565008 2.2351508514850877 0 0 0 0 -200.67192432313641 45.732125271147652 0 45.732125271147652 83.273803312488781 0 0 0 0 -46.86623648713794 0.31002686866668228 0 0.31002686866668228 -13.213542750604574 0 0 0 0 178.48810513566968 -96.348104716409011 0 -96.348104716409011 -8.4475230770967755 0 0 0 0 1.4413279614027488 -8.0423163265650146 0 -8.0423163265650146 10.520152574976237 0 0 0 0 -51.582417277006243 -72.893713871381351 0 -72.893713871381351 137.86105238702021 0 0 0 0 1.5328978862298754 -53.745288121778685 0 -53.745288121778685 -24.66099400521307 0 0 0 0 -1.2026678853205297 -1.8159738834679402 0 -1.8159738834679402 2.2133672862514437 0 0 0 0 180.36486207298731 -85.898996649451874 0 -85.898996649451874 81.088103673760997 0 0 0 0 -87.014568309235074 -176.2644112974258 0 -176.2644112974258 296.47417430761197 0 0 0 0 -132.26715433867139 -68.352961897383466 0 -68.352961897383466 143.8455611477093 0 0 0 0 -49.009957178517652 -78.830138238541622 0 -78.830138238541622 138.02730629174948 0 0 0 0 -35.387176410943539 -103.45202011084848 0 -103.45202011084848 178.86604605640605 0 0 0 0 66.45500641295439 -61.765725362541161 0 -61.765725362541161 102.24730502992134 0 0 0 0 48.091517022790867 -49.762432776662536 0 -49.762432776662536 168.95949371210509 0 0 0 0 60.674744677679882 -78.804436616072849 0 -78.804436616072849 67.929030134166169 0 0 0 0 63.360858617572376 -91.785823892773351 0 -91.785823892773351 130.47729878605605 0 0 0 0 -27.460105459652823 -80.638266833590933 0 -80.638266833590933 73.92109744742811 0 0 0 0 -1.3358178665966989 -49.648220214692628 0 -49.648220214692628 47.511902467622349 0 0 0 0 8.6829909200441762 -80.97101367839241 0 -80.97101367839241 110.26553325984241 0 0 0 0 -32.624738165676717 -51.641051777271969 0 -51.641051777271969 -17.318087705249127 0 0 0 0 -26.072678097003518 -37.999754714805931 0 -37.999754714805931 4.4885169809003855 0 0 0 0 -19.562885519202609 -39.102316077808609 0 -39.102316077808609 -24.534574897480525 0 0 0 0 -24.397216295401449 -55.383626650845144 0 -55.383626650845144 -47.719211923544208 0 0 0 0 -45.683141262661593 -67.692663963785435 0 -67.692663963785435 -36.362058405955395 0 0 0 0 -41.818766013963796 -55.506196849440357 0 -55.506196849440357 -35.124560034222668 0 0 0 0 -67.411312539719802 -60.253700130301695 0 -60.253700130301695 53.677891838112828 0 0 0 0 -41.741695886839807 -46.883965086638909 0 -46.883965086638909 10.450835853462195 0 0 0 0 -43.756529802356454 -18.498496331433671 0 -18.498496331433671 34.01857596723994 0 0 0 0 -38.938865421507217 15.778234435839295 0 15.778234435839295 113.29533699684043 0 0 0 0 -69.363769867813971 -54.228256939479252 0 -54.228256939479252 89.835147946072539 0 0 0 0 -55.372186753526876 -45.31968567387139 0 -45.31968567387139 42.969501016206777 0 0 0 0 -40.980479787569038 -35.983538059731075 0 -35.983538059731075 -171.52986780635729 0 0 0 0 -34.932216830799916 -80.571788365324437 0 -80.571788365324437 -80.085725697394082 0 0 0 0 -48.581596691914456 -129.10200123922914 0 -129.10200123922914 -2.5598468546304503 0 0 0 0 11.599283758252568 -189.60211337589772 0 -189.60211337589772 98.814820957388292 0 0 0 0 -19.283598632655412 -118.27306184883673 0 -118.27306184883673 -67.895057792235093 0 0 0 0 71.602721978466434 -68.975031074179242 0 -68.975031074179242 -65.840674869657789 0 0 0 0 -68.423707621634094 -49.091945408463289 0 -49.091945408463289 325.11205766128478 0 0 0 0 70.483894978844546 107.48718585816459 0 107.48718585816459 154.68579384930308 0 0 0 0 -54.372140877880156 -24.553553210365862 0 -24.553553210365862 148.32062211787797 0 0 0 0 10.493380383786189 16.946884021115807 0 16.946884021115807 25.914468986031352 0 0 0 0 0.78316336309489998 17.746374725035707 0 17.746374725035707 37.325308300747565 0 0 0 0 -1.7409657112257264 3.7708886328200606 0 3.7708886328200606 21.820069864616471 0 0 0 0 -1.2478606178837328 -2.2455585131779436 0 -2.2455585131779436 8.0939789071574815 0 0 0 0 -9.1868468140819459 -7.1426558056846261 0 -7.1426558056846261 15.052808119701574 0 0 0 0 -0.014549401284511987 4.2583584589926886 0 4.2583584589926886 19.698756075194979 0 0 0 0 -8.115639391676325 -4.0216182135107754 0 -4.0216182135107754 4.6502392171419125 0 0 0 0 -0.54884703533025458 2.5240876994066639 0 2.5240876994066639 15.052451982885032 0 0 0 0 1.5560136392487038 4.5516029267328122 0 4.5516029267328122 16.592998132493449 0 0 0 0 -8.2554630092818115 2.8220934401906561 0 2.8220934401906561 19.402952395645116 0 0 0 0 -0.2577241194594535 8.2146295387092323 0 8.2146295387092323 22.637364759706543 0 0 0 0 -14.16281723231441 4.2987498380243778 0 4.2987498380243778 26.185921554677407 0 0 0 0 -6.7467210345785134 8.0386255099219852 0 8.0386255099219852 27.599414745413469 0 0 0 0 -3.0794271536869928 9.8697930479611387 0 9.8697930479611387 30.2617060033499 0 0 0 0 -8.5118121804616749 2.7968351147274007 0 2.7968351147274007 26.507216622947453 0 0 0 0 -1.5207549604243873 -0.78627235852224509 0 -0.78627235852224509 -0.39468673536664056 0 0 0 0 -16.535439220625449 1.1944181857520562 0 1.1944181857520562 27.011856661089041 0 0 0 0 -11.608317595337212 2.2317121949981811 0 2.2317121949981811 26.094792456060532 0 0 0 0 -14.18832369354277 5.9026987504748831 0 5.9026987504748831 28.049576142896285 0 0 0 0 11.606064556381057 29.061192418348071 0 29.061192418348071 35.926051957712843 0 0 0 0 -15.05159190044742 0.7239647232322568 0 0.7239647232322568 25.293349644969567 0 0 0 0 -46.131516364159324 -17.717226147715337 0 -17.717226147715337 36.444435317548596 0 0 0 0 -31.178942572249071 -30.289432914531062 0 -30.289432914531062 15.349572067065765 0 0 0 0 -15.938686928855532 1.0949019842964844 0 1.0949019842964844 26.145300284110817 0 0 0 0 -15.495434151784139 0.85465512170594593 0 0.85465512170594593 25.74404886832599 0 0 0 0 -17.225752663661297 -17.072450201426818 0 -17.072450201426818 8.9621505558552599 0 0 0 0 -20.404099069543008 -14.566573446174516 0 -14.566573446174516 8.5811703449890047 0 0 0 0 -25.90217968606521 -28.241328713996154 0 -28.241328713996154 14.247171985209661 0 0 0 0 -34.274695694260572 -37.015001978404598 0 -37.015001978404598 6.370398882401787 0 0 0 0 -3.9858965381954476 -1.6795849731470298 0 -1.6795849731470298 19.342833674008034 0 0 0 0 -0.78902648160874378 -9.6004104254498088 0 -9.6004104254498088 28.580802076365217 0 0 0 0 0.65583717241952399 -14.352016325460681 0 -14.352016325460681 31.424637786720268 0 0 0 0 -3.9544366707268637 -21.157827043127327 0 -21.157827043127327 53.131458547737111 0 0 0 0 -7.7354941424819117 -25.24632000991005 0 -25.24632000991005 45.60916107295634 0 0 0 0 -2.1689075451549797 -20.88161571536375 0 -20.88161571536375 20.814371724081866 0 0 0 0 4.7340688759904879 -10.491613444457471 0 -10.491613444457471 12.834110827578115 0 0 0 0 -19.505947039664534 -12.119615234437333 0 -12.119615234437333 10.881699294548525 0 0 0 0 -8.0672686819448565 -0.69721228373070332 0 -0.69721228373070332 0.58458640228112291 0 0 0 0 -1.9511359148937117 -4.6687425889358565 0 -4.6687425889358565 23.205441398769835 0 0 0 0 -24.006179423364301 -3.0874914534547315 0 -3.0874914534547315 11.648520250807451 0 0 0 0 -9.0292467283882054 -0.41648188711002199 0 -0.41648188711002199 1.5167481376354379 0 0 0 0 -8.3672474161994614 -30.641738885307859 0 -30.641738885307859 1.8835006816167379 0 0 0 0 -5.3752832505460901 3.7677790142911363 0 3.7677790142911363 -1.0834625246734504 0 0 0 0 -13.767872080545203 -10.237705751455451 0 -10.237705751455451 5.9162839902014071 0 0 0 0 0.15002368728237769 -3.9256115014415931 0 -3.9256115014415931 6.1058127068978365 0 0 0 0 -12.135083154120366 1.83339123906444 0 1.83339123906444 23.131819182261097 0 0 0 0 -8.6943255993937782 -3.8326245761097653 0 -3.8326245761097653 5.0380209241284319 0 0 0 0 0.81498789988411513 -5.9979932064657486 0 -5.9979932064657486 3.4942174116341356 0 0 0 0 -43.14547625361547 -15.412407623747185 0 -15.412407623747185 11.767353332583298 0 0 0 0 -14.153782502009562 -7.7366785070271362 0 -7.7366785070271362 6.2112429369171878 0 0 0 0 -36.964428115394639 -5.114277347235884 0 -5.114277347235884 7.21009150395912 0 0 0 0 -6.09293374914796 -8.1365863026076113 0 -8.1365863026076113 2.0262989214561458 0 0 0 0 1.6230104598082002 -5.5427515245433217 0 -5.5427515245433217 4.1644527168541039 0 0 0 0 -36.244449157909003 -13.627817860408868 0 -13.627817860408868 4.6501367825794659 0 0 0 0 1.4447866633141428 -5.5942829548582527 0 -5.5942829548582527 4.6603092354461424 0 0 0 0 -24.042279911876903 -9.3941496722645752 0 -9.3941496722645752 -16.443296454272058 0 0 0 0 -12.75492138964546 -10.049117835340894 0 -10.049117835340894 6.9272320437712551 0 0 0 0 -5.9663496448545175 -7.2278042220174257 0 -7.2278042220174257 7.8674631904414127 0 0 0 0 -60.631862881698908 -36.779446379907313 0 -36.779446379907313 65.987132468024356 0 0 0 0 2.6994901272179739 -4.2134039456961938 0 -4.2134039456961938 8.2311318095165547 0 0 0 0 16.734593649272938 10.315482867752507 0 10.315482867752507 -50.55652773951806 0 0 0 0 -2.0237680246691525 -8.0663992739337118 0 -8.0663992739337118 4.6088570122624333 0 0 0 0 -0.17649273868903492 -18.324867855594789 0 -18.324867855594789 11.090244800187065 0 0 0 0 -9.4706615798759231 -17.194792496674381 0 -17.194792496674381 -18.345140588142385 0 0 0 0 -2.125402187675979 -7.4752948689412175 0 -7.4752948689412175 -2.5719302216614679 0 0 0 0 -0.61146313146034181 -6.03859889700579 0 -6.03859889700579 9.5517162475976001 0 0 0 0 -4.7808861566772975 -29.602064669087667 0 -29.602064669087667 -33.314956243397774 0 0 0 0 -5.6027746732643209 4.7458795586053384 0 4.7458795586053384 25.767009578308716 0 0 0 0 -3.943650166344014 -21.867446656287939 0 -21.867446656287939 48.619903380827964 0 0 0 0 0.41245307839907142 -2.2922368123876886 0 -2.2922368123876886 -0.29030583205623728 0 0 0 0 13.974583940344019 -31.960076524137548 0 -31.960076524137548 51.015769395473399 0 0 0 0 -1.9960400742578743 -0.15561554891430873 0 -0.15561554891430873 0.14312616581389648 0 0 0 0 13.121857082900533 -11.363747513873932 0 -11.363747513873932 5.7624370749626905 0 0 0 0 -2.7307225369440857 -12.410056089055615 0 -12.410056089055615 7.0246774044244376 0 0 0 0 -1.2260550886239798 -7.2069550131136566 0 -7.2069550131136566 0.68468963456052734 0 0 0 0 -0.20224289737598156 -12.447494090285545 0 -12.447494090285545 1.9091269758355338 0 0 0 0 4.668085604756925 -7.8399068629860267 0 -7.8399068629860267 1.8302164905426253 0 0 0 0 2.3588494165742304 -17.938267550409819 0 -17.938267550409819 15.52796933098125 0 0 0 0 5.53539343976081 -8.4574716531542435 0 -8.4574716531542435 8.0966735739907563 0 0 0 0 8.7430104929489971 15.231767487850448 0 15.231767487850448 28.266929124683884 0 0 0 0 56.929543421358176 -97.006635939726948 0 -97.006635939726948 179.14813339260002 0 0 0 0 -2.258326118363911 -1.7937835467951437 0 -1.7937835467951437 -0.34536346845299981 0 0 0 0 0.2502804316778473 0.21475691864509372 0 0.21475691864509372 0.96942299479828264 0 0 0 0 -28.115989994403208 -67.970685907926963 0 -67.970685907926963 188.87279755983604 0 0 0 0 -0.91179121368600846 -0.28561106519922319 0 -0.28561106519922319 -0.075035099454009213 0 0 0 0 -16.884766228613444 -14.403523159505312 0 -14.403523159505312 26.454122552645458 0 0 0 0 -2.8021207091096585 -0.16404822170579791 0 -0.16404822170579791 17.465745345618416 0 0 0 0 2.6681873902743973 -5.5535635537280541 0 -5.5535635537280541 71.87785168850678 0 0 0 0 -61.043271792073938 -33.745677520470053 0 -33.745677520470053 -6.0158901860077094 0 0 0 0 -50.033859796882098 16.374061240157062 0 16.374061240157062 11.066462794253312 0 0 0 0 -12.080688279715105 -12.267218502935975 0 -12.267218502935975 8.5236762435379205 0 0 0 0 -29.203525970373448 -1.4001323701668298 0 -1.4001323701668298 12.496864039067077 0 0 0 0 -36.770015760353999 -6.4979859458703686 0 -6.4979859458703686 12.971310948818427 0 0 0 0 -36.095983487632111 -10.266731341705963 0 -10.266731341705963 1.0837896897146493 0 0 0 0 -26.748990325515479 -8.4250863115903485 0 -8.4250863115903485 6.3266733315740566 0 0 0 0 -16.254003066953373 -8.3835670119578936 0 -8.3835670119578936 12.480150203197809 0 0 0 0 -17.547752360467712 -2.7154215301225122 0 -2.7154215301225122 6.6365384593973431 0 0 0 0 -3.9149493697186699 -4.9738101850362 0 -4.9738101850362 2.0351523125245876 0 0 0 0 -8.9885764804603241 -3.8903103179964091 0 -3.8903103179964091 2.4624134823802706 0 0 0 0 -9.897447362956882 -9.9273207626947624 0 -9.9273207626947624 -9.9272292034338534 0 0 0 0 -22.015462310216208 -14.162544990196693 0 -14.162544990196693 -4.1559677720588297 0 0 0 0 -33.400685409786092 -4.8884797778487155 0 -4.8884797778487155 6.1148848551261779 0 0 0 0 -33.963503844875959 -5.8496229850611599 0 -5.8496229850611599 5.7635006091986725 0 0 0 0 -49.637234262601851 -45.210343143819955 0 -45.210343143819955 -39.424337756750901 0 0 0 0 -42.87650467297135 -4.2590092572781941 0 -4.2590092572781941 -6.4167819822359888 0 0 0 0 -29.038416619528562 -29.335497819306056 0 -29.335497819306056 -32.142760771925168 0 0 0 0 -85.324578403447958 -24.012835052749324 0 -24.012835052749324 -7.4675643219361518 0 0 0 0 -14.880305199509166 -11.101665014106402 0 -11.101665014106402 -10.201023119223919 0 0 0 0 -1.9114467640605426 -0.020103562077331105 0 -0.020103562077331105 0.82774067803547347 0 0 0 0 -10.106837273691781 -13.837132277086766 0 -13.837132277086766 -12.794736986630596 0 0 0 0 5.7332795872685551 -4.3724813252529913 0 -4.3724813252529913 -9.7801121419752235 0 0 0 0 0.89841146073363287 -1.2396692608622892 0 -1.2396692608622892 -0.08909132315714885 0 0 0 0 -6.4118194138427498 -12.681276725019416 0 -12.681276725019416 -12.440781072551545 0 0 0 0 -9.4071567430053165 -12.985951086352543 0 -12.985951086352543 -11.998620661041059 0 0 0 0 -2.3809462668505148 -6.9601956310089008 0 -6.9601956310089008 -6.8470319416755956 0 0 0 0 -3.1107054174872246 -9.6887382040280272 0 -9.6887382040280272 -3.6896511013164854 0 0 0 0 -1.3353132851176497 -13.348190173228893 0 -13.348190173228893 -3.2229058542070561 0 0 0 0 -7.5558293837123074 -13.573673955144102 0 -13.573673955144102 -5.6750329433980369 0 0 0 0 6.3074259048917156 -10.513451672826704 0 -10.513451672826704 -0.38467314752324455 0 0 0 0 4.5059735359645856 -11.380840375065418 0 -11.380840375065418 -10.954811598876404 0 0 0 0 3.6448998587839014 -14.409542394470009 0 -14.409542394470009 -1.258776225577094 0 0 0 0 5.4990352627355605 -8.06685146248401 0 -8.06685146248401 -3.4528486762962984 0 0 0 0 6.7812298923322913 -3.9988116392025042 0 -3.9988116392025042 1.7432246429431881 0 0 0 0 5.5870759243771317 -6.3697005602334684 0 -6.3697005602334684 2.884518847507934 0 0 0 0 5.5789362187388178 -6.1495491016930828 0 -6.1495491016930828 -0.61065722166677006 0 0 0 0 6.0585126627593127 -8.4504418265141794 0 -8.4504418265141794 1.8930735491983341 0 0 0 0 6.057691903464729 -8.3913283087276795 0 -8.3913283087276795 -1.1658178276065883 0 0 0 0 6.4779212872275593 -11.95518619381275 0 -11.95518619381275 -1.7274774832003459 0 0 0 0 6.5961092592083332 -10.846909896623515 0 -10.846909896623515 1.3874865390062041 0 0 0 0 0.78946301781772177 -5.327496535080666 0 -5.327496535080666 4.2624008853738431 0 0 0 0 3.873787593391171 -9.7176843274830844 0 -9.7176843274830844 1.5490001133885016 0 0 0 0 -6.4734939857180507 -5.5467910388895234 0 -5.5467910388895234 11.56379539064028 0 0 0 0 -3.0263592225946923 -6.3878287142892987 0 -6.3878287142892987 4.2779192330108344 0 0 0 0 -0.26072958103931398 0.43746123655627978 0 0.43746123655627978 -0.34314331370390327 0 0 0 0 -38.370377593102603 14.414263040350306 0 14.414263040350306 34.175051077811986 0 0 0 0 -7.1148032745732053 6.1156167138005912 0 6.1156167138005912 12.590435454034377 0 0 0 0 -86.298625820742018 -18.835435809921819 0 -18.835435809921819 25.367511242979162 0 0 0 0 -39.438500934207696 -8.3970241112961048 0 -8.3970241112961048 9.6521622871678119 0 0 0 0 -20.420097140451617 -8.6215822707440566 0 -8.6215822707440566 8.9129061373614604 0 0 0 0 -33.160287057091409 -17.348494994793327 0 -17.348494994793327 22.169878578115458 0 0 0 0 -30.221924251974997 -17.367250167204929 0 -17.367250167204929 4.3407083537931612 0 0 0 0 -8.9704889579315932 -5.1958753535163851 0 -5.1958753535163851 4.3054510675420659 0 0 0 0 -15.25682919281553 -12.1970181206691 0 -12.1970181206691 2.6040682567299882 0 0 0 0 -7.9458451800473995 -10.29547054739237 0 -10.29547054739237 3.6569450335446163 0 0 0 0 -9.5457955746242078 -7.9090445737697337 0 -7.9090445737697337 2.3728132474608117 0 0 0 0 -18.43946186741141 -15.628360617156204 0 -15.628360617156204 0.058780223995199776 0 0 0 0 -10.769754118531637 -10.196933543163141 0 -10.196933543163141 0.53125759713356047 0 0 0 0 -21.634236453854669 -19.35669536671287 0 -19.35669536671287 -6.6396567330239122 0 0 0 0 -3.5740047141534887 -3.4424102786028925 0 -3.4424102786028925 3.242846808596056 0 0 0 0 -6.8307881334440026 -11.940325285676749 0 -11.940325285676749 -3.9433507886715233 0 0 0 0 -0.078952700732985548 -0.46338572199904604 0 -0.46338572199904604 -0.094064032005061193 0 0 0 0 -2.4074702568486828 5.9552913047059519 0 5.9552913047059519 8.198050312542307 0 0 0 0 1.5100154836381989 -21.890030216038667 0 -21.890030216038667 12.510794307142532 0 0 0 0 0.20122358621873859 -5.1986614844427699 0 -5.1986614844427699 3.2008652074423516 0 0 0 0 -13.248042817247551 -11.000744862487181 0 -11.000744862487181 6.6757304367722554 0 0 0 0 -0.11224507544557127 -7.7537001373566454 0 -7.7537001373566454 0.054166740747405129 0 0 0 0 129.71134387215716 62.393184479486081 0 62.393184479486081 62.255757391249062 0 0 0 0 -4.89510393056322 -8.961090067248918 0 -8.961090067248918 4.7826001299435603 0 0 0 0 -18.765793984098082 -19.061520008017624 0 -19.061520008017624 21.850673697626917 0 0 0 0 -18.395588917283817 1.3706522033820647 0 1.3706522033820647 8.3884765415423317 0 0 0 0 -2.5286086408882893 -1.4635824170366352 0 -1.4635824170366352 0.76581520548723603 0 0 0 0 -1.5440973554507131 -9.7744886271107241 0 -9.7744886271107241 4.8524300686008601 0 0 0 0 1.1598882336554652 -13.507486220522424 0 -13.507486220522424 5.670419087215123 0 0 0 0 -4.3035566561011365 -12.252015128998664 0 -12.252015128998664 8.2393850867397305 0 0 0 0 -2.9822339371912676 -12.720402708993788 0 -12.720402708993788 5.8889380868813532 0 0 0 0 -4.5026388179267087 -13.200128302746634 0 -13.200128302746634 5.8809260570460538 0 0 0 0 -3.2556702732492795 -11.81530114047564 0 -11.81530114047564 5.3780100440299066 0 0 0 0 2.8276780305144849 -5.8759670233343098 0 -5.8759670233343098 4.8700994387589098 0 0 0 0 -4.8154881790342188 -12.151341244196828 0 -12.151341244196828 6.0732260136401237 0 0 0 0 -5.7772169468635184 -8.8795579708664718 0 -8.8795579708664718 3.4085039559304278 0 0 0 0 -25.02977005147477 9.9785320172588854 0 9.9785320172588854 25.471906692064294 0 0 0 0 10.375011438467482 -33.172319221586804 0 -33.172319221586804 -1.1858787951696286 0 0 0 0 -33.900259589221605 33.410731815465624 0 33.410731815465624 -10.616826182673321 0 0 0 0 -48.589906828525272 -55.150173934351187 0 -55.150173934351187 10.55067582408833 0 0 0 0 -23.753489971641102 -31.347612903424761 0 -31.347612903424761 3.9556324299301195 0 0 0 0 -30.328413952873234 -15.158767302829801 0 -15.158767302829801 -1.9313346797862323 0 0 0 0 -1.0632208235820002 -0.18935908023704151 0 -0.18935908023704151 0.87463881667322951 0 0 0 0 -36.429341990478861 -25.419656469158326 0 -25.419656469158326 2.8406270589448468 0 0 0 0 -28.511054040920499 -12.92419594652165 0 -12.92419594652165 4.8370419436291741 0 0 0 0 -47.602908666751318 -13.72498127425024 0 -13.72498127425024 6.0682437012592345 0 0 0 0 -30.846883930585591 -19.813678657263722 0 -19.813678657263722 8.0073283002157041 0 0 0 0 -26.342253237322439 -20.353021451600398 0 -20.353021451600398 4.7932124544394128 0 0 0 0 -22.094449200783629 -24.974512414812835 0 -24.974512414812835 -15.468146005026028 0 0 0 0 -43.74302789297144 -23.328421687910122 0 -23.328421687910122 5.5812338675127648 0 0 0 0 -39.535379513513817 -5.4132453944782242 0 -5.4132453944782242 7.1791623546896517 0 0 0 0 2.30801663512608 -2.4589498285787101 0 -2.4589498285787101 1.1707544701301522 0 0 0 0 9.7016946799485595 -16.397272097314271 0 -16.397272097314271 -19.917792280239155 0 0 0 0 3.8044468383684737 -7.0733946457703016 0 -7.0733946457703016 5.9687788192241769 0 0 0 0 0.034208886245323811 -11.222228788348275 0 -11.222228788348275 5.0146408435409739 0 0 0 0 -4.3477145798060519 -15.310479331123133 0 -15.310479331123133 2.9656046275595145 0 0 0 0 -23.294975112097745 -3.4271571640556431 0 -3.4271571640556431 5.4820339981924917 0 0 0 0 1.9804167390706651 -1.5684576231413239 0 -1.5684576231413239 -0.50615580822160311 0 0 0 0 -1.2046318609891387 -13.612177305310979 0 -13.612177305310979 4.4691284108848777 0 0 0 0 -2.8547287978463878 -7.7014413422611838 0 -7.7014413422611838 0.55594274113928677 0 0 0 0 4.9317360986497079 -10.184022898869898 0 -10.184022898869898 3.9459340903640623 0 0 0 0 -1.1373371127501741 -14.097445170402352 0 -14.097445170402352 6.4056714302978435 0 0 0 0 -11.273235473530804 -15.193544526354344 0 -15.193544526354344 7.3715436720831349 0 0 0 0 -6.4769038091908442 -16.140477739209018 0 -16.140477739209018 -0.069396999351738486 0 0 0 0 18.380324609013769 -1.5494730040313698 0 -1.5494730040313698 -4.5716324384193285 0 0 0 0 3.5035965271017986 -12.080106841418132 0 -12.080106841418132 2.9747322685387196 0 0 0 0 -8.4458812780103472 -7.083365813709861 0 -7.083365813709861 6.0565746004849643 0 0 0 0 -3.4324140711663946 -7.5706664290486678 0 -7.5706664290486678 4.3094939203716578 0 0 0 0 9.6501068962165846 -12.148770510089435 0 -12.148770510089435 -3.6387564359374664 0 0 0 0 9.4604666997329332 -11.049827835264296 0 -11.049827835264296 4.4776729280488325 0 0 0 0 6.7614375737107366 -12.946005493905432 0 -12.946005493905432 3.3585124753440141 0 0 0 0 6.4446070388003136 -17.293305276474712 0 -17.293305276474712 12.772618243141551 0 0 0 0 11.453274389829858 -23.425755094046508 0 -23.425755094046508 11.539655839287661 0 0 0 0 -0.76430748397213044 -3.0160755162968442 0 -3.0160755162968442 -0.013304725130154793 0 0 0 0 -5.2417001466249076 4.8792761367317325 0 4.8792761367317325 12.782234035870715 0 0 0 0 -8.5765291864609026 -7.849168087527687 0 -7.849168087527687 9.1171786052109383 0 0 0 0 3.8920537154578616 -7.7625000468304375 0 -7.7625000468304375 7.2016618227157707 0 0 0 0 6.4246063155910633 -2.9546942266296128 0 -2.9546942266296128 -1.7077827679277107 0 0 0 0 10.311813950704163 -10.24241424516913 0 -10.24241424516913 1.4263879752479625 0 0 0 0 11.546654075698825 -6.337583909690693 0 -6.337583909690693 0.52586088787666085 0 0 0 0 7.6015082380563399 -7.3395792512383196 0 -7.3395792512383196 6.638167440012694 0 0 0 0 -1.1307371708337097 -8.3109262395401675 0 -8.3109262395401675 3.0740780260450897 0 0 0 0 -7.2172137150115265 -1.0359796193179189 0 -1.0359796193179189 6.1812758635580956 0 0 0 0 -11.916805329833096 -12.080365255527568 0 -12.080365255527568 1.3199235978463548 0 0 0 0 -11.436179100937807 -17.366918264966557 0 -17.366918264966557 2.9069929310326188 0 0 0 0 -16.148946207358676 -6.8580857390988967 0 -6.8580857390988967 4.1793075780587969 0 0 0 0 0.2932565699400751 -0.69107001211553509 0 -0.69107001211553509 0.65618528345561344 0 0 0 0 -20.100837804970752 -21.563474437876835 0 -21.563474437876835 -0.29591957311185979 0 0 0 0 -23.632164089994831 -18.744568707460076 0 -18.744568707460076 5.4221066661075383 0 0 0 0 -17.171997863736578 -15.122240947250248 0 -15.122240947250248 7.156760768217282 0 0 0 0 -20.509713548248556 -21.767258265249723 0 -21.767258265249723 1.2020477753931118 0 0 0 0 0.025420357027268636 -3.0848297243591034 0 -3.0848297243591034 0.93125970678321579 0 0 0 0 -5.7935614955458732 -33.701216788913371 0 -33.701216788913371 -1.2471067328224308 0 0 0 0 -8.4175067084531747 -19.38744290260388 0 -19.38744290260388 3.797892747986225 0 0 0 0 -9.9390613874040667 -12.243416656829037 0 -12.243416656829037 -1.6545851399184492 0 0 0 0 -1.6544231011321244 -20.461684119658457 0 -20.461684119658457 8.1619551376247728 0 0 0 0 -46.93039137523192 -28.019282599399503 0 -28.019282599399503 3.0156904601817587 0 0 0 0 -14.380843740018463 -40.446736073211468 0 -40.446736073211468 -17.226106828448678 0 0 0 0 -19.99716468749557 -16.724087468653352 0 -16.724087468653352 3.5192731447023107 0 0 0 0 -27.208274658289156 -5.1129980410637472 0 -5.1129980410637472 -15.176210449060093 0 0 0 0 -26.196747423276975 -8.4820193547202507 0 -8.4820193547202507 11.055985025714477 0 0 0 0 -19.031162844254141 -11.26115072562834 0 -11.26115072562834 5.3751472880749134 0 0 0 0 -24.039776787329174 -15.849671909686094 0 -15.849671909686094 10.638331828206901 0 0 0 0 -25.477358966585598 -10.118033917330649 0 -10.118033917330649 11.863016164046712 0 0 0 0 -23.44035910000639 -6.9404486979078683 0 -6.9404486979078683 16.773443165655408 0 0 0 0 -22.286683548802102 -12.361328854701242 0 -12.361328854701242 4.9248181493699121 0 0 0 0 -21.013414552791801 -5.963709626446871 0 -5.963709626446871 2.9232253868913176 0 0 0 0 -26.232256958223616 -2.9674853504164957 0 -2.9674853504164957 5.8405924702165066 0 0 0 0 -21.022217866042411 -10.657550564075336 0 -10.657550564075336 -11.925114821802708 0 0 0 0 -11.126185833768993 -6.4836393609368344 0 -6.4836393609368344 4.410492194392436 0 0 0 0 -17.62927705385664 -10.932985549132354 0 -10.932985549132354 -13.014024905245606 0 0 0 0 -6.7491383834276348 -22.876169473380287 0 -22.876169473380287 -36.851766374587896 0 0 0 0 -22.953187492264988 5.2760952049547996 0 5.2760952049547996 -25.659191099603049 0 0 0 0 -4.9236045411298619 -8.1450794072867438 0 -8.1450794072867438 3.1393814389111867 0 0 0 0 -4.0433121482560743 -4.503435504711403 0 -4.503435504711403 4.5661638170889356 0 0 0 0 -4.2523101648512238 -10.513249942430548 0 -10.513249942430548 0.29925625684700208 0 0 0 0 0.39505075174929516 -6.8734879807889229 0 -6.8734879807889229 6.3622678159426869 0 0 0 0 -39.834137152864059 -3.4858636193811208 0 -3.4858636193811208 6.3480519009681462 0 0 0 0 -4.5104926948978896 -8.9581572080813618 0 -8.9581572080813618 3.0812463052404491 0 0 0 0 -21.438455720026468 -11.977159233622388 0 -11.977159233622388 30.215287701700618 0 0 0 0 -0.8534407155637318 -2.2942984686809407 0 -2.2942984686809407 -0.51045443449099182 0 0 0 0 -13.24662355577312 -12.008373280291728 0 -12.008373280291728 -2.7910571728359166 0 0 0 0 1.4534931484040499 -22.151460278089871 0 -22.151460278089871 -14.442291086528712 0 0 0 0 -4.4081400161403508 -27.355772275623394 0 -27.355772275623394 -18.052608206047125 0 0 0 0 -3.2011677836239869 -13.984456315301941 0 -13.984456315301941 -2.3044336561733871 0 0 0 0 -16.134249002323486 -23.409746536308603 0 -23.409746536308603 -8.67516494920892 0 0 0 0 -16.192590171208408 -20.469320104449721 0 -20.469320104449721 -0.61336632270104019 0 0 0 0 -22.427455226179973 -20.53329848932708 0 -20.53329848932708 5.18488896706981 0 0 0 0 -17.957431869573156 -16.081764056200882 0 -16.081764056200882 2.8045229087226176 0 0 0 0 5.4482617488693332 -6.9170944295644246 0 -6.9170944295644246 6.7493791437065731 0 0 0 0 -0.13238354892140825 -3.9380022290901877 0 -3.9380022290901877 2.0778921883169552 0 0 0 0 -1.4739234685857809 -4.7456631531272251 0 -4.7456631531272251 -0.17496002187954218 0 0 0 0 -1.4685710721805663 -4.7127138123737495 0 -4.7127138123737495 -0.10176301994670212 0 0 0 0 -5.0881448685940995 -7.5126128715851337 0 -7.5126128715851337 11.00215377074619 0 0 0 0 -1.2993394824977713 -2.9347840922844171 0 -2.9347840922844171 -2.6388105745832036 0 0 0 0 0.80665545447594234 -2.3883434796446998 0 -2.3883434796446998 -0.784676683678871 0 0 0 0 -1.4004970862370101 -4.6881919224938429 0 -4.6881919224938429 -0.18717062926771177 0 0 0 0 0.015026192641823144 -1.6775747669592462 0 -1.6775747669592462 -0.88293379225541457 0 0 0 0 -3.6125896963051218 -3.0089620552150791 0 -3.0089620552150791 0.3454804402767877 0 0 0 0 -3.4895144224678916 -1.07027021871329 0 -1.07027021871329 -1.9977445179702045 0 0 0 0 -3.0197080266846683 -0.42013803640520475 0 -0.42013803640520475 1.1315698908697804 0 0 0 0 3.8720133024282859 -5.8416322016842059 0 -5.8416322016842059 -2.2649383265779761 0 0 0 0 -13.931940274223962 -0.12838961950728844 0 -0.12838961950728844 5.2574836340763795 0 0 0 0 0.35006513663908345 -5.166375818498274 0 -5.166375818498274 2.0319751742714907 0 0 0 0 -1.2840641382445028 -3.4726835490168924 0 -3.4726835490168924 3.8985058462312736 0 0 0 0 -1.5987831666225247 -6.5754348166274212 0 -6.5754348166274212 -1.1806922460546048 0 0 0 0 -6.6124289921626769 -5.8050605858588824 0 -5.8050605858588824 0.19768237158723423 0 0 0 0 -5.7121307495635847 -7.2767010173424751 0 -7.2767010173424751 -4.6952617313080509 0 0 0 0 13.430226857159141 -5.594134768611184 0 -5.594134768611184 -3.4174925090064789 0 0 0 0 0.62573322466778336 -31.533950739281863 0 -31.533950739281863 16.208076021413945 0 0 0 0 -3.4357161472216831 -25.317707245533711 0 -25.317707245533711 17.857665193754656 0 0 0 0 -15.985673383446738 -15.963694227977157 0 -15.963694227977157 62.971699508818347 0 0 0 0 -13.723327553223498 -11.950518893154822 0 -11.950518893154822 10.50965583398829 0 0 0 0 -0.63693509251578462 -1.6246660719203563 0 -1.6246660719203563 0.65766327294369198 0 0 0 0 0.66249340278417179 -0.026757954946866391 0 -0.026757954946866391 -0.28380849503090566 0 0 0 0 -14.440929683555623 -1.4990458519425829 0 -1.4990458519425829 50.103104109532978 0 0 0 0 2.6000812722486444 -7.1435342983090777 0 -7.1435342983090777 -5.519988844879208 0 0 0 0 -4.7420670352098568 -12.827582333135297 0 -12.827582333135297 -1.4133092104766547 0 0 0 0 1.9808740823776105 -5.0038357098488735 0 -5.0038357098488735 1.6013614328568138 0 0 0 0 3.1264757644026702 -5.8298741190705865 0 -5.8298741190705865 -0.30615166849200448 0 0 0 0 17.243611206489732 -23.037735191530373 0 -23.037735191530373 -44.363252617281432 0 0 0 0 -25.228129325941154 -13.246277617211376 0 -13.246277617211376 14.722471506183865 0 0 0 0 -34.825061213356094 2.618440879665286 0 2.618440879665286 10.982299858375882 0 0 0 0 56.572118541858799 -3.411431487340451 0 -3.411431487340451 -36.104474486162417 0 0 0 0 -8.7673303613667386 -9.9449196451960216 0 -9.9449196451960216 4.353867445345549 0 0 0 0 -30.01326601364417 -10.570846289476322 0 -10.570846289476322 18.732421478971446 0 0 0 0 -1.3860335748305719 -2.5543323481134159 0 -2.5543323481134159 1.4599055300381636 0 0 0 0 -17.556665625204914 12.959832417251164 0 12.959832417251164 -47.857370229503431 0 0 0 0 3.240184903392219 -9.9396693279483088 0 -9.9396693279483088 -1.8426401954320113 0 0 0 0 -3.0110406894229573 -6.6258503354337215 0 -6.6258503354337215 -1.8143451585987158 0 0 0 0 5.5935581534868106 -9.1368134495213553 0 -9.1368134495213553 -1.8853223164232986 0 0 0 0 7.4361322524414391 -26.464020964524963 0 -26.464020964524963 -4.3286043365778823 0 0 0 0 0.48566342899175652 2.2172435107526098 0 2.2172435107526098 5.6450069961122722 0 0 0 0 3.3740509633918236 -5.1438490446471103 0 -5.1438490446471103 -2.1155320912764637 0 0 0 0 0.85538208510577562 -4.5258389475781655 0 -4.5258389475781655 -2.0393312058784048 0 0 0 0 2.4874793006206346 -5.1059412491137977 0 -5.1059412491137977 -1.2559362436904848 0 0 0 0 1.311790603429472 -4.8865909424935126 0 -4.8865909424935126 -1.2661796618693302 0 0 0 0 -1.4184615138001391 -4.7391459588252474 0 -4.7391459588252474 -0.27238220772414934 0 0 0 0 -0.46508204136625864 -6.0979036494877619 0 -6.0979036494877619 0.27432244865133271 0 0 0 0 -0.21054564738000181 -2.9465515666325843 0 -2.9465515666325843 0.46876017556964245 0 0 0 0 1.1267221080193401 -4.1701005277902894 0 -4.1701005277902894 -0.65560242136426616 0 0 0 0 5.3505651212781231 -1.7004742920094031 0 -1.7004742920094031 -4.2356977367926447 0 0 0 0 4.7222292373226082 -2.8672049150198973 0 -2.8672049150198973 -5.5440556156363527 0 0 0 0 1.5329563374289137 -8.9131690335029816 0 -8.9131690335029816 -1.6725273789970743 0 0 0 0 1.3828247576748254 -4.9821786381612583 0 -4.9821786381612583 2.8145465829561545 0 0 0 0 2.3086635697645761 -6.6372635062320455 0 -6.6372635062320455 -5.8103004287386284 0 0 0 0 -2.9671335105012986 -9.3412787016161474 0 -9.3412787016161474 -0.93762653560543185 0 0 0 0 10.780006516837602 -11.929609084755384 0 -11.929609084755384 -21.231353026033048 0 0 0 0 2.7135623138715914 -1.6629823131240826 0 -1.6629823131240826 -4.0575146311845929 0 0 0 0 2.4669770290407413 -4.747275178159116 0 -4.747275178159116 4.1333159153152774 0 0 0 0 -6.9015335114236223 4.8898393155573103 0 4.8898393155573103 -0.66436224533936183 0 0 0 0 -2.1605946475156088 -19.401742265458864 0 -19.401742265458864 -50.287636304564586 0 0 0 0 4.078460829832089 -5.3008337504961371 0 -5.3008337504961371 4.5143936826897404 0 0 0 0 -1.268906181325292 -18.065647192384006 0 -18.065647192384006 -49.426251339859498 0 0 0 0 20.322599722541781 -8.3303732096514977 0 -8.3303732096514977 -33.015403664246605 0 0 0 0 4.6582814597300057 -32.878855948195479 0 -32.878855948195479 -34.156243708907823 0 0 0 0 11.65830768631713 -1.6876917769220654 0 -1.6876917769220654 3.5489417424823841 0 0 0 0 25.975882935457776 -20.759262859414093 0 -20.759262859414093 -19.322821855847906 0 0 0 0 -2.8848256755936745 -3.678236348001974 0 -3.678236348001974 0.45297759006325578 0 0 0 0 22.248221623143763 8.0744851610575097 0 8.0744851610575097 -9.54635580493823 0 0 0 0 2.0421777123268896 -1.8314461377078501 0 -1.8314461377078501 -1.9712637667370565 0 0 0 0 0.742483605084999 -1.7907145600038348 0 -1.7907145600038348 -1.9980285578990333 0 0 0 0 -2.8037802704711794 -7.0313534176891608 0 -7.0313534176891608 -5.586553228052253 0 0 0 0 -0.4222867342791119 -1.4283003099052607 0 -1.4283003099052607 0.32071066631486023 0 0 0 0 43.681794782558427 6.3786481362581071 0 6.3786481362581071 1.8596878848163669 0 0 0 0 53.413941425475059 24.399036606633672 0 24.399036606633672 18.698488069268933 0 0 0 0 -0.19953484092824425 -0.58443030959070663 0 -0.58443030959070663 0.12753962891495441 0 0 0 0 0.68047574077777639 -1.3964077899280163 0 -1.3964077899280163 0.62145645284353535 0 0 0 0 21.324217282137397 -0.99646650065005815 0 -0.99646650065005815 -8.7342958531635304 0 0 0 0 17.63922060542609 -7.8791053841528083 0 -7.8791053841528083 13.128607968092183 0 0 0 0 40.553685909198975 13.444902845101296 0 13.444902845101296 3.7749063953995119 0 0 0 0 31.306327695352593 -1.2483116688124483 0 -1.2483116688124483 -0.70016638655033603 0 0 0 0 0.51370964936734254 -0.45665027448820439 0 -0.45665027448820439 0.15521739194382533 0 0 0 0 -12.539263412456421 -6.5877535864055972 0 -6.5877535864055972 15.591551510298359 0 0 0 0 110.24361607857099 21.812952693379884 0 21.812952693379884 1.2182024802821161 0 0 0 0 36.990323347614321 6.7364840648338031 0 6.7364840648338031 8.2315737114952299 0 0 0 0 1.6395920018658217 2.2439621190051184 0 2.2439621190051184 -0.33379720841611515 0 0 0 0 9.3786640595462814 -4.0483368478348893 0 -4.0483368478348893 -5.4967303930052367 0 0 0 0 -0.45539509978016923 -0.35388416359300479 0 -0.35388416359300479 0.27305005780956293 0 0 0 0 -22.840283624676886 -13.546426600339601 0 -13.546426600339601 13.097769796092962 0 0 0 0 -19.051696332897336 2.7126564810178024 0 2.7126564810178024 21.07292280297861 0 0 0 0 -23.173314308085537 -32.858610557788325 0 -32.858610557788325 36.13462251625424 0 0 0 0 86.678928326176901 -37.637237852857197 0 -37.637237852857197 0.57140218761287542 0 0 0 0 12.516920543275774 -24.611452784158701 0 -24.611452784158701 16.139845910380245 0 0 0 0 12.477654636029911 -23.783881698641835 0 -23.783881698641835 1.8033750886716007 0 0 0 0 6.0461875571454584 -19.550317599444043 0 -19.550317599444043 -1.4009868310629372 0 0 0 0 43.474238288734341 -16.014601350730572 0 -16.014601350730572 -3.0541812161145572 0 0 0 0 13.640208060739496 -14.045073729796968 0 -14.045073729796968 -7.5065026423690142 0 0 0 0 27.356383874794119 1.3923789158757245 0 1.3923789158757245 -1.6573156550011845 0 0 0 0 11.177062592778384 -22.241285768990565 0 -22.241285768990565 -10.418345148851586 0 0 0 0 -6.3992120832917863 -20.843829567310877 0 -20.843829567310877 6.2583998813629478 0 0 0 0 -7.1215910117728072 -25.816252135207947 0 -25.816252135207947 -9.9885561789542407 0 0 0 0 -13.825558844240732 -13.07884352695055 0 -13.07884352695055 -16.891279028006466 0 0 0 0 -5.4345742302793951 -15.143658482578189 0 -15.143658482578189 -27.31798343844622 0 0 0 0 -3.7227634916853276 -37.868439006352901 0 -37.868439006352901 -26.320552741686697 0 0 0 0 4.8266608658663799 -5.8370799913159388 0 -5.8370799913159388 4.8812187819829216 0 0 0 0 -3.8893907459005277 -2.4910136714049713 0 -2.4910136714049713 -14.392602502636691 0 0 0 0 -19.644977079864475 -31.739098273356831 0 -31.739098273356831 -7.4534154487470232 0 0 0 0 -3.12496125457983 -19.048670084095747 0 -19.048670084095747 -48.629206170895102 0 0 0 0 -6.7553948416516505 -21.65299797478086 0 -21.65299797478086 -33.384451269608178 0 0 0 0 0.94842166466920474 -0.48201369998028909 0 -0.48201369998028909 -0.034254208921423432 0 0 0 0 -5.3517187802481203 -24.107660562962018 0 -24.107660562962018 -29.273637071601215 0 0 0 0 0.84859626576034586 -0.33169652004436756 0 -0.33169652004436756 -1.3860047528847947 0 0 0 0 -5.1434722643170971 -40.103019999757784 0 -40.103019999757784 -51.662461396691498 0 0 0 0 2.1233431541471077 -1.1869119121876031 0 -1.1869119121876031 0.22924847211215027 0 0 0 0 9.3043477132923726 -10.437871364025796 0 -10.437871364025796 1.5180386086185536 0 0 0 0 13.790028615625488 -15.374030967200611 0 -15.374030967200611 -12.395517512724155 0 0 0 0 4.4646493118129911 -4.9946475353135185 0 -4.9946475353135185 4.3830647465342736 0 0 0 0 22.491591005753435 4.007779916054119 0 4.007779916054119 -14.299826106555884 0 0 0 0 -86.898288349495488 -73.188455903043405 0 -73.188455903043405 -13.047223177450974 0 0 0 0 0.055892719604351271 -0.072501683646930104 0 -0.072501683646930104 -0.36744715272787865 0 0 0 0 4.9528268836220377 -26.442042785949752 0 -26.442042785949752 -35.900694198187239 0 0 0 0 -24.619360210688683 -31.329973767145191 0 -31.329973767145191 -31.750250336381669 0 0 0 0 5.8181119647269952 -14.028004007519385 0 -14.028004007519385 -44.940028430644688 0 0 0 0 11.349551200160931 -14.639862845286839 0 -14.639862845286839 -73.945145538671909 0 0 0 0 -20.130887642646485 -27.639370661808798 0 -27.639370661808798 -32.806941468577364 0 0 0 0 15.806146422892198 -12.094810550821137 0 -12.094810550821137 -20.68142572187071 0 0 0 0 9.3794009225202899 -7.4705787674279236 0 -7.4705787674279236 -10.197543130168469 0 0 0 0 0.89558299481665671 -0.24125230732052749 0 -0.24125230732052749 0.064492420650980486 0 0 0 0 6.3178324406999309 -41.55548651363722 0 -41.55548651363722 -57.288115792060495 0 0 0 0 -0.013859864800906507 -49.766205681024474 0 -49.766205681024474 93.520165158237432 0 0 0 0 -22.705835551951168 -60.584373238805824 0 -60.584373238805824 113.05343201011999 0 0 0 0 15.87189058444892 -37.276321094338698 0 -37.276321094338698 -84.424364488903962 0 0 0 0 7.3716482285090024 -21.457308027016666 0 -21.457308027016666 -16.040233240182317 0 0 0 0 22.98209096332539 15.258848900895259 0 15.258848900895259 -140.99983126443726 0 0 0 0 39.629192368122858 -120.70379214164524 0 -120.70379214164524 -57.888766168074653 0 0 0 0 8.2693016466946574 -21.860626389319179 0 -21.860626389319179 -25.066391033283594 0 0 0 0 2.363332989240007 -21.502715548027595 0 -21.502715548027595 -15.493550951619 0 0 0 0 -1.3998801317920879 -1.424202164325834 0 -1.424202164325834 6.2957200987930264 0 0 0 0 5.8866342936216824 -18.435616638713554 0 -18.435616638713554 -29.910272866153036 0 0 0 0 -0.87678454597698874 -2.5720089525875665 0 -2.5720089525875665 7.1398719453090962 0 0 0 0 0.91865258520902415 -3.2181409599623585 0 -3.2181409599623585 5.2332289852535236 0 0 0 0 0.0014084576614550315 -1.52089499764827 0 -1.52089499764827 1.4508410656853812 0 0 0 0 -0.47273064178704161 -0.82980329689060994 0 -0.82980329689060994 -0.0082908189117762987 0 0 0 0 5.6847633743382175 -26.686698057325884 0 -26.686698057325884 -13.714620666675728 0 0 0 0 -39.953119685575075 -9.2889796898307395 0 -9.2889796898307395 -48.819921714979159 0 0 0 0 5.6790174566506977 -6.456686533051835 0 -6.456686533051835 5.13138950416303 0 0 0 0 -13.506013580721174 -11.740145692594751 0 -11.740145692594751 -19.223871289735143 0 0 0 0 23.528252663129024 -3.7066519595576892 0 -3.7066519595576892 -41.139964692865078 0 0 0 0 18.038481091796712 -30.496049797846581 0 -30.496049797846581 -23.167886679059393 0 0 0 0 18.500050212736824 -35.502490414935664 0 -35.502490414935664 -57.881764478779814 0 0 0 0 -18.163864087546244 -4.4255866558628441 0 -4.4255866558628441 20.02298956235154 0 0 0 0 -5.0814718070168965 -14.591512934153343 0 -14.591512934153343 -11.436286612171898 0 0 0 0 -1.418194305457174 -2.8058587474947885 0 -2.8058587474947885 6.2393088820781362 0 0 0 0 -8.7407931239395111 -17.522363451545516 0 -17.522363451545516 3.2097297441637238 0 0 0 0 5.9674256641726444 -7.5768718910107502 0 -7.5768718910107502 4.7820974952912838 0 0 0 0 -9.9892456613160903 -36.98997619928798 0 -36.98997619928798 -24.659783030317385 0 0 0 0 8.2562843817395333 -27.15028656200775 0 -27.15028656200775 -8.3118079994455911 0 0 0 0 -19.689368734832897 -1.9177153995033223 0 -1.9177153995033223 39.543629276784486 0 0 0 0 4.0281088659867237 -34.810385413036329 0 -34.810385413036329 21.963161286566901 0 0 0 0 -1.910635339023429 -21.678346400164173 0 -21.678346400164173 8.458596949087223 0 0 0 0 10.798920895424089 8.2512994014241485 0 8.2512994014241485 1.7267302792315604 0 0 0 0 0.14283904920290436 -0.49833383336975956 0 -0.49833383336975956 0.34568378702255131 0 0 0 0 -5.9434963546536892 -23.48275355787473 0 -23.48275355787473 23.328266017751957 0 0 0 0 2.5809844293435162 -3.87185766139919 0 -3.87185766139919 -2.3281165388143563 0 0 0 0 -8.7164456654645619 11.242733787782072 0 11.242733787782072 49.180351658762447 0 0 0 0 -2.152377950934028 -1.8864881776082996 0 -1.8864881776082996 5.9730163151465661 0 0 0 0 -13.519264175542048 -4.3303101435337794 0 -4.3303101435337794 2.8401771055850986 0 0 0 0 -1.9222300192150215 -2.0700014071088617 0 -2.0700014071088617 6.21478097180443 0 0 0 0 -22.633380832361581 8.2134267552100937 0 8.2134267552100937 2.4439728262732388 0 0 0 0 -7.7326126494881464 17.711319177697078 0 17.711319177697078 13.960309646782662 0 0 0 0 -23.289473493412515 10.359132895547191 0 10.359132895547191 12.636901048039363 0 0 0 0 -2.0332260252509649 -0.71525856516403508 0 -0.71525856516403508 4.0151898833674569 0 0 0 0 -2.412135708360438 -2.3444958798975222 0 -2.3444958798975222 5.8709544558832931 0 0 0 0 -1.5098529620463523 -2.274738830487081 0 -2.274738830487081 5.8745804256163865 0 0 0 0 -8.6755200143579714 1.5566530808960124 0 1.5566530808960124 2.9149638731855703 0 0 0 0 -1.429186850037766 -2.2912190109936539 0 -2.2912190109936539 3.7352816348613356 0 0 0 0 -23.04259157069464 1.9553168295469732 0 1.9553168295469732 5.5503707881016453 0 0 0 0 -1.594268196882755 0.77977800394589636 0 0.77977800394589636 1.3952617654579349 0 0 0 0 -2.5180940593694849 -0.99290273038907984 0 -0.99290273038907984 3.9876600380976175 0 0 0 0 -8.0814656039547117 3.6013516888378945 0 3.6013516888378945 1.646291195392223 0 0 0 0 -42.822239027482283 -5.4230674562259082 0 -5.4230674562259082 12.284621654541297 0 0 0 0 -0.96830234021898409 -0.31133165449731237 0 -0.31133165449731237 1.1592652906687491 0 0 0 0 -28.324529996992169 4.9698343411121186 0 4.9698343411121186 1.7455828717211261 0 0 0 0 -17.175388440105053 -16.782134786988991 0 -16.782134786988991 12.933831804179135 0 0 0 0 -7.9693785005661084 -18.159709133930278 0 -18.159709133930278 14.286265732089305 0 0 0 0 -6.2233731845331022 -9.6730185101575898 0 -9.6730185101575898 -11.2087592059288 0 0 0 0 -4.5286846684393822 -7.1912192988229435 0 -7.1912192988229435 -1.1416388182205992 0 0 0 0 -11.72606775953318 6.330107821006095 0 6.330107821006095 -0.22038378064166864 0 0 0 0 -1.1922486337480223 -1.6543484069893566 0 -1.6543484069893566 10.487516441582557 0 0 0 0 0.19872466419765544 0.1783899201577821 0 0.1783899201577821 0.060342059562774164 0 0 0 0 -1.1402956857418758 -1.3308827461958117 0 -1.3308827461958117 5.9343992434437496 0 0 0 0 -1.9368544785767945 -0.51466160937283334 0 -0.51466160937283334 4.5703705913364328 0 0 0 0 0.75906081115317647 -3.5864735558566281 0 -3.5864735558566281 6.2572182711330697 0 0 0 0 0.71993205033140839 -2.3021185520569816 0 -2.3021185520569816 4.9544434417339289 0 0 0 0 -0.8973286267637377 -2.7065467376531842 0 -2.7065467376531842 6.517103306332956 0 0 0 0 -0.17204418939763855 -3.2641395400435158 0 -3.2641395400435158 5.176985313456953 0 0 0 0 -0.026575178846542258 -2.4517594698785388 0 -2.4517594698785388 4.6069945079757417 0 0 0 0 8.654103112348821e-05 -3.1792210505759613 0 -3.1792210505759613 6.0781009795300633 0 0 0 0 -0.31276481780014365 -1.7860177079716664 0 -1.7860177079716664 1.8232998763796786 0 0 0 0 -0.0017301872176176403 -3.1730830298015462 0 -3.1730830298015462 4.3849005637358687 0 0 0 0 -1.3925875872428151 -3.0257507562992032 0 -3.0257507562992032 5.1498724219991345 0 0 0 0 0.8456414338148015 -1.159682341593669 0 -1.159682341593669 1.7559571694742413 0 0 0 0 -1.2197645140040549 -2.6194347848102097 0 -2.6194347848102097 1.7553495008019127 0 0 0 0 -4.202889237070849 -0.64752393761477833 0 -0.64752393761477833 2.3012187545755296 0 0 0 0 -2.6050704590831408 -2.4740147815378251 0 -2.4740147815378251 1.9025745460073615 0 0 0 0 -4.0552131930025013 -1.2224082915466248 0 -1.2224082915466248 2.1935940976836541 0 0 0 0 -24.872315339671331 -3.3531661345678003 0 -3.3531661345678003 -2.7603405679924435 0 0 0 0 -46.334990330539767 0.54476614849522775 0 0.54476614849522775 3.7124550747557805 0 0 0 0 -29.689557482772216 -9.1151729822440757 0 -9.1151729822440757 0.47272848424108815 0 0 0 0 -29.290320976984731 -6.6444463595321395 0 -6.6444463595321395 14.679485041808221 0 0 0 0 -2.2615206122300151 0.95487371815568167 0 0.95487371815568167 5.4636916954023036 0 0 0 0 -1.5191036557377586 -2.4624610820171071 0 -2.4624610820171071 5.4445487011445728 0 0 0 0 -0.67885284377553035 -2.7038792566472694 0 -2.7038792566472694 3.4875401442332077 0 0 0 0 0.23791257359665252 -1.6306974159526426 0 -1.6306974159526426 2.9667312878843166 0 0 0 0 -25.919353063819926 9.7043307129747518 0 9.7043307129747518 12.903846956278358 0 0 0 0 11.932996453640953 3.846238628016863 0 3.846238628016863 1.2220868559979863 0 0 0 0 -10.853909052413655 3.3082268680459492 0 3.3082268680459492 4.8212856749141793 0 0 0 0 -36.661125489150436 -8.5788568723098706 0 -8.5788568723098706 18.112402574108273 0 0 0 0 -0.8918877737266282 -1.998621111646429 0 -1.998621111646429 13.152913948051994 0 0 0 0 -26.234270153830948 -29.908104383710452 0 -29.908104383710452 30.288086245818704 0 0 0 0 -1.0669204356230466 -5.3446166938259516 0 -5.3446166938259516 -0.79411426419075326 0 0 0 0 -61.541208644658582 10.005943573954028 0 10.005943573954028 -0.12028993801141041 0 0 0 0 -1.085366305289746 -3.8691900403259361 0 -3.8691900403259361 -4.1430458426015804 0 0 0 0 -37.884101117895625 -8.7648439321169462 0 -8.7648439321169462 9.6797641836355979 0 0 0 0 -36.114116809761981 -11.426887945919134 0 -11.426887945919134 -15.677568018055808 0 0 0 0 -9.7583644834048755 -26.89181871516007 0 -26.89181871516007 -1.0387851660489105 0 0 0 0 -24.969276374900801 -1.3172129056947597 0 -1.3172129056947597 4.4222009900731791 0 0 0 0 14.491226455794276 -2.0488482098437544 0 -2.0488482098437544 16.583060460209708 0 0 0 0 53.81165496295398 -39.671882034206646 0 -39.671882034206646 -9.8272346005617237 0 0 0 0 12.566657248808042 -45.253222643508252 0 -45.253222643508252 -23.559083240101018 0 0 0 0 33.980389136148005 -16.046072235872543 0 -16.046072235872543 6.4447816065612642 0 0 0 0 10.393085806917952 -9.7510696021524836 0 -9.7510696021524836 -1.2169151352995868 0 0 0 0 11.448037135616687 -5.1654113508122919 0 -5.1654113508122919 -3.3557645456498904 0 0 0 0 5.1097042077362858 0.50437044505520134 0 0.50437044505520134 -7.0613299434598957 0 0 0 0 -0.5516390634740489 -0.96390331558952269 0 -0.96390331558952269 -1.9935684949861141 0 0 0 0 20.98279272561922 -31.422193604071026 0 -31.422193604071026 29.869530854950199 0 0 0 0 27.491703850425438 -9.3368280859881452 0 -9.3368280859881452 -15.588770005023889 0 0 0 0 15.391526767919459 -24.839798302934469 0 -24.839798302934469 25.718607260567296 0 0 0 0 9.7380910223237152 -12.369798295004102 0 -12.369798295004102 -1.7799113474584374 0 0 0 0 6.7805176194633532 -5.3784071588829647 0 -5.3784071588829647 -1.2750261375913396 0 0 0 0 0.93205155687473962 -7.2955754054729027 0 -7.2955754054729027 32.511565243213226 0 0 0 0 0.23100338626259287 -0.22474123718004524 0 -0.22474123718004524 -0.30322587725364158 0 0 0 0 16.681644470287665 -32.988128919439646 0 -32.988128919439646 29.441313299659669 0 0 0 0 -2.0469858329361159 42.024080112212459 0 42.024080112212459 22.278983165436898 0 0 0 0 22.984039173399651 -54.966454237730886 0 -54.966454237730886 16.82934739178927 0 0 0 0 -1.8547693786931632 -15.423589372097922 0 -15.423589372097922 13.337392862134266 0 0 0 0 -4.6298152329982258 -22.147487681135772 0 -22.147487681135772 8.5026807793965418 0 0 0 0 27.709216226210629 -32.933043569472147 0 -32.933043569472147 4.6833968612581884 0 0 0 0 -3.2111073275236777 -31.121343620546213 0 -31.121343620546213 19.212141759877341 0 0 0 0 1.498593619246094 -13.594673498923839 0 -13.594673498923839 -2.0176430187111691 0 0 0 0 -0.46524793888163174 -0.64261516699106735 0 -0.64261516699106735 -0.54844042871575738 0 0 0 0 20.674488994913645 -12.587577739809149 0 -12.587577739809149 -13.515654931808967 0 0 0 0 24.087609759476436 -19.735120301913412 0 -19.735120301913412 -11.920264736450918 0 0 0 0 0.29107388584760518 -2.1787456839295611 0 -2.1787456839295611 -1.0446416674680492 0 0 0 0 5.9860177702830697 -9.9534553757002868 0 -9.9534553757002868 14.959720235423447 0 0 0 0 1.9349688429469705 -2.580285179190291 0 -2.580285179190291 3.1612384036123515 0 0 0 0 8.0769766087332755 -26.466617016063537 0 -26.466617016063537 -0.61606141937591019 0 0 0 0 5.4594322353705138 -18.83715648963971 0 -18.83715648963971 -22.820731957403041 0 0 0 0 -4.9856801095811534 -19.714773698930912 0 -19.714773698930912 16.270600636275049 0 0 0 0 -19.749781493387331 -11.138845473751644 0 -11.138845473751644 0.17034378403332084 0 0 0 0 0.67430843292625653 -1.6420299695894318 0 -1.6420299695894318 -0.22507941044417379 0 0 0 0 -19.918209189209335 -8.8874120520526958 0 -8.8874120520526958 2.8130644454577123 0 0 0 0 -40.754810669315702 3.960448078243644 0 3.960448078243644 -8.5401025883074908 0 0 0 0 -21.026958907125845 -9.6872310138642206 0 -9.6872310138642206 -0.42192514296402805 0 0 0 0 12.012042868142089 -5.1129204165426927 0 -5.1129204165426927 -4.0271381868806202 0 0 0 0 -17.706055977646201 -4.6258456910961741 0 -4.6258456910961741 8.1446951966790948 0 0 0 0 -18.263251739344923 -7.8610592845125211 0 -7.8610592845125211 3.252264759488753 0 0 0 0 -20.579339646100379 -9.5294178527929034 0 -9.5294178527929034 4.3004456814487639 0 0 0 0 -18.235264508983164 -7.3782346660809708 0 -7.3782346660809708 1.4696694537124131 0 0 0 0 -10.877755792469543 -8.5188586869371647 0 -8.5188586869371647 -1.9209562157193432 0 0 0 0 -11.618566067555548 -2.2114069735725934 0 -2.2114069735725934 4.1940744006897148 0 0 0 0 -14.023725200055196 -0.41191684379555227 0 -0.41191684379555227 6.9877167415857002 0 0 0 0 -10.719838240131139 -12.440594920241438 0 -12.440594920241438 -3.8486867134924978 0 0 0 0 -2.5481517654837411 -3.8930373539644538 0 -3.8930373539644538 5.4012270476152935 0 0 0 0 6.2233452714157078 -14.180037096806499 0 -14.180037096806499 -0.085848651294071487 0 0 0 0 14.844574342747364 -13.056562174195278 0 -13.056562174195278 4.8099549944363389 0 0 0 0 11.974055168624545 -11.894344207936228 0 -11.894344207936228 6.5670776388888044 0 0 0 0 -0.77874837096896954 -7.5147158850995766 0 -7.5147158850995766 3.7051707184800762 0 0 0 0 2.0978083356477297 -8.7152426707084594 0 -8.7152426707084594 0.86758172105805897 0 0 0 0 0.58307631749132227 -11.173745417019131 0 -11.173745417019131 8.4506644774674484 0 0 0 0 -11.427357291591761 -13.536502892366116 0 -13.536502892366116 -4.497795001079794 0 0 0 0 1.0556657282723521 -6.0341073135019627 0 -6.0341073135019627 -0.020145806704469749 0 0 0 0 3.4180109578279207 -8.1659733323689139 0 -8.1659733323689139 4.4143726153325602 0 0 0 0 -0.83127228161935562 -5.9030642076408171 0 -5.9030642076408171 7.905181540684648 0 0 0 0 -0.065577009317561163 -2.5318268264016801 0 -2.5318268264016801 1.4653342141212242 0 0 0 0 -0.84594702812137257 -10.523474532016735 0 -10.523474532016735 11.589487222732259 0 0 0 0 11.954339926686885 -12.084311749397017 0 -12.084311749397017 7.4111293575042509 0 0 0 0 -0.56507959776394046 -14.110445753960164 0 -14.110445753960164 24.48532223658367 0 0 0 0 4.2888162706422008 -13.06541912452326 0 -13.06541912452326 6.1669221723022929 0 0 0 0 13.20282318793943 -20.084854189057751 0 -20.084854189057751 11.483899282379753 0 0 0 0 1.0017075746036426 -15.864125682409394 0 -15.864125682409394 10.597393762022989 0 0 0 0 9.3161724506058654 -9.2216857394072527 0 -9.2216857394072527 7.2613890223816284 0 0 0 0 5.059726641115958 -36.179710741858798 0 -36.179710741858798 -30.279468017180989 0 0 0 0 -29.570315189713256 -33.601011355694027 0 -33.601011355694027 20.075823168543138 0 0 0 0 7.4788831367604871 -3.3857502129803834 0 -3.3857502129803834 -29.39934168878608 0 0 0 0 -24.489942137023945 -12.369101054815474 0 -12.369101054815474 4.3447352994553512 0 0 0 0 11.840970173203459 -24.105094826489221 0 -24.105094826489221 8.050527674760815 0 0 0 0 4.7484294534679066 -14.760862692022783 0 -14.760862692022783 7.4445491412698175 0 0 0 0 1.8463214325765875 -14.750048872384468 0 -14.750048872384468 1.3283832528850326 0 0 0 0 -5.5923359922380769 50.131384327454725 0 50.131384327454725 -51.274793458498607 0 0 0 0 -17.315814264127766 -50.661347697465317 0 -50.661347697465317 15.597134634990653 0 0 0 0 17.046154826546626 -16.719036699711069 0 -16.719036699711069 1.4992616139215897 0 0 0 0 6.1140854091080783 -6.2682870208145891 0 -6.2682870208145891 6.3784769685911122 0 0 0 0 1.4020824085324683 -0.16213203879061489 0 -0.16213203879061489 -0.86709125416864907 0 0 0 0 -14.418652347357238 -23.404595802830045 0 -23.404595802830045 38.055735673391609 0 0 0 0 -3.8359781609015045 -42.530805248014076 0 -42.530805248014076 15.205093475760577 0 0 0 0 39.692916554145086 -66.71713679568893 0 -66.71713679568893 61.612084606111239 0 0 0 0 54.792888541192951 -36.525067359756576 0 -36.525067359756576 16.781548511889923 0 0 0 0 -11.663446767621281 -45.051136992877218 0 -45.051136992877218 26.204907515922969 0 0 0 0 7.5264452045685175 -30.228019882477383 0 -30.228019882477383 24.654182919534833 0 0 0 0 -1.881146544564217 -30.534450244078471 0 -30.534450244078471 47.542117206990952 0 0 0 0 38.138679212263469 -4.0024504023517693 0 -4.0024504023517693 -2.8943356295440026 0 0 0 0 101.92295821396874 -26.958357807867287 0 -26.958357807867287 -5.5242966785906447 0 0 0 0 42.223625357591573 -1.704997389210348 0 -1.704997389210348 -1.7976861577008094 0 0 0 0 44.880073869745502 2.6836038923347587 0 2.6836038923347587 -7.040520858765376 0 0 0 0 27.337498674645758 0.60669888656229887 0 0.60669888656229887 0.86035908661142457 0 0 0 0 23.010688087540075 -22.905998928263216 0 -22.905998928263216 -6.611377818746405 0 0 0 0 24.853774796611333 2.2066434492490998 0 2.2066434492490998 17.372644300790853 0 0 0 0 23.261508265058069 -13.061857796217055 0 -13.061857796217055 -21.828823079027643 0 0 0 0 -102.48586984192116 -0.37561035115686536 0 -0.37561035115686536 19.633262416777143 0 0 0 0 -0.15545933936667633 -0.80253515444527324 0 -0.80253515444527324 -0.27453700797145331 0 0 0 0 35.452286048435326 0.78715448794173426 0 0.78715448794173426 -23.501713051437036 0 0 0 0 -0.13542638474104596 0.010502883675796326 0 0.010502883675796326 -0.4304227899878228 0 0 0 0 -23.501022564511914 -26.987678966158455 0 -26.987678966158455 2.1821878752762132 0 0 0 0 -57.740894317297716 -20.299751728496631 0 -20.299751728496631 9.5145348857695353 0 0 0 0 -59.353839972157402 -8.8913295608290355 0 -8.8913295608290355 -6.8826497160262079 0 0 0 0 -34.604929795432327 -59.05354573169825 0 -59.05354573169825 -4.1109820563965513 0 0 0 0 -6.3520992685716919 4.1492284563519206 0 4.1492284563519206 -13.886207858189664 0 0 0 0 4.4254799978366126 -1.6928023234250844 0 -1.6928023234250844 -2.7872751604456596 0 0 0 0 7.843718148915741 -25.212947586310293 0 -25.212947586310293 24.94782837133971 0 0 0 0 -16.486004355926475 -10.316687797179963 0 -10.316687797179963 -2.5471314108946643 0 0 0 0 -13.982586821948644 -14.550174979935946 0 -14.550174979935946 -2.4127590974385384 0 0 0 0 -18.803684573298597 -16.102266695495928 0 -16.102266695495928 -1.6111044682324973 0 0 0 0 -22.111512015864719 -13.946922155977518 0 -13.946922155977518 0.93735432821631548 0 0 0 0 -14.51718521954308 -14.056470145128515 0 -14.056470145128515 -1.8018839301093976 0 0 0 0 -19.275529912048114 -12.660287346575387 0 -12.660287346575387 0.14926788248521916 0 0 0 0 13.460920679488481 -14.00548865968176 0 -14.00548865968176 -6.5145937421821145 0 0 0 0 -5.8864655580150895 -12.483878871566308 0 -12.483878871566308 -2.5758797943558633 0 0 0 0 16.602067974442434 -26.749134507230337 0 -26.749134507230337 -23.911001208376547 0 0 0 0 -16.340589566838389 -7.989839694395414 0 -7.989839694395414 -4.1553908028236037 0 0 0 0 -79.600886036382235 -41.68004315264443 0 -41.68004315264443 10.953286379837664 0 0 0 0 -27.275686322785987 -11.51719704997231 0 -11.51719704997231 0.36488400358030049 0 0 0 0 -14.540763711399677 -12.777267409041769 0 -12.777267409041769 -2.8537280084747181 0 0 0 0 -14.746067956056322 -13.333039941040624 0 -13.333039941040624 -1.5272197074300493 0 0 0 0 -13.609956666662583 -12.283595757647163 0 -12.283595757647163 -0.98590733815035492 0 0 0 0 -16.292630556810309 -14.086844871446374 0 -14.086844871446374 2.6866564631236542 0 0 0 0 -14.862572821352842 -12.406910529609377 0 -12.406910529609377 1.8680316043173661 0 0 0 0 -14.575724823938543 -14.678592460722655 0 -14.678592460722655 1.5453426259009575 0 0 0 0 -16.568831945023703 -13.474819991322875 0 -13.474819991322875 1.4045276458318767 0 0 0 0 -17.876888897020308 -12.528392569491189 0 -12.528392569491189 11.569457514537135 0 0 0 0 -18.154608059467591 -7.9901368373721198 0 -7.9901368373721198 1.0811269692876522 0 0 0 0 -19.949639656450017 -24.162606475881148 0 -24.162606475881148 24.482551225721181 0 0 0 0 -27.32440028618575 -13.153438803616609 0 -13.153438803616609 11.847192853971137 0 0 0 0 -20.129950310415538 -20.484280857432054 0 -20.484280857432054 7.081405401642769 0 0 0 0 -14.416036886881102 -19.765162164772846 0 -19.765162164772846 6.350806823660605 0 0 0 0 -13.834917318145017 -30.320547889188674 0 -30.320547889188674 8.9697079459938323 0 0 0 0 -10.788349155493506 -26.871637034475498 0 -26.871637034475498 11.279398932797449 0 0 0 0 -15.269198128584321 -34.227017443869954 0 -34.227017443869954 10.771068696141811 0 0 0 0 -22.471808710079586 -34.301210598176112 0 -34.301210598176112 17.00160774388678 0 0 0 0 -3.0001600756356797 -12.528630311588492 0 -12.528630311588492 -1.8800715037057003 0 0 0 0 -18.849543803936285 -19.223292995545307 0 -19.223292995545307 -0.29446990226097114 0 0 0 0 -24.70222638879568 -13.39182561640655 0 -13.39182561640655 1.2075967088512698 0 0 0 0 -36.647501826274492 -17.833666483751585 0 -17.833666483751585 10.657570229785051 0 0 0 0 -14.78362722244583 -15.358542034660786 0 -15.358542034660786 -0.94555534841720146 0 0 0 0 -10.872836631526752 -18.982225946221661 0 -18.982225946221661 1.9101617972410168 0 0 0 0 -2.1148045995951179 -24.238173832820394 0 -24.238173832820394 2.6445719372136409 0 0 0 0 -12.905917466235906 -19.569331402837975 0 -19.569331402837975 1.9242955067747971 0 0 0 0 -19.936960669813743 -9.8567260294184962 0 -9.8567260294184962 -3.1957880990139529 0 0 0 0 4.9686189879964786 -16.866627696098249 0 -16.866627696098249 -2.4917197160793876 0 0 0 0 -24.403237599190106 -13.643122951581063 0 -13.643122951581063 2.1899325680897164 0 0 0 0 -3.1358622411462393 -12.700991899127805 0 -12.700991899127805 -1.0282856135864691 0 0 0 0 -28.761701185419497 -7.8652591017880695 0 -7.8652591017880695 4.0287763873429867 0 0 0 0 -11.331751751176739 -12.128994786035491 0 -12.128994786035491 0.30628206852634321 0 0 0 0 -8.5963174986364237 -2.4476593332650829 0 -2.4476593332650829 5.1990188768389416 0 0 0 0 37.120541784336638 -10.58181561116362 0 -10.58181561116362 -1.2800946289353305 0 0 0 0 14.580286229904686 -29.006585182947674 0 -29.006585182947674 -0.11639896145061357 0 0 0 0 -12.487227752177205 -34.570739200334174 0 -34.570739200334174 6.1346229355067408 0 0 0 0 41.006677521157371 -31.247506117933881 0 -31.247506117933881 -20.357002683232167 0 0 0 0 17.976898937327405 -7.9073637294904984 0 -7.9073637294904984 0.2136397100027807 0 0 0 0 21.302319687197041 -48.531509188390828 0 -48.531509188390828 6.5124513968294195 0 0 0 0 -12.937778485112176 -33.087886046992935 0 -33.087886046992935 -18.788399710287194 0 0 0 0 10.692543151440958 -14.280870577989399 0 -14.280870577989399 8.5980710454902471 0 0 0 0 0.81198742447817707 -11.253733309990576 0 -11.253733309990576 2.4890508031152692 0 0 0 0 -2.2395629952416005 -4.2669359428090248 0 -4.2669359428090248 10.622746592503923 0 0 0 0 -50.865518488711132 -58.100153324885468 0 -58.100153324885468 33.642823507954745 0 0 0 0 -30.529342779040462 0.84768009532604083 0 0.84768009532604083 31.594911579668405 0 0 0 0 -6.8857443069943152 -3.0117522163454851 0 -3.0117522163454851 2.2462883815818167 0 0 0 0 -2.4372811386078865 -26.31258996204815 0 -26.31258996204815 -10.9272594044578 0 0 0 0 5.5458129988292484 -48.807586184906143 0 -48.807586184906143 -40.661936997938028 0 0 0 0 5.2759551358608121 -40.11532913688005 0 -40.11532913688005 -0.60085495010025625 0 0 0 0 -10.89916888848461 -31.610637449740807 0 -31.610637449740807 7.4290467777391314 0 0 0 0 -17.647202752350495 -26.472970664101013 0 -26.472970664101013 6.4320973902708829 0 0 0 0 -6.0514502966370856 -21.447736244697353 0 -21.447736244697353 -8.7179618006884994 0 0 0 0 -14.776997005073099 -29.635185168021962 0 -29.635185168021962 -7.1175926596811223 0 0 0 0 -0.61895716921117128 -22.294233339699304 0 -22.294233339699304 -4.9879066858120495 0 0 0 0 11.996755334246245 -15.5234221216283 0 -15.5234221216283 -7.5580565730015223 0 0 0 0 7.8269907218516437 -19.100970896429317 0 -19.100970896429317 -4.9788964640320046 0 0 0 0 -30.413238585396584 -15.559165831600239 0 -15.559165831600239 6.3935040535980079 0 0 0 0 -9.9677838384475308 -10.584923532845323 0 -10.584923532845323 7.601507642042634 0 0 0 0 -6.2634695954147901 -20.827579544446053 0 -20.827579544446053 -1.2226913866725084 0 0 0 0 -3.0013217738999174 -18.669813038528901 0 -18.669813038528901 -1.247115972388201 0 0 0 0 -7.2925519113205155 -18.656926378434946 0 -18.656926378434946 0.9374707470165049 0 0 0 0 -12.823579251167985 -16.776792060483331 0 -16.776792060483331 2.3211017046742199 0 0 0 0 -4.8334915939985876 -13.669081491685574 0 -13.669081491685574 -6.1519521305872331 0 0 0 0 3.8338454004734084 -5.2156886744891509 0 -5.2156886744891509 3.7069715885918768 0 0 0 0 -7.1851602102824472 -17.973176611509189 0 -17.973176611509189 2.7793444870455914 0 0 0 0 -1.4817717428220476 -14.171516317213445 0 -14.171516317213445 1.5912941286569549 0 0 0 0 -2.3294654484772011 -2.2312237578675784 0 -2.2312237578675784 0.74274130904603552 0 0 0 0 -15.265051590732128 -47.85485044209986 0 -47.85485044209986 33.225115755923071 0 0 0 0 29.844032759464653 -39.141748842476318 0 -39.141748842476318 22.224983086407519 0 0 0 0 32.359511777051921 -7.3137340330777079 0 -7.3137340330777079 -10.939953565652104 0 0 0 0 -12.854091833325583 1.2883924369480155 0 1.2883924369480155 27.645195830818579 0 0 0 0 11.477145405908455 -13.061328524688189 0 -13.061328524688189 10.02375561574533 0 0 0 0 3.0658562069708069 -2.267482309458142 0 -2.267482309458142 1.0299824185577791 0 0 0 0 2.1828615554424378 -10.162815239223558 0 -10.162815239223558 5.3870637839838622 0 0 0 0 -3.4621161207479973 -6.5230455012339537 0 -6.5230455012339537 -3.4060627735237397 0 0 0 0 -0.86649022813458032 -11.482645777987273 0 -11.482645777987273 2.4008387777030293 0 0 0 0 2.4104327510135626 -5.9109501964290114 0 -5.9109501964290114 7.8672789966219838 0 0 0 0 0.41437727365524779 -13.088238248623384 0 -13.088238248623384 -15.882806550170244 0 0 0 0 -0.6611797603705396 -6.3317281750887631 0 -6.3317281750887631 5.1147613454869578 0 0 0 0 -2.8302752369050381 -9.6362615270641072 0 -9.6362615270641072 1.6533888648700668 0 0 0 0 4.3936954120149494 -5.6772322509395963 0 -5.6772322509395963 -0.36278043830384377 0 0 0 0 20.555741239313647 -9.7733222136785116 0 -9.7733222136785116 -2.7213509851235358 0 0 0 0 13.763920882479852 -18.37445718260733 0 -18.37445718260733 1.4910355460988285 0 0 0 0 2.4609657034129668 -17.546487946607158 0 -17.546487946607158 5.2194472931496421 0 0 0 0 2.6900733081602084 -25.060927482151783 0 -25.060927482151783 8.0115975726039323 0 0 0 0 -18.944406163964231 -0.20600129634203768 0 -0.20600129634203768 43.593371736918698 0 0 0 0 -7.2456589915286713 -20.028921733678089 0 -20.028921733678089 7.8192412017197057 0 0 0 0 -0.48483999824002244 -10.42381715846073 0 -10.42381715846073 7.5270197203034641 0 0 0 0 -24.520974093553377 -3.2460754795724824 0 -3.2460754795724824 17.258404492917634 0 0 0 0 32.781278222084438 -32.668820180639614 0 -32.668820180639614 -20.289747290635205 0 0 0 0 -1.4280114715374594 -9.5346607423183762 0 -9.5346607423183762 4.9966833768470522 0 0 0 0 -7.9327383123782056 -37.652759446770688 0 -37.652759446770688 12.980290410366251 0 0 0 0 -8.9143487453134185 -10.81624205230878 0 -10.81624205230878 3.5616507262111554 0 0 0 0 -5.0116295193884071 1.9010647354107277 0 1.9010647354107277 43.353357128474272 0 0 0 0 -5.4815042695049669 -4.5671572338551414 0 -4.5671572338551414 -0.80589311195763003 0 0 0 0 -7.3856361968710189 -25.843187205920458 0 -25.843187205920458 -10.312541600424083 0 0 0 0 -22.175154835178546 -20.194299969098665 0 -20.194299969098665 -0.18054048363046604 0 0 0 0 44.79721378947761 -14.174940866907491 0 -14.174940866907491 8.1573880374999135 0 0 0 0 -0.49847474987043405 -0.57210711609077691 0 -0.57210711609077691 -0.012891840245981001 0 0 0 0 55.761349875158885 -13.467318135815276 0 -13.467318135815276 0.20020924416348862 0 0 0 0 7.5370084166097513 -7.8391038607060182 0 -7.8391038607060182 1.4032191031849379 0 0 0 0 14.714250210789942 -3.3523914623783639 0 -3.3523914623783639 0.60630986142678012 0 0 0 0 -2.7590749073916045 -9.8818534065289541 0 -9.8818534065289541 2.500403329002399 0 0 0 0 19.609706390005158 -9.6824759053838534 0 -9.6824759053838534 1.4865478599294875 0 0 0 0 3.3485496062464648 -1.494109150357648 0 -1.494109150357648 -0.61703245567984055 0 0 0 0 13.993669831371562 -10.48254788870986 0 -10.48254788870986 4.104478187917266 0 0 0 0 -20.333758806394655 -13.080087092908116 0 -13.080087092908116 0.60453582884656498 0 0 0 0 -12.205159253613601 -11.732666713522121 0 -11.732666713522121 -4.16783536092953 0 0 0 0 -18.388637985892331 -10.794406436895656 0 -10.794406436895656 -2.9313148791225103 0 0 0 0 -3.7050139151192649 -3.198501600865284 0 -3.198501600865284 5.2170303413289076 0 0 0 0 -12.082873250285047 -12.485160038342656 0 -12.485160038342656 0.44361068433136097 0 0 0 0 8.4527209889051846 -7.813830374527015 0 -7.813830374527015 0.88194984658184694 0 0 0 0 -1.4713672616767646 -0.2435938623106253 0 -0.2435938623106253 0.37813865628159959 0 0 0 0 2.083895985536401 2.0553931590475258 0 2.0553931590475258 6.0704908983534551 0 0 0 0 9.696314699870527 -8.0835077045308026 0 -8.0835077045308026 3.9845490675315887 0 0 0 0 9.4521513839954423 -10.573837359960635 0 -10.573837359960635 7.6974225400242631 0 0 0 0 13.418855973013706 -8.4223735235127606 0 -8.4223735235127606 4.5178717048729595 0 0 0 0 9.4255915061075939 -9.1337028497046049 0 -9.1337028497046049 4.4421456329965849 0 0 0 0 11.053796326952579 -9.1732183864567105 0 -9.1732183864567105 -4.2277969176957413 0 0 0 0 21.611754553297942 -17.697345034296632 0 -17.697345034296632 -13.749321743146538 0 0 0 0 3.9485130947382459 -18.923659718167301 0 -18.923659718167301 -10.340938294953958 0 0 0 0 9.458593118709814 -6.7982235713404862 0 -6.7982235713404862 -2.8657998751587002 0 0 0 0 7.0998462375009694 0.71873027159563208 0 0.71873027159563208 -7.6315092124154944 0 0 0 0 7.6496909518525626 -1.9384942166497012 0 -1.9384942166497012 1.6807803750361927 0 0 0 0 -17.54322700382545 7.493498820572313 0 7.493498820572313 0.87585052769100002 0 0 0 0 55.705668754142607 6.5143477045699001 0 6.5143477045699001 -30.250528250478965 0 0 0 0 30.718824855932326 3.4014866434426949 0 3.4014866434426949 -22.55159294166333 0 0 0 0 3.1037380662446594 63.60432851858468 0 63.60432851858468 -19.426585809176686 0 0 0 0 -2.5370928659867786 -46.986082142119358 0 -46.986082142119358 -19.83915521651943 0 0 0 0 29.320970643668261 -17.775169951880343 0 -17.775169951880343 -31.339517669694033 0 0 0 0 65.059074362769024 -13.944689559456492 0 -13.944689559456492 -31.042698738364379 0 0 0 0 51.519792766592218 -0.68646659569867552 0 -0.68646659569867552 -42.618024724202769 0 0 0 0 171.62651327533968 -26.164680233149738 0 -26.164680233149738 -44.895634031803752 0 0 0 0 39.756763914478142 -53.156251151799552 0 -53.156251151799552 -30.690567674226259 0 0 0 0 -0.93224259803173481 -15.853162209830771 0 -15.853162209830771 -0.67421284367583212 0 0 0 0 -1.1959084414988581 -1.826594906809806 0 -1.826594906809806 1.0794700259550254 0 0 0 0 -14.951316362103171 -10.983819795353156 0 -10.983819795353156 71.849692640326566 0 0 0 0 54.712364985343811 -73.257398407704841 0 -73.257398407704841 57.929533259371965 0 0 0 0 79.89169987304831 -51.277697154576344 0 -51.277697154576344 51.67070532953494 0 0 0 0 0.72914488894062579 -0.65751337688175937 0 -0.65751337688175937 -0.13878703462783193 0 0 0 0 2.0872562083168305 -0.90089843506711986 0 -0.90089843506711986 3.3104312563928033 0 0 0 0 110.3776626323006 64.951422630054822 0 64.951422630054822 -50.243751296198752 0 0 0 0 -9.3386228711733565 -12.960686905132206 0 -12.960686905132206 -1.5431930855156679 0 0 0 0 -6.4569899290145258 0.69099573711082485 0 0.69099573711082485 -11.027485590163451 0 0 0 0 -3.2209449881247565 -5.6583504736981922 0 -5.6583504736981922 1.3712943498467212 0 0 0 0 -0.82199996384679253 2.7984306165035377 0 2.7984306165035377 -5.1398455930266209 0 0 0 0 -19.408428680058023 -4.1329815344352028 0 -4.1329815344352028 -0.51500582258086069 0 0 0 0 0.68078988254935879 -0.76416764500964618 0 -0.76416764500964618 0.13581263437095004 0 0 0 0 -1.411792284794501 -7.5516604709082458 0 -7.5516604709082458 -3.0376213201589053 0 0 0 0 -19.180733493616117 -1.1681755721400577 0 -1.1681755721400577 -23.540710000509534 0 0 0 0 -13.640858355376622 6.7933043829648341 0 6.7933043829648341 -14.964686576097847 0 0 0 0 0.69691597155524754 -0.9165635587796821 0 -0.9165635587796821 -0.082658926701704161 0 0 0 0 -37.559034622029685 -18.631774747125291 0 -18.631774747125291 -6.6434116623206592 0 0 0 0 -16.798856227695978 -20.098442765532582 0 -20.098442765532582 -7.1772449733534813 0 0 0 0 -23.963140492888442 -18.630605342412082 0 -18.630605342412082 -2.8494670531499651 0 0 0 0 -25.202931525014719 -21.458311322330701 0 -21.458311322330701 -2.8105929125304101 0 0 0 0 -16.480173299426497 -28.265812841836578 0 -28.265812841836578 -1.002653626317624 0 0 0 0 5.7668124173737851 -47.271383680936651 0 -47.271383680936651 -3.8777877318570972 0 0 0 0 -10.107389511039401 -21.997743663463552 0 -21.997743663463552 -7.711546887089753 0 0 0 0 10.649100786146846 -60.962822323851242 0 -60.962822323851242 15.93907466930068 0 0 0 0 42.312055191540821 -27.851276257664722 0 -27.851276257664722 -8.3091752711124514 0 0 0 0 0.52285173402660945 -0.63849736877626562 0 -0.63849736877626562 -0.2281355770568112 0 0 0 0 -42.956225681193246 -56.477531363813341 0 -56.477531363813341 13.023413259821609 0 0 0 0 11.479512397165308 -82.302126913231405 0 -82.302126913231405 24.771202106819146 0 0 0 0 -36.779676218259738 -29.746669039450353 0 -29.746669039450353 46.227460861041891 0 0 0 0 -33.693370839203908 -31.477496391308705 0 -31.477496391308705 12.441350893624985 0 0 0 0 -13.976041145859199 -14.170647687674318 0 -14.170647687674318 23.439489742123669 0 0 0 0 1.0960910429362514 -0.63067461765356736 0 -0.63067461765356736 -0.043375033748311864 0 0 0 0 9.4300557927572299 -62.459394688739394 0 -62.459394688739394 43.837367957105016 0 0 0 0 16.959966804782198 -60.461025005304691 0 -60.461025005304691 59.832331577973036 0 0 0 0 -0.58458503788347116 -4.8594534331961086 0 -4.8594534331961086 36.814494617558012 0 0 0 0 0.44880775880443302 -0.48605829411304491 0 -0.48605829411304491 -0.35260547215065685 0 0 0 0 -0.57472068045057867 -0.10751125083983482 0 -0.10751125083983482 0.70082412348386214 0 0 0 0 57.468055376974007 8.0781485796132984 0 8.0781485796132984 -19.396758301605587 0 0 0 0 -36.426790014551443 16.455389931007176 0 16.455389931007176 -13.311019399836368 0 0 0 0 17.442228928414806 20.432789367172518 0 20.432789367172518 21.489016898009595 0 0 0 0 5.5441861973085906 -32.793802070324318 0 -32.793802070324318 15.168988366355592 0 0 0 0 17.905309408579342 -9.3737143747323444 0 -9.3737143747323444 -7.2246234228414323 0 0 0 0 -1.2390659510065234 0.61164566148954691 0 0.61164566148954691 -3.4729794792124267 0 0 0 0 -12.229549955585298 14.62151194725493 0 14.62151194725493 32.846491316738138 0 0 0 0 0.91668965988620599 -0.35004746265329789 0 -0.35004746265329789 -0.25309080215373037 0 0 0 0 -16.965243878997285 -19.090872553376641 0 -19.090872553376641 -11.242154463887346 0 0 0 0 -88.562662877366165 -14.599258562092473 0 -14.599258562092473 19.635679261449241 0 0 0 0 -90.965132178295789 -1.1850765966037216 0 -1.1850765966037216 12.36162855057546 0 0 0 0 70.871337964364557 -45.432480830017937 0 -45.432480830017937 -21.157940354221864 0 0 0 0 0.11335433403568063 -0.81219741202637685 0 -0.81219741202637685 0.27631007235598659 0 0 0 0 24.743737037781102 -22.92900055164273 0 -22.92900055164273 0.12536125985923263 0 0 0 0 -101.39747329317561 -14.374797852991605 0 -14.374797852991605 8.2860581724253279 0 0 0 0 0.11637058840541781 -1.2558384851103988 0 -1.2558384851103988 0.74020911042159909 0 0 0 0 -13.613746686748527 -25.261440311479191 0 -25.261440311479191 0.079101804582933255 0 0 0 0 -33.890828017831154 -31.915623711289527 0 -31.915623711289527 22.926142465048542 0 0 0 0 -51.015974575305336 -1.4534694799144745 0 -1.4534694799144745 -4.5256101605718868 0 0 0 0 -83.742053138908886 -16.423364304389906 0 -16.423364304389906 14.233895961036922 0 0 0 0 -56.846462965166211 -0.58960305308710304 0 -0.58960305308710304 6.782059100252809 0 0 0 0 -50.000623405866008 -27.166447750566022 0 -27.166447750566022 -2.0338034228589095 0 0 0 0 0.12885740662716261 -1.3376774860675891 0 -1.3376774860675891 0.52289099964049868 0 0 0 0 -69.433352746852506 -16.285076280582416 0 -16.285076280582416 7.5688797096281633 0 0 0 0 -23.40974073401776 -13.736367264436467 0 -13.736367264436467 -13.543316218173459 0 0 0 0 -23.361085602725325 -15.250946835474565 0 -15.250946835474565 8.0523004567112366 0 0 0 0 16.24784776290835 -33.53043572669776 0 -33.53043572669776 13.52690685957441 0 0 0 0 -16.120944164248613 -18.422040600950368 0 -18.422040600950368 -3.1301518389736884 0 0 0 0 -15.980563819559393 -17.420808150002358 0 -17.420808150002358 -12.195906066704083 0 0 0 0 9.4381220452169146 -18.069592929544797 0 -18.069592929544797 -11.707566249703632 0 0 0 0 10.233237451234345 -8.1887032155623274 0 -8.1887032155623274 -4.6969761479531371 0 0 0 0 10.998687855895696 -10.727698244544627 0 -10.727698244544627 -8.6574311021063295 0 0 0 0 19.469281720790605 5.0076063642336521 0 5.0076063642336521 3.1515614708223438 0 0 0 0 20.213921689242852 -8.1314785592476255 0 -8.1314785592476255 -9.0416734085483768 0 0 0 0 44.086112057414994 -0.023559962995932437 0 -0.023559962995932437 -6.3818061464080529 0 0 0 0 18.827782156076864 -16.251993109333853 0 -16.251993109333853 8.7022140849294374 0 0 0 0 7.6268750385879684 -21.125188275807886 0 -21.125188275807886 7.6971905991777021 0 0 0 0 5.737366980221509 -10.522804985200764 0 -10.522804985200764 11.879031151936942 0 0 0 0 7.3302450537594268 -11.61212301773412 0 -11.61212301773412 11.643244909248097 0 0 0 0 -3.1812165707196982 -18.023092409245692 0 -18.023092409245692 7.4082303124559985 0 0 0 0 8.727375551192381 -15.175469768430958 0 -15.175469768430958 2.8527766455554229 0 0 0 0 5.8569045418516907 -17.776795803158166 0 -17.776795803158166 0.49696749956456188 0 0 0 0 8.1016780773275059 -11.178784392199304 0 -11.178784392199304 -1.8202057961789251 0 0 0 0 1.2162738343258752 -15.844940411263451 0 -15.844940411263451 -4.1395772774444595 0 0 0 0 3.1442000564461523 -12.830770722279794 0 -12.830770722279794 0.31179964779948932 0 0 0 0 -2.6832145295411465 -19.919350296813718 0 -19.919350296813718 -7.572518717695516 0 0 0 0 0.074849150869226833 -11.527439973927471 0 -11.527439973927471 -6.6492376775568118 0 0 0 0 -19.372510830992724 -13.699793022599579 0 -13.699793022599579 9.3923436874101753 0 0 0 0 -16.971230943767296 -21.134623187048419 0 -21.134623187048419 4.8292986739943444 0 0 0 0 -16.939288023088011 -16.001589079141922 0 -16.001589079141922 19.473259829685048 0 0 0 0 -5.7709592033643275 -11.534493730448276 0 -11.534493730448276 11.320673222173355 0 0 0 0 -17.758686218472576 -13.422376570985762 0 -13.422376570985762 23.010854459040274 0 0 0 0 -24.431451146010659 -21.44473329853281 0 -21.44473329853281 13.49129726960382 0 0 0 0 -31.195871735720175 -20.781617024346815 0 -20.781617024346815 13.895435617192561 0 0 0 0 0.14472625821884977 -1.345158851439292 0 -1.345158851439292 0.057677753580673397 0 0 0 0 -76.163346613288923 -33.887829552069434 0 -33.887829552069434 -19.166605373843595 0 0 0 0 -28.237406528234715 -14.934254445330225 0 -14.934254445330225 25.452131966532761 0 0 0 0 -20.544119697177393 -19.037863446695837 0 -19.037863446695837 -8.763330605252122 0 0 0 0 -44.219776333017762 -0.38658138751770821 0 -0.38658138751770821 -6.6001853923389717 0 0 0 0 -99.151587902602841 -50.112165447633743 0 -50.112165447633743 -16.859365580437213 0 0 0 0 -77.612200822358318 20.76664274953373 0 20.76664274953373 -13.893627848259712 0 0 0 0 -97.263829807332513 -23.702319169628481 0 -23.702319169628481 -5.721437954920475 0 0 0 0 -0.43387040217502637 -0.97046233878240962 0 -0.97046233878240962 0.10990335596125789 0 0 0 0 -121.19974529075535 -28.73042082066695 0 -28.73042082066695 -2.7924055422554375 0 0 0 0 0.059707517639068897 -0.28148513542943476 0 -0.28148513542943476 -0.39515013192163906 0 0 0 0 -101.6721201137957 -14.017418083401481 0 -14.017418083401481 -10.804229652494541 0 0 0 0 -7.9486659575723024 6.8222093697922901 0 6.8222093697922901 31.454421562146308 0 0 0 0 -73.252343354261029 1.7203957000147057 0 1.7203957000147057 36.139661648358015 0 0 0 0 0.095870360825594858 -0.89688387748355769 0 -0.89688387748355769 -0.089836643282808382 0 0 0 0 -136.54393377446422 -27.365928942715982 0 -27.365928942715982 44.445949533810563 0 0 0 0 47.527772349423685 -16.652462956442832 0 -16.652462956442832 -81.256900379528815 0 0 0 0 -83.286014002554111 -42.202758709069712 0 -42.202758709069712 3.8234344482152665 0 0 0 0 -22.337033270949178 -11.917911511639431 0 -11.917911511639431 26.948728670390665 0 0 0 0 -20.884106863078159 -14.536231096531992 0 -14.536231096531992 26.283123615101886 0 0 0 0 -1.4268381076650076 0.066118299833973992 0 0.066118299833973992 0.24131530658659273 0 0 0 0 -21.807998490133286 -15.945330627619114 0 -15.945330627619114 24.985225632097354 0 0 0 0 -14.947582710149618 -11.129594016371811 0 -11.129594016371811 26.16904109337338 0 0 0 0 -9.8246961474633281 -11.265447384093932 0 -11.265447384093932 22.578959551716252 0 0 0 0 -33.636592192966873 -40.742341774508077 0 -40.742341774508077 47.136333457649016 0 0 0 0 -11.987724510317094 -50.115496296330093 0 -50.115496296330093 -27.206628936154402 0 0 0 0 5.244293101832227 -1.4905105511761576 0 -1.4905105511761576 -42.655778862856096 0 0 0 0 57.371784444614605 1.4926198311741246 0 1.4926198311741246 -21.182018210194201 0 0 0 0 -36.899581181123722 -177.71090407339943 0 -177.71090407339943 -70.623221857145836 0 0 0 0 0.48740831256145611 -4.0880439247812319 0 -4.0880439247812319 26.690862139565979 0 0 0 0 17.369665231731688 -4.4152716027695078 0 -4.4152716027695078 15.535688825235411 0 0 0 0 -8.7735162493754615 -8.9125608872582234 0 -8.9125608872582234 24.835995904082665 0 0 0 0 20.367599558210713 -10.633743178199438 0 -10.633743178199438 -6.9363250028436596 0 0 0 0 27.403046144545442 -6.5657103245093822 0 -6.5657103245093822 -8.2833893453828296 0 0 0 0 33.998127154663962 -22.238192088650067 0 -22.238192088650067 0.62561333870189628 0 0 0 0 13.353602189926278 -19.115596682097021 0 -19.115596682097021 5.769928582763896 0 0 0 0 39.717499637260516 -41.086989176751558 0 -41.086989176751558 23.899223114499364 0 0 0 0 51.930719358328133 -15.001558354144436 0 -15.001558354144436 -6.7810542095102164 0 0 0 0 27.547192158791404 3.95175882040121 0 3.95175882040121 -4.5927972852687162 0 0 0 0 65.446774089357632 -15.733016928282495 0 -15.733016928282495 2.4915281197809236 0 0 0 0 -20.185418332858262 -37.546466030202737 0 -37.546466030202737 -25.258831156205815 0 0 0 0 0.44746306176421058 -3.8127178492031817 0 -3.8127178492031817 -26.635175146588523 0 0 0 0 1.8189386921003461 -8.9992120148294816 0 -8.9992120148294816 0.46739413280101871 0 0 0 0 1.3574641064110864 -1.7121142250634778 0 -1.7121142250634778 0.97418206202970126 0 0 0 0 2.6970732094150662 -3.0600593462495453 0 -3.0600593462495453 3.4280898822526069 0 0 0 0 6.1787872150484873 -21.185538184115558 0 -21.185538184115558 3.4228874430446012 0 0 0 0 -3.2368535364230411 -8.2013188154605814 0 -8.2013188154605814 19.1241891197933 0 0 0 0 -1.5871846815178348 -2.0119887589692631 0 -2.0119887589692631 1.9743021802265979 0 0 0 0 -14.4368957439101 -3.9556584601068607 0 -3.9556584601068607 3.7045880245459557 0 0 0 0 7.2408731782825271 -11.587132781734908 0 -11.587132781734908 20.049618307386481 0 0 0 0 -60.245719813797223 -13.265093436788447 0 -13.265093436788447 7.0847874868993586 0 0 0 0 -1.6266718539536651 -1.4811725562992173 0 -1.4811725562992173 2.1673488500048421 0 0 0 0 33.833719275244221 -6.9142352334902171 0 -6.9142352334902171 -19.935430681360231 0 0 0 0 26.50593465208658 -14.135097807661623 0 -14.135097807661623 -11.935940158269659 0 0 0 0 21.935540983932242 -10.732462197953282 0 -10.732462197953282 -6.9328112099847203 0 0 0 0 26.799713688305928 -12.387019481565403 0 -12.387019481565403 -5.8230234309489788 0 0 0 0 15.87227511931269 -11.929070936274002 0 -11.929070936274002 -5.1762718719655822 0 0 0 0 24.550053756345733 -9.243589022773449 0 -9.243589022773449 -9.5864514421700733 0 0 0 0 20.220743230782318 -2.6239166559580553 0 -2.6239166559580553 -0.43789625339559279 0 0 0 0 41.737715739362102 -68.727063513619896 0 -68.727063513619896 102.19736332162574 0 0 0 0 29.885604372220769 3.2857353299768874 0 3.2857353299768874 -1.6823632445875774 0 0 0 0 4.4263228100773055 -3.7594386406145128 0 -3.7594386406145128 3.2454951497116475 0 0 0 0 34.965151394071654 -1.919216852759746 0 -1.919216852759746 -6.86041238505004 0 0 0 0 -16.603945266779192 -4.1951872968329553 0 -4.1951872968329553 39.800949904754816 0 0 0 0 -46.231837131403609 -21.353498294121096 0 -21.353498294121096 33.01906313040854 0 0 0 0 -9.1645439255298697 -18.540776229672247 0 -18.540776229672247 -7.9109694078579196 0 0 0 0 120.56693758588244 -132.63515921397538 0 -132.63515921397538 -94.97211761194103 0 0 0 0 -13.73110041142354 -11.417479637659198 0 -11.417479637659198 -5.7027437467768323 0 0 0 0 0.5077243752430789 -0.84859275989342819 0 -0.84859275989342819 0.49112181964824408 0 0 0 0 -28.083850405903263 66.715832948494494 0 66.715832948494494 79.501073735664249 0 0 0 0 95.889558931779902 34.116305360195838 0 34.116305360195838 4.780338852400746 0 0 0 0 1.5287680369631289 -1.1877827964621552 0 -1.1877827964621552 1.0887375807664661 0 0 0 0 73.91697518875651 -89.001315790107583 0 -89.001315790107583 -45.619098862975079 0 0 0 0 25.254856333230236 -59.303099747683518 0 -59.303099747683518 43.435115481679532 0 0 0 0 -5.6666647969868791 -66.238655429994651 0 -66.238655429994651 46.487384397689311 0 0 0 0 50.876307094515141 -5.7805758021995644 0 -5.7805758021995644 60.074343864509046 0 0 0 0 -31.847229218898974 -25.459829633954541 0 -25.459829633954541 65.36771350204981 0 0 0 0 -61.255501338885551 6.7655612061134889 0 6.7655612061134889 53.484661575341306 0 0 0 0 -138.03257418694557 34.833276638058464 0 34.833276638058464 58.134747851469001 0 0 0 0 -115.19001396593603 -71.294808125594272 0 -71.294808125594272 65.449949340130843 0 0 0 0 -64.997423819542746 7.1376473168747907 0 7.1376473168747907 -1.3401519516237386 0 0 0 0 -0.7547875202907175 -0.99750569241969345 0 -0.99750569241969345 1.5143669948311285 0 0 0 0 145.8563354708017 -172.57274424856064 0 -172.57274424856064 43.332338547084873 0 0 0 0 -142.77380263000214 149.88458817141964 0 149.88458817141964 161.87853364723287 0 0 0 0 -33.990598247852176 -96.584797125467958 0 -96.584797125467958 157.55748817917265 0 0 0 0 -42.820536775991059 -124.87824805738364 0 -124.87824805738364 82.975064115238638 0 0 0 0 216.74297268216651 50.554276820686027 0 50.554276820686027 -150.19917556929431 0 0 0 0 117.55813362274057 48.739481945045554 0 48.739481945045554 116.13087576666567 0 0 0 0 51.987234630489183 -86.169876687079523 0 -86.169876687079523 -153.53095476446833 0 0 0 0 -89.165968693501782 123.99000244743365 0 123.99000244743365 -129.8214414649907 0 0 0 0 95.197416188607349 -59.83171549945655 0 -59.83171549945655 -36.326792651601863 0 0 0 0 -219.88479946059942 81.295606013226461 0 81.295606013226461 171.42930804446132 0 0 0 0 -2.2189935460516566 -0.28408652238916332 0 -0.28408652238916332 0.18605973067361781 0 0 0 0 -60.741101899368914 -129.23726951779327 0 -129.23726951779327 -194.58474813359862 0 0 0 0 -199.10600214958686 -100.42302071656741 0 -100.42302071656741 -25.697146624137531 0 0 0 0 -93.825066274417622 -57.849186582209313 0 -57.849186582209313 -6.2701260748799541 0 0 0 0 -53.505948269587861 -25.164501402010956 0 -25.164501402010956 -52.230460193028193 0 0 0 0 44.307869012032825 20.573698864670405 0 20.573698864670405 -79.135560777758656 0 0 0 0 82.747733890697873 -72.753511348293841 0 -72.753511348293841 43.414837456808527 0 0 0 0 -65.619432108710498 -37.811239884167662 0 -37.811239884167662 20.477433447464136 0 0 0 0 -18.714470515638823 3.6614868927699717 0 3.6614868927699717 9.4805668425751719 0 0 0 0 74.327849283758042 -5.629762923825183 0 -5.629762923825183 9.5013890736636313 0 0 0 0 10.974894572288576 -21.232296532127293 0 -21.232296532127293 0.30297559277187247 0 0 0 0 -1.1914799880128157 2.8572050881571158 0 2.8572050881571158 19.803909945789201 0 0 0 0 -6.3515958400930685 -19.240553722338518 0 -19.240553722338518 -7.7767318485366559 0 0 0 0 -20.155487211759464 -22.577851275967078 0 -22.577851275967078 3.9191783443893655 0 0 0 0 240.7916006650687 -94.339936233365052 0 -94.339936233365052 -95.530379194697161 0 0 0 0 0.0033554284547214763 -0.010792296785822941 0 -0.010792296785822941 0.26073037026504409 0 0 0 0 -32.154139456783469 -9.6530234114993618 0 -9.6530234114993618 -0.059392577484686626 0 0 0 0 -3.0540948683192255 -9.2991135855099856 0 -9.2991135855099856 13.56735949785292 0 0 0 0 -10.034015280506377 -1.1791934044412002 0 -1.1791934044412002 0.037782800876027478 0 0 0 0 -4.9068680435270835 -18.077209245547692 0 -18.077209245547692 18.831801052745504 0 0 0 0 -0.90262187649557291 -25.203922325470558 0 -25.203922325470558 16.443081665805948 0 0 0 0 -0.63464497300356015 -25.151236806525048 0 -25.151236806525048 1.0558036555657964 0 0 0 0 -7.229579774879312 -21.086479398132724 0 -21.086479398132724 14.975268688800497 0 0 0 0 -13.079620256731914 -5.8567491376986709 0 -5.8567491376986709 39.752461714071615 0 0 0 0 -5.7324292031887438 -0.206537389126904 0 -0.206537389126904 0.02735343082432129 0 0 0 0 -20.296156759661244 -15.987770115551939 0 -15.987770115551939 59.685142616217945 0 0 0 0 3.7744301777574947 -9.6398169686963229 0 -9.6398169686963229 29.987984031549786 0 0 0 0 -17.584206061256737 -13.910762889406215 0 -13.910762889406215 30.569092889332751 0 0 0 0 -40.291451599238826 -1.340110604952315 0 -1.340110604952315 -2.9758160175224475 0 0 0 0 -35.406403059900185 12.537888696202572 0 12.537888696202572 22.884670148559962 0 0 0 0 -70.751574288011398 30.073103793691189 0 30.073103793691189 40.63496725677669 0 0 0 0 -57.930676266426872 13.350599045851595 0 13.350599045851595 49.774914325014834 0 0 0 0 -39.929326608793417 2.4176805844163027 0 2.4176805844163027 18.382574397290227 0 0 0 0 -60.757986068395439 11.284590558713717 0 11.284590558713717 63.385189152824751 0 0 0 0 -1.8051445777898465 0.081103256130898416 0 0.081103256130898416 -0.017728660576273647 0 0 0 0 -62.41320769874801 51.165699982862861 0 51.165699982862861 18.573696190579994 0 0 0 0 -23.283191440981682 33.743346856165772 0 33.743346856165772 25.276226903053612 0 0 0 0 101.86307033081357 10.962795382105469 0 10.962795382105469 -64.804497621180701 0 0 0 0 -35.140927610301333 -41.010063249478662 0 -41.010063249478662 -105.21030746818997 0 0 0 0 -36.773982516907836 -41.443572569791058 0 -41.443572569791058 -43.257906262073448 0 0 0 0 -16.325081499475345 -36.915505669592676 0 -36.915505669592676 -78.199829759518252 0 0 0 0 -53.253137407123631 -5.3696764395785976 0 -5.3696764395785976 134.70664388616751 0 0 0 0 -5.3944679788223766 -0.66896722499057404 0 -0.66896722499057404 0.54376208423929207 0 0 0 0 14.6444163160686 -7.4718460774565756 0 -7.4718460774565756 -5.4246045805154495 0 0 0 0 -15.73290895452692 -22.48433073260594 0 -22.48433073260594 47.576466618707855 0 0 0 0 -15.154183520124207 -16.861677331004103 0 -16.861677331004103 -38.586030745660537 0 0 0 0 -6.9547263630058751 -0.8042078696730286 0 -0.8042078696730286 0.68896115423180504 0 0 0 0 -14.417347018727014 -21.144574766615278 0 -21.144574766615278 -23.41183016254945 0 0 0 0 -15.999710405090809 -24.134186905544084 0 -24.134186905544084 -25.797244328899069 0 0 0 0 -11.041624584031524 -6.3393001685335548 0 -6.3393001685335548 26.530084333655395 0 0 0 0 -13.046914181022657 -0.25890947882817272 0 -0.25890947882817272 64.294578514897239 0 0 0 0 -25.147548382066816 -3.5633724149856789 0 -3.5633724149856789 49.762269405455299 0 0 0 0 -23.875542498494724 -34.435009170433204 0 -34.435009170433204 0.80025905412185239 0 0 0 0 -25.490623550564123 -35.101398127861103 0 -35.101398127861103 0.63619663499957824 0 0 0 0 -28.091968491272382 -34.040927601356543 0 -34.040927601356543 2.2686522943367891 0 0 0 0 -19.035892994517781 -22.541315099170788 0 -22.541315099170788 -5.0557889788487955 0 0 0 0 -25.688355239431985 -33.150077311581299 0 -33.150077311581299 2.5599115353152229 0 0 0 0 -11.958598975424138 -13.42304389459423 0 -13.42304389459423 1.107087196331122 0 0 0 0 -24.644602355407187 -39.024200545509302 0 -39.024200545509302 -10.44218639187784 0 0 0 0 -20.33680310874206 -25.487565047154021 0 -25.487565047154021 -11.443306073493659 0 0 0 0 -22.785710786849904 -32.78172768211607 0 -32.78172768211607 -2.1417335728601756 0 0 0 0 -20.601186836938723 -35.13817043412746 0 -35.13817043412746 -0.90399802691263176 0 0 0 0 -18.774513312615454 -29.033092012153247 0 -29.033092012153247 3.0020293699540019 0 0 0 0 -31.909418491957695 -30.247922664555517 0 -30.247922664555517 3.0211392858356589 0 0 0 0 -23.918001281179386 -39.128687983252348 0 -39.128687983252348 -30.296544515060759 0 0 0 0 -26.000192681221961 -27.558380975541695 0 -27.558380975541695 -36.95610908944127 0 0 0 0 -42.706118597220723 -13.256653944440657 0 -13.256653944440657 12.563072637132791 0 0 0 0 -43.290271630133248 -44.139783069872465 0 -44.139783069872465 -13.483788944166918 0 0 0 0 -31.561246732971995 -27.340101684191723 0 -27.340101684191723 8.1170576353233628 0 0 0 0 -23.711534377604039 -23.476257473677833 0 -23.476257473677833 0.12115318403994024 0 0 0 0 -24.53030270715135 -18.27785860023414 0 -18.27785860023414 16.949817917101427 0 0 0 0 -3.1541767215812797 -13.376384500189033 0 -13.376384500189033 15.62431791000563 0 0 0 0 -3.6256569323768986 -7.2054588994634798 0 -7.2054588994634798 17.394462858503175 0 0 0 0 -2.0266677790655763 15.021062422144354 0 15.021062422144354 54.307756384390814 0 0 0 0 -0.12662494908230926 -0.73184913608401914 0 -0.73184913608401914 0.72930909481799766 0 0 0 0 -7.0174896931675903 -0.9487033784535015 0 -0.9487033784535015 23.939032613936433 0 0 0 0 -2.9526995752057701 -10.27160730705873 0 -10.27160730705873 1.2954694489853864 0 0 0 0 -8.7067931206402136 -12.374481959797777 0 -12.374481959797777 8.5922914401608068 0 0 0 0 -13.373240634815375 -21.932507336502567 0 -21.932507336502567 7.9287609670827806 0 0 0 0 -18.829784084895437 -15.420342524028456 0 -15.420342524028456 23.759622714948364 0 0 0 0 -24.989094612290501 -30.161067430331968 0 -30.161067430331968 9.8072471756731829 0 0 0 0 -23.309123094377355 -35.258968758853371 0 -35.258968758853371 1.8259963673663151 0 0 0 0 -14.910420078154857 -28.767530056334408 0 -28.767530056334408 -0.92749951117548335 0 0 0 0 -18.305486660128736 -25.214652538442351 0 -25.214652538442351 7.9229664332979155 0 0 0 0 -4.3260874730967771 -12.808596023738573 0 -12.808596023738573 -3.3606907091034373 0 0 0 0 -11.65955234253488 -16.742868861724673 0 -16.742868861724673 2.4909724738627119 0 0 0 0 -16.995961378901484 -30.668432701871097 0 -30.668432701871097 -2.6563383042434907 0 0 0 0 -9.3709563807497034 -20.932082961096285 0 -20.932082961096285 -7.4397929046590434 0 0 0 0 -12.753289826750915 -26.629999496830351 0 -26.629999496830351 -15.233413936990473 0 0 0 0 -15.387534890365714 -38.102947283648973 0 -38.102947283648973 -39.599005523739834 0 0 0 0 -12.139702519376442 -28.468835698019575 0 -28.468835698019575 -11.432784533426457 0 0 0 0 -22.23674860711435 -36.047568472731655 0 -36.047568472731655 0.82655888094291186 0 0 0 0 -25.505137344933701 -39.938166589207071 0 -39.938166589207071 -3.5573272391393402 0 0 0 0 -16.848448678425484 -34.129595112874085 0 -34.129595112874085 -14.385204646131569 0 0 0 0 0.22921478725978339 0.37073378338975438 0 0.37073378338975438 0.57092338309707458 0 0 0 0 103.46898994903222 -28.913443181793809 0 -28.913443181793809 18.398325351936364 0 0 0 0 -19.205219889098771 -20.307890716697329 0 -20.307890716697329 35.32192680670596 0 0 0 0 6.9413909436825634 0.021491270664228068 0 0.021491270664228068 36.124389039252492 0 0 0 0 -5.6740586639480171 -44.853348575486052 0 -44.853348575486052 -4.7799518225765496 0 0 0 0 11.827176747331919 -8.2199081400041223 0 -8.2199081400041223 24.110376207792797 0 0 0 0 14.085812901835823 -26.959364684574382 0 -26.959364684574382 59.639367647279869 0 0 0 0 49.693320291584314 18.813815967850132 0 18.813815967850132 40.786330176186311 0 0 0 0 12.923501160547858 -34.10651805129055 0 -34.10651805129055 46.08518849083157 0 0 0 0 -22.3488490359141 11.758025940121115 0 11.758025940121115 51.008633779765773 0 0 0 0 -50.580469677148358 -31.944596251107214 0 -31.944596251107214 -11.403306284190194 0 0 0 0 -43.628133934222205 -11.878059476032831 0 -11.878059476032831 11.118599693960277 0 0 0 0 -66.392409608679372 -16.614999009255371 0 -16.614999009255371 32.025881690962706 0 0 0 0 -21.193470327158138 8.8609522838924022 0 8.8609522838924022 23.94227579792846 0 0 0 0 -15.518543827827898 1.9842531191193302 0 1.9842531191193302 16.330878586688414 0 0 0 0 -11.702127887463575 0.99793646851321682 0 0.99793646851321682 15.885052355052721 0 0 0 0 -5.6700531149945164 7.4190731778471672 0 7.4190731778471672 1.4742584395171434 0 0 0 0 -1.1706240856494787 24.783005710804673 0 24.783005710804673 13.586228897884212 0 0 0 0 -8.7723150897541018 -0.5472559576689946 0 -0.5472559576689946 5.6829138974462694 0 0 0 0 9.4505774251501862 -5.4033139470948299 0 -5.4033139470948299 12.11204716766224 0 0 0 0 -16.381693335893033 -10.942923315681583 0 -10.942923315681583 43.100974934863189 0 0 0 0 -0.29187160457970762 -0.50955135174930533 0 -0.50955135174930533 0.47942523805281922 0 0 0 0 -0.94252446455084282 -22.501771152594301 0 -22.501771152594301 -19.433957627822565 0 0 0 0 -9.6654908774908108 -0.8837699792843523 0 -0.8837699792843523 25.902232544756771 0 0 0 0 0.59749065090363729 -15.325703392947617 0 -15.325703392947617 13.123801920511141 0 0 0 0 -9.8389715544471983 -5.2601766324478376 0 -5.2601766324478376 8.1835641123270761 0 0 0 0 -12.027718526918761 -3.0311035414270009 0 -3.0311035414270009 12.950348888522058 0 0 0 0 -10.015254996622389 1.7907000321165469 0 1.7907000321165469 -1.4860918378462884 0 0 0 0 -23.40854487272145 7.4168736439223721 0 7.4168736439223721 8.7550263781158719 0 0 0 0 102.81385300846796 -10.235247260284268 0 -10.235247260284268 -104.49970305850729 0 0 0 0 0.24980700097169972 0.59045740106517819 0 0.59045740106517819 2.3792811843917576 0 0 0 0 -18.412695766121033 -0.33987332490869449 0 -0.33987332490869449 11.129869015037912 0 0 0 0 -7.4397005282507962 -74.995441729030063 0 -74.995441729030063 -2.3609380766720278 0 0 0 0 10.128365255491644 -86.436442332184015 0 -86.436442332184015 -118.27053451157008 0 0 0 0 -15.776510615145526 -21.938405067578969 0 -21.938405067578969 -26.574421470624657 0 0 0 0 -65.848616763971222 -66.174180404592789 0 -66.174180404592789 201.72721666634425 0 0 0 0 9.9673833073047717 -72.77555055924131 0 -72.77555055924131 105.07524574178569 0 0 0 0 -42.579602676873037 -35.500568039689824 0 -35.500568039689824 124.91760395712754 0 0 0 0 -34.218326744601654 -30.977159681232479 0 -30.977159681232479 97.887809140425816 0 0 0 0 39.318934644596084 -28.556810199337633 0 -28.556810199337633 -176.976133176453 0 0 0 0 -7.4543642946268847 0.076295334481528698 0 0.076295334481528698 113.73136650065499 0 0 0 0 -0.73236595567545137 -0.7800401589741881 0 -0.7800401589741881 -0.14539635834781084 0 0 0 0 -65.660786428392385 -33.466190887189441 0 -33.466190887189441 189.01394143747166 0 0 0 0 -1.844598573458061 -1.9032645572456914 0 -1.9032645572456914 -0.35316713190499804 0 0 0 0 6.8279245278163216 -51.163355939464964 0 -51.163355939464964 96.053762988780818 0 0 0 0 -0.58280614752038673 -18.694112430241148 0 -18.694112430241148 -57.009624300673977 0 0 0 0 -18.244500313387562 3.3091643848570129 0 3.3091643848570129 -70.610388728679936 0 0 0 0 -18.804631378373813 -46.398789850950692 0 -46.398789850950692 -20.75551330100825 0 0 0 0 -2.7142272508173839 -1.9737674540593062 0 -1.9737674540593062 -0.67279923601479652 0 0 0 0 -0.41024540962689571 -13.375505812297661 0 -13.375505812297661 -24.989495301589159 0 0 0 0 -6.924200290306544 -9.5150124392841917 0 -9.5150124392841917 -18.013370686759117 0 0 0 0 -3.2445628263875506 -21.763801268269106 0 -21.763801268269106 -2.8097480384694791 0 0 0 0 0.30304766123481386 -20.323575417697612 0 -20.323575417697612 -2.2566505671957202 0 0 0 0 -1.9298815760031971 -16.740759056100899 0 -16.740759056100899 -23.33903194242157 0 0 0 0 -8.0880630233932607 -32.529854741941563 0 -32.529854741941563 -9.5490000555032566 0 0 0 0 -10.511333747702793 -18.482435996459117 0 -18.482435996459117 10.091702089206592 0 0 0 0 -0.3668226647391748 -24.63699842770211 0 -24.63699842770211 -4.3262230267173436 0 0 0 0 -5.2804010919203392 -27.673219665962733 0 -27.673219665962733 5.8507005519986706 0 0 0 0 -2.3099380061121337 -29.080924754244734 0 -29.080924754244734 2.8475916009647335 0 0 0 0 -10.828166468087147 -30.598174065027706 0 -30.598174065027706 -17.737865229401223 0 0 0 0 -18.358061212624307 -26.683382892214013 0 -26.683382892214013 3.7545056844101055 0 0 0 0 -13.965668859753805 -14.905155579939446 0 -14.905155579939446 11.889581415865905 0 0 0 0 -13.709692444825123 -10.721937683059878 0 -10.721937683059878 33.40825030738506 0 0 0 0 -12.653284102733778 -13.781546480341603 0 -13.781546480341603 10.51346052547251 0 0 0 0 -7.927932079744096 -8.8375247780713835 0 -8.8375247780713835 6.3282572282996625 0 0 0 0 -11.850376228977666 -8.9797649661127252 0 -8.9797649661127252 7.5969620168107213 0 0 0 0 9.4647816421502284 -7.399916631636188 0 -7.399916631636188 2.7146959031142615 0 0 0 0 -9.5429479525600982 -5.3297104349496749 0 -5.3297104349496749 15.741065529295156 0 0 0 0 -6.3229491020497335 -7.3936648163953578 0 -7.3936648163953578 16.937093601020024 0 0 0 0 2.5246193467319245 -19.815634439877613 0 -19.815634439877613 9.7249599684741952 0 0 0 0 -1.7430149222227556 -17.684001028196235 0 -17.684001028196235 18.080705666915492 0 0 0 0 9.476192238780186 -25.89362446701216 0 -25.89362446701216 5.8055733889379297 0 0 0 0 0.38413536954749361 -34.017125006806509 0 -34.017125006806509 12.405315162141051 0 0 0 0 23.344069131516335 -38.35602103423571 0 -38.35602103423571 29.309217939139671 0 0 0 0 43.686089397260957 -15.445767716457794 0 -15.445767716457794 -1.0615580053126905 0 0 0 0 139.72096614689326 -44.889771437457057 0 -44.889771437457057 -9.2147056316789531 0 0 0 0 -0.016217204481523417 -0.0466466552270699 0 -0.0466466552270699 0.14280396823781416 0 0 0 0 -23.286468602629611 -9.8886224085053982 0 -9.8886224085053982 -17.054494169011377 0 0 0 0 -150.41075515924268 2.1817027163912144 0 2.1817027163912144 32.995848580265374 0 0 0 0 -0.12866051722003702 -0.71784008692925561 0 -0.71784008692925561 0.27843102300059286 0 0 0 0 -70.975171534006222 -37.023561316091218 0 -37.023561316091218 3.9688434879226406 0 0 0 0 -108.24371931638416 -9.4126650577262581 0 -9.4126650577262581 21.605404955349513 0 0 0 0 65.647832786907202 -35.084376948138356 0 -35.084376948138356 48.957221728007426 0 0 0 0 59.346364366206217 -59.654236670470709 0 -59.654236670470709 -2.1214687570725914 0 0 0 0 57.528843578588408 -48.196473384157798 0 -48.196473384157798 -71.23421010580023 0 0 0 0 -9.4277090809182482 -12.155323450700962 0 -12.155323450700962 109.76264332896517 0 0 0 0 0.23311349709975815 -0.64220826988095325 0 -0.64220826988095325 0.40853728424406555 0 0 0 0 -6.0685243217749303 -9.3750692177334258 0 -9.3750692177334258 26.18463420795706 0 0 0 0 -17.927594420763853 -31.810689372357956 0 -31.810689372357956 -1.9597732031515989 0 0 0 0 -4.7629225873865835 -25.36121772088427 0 -25.36121772088427 -39.909511829647272 0 0 0 0 0.80355289207499325 -1.1920484556300739 0 -1.1920484556300739 0.62275507463842672 0 0 0 0 -15.901433734465627 -29.349391942131206 0 -29.349391942131206 -12.023947201117608 0 0 0 0 -19.299642029415736 -13.38983038914148 0 -13.38983038914148 12.508884409834991 0 0 0 0 42.096815995956149 -5.7077143176509253 0 -5.7077143176509253 -47.598480312908578 0 0 0 0 -8.7132129691071896 -11.76077980988066 0 -11.76077980988066 1.0612720088465721 0 0 0 0 -36.026955508230003 -19.518990469745404 0 -19.518990469745404 7.9913237528289756 0 0 0 0 -15.476932662750658 -9.5531029146165398 0 -9.5531029146165398 -0.47877311705659054 0 0 0 0 -22.554851395206242 -13.960006219937895 0 -13.960006219937895 4.5402657523436574 0 0 0 0 -7.1051247411601821 -20.712603640478051 0 -20.712603640478051 7.1067771624257148 0 0 0 0 -15.52615009518243 -11.229869890427153 0 -11.229869890427153 -0.92902824353768665 0 0 0 0 -18.382481592638349 -8.2570924711454321 0 -8.2570924711454321 -2.167493994970993 0 0 0 0 -20.161564447611454 -27.06602331160866 0 -27.06602331160866 15.093664007929874 0 0 0 0 -14.927897221553593 -15.901774697502333 0 -15.901774697502333 3.3446518679338624 0 0 0 0 -17.315833065627828 -3.9894297605973748 0 -3.9894297605973748 -8.3681723626377789 0 0 0 0 -35.164398922782311 -10.736363109024751 0 -10.736363109024751 12.62850303889536 0 0 0 0 -3.0089904287871772 -0.44239097278227391 0 -0.44239097278227391 1.0242557720438654 0 0 0 0 43.21968844105686 -22.494368418360864 0 -22.494368418360864 -16.595216285420975 0 0 0 0 -15.261187084729499 -5.0471931929805578 0 -5.0471931929805578 -2.7446125969554487 0 0 0 0 -6.3420765202308758 -38.03706265143046 0 -38.03706265143046 17.495081755227147 0 0 0 0 78.8515027860185 -30.679651533960168 0 -30.679651533960168 -15.580047850098708 0 0 0 0 -23.510412786618872 -0.29865958822574612 0 -0.29865958822574612 22.666767589121491 0 0 0 0 0.36238788233984609 0.31573246822804713 0 0.31573246822804713 0.13169492536353289 0 0 0 0 -71.271090817718687 0.095552849116756988 0 0.095552849116756988 14.501895322880046 0 0 0 0 -31.728998485009015 -42.891741036221902 0 -42.891741036221902 9.9765006834804808 0 0 0 0 -24.892787916289308 -19.632342398722358 0 -19.632342398722358 30.753365871571987 0 0 0 0 -6.991545101961492 -23.186046081372297 0 -23.186046081372297 0.16796711357710592 0 0 0 0 -2.9081798812594002 -23.972423552656394 0 -23.972423552656394 -0.93509234034718247 0 0 0 0 -2.4924421337286731 -13.968662594902526 0 -13.968662594902526 11.888352573756492 0 0 0 0 -9.7390677182911531 -22.351649860707766 0 -22.351649860707766 -7.0889453661638981 0 0 0 0 -11.934493232630757 -16.840846344796773 0 -16.840846344796773 -4.6382595897075589 0 0 0 0 -12.734776010041969 -21.943536185955054 0 -21.943536185955054 8.2414100088044506 0 0 0 0 -11.940170394429515 -14.508133297939821 0 -14.508133297939821 3.9711864603650611 0 0 0 0 -0.95125224330130109 -7.4481497589560099 0 -7.4481497589560099 5.0581213779954481 0 0 0 0 -15.229578375587153 -17.30666240344226 0 -17.30666240344226 1.6787391521829704 0 0 0 0 5.0607868316193025 -6.7801829424927327 0 -6.7801829424927327 2.2450719707340596 0 0 0 0 -5.4693592590251114 -8.2488903970627234 0 -8.2488903970627234 2.8646324221408577 0 0 0 0 -4.5562192861038966 -16.018164112983868 0 -16.018164112983868 0.31596467272083828 0 0 0 0 6.2833295581410802 -10.942995086663712 0 -10.942995086663712 8.1259325777180749 0 0 0 0 8.5099237307573503 -11.683105360318223 0 -11.683105360318223 6.9923323824514227 0 0 0 0 -1.8354427245422364 -3.2678743772589982 0 -3.2678743772589982 2.2010742843092643 0 0 0 0 -18.392934750981567 -16.286063451250811 0 -16.286063451250811 23.76695870442154 0 0 0 0 -13.306450833499184 -24.712119581146908 0 -24.712119581146908 13.68168846631761 0 0 0 0 -1.8973756596178646 -11.872453684519769 0 -11.872453684519769 4.3152152425845998 0 0 0 0 -12.876570121935629 -19.76708269295159 0 -19.76708269295159 10.973311807278151 0 0 0 0 -0.44252926643275714 -34.401475425063836 0 -34.401475425063836 5.9033695289931529 0 0 0 0 -2.8945250662109174 -28.528468002834416 0 -28.528468002834416 13.14462091126552 0 0 0 0 0.1909976669099045 0.097226326935381024 0 0.097226326935381024 -0.083218011571869255 0 0 0 0 -0.22439176481975665 -32.800056302611665 0 -32.800056302611665 -38.345582875486798 0 0 0 0 -5.3478229562933848 -15.77754089364953 0 -15.77754089364953 59.618817154876524 0 0 0 0 7.7103135450015543 -24.517884255423269 0 -24.517884255423269 3.0506254282527152 0 0 0 0 -0.20287349494992668 -19.789887220213132 0 -19.789887220213132 8.7428962733333719 0 0 0 0 -0.33335674694171757 -14.83488543122985 0 -14.83488543122985 0.77600385408277361 0 0 0 0 -0.53729031207785738 -8.5443210638050004 0 -8.5443210638050004 -14.685002684952451 0 0 0 0 3.5626809622792734 -18.233321190920378 0 -18.233321190920378 2.9471396536428074 0 0 0 0 1.4830689586724475 -14.61409757072397 0 -14.61409757072397 -0.063797854041013125 0 0 0 0 -3.1157695776866401 -3.9259332284171791 0 -3.9259332284171791 1.0983020649666102 0 0 0 0 1.4097649858399564 -13.841208352900139 0 -13.841208352900139 -2.2633970224578661 0 0 0 0 8.8952646399557125 -5.8313671085788883 0 -5.8313671085788883 11.468921579784364 0 0 0 0 10.168389051206759 -17.451568710759602 0 -17.451568710759602 16.506005581360114 0 0 0 0 6.0114849897044591 -10.969069030503018 0 -10.969069030503018 9.3897433925835898 0 0 0 0 27.095776477089657 12.805687631306228 0 12.805687631306228 0.58382181066917838 0 0 0 0 2.8122855601325067 -11.992552263917704 0 -11.992552263917704 10.323859647823433 0 0 0 0 -0.25459189924822567 -13.950766044586089 0 -13.950766044586089 1.8701203818814065 0 0 0 0 10.725663487302654 10.202649242991356 0 10.202649242991356 16.108860640044441 0 0 0 0 11.560211839881958 7.0107041275769006 0 7.0107041275769006 25.580306762574764 0 0 0 0 -29.067591428369724 4.1116459974682584 0 4.1116459974682584 12.011411693330956 0 0 0 0 -48.644052559558077 8.5493034840101245 0 8.5493034840101245 5.7129924831460812 0 0 0 0 -7.3307476589984617 -13.306724200938334 0 -13.306724200938334 11.050140607820367 0 0 0 0 -26.519511847153012 -31.119619043154216 0 -31.119619043154216 -8.4956705721797334 0 0 0 0 -68.263743692957178 -19.43877790397255 0 -19.43877790397255 13.15762846265352 0 0 0 0 -9.5710467857998083 -1.2478109807243527 0 -1.2478109807243527 11.719765916197503 0 0 0 0 58.689884289617339 3.7413465755075777 0 3.7413465755075777 2.1317082532314089 0 0 0 0 10.084567174043267 -13.460871090120666 0 -13.460871090120666 7.0543095865474825 0 0 0 0 26.493841276977037 -25.380377055687859 0 -25.380377055687859 14.532321732531273 0 0 0 0 20.123783744600587 -12.573141170527379 0 -12.573141170527379 34.327070191573512 0 0 0 0 26.221669919088527 -22.673346282488637 0 -22.673346282488637 5.4197923889150843 0 0 0 0 17.458285249732398 -2.1487537559751217 0 -2.1487537559751217 -5.8337584790642723 0 0 0 0 16.110800677693021 -5.7370537111657995 0 -5.7370537111657995 22.056575746228191 0 0 0 0 52.748316552666893 -15.915100097272443 0 -15.915100097272443 1.4774090700411762 0 0 0 0 -20.487936001637536 -20.949317206491287 0 -20.949317206491287 11.253188726837834 0 0 0 0 18.925952409364811 -15.216309736003723 0 -15.216309736003723 -3.1850974441440485 0 0 0 0 20.958817950292541 -13.837673836993417 0 -13.837673836993417 -7.0404967491231218 0 0 0 0 18.258679513796778 -9.4530643056377812 0 -9.4530643056377812 11.008587529177021 0 0 0 0 -41.982671356402534 -29.736453924770103 0 -29.736453924770103 -8.0908732715397491 0 0 0 0 -43.308188508252897 -26.385337550857002 0 -26.385337550857002 3.5599740707157252 0 0 0 0 -29.892278619163335 -7.5895354914737254 0 -7.5895354914737254 -3.7797841528226854 0 0 0 0 -82.955072174972884 -33.624026662166216 0 -33.624026662166216 0.52259623581630876 0 0 0 0 -46.217324364690285 -18.616550626067692 0 -18.616550626067692 -12.659465015181922 0 0 0 0 -65.39039115159278 -30.17181231558493 0 -30.17181231558493 -2.714036347802903 0 0 0 0 -61.603747786018175 -34.080417475659488 0 -34.080417475659488 -0.5319676004583016 0 0 0 0 -41.936157765418102 -29.453795193890983 0 -29.453795193890983 -18.989568766599405 0 0 0 0 -41.934264014084334 -29.722150061557386 0 -29.722150061557386 1.2536711133870995 0 0 0 0 -16.293443631259834 -26.735047393271088 0 -26.735047393271088 -7.8558460923050006 0 0 0 0 -12.203757863175269 -22.520178671105896 0 -22.520178671105896 -10.299170852991665 0 0 0 0 -12.723602825968328 -21.26932978525474 0 -21.26932978525474 7.4534792444392224 0 0 0 0 12.204463009647952 -24.122896298620617 0 -24.122896298620617 -3.9912760991392133 0 0 0 0 13.096833391452321 -17.185068705634421 0 -17.185068705634421 11.49126520347636 0 0 0 0 29.744115717026943 -21.39147163319285 0 -21.39147163319285 6.9649324761267053 0 0 0 0 39.99861147048432 -6.218194155528181 0 -6.218194155528181 4.4182835319279548 0 0 0 0 35.755639517084091 -22.216311062162276 0 -22.216311062162276 -2.9916211820855096 0 0 0 0 9.4419848889741047 -21.202083768706643 0 -21.202083768706643 4.1482328651218268 0 0 0 0 -16.391108585506117 -27.241654834955625 0 -27.241654834955625 4.922055582919711 0 0 0 0 10.127104119881551 -26.525816251682045 0 -26.525816251682045 -5.019386318497709 0 0 0 0 -13.298097715681479 -29.211044534948087 0 -29.211044534948087 -5.4445699628267903 0 0 0 0 -14.413831409725844 -28.028409704319529 0 -28.028409704319529 1.3150703063001856 0 0 0 0 -38.031917901555971 -31.978915449890337 0 -31.978915449890337 -0.22823776620498393 0 0 0 0 28.352762114278448 -24.136528795970662 0 -24.136528795970662 -4.6382084430551913 0 0 0 0 7.2417269392153685 -28.265289276598196 0 -28.265289276598196 -8.6635792709348607 0 0 0 0 6.3490088466845691 -21.275930491908412 0 -21.275930491908412 6.7223903378035175 0 0 0 0 6.8494712723522753 -33.378877125049257 0 -33.378877125049257 1.3726504475926049 0 0 0 0 2.0012160304122517 -26.427544977344951 0 -26.427544977344951 -4.0964474025458912 0 0 0 0 15.802946038193113 -25.300731252111291 0 -25.300731252111291 0.087383868469032677 0 0 0 0 -9.765373774423324 -30.642990573253883 0 -30.642990573253883 -14.22689246480877 0 0 0 0 -27.613631972148141 -31.975176392592402 0 -31.975176392592402 -6.6777800353884231 0 0 0 0 -8.5566713134994643 -34.879555415454888 0 -34.879555415454888 0.60501120607659686 0 0 0 0 -63.084560363779929 -32.42022216479927 0 -32.42022216479927 -3.3149022468278417 0 0 0 0 -28.251891015911269 -28.398818640295758 0 -28.398818640295758 -23.314067708299262 0 0 0 0 -69.829572794961905 -35.79208995353747 0 -35.79208995353747 -3.6495264440218307 0 0 0 0 -61.64640487560132 -31.271949099393623 0 -31.271949099393623 -23.549355323801137 0 0 0 0 -56.651976313220075 -42.210360515704451 0 -42.210360515704451 -10.072439003248292 0 0 0 0 -49.60059988078865 -29.285444935234409 0 -29.285444935234409 0.19272504132823087 0 0 0 0 -36.634612731534617 -33.722210917039774 0 -33.722210917039774 -6.9768758775189781 0 0 0 0 -39.082071889458348 -37.081914795006014 0 -37.081914795006014 -2.4083874803654908 0 0 0 0 -56.915128775955964 13.392876237088785 0 13.392876237088785 -11.176698729675081 0 0 0 0 -33.075067188550747 -15.930649683518823 0 -15.930649683518823 5.4750778018205892 0 0 0 0 -57.372663343205204 2.671797248227449 0 2.671797248227449 3.4224898691063572 0 0 0 0 -35.637809277101042 -18.845141240077282 0 -18.845141240077282 -4.6739066749673839 0 0 0 0 -28.440389143685934 -9.5404780729727463 0 -9.5404780729727463 4.1759848799447354 0 0 0 0 -37.657425271927423 -7.0048815875743458 0 -7.0048815875743458 -21.004720142229417 0 0 0 0 17.561823992725294 -34.190758340528191 0 -34.190758340528191 6.4580631858516426 0 0 0 0 12.553384153487968 -24.641737403773732 0 -24.641737403773732 22.563352449204103 0 0 0 0 32.083009953856163 -3.1247766494961979 0 -3.1247766494961979 11.439964391857757 0 0 0 0 63.621810157149412 79.233947018501567 0 79.233947018501567 48.447304051637275 0 0 0 0 3.9131144347006273 -14.239425954458742 0 -14.239425954458742 8.4362128034268196 0 0 0 0 173.20756002806047 -22.886125760389405 0 -22.886125760389405 -58.177316563713248 0 0 0 0 197.26655602718438 -83.355470386980869 0 -83.355470386980869 -63.15968174111913 0 0 0 0 58.965439415355831 -15.780272615570539 0 -15.780272615570539 -5.4485611399049958 0 0 0 0 43.067374154436948 -27.473005112441115 0 -27.473005112441115 17.295887385065726 0 0 0 0 -28.278293951745582 -109.81915143921651 0 -109.81915143921651 29.977137649770157 0 0 0 0 36.642419517562871 -27.119925689149568 0 -27.119925689149568 15.600605504543637 0 0 0 0 32.433991463649363 -10.606261197666754 0 -10.606261197666754 28.938480238444754 0 0 0 0 3.2095472170428838 -1.851403508375542 0 -1.851403508375542 -0.2607199185338942 0 0 0 0 39.646184191678913 2.5273969245135959 0 2.5273969245135959 23.925804488681024 0 0 0 0 -136.55919258014546 -38.936479380041419 0 -38.936479380041419 92.883973119138318 0 0 0 0 67.953732829588262 -161.95705322913454 0 -161.95705322913454 39.900265791620768 0 0 0 0 -5.2574883518059963 1.4816467142278071 0 1.4816467142278071 1.2618430830383929 0 0 0 0 -101.48366634309809 -7.5622896899781722 0 -7.5622896899781722 29.780958744417148 0 0 0 0 0.050187058627879644 -0.39600087417322527 0 -0.39600087417322527 1.2593271070570253 0 0 0 0 -62.317008647926741 -40.396715850632518 0 -40.396715850632518 24.688012125930982 0 0 0 0 -14.904401548042188 -6.804501731999153 0 -6.804501731999153 4.9340039434609935 0 0 0 0 -7.4544012518390446 -29.064039418940411 0 -29.064039418940411 20.729626980213652 0 0 0 0 12.408126610167074 -26.00777095305375 0 -26.00777095305375 17.085060613504538 0 0 0 0 64.492004408662979 -23.082273386473389 0 -23.082273386473389 1.7603408565701102 0 0 0 0 20.587269023979388 -47.489097939664134 0 -47.489097939664134 24.57870125849044 0 0 0 0 4.2590807129054156 -12.920562823932414 0 -12.920562823932414 1.4225553717070625 0 0 0 0 -39.280934833919559 -31.945711972957724 0 -31.945711972957724 3.7528933563444298 0 0 0 0 58.716944458407852 5.4945047618839453 0 5.4945047618839453 3.9934519477137655 0 0 0 0 4.6453746956550823 -13.623900081296201 0 -13.623900081296201 8.5799968862094289 0 0 0 0 1.5657656505645718 -15.36287365478529 0 -15.36287365478529 3.0957162635168061 0 0 0 0 -58.910157783433533 -10.994456637567055 0 -10.994456637567055 24.921112485770209 0 0 0 0 24.536185904658851 33.915084222906444 0 33.915084222906444 28.497989290724945 0 0 0 0 -8.6621855965040595 -14.187396434546827 0 -14.187396434546827 19.184554293228302 0 0 0 0 -6.268362341903412 -6.3708653984922421 0 -6.3708653984922421 5.9052212564874935 0 0 0 0 -18.274413591387656 -9.7219413578327476 0 -9.7219413578327476 17.191270811243157 0 0 0 0 4.0624363805563917 -14.303469903501536 0 -14.303469903501536 11.180167389928101 0 0 0 0 3.9021670207018815 -14.232896811370438 0 -14.232896811370438 13.100982141122586 0 0 0 0 3.7160374210907321 -19.990163525827029 0 -19.990163525827029 40.288959485434361 0 0 0 0 13.409367619167 -20.921987234052011 0 -20.921987234052011 18.369156171358554 0 0 0 0 13.249841714570124 -19.216065452267998 0 -19.216065452267998 34.70189752103397 0 0 0 0 22.457556181835571 -12.813758953178876 0 -12.813758953178876 -10.929638697358314 0 0 0 0 22.389768661591006 -12.976574391767826 0 -12.976574391767826 4.2168900359538384 0 0 0 0 6.0130040252015533 -17.403808036251576 0 -17.403808036251576 17.872962113376389 0 0 0 0 2.5613838389986086 -12.873053061884093 0 -12.873053061884093 12.882506736685173 0 0 0 0 2.3646881324293645 -44.405368507900675 0 -44.405368507900675 24.532566569756455 0 0 0 0 4.3457129333810371 -39.089623049321744 0 -39.089623049321744 -48.357828062538829 0 0 0 0 -59.023945748307597 -28.975744396731898 0 -28.975744396731898 26.806828040949767 0 0 0 0 -46.413376013993911 -71.20693802547612 0 -71.20693802547612 41.773449817601431 0 0 0 0 36.594416143761464 -41.148689659263709 0 -41.148689659263709 24.841605124438502 0 0 0 0 12.176008835389439 -0.88393444516896125 0 -0.88393444516896125 -20.549070424803631 0 0 0 0 30.767087033948883 -33.907193519201428 0 -33.907193519201428 7.0500360525084034 0 0 0 0 32.79877196316545 -26.481424328539561 0 -26.481424328539561 -35.142432434409784 0 0 0 0 0.77981264589288912 -18.28573223065905 0 -18.28573223065905 -26.720289734355902 0 0 0 0 -19.10341560845518 10.482341433645161 0 10.482341433645161 -68.304715233334719 0 0 0 0 -54.41655323949999 -68.629640402763471 0 -68.629640402763471 -54.559845371315532 0 0 0 0 -26.153572389653164 14.770030272467011 0 14.770030272467011 21.303136556880418 0 0 0 0 13.293643546956446 4.8725091918549879 0 4.8725091918549879 -32.193101521174185 0 0 0 0 28.145473309162298 -5.8953514476934288 0 -5.8953514476934288 -21.255448836531286 0 0 0 0 27.675883425010397 -4.5135403942352923 0 -4.5135403942352923 -1.7236936033004895 0 0 0 0 10.929671153274285 5.2883322648585818 0 5.2883322648585818 5.8286660671983554 0 0 0 0 32.419695138929455 -9.1106707609105797 0 -9.1106707609105797 12.573092066695153 0 0 0 0 25.931891944814197 4.6913046023687457 0 4.6913046023687457 14.870340472341923 0 0 0 0 -0.28207507537717902 -24.473709443086591 0 -24.473709443086591 65.07919959038918 0 0 0 0 0.66064772106255987 -3.6768113611997251 0 -3.6768113611997251 84.647705123595188 0 0 0 0 6.0475217579023592 -2.2642142319773484 0 -2.2642142319773484 3.0434863547475288 0 0 0 0 -9.143925289067738 -14.343060011308353 0 -14.343060011308353 12.729551458256537 0 0 0 0 10.543626462484099 -7.9454808404379946 0 -7.9454808404379946 2.4104937231495569 0 0 0 0 23.117896401135113 -7.1509633216728616 0 -7.1509633216728616 1.6764350671919601 0 0 0 0 21.559789071196064 -2.385731203819887 0 -2.385731203819887 2.0100430178881652 0 0 0 0 15.938453053650051 -10.50850599340572 0 -10.50850599340572 42.116166579487981 0 0 0 0 9.0937123766325385 -5.0353379169364416 0 -5.0353379169364416 10.204661208554171 0 0 0 0 17.763304024679201 -7.2593327276936179 0 -7.2593327276936179 7.1056629860731846 0 0 0 0 3.8613813117135578 -10.006726716776939 0 -10.006726716776939 26.259427652699742 0 0 0 0 1.262760454113959 -17.423839607731679 0 -17.423839607731679 5.3951047917546475 0 0 0 0 8.3784844035144488 -9.1728807266945296 0 -9.1728807266945296 1.4879617652013621 0 0 0 0 -7.3599838166228437 -5.0974825938465074 0 -5.0974825938465074 8.460003212083393 0 0 0 0 -6.9724612920090294 -6.8466339234237239 0 -6.8466339234237239 -5.908226731535251 0 0 0 0 -21.951149381628966 -19.584959133438133 0 -19.584959133438133 4.6028515436591988 0 0 0 0 -7.6095972618395535 -8.6465502924938846 0 -8.6465502924938846 8.0015169801572483 0 0 0 0 -1.4347214596809863 -25.454098291443188 0 -25.454098291443188 47.572187256258985 0 0 0 0 -18.356111976613761 -20.749738888946922 0 -20.749738888946922 20.020671081907494 0 0 0 0 -15.301387041583439 -20.599776446024407 0 -20.599776446024407 13.462324598433042 0 0 0 0 -1.3568482713872072 -26.803828115592296 0 -26.803828115592296 10.330324084348831 0 0 0 0 26.407569725313579 -33.709527445420804 0 -33.709527445420804 39.790914472272561 0 0 0 0 22.065254204832854 -17.686566435610075 0 -17.686566435610075 21.724906519852084 0 0 0 0 0.38597524163506236 -0.14007990288080663 0 -0.14007990288080663 -0.010497959153941139 0 0 0 0 56.154639273157954 -68.310525184205289 0 -68.310525184205289 11.094150751379857 0 0 0 0 28.10792238461363 -63.071347779985445 0 -63.071347779985445 37.724890304147266 0 0 0 0 22.254239018260705 -85.66352294031185 0 -85.66352294031185 101.39361104359955 0 0 0 0 51.241505031881388 -36.307694102173627 0 -36.307694102173627 11.425815411705116 0 0 0 0 19.1657698499248 -58.798584443849904 0 -58.798584443849904 -23.308381248956721 0 0 0 0 23.70854235094157 -70.128374216849807 0 -70.128374216849807 4.9038669117944664 0 0 0 0 16.661348754285427 -25.606074543786235 0 -25.606074543786235 -52.302196529702996 0 0 0 0 -12.79951292224905 -27.041542143539118 0 -27.041542143539118 15.284198122049929 0 0 0 0 -5.5826050112209487 -36.988949410392706 0 -36.988949410392706 2.8789529012974526 0 0 0 0 2.4326005711773178 -42.916568350221496 0 -42.916568350221496 22.751922966067468 0 0 0 0 -0.88163987343432382 -33.561889998223705 0 -33.561889998223705 -3.4371658884592762 0 0 0 0 31.005832622734317 -62.01082810706805 0 -62.01082810706805 100.90325987227425 0 0 0 0 19.88761966016682 -52.156313862610659 0 -52.156313862610659 122.26731261402801 0 0 0 0 1.0163007613154669 -0.052266370264739237 0 -0.052266370264739237 0.024637765277525148 0 0 0 0 24.283660270255496 -12.543407151154497 0 -12.543407151154497 79.707290526007455 0 0 0 0 52.405105060953247 -53.491250979900542 0 -53.491250979900542 33.948589781381088 0 0 0 0 37.578610922100324 -60.209052508821969 0 -60.209052508821969 65.060798408794653 0 0 0 0 62.796099909076474 -100.50637802256188 0 -100.50637802256188 106.69023765130896 0 0 0 0 59.148928396712108 -112.4594097855761 0 -112.4594097855761 123.41930529959518 0 0 0 0 66.389581706592253 -126.29983579042278 0 -126.29983579042278 151.0403245015259 0 0 0 0 31.972872707656279 -75.307294504556921 0 -75.307294504556921 80.626869800896884 0 0 0 0 74.155026919334887 -105.25230637862114 0 -105.25230637862114 76.974487307194067 0 0 0 0 90.237521499311697 -95.843237459156626 0 -95.843237459156626 73.697296655434002 0 0 0 0 51.958287592649867 -68.731086086258074 0 -68.731086086258074 80.363394232612336 0 0 0 0 85.984789417736465 -96.507276127518253 0 -96.507276127518253 48.429191485183765 0 0 0 0 27.324620944788876 -91.311183933176835 0 -91.311183933176835 87.870348301494232 0 0 0 0 34.990059148035471 -12.420824508166334 0 -12.420824508166334 -55.53187923007556 0 0 0 0 -0.63508166052451998 -23.565916161061295 0 -23.565916161061295 2.1272957132950978 0 0 0 0 0.52000197722400543 0.12429030289123233 0 0.12429030289123233 0.058883480786876996 0 0 0 0 33.39850539285635 -69.558224964454894 0 -69.558224964454894 53.163099164590676 0 0 0 0 54.884868621475107 -81.126219563298946 0 -81.126219563298946 53.646343747223909 0 0 0 0 23.511782262985434 -31.195305357609868 0 -31.195305357609868 43.9542291259894 0 0 0 0 72.907748031240772 -66.551014238326388 0 -66.551014238326388 39.346678578796855 0 0 0 0 35.165028122773947 -56.152675003943386 0 -56.152675003943386 84.532051462609161 0 0 0 0 -0.10737013277698182 -0.18899646199823295 0 -0.18899646199823295 0.2332056150508679 0 0 0 0 21.870510484886609 -74.120716076415647 0 -74.120716076415647 95.677596541510866 0 0 0 0 22.662438286908582 -82.04369776178828 0 -82.04369776178828 68.739969879865384 0 0 0 0 20.797529522606965 -78.82381662510852 0 -78.82381662510852 75.158088911135565 0 0 0 0 39.478186953330805 -95.267966881468965 0 -95.267966881468965 42.480967752958804 0 0 0 0 22.199520903365567 -93.733597336859305 0 -93.733597336859305 61.203154491333407 0 0 0 0 42.867307403019367 -85.584565938662308 0 -85.584565938662308 49.92957508042673 0 0 0 0 35.000183002067388 -83.348879516865964 0 -83.348879516865964 65.267423914252504 0 0 0 0 32.5650593522696 -75.925343577728199 0 -75.925343577728199 66.409333561808126 0 0 0 0 36.866549762478826 -87.61256543964555 0 -87.61256543964555 57.689599447635374 0 0 0 0 36.946576651886744 -93.482684913467097 0 -93.482684913467097 74.916330108208058 0 0 0 0 33.54608519775411 -92.619187332407364 0 -92.619187332407364 80.611716234310734 0 0 0 0 36.172090240464968 -104.05422682275184 0 -104.05422682275184 78.28894218754067 0 0 0 0 31.355670375717636 -96.712346738755514 0 -96.712346738755514 73.251927109369717 0 0 0 0 37.710007788106509 -88.702930022516284 0 -88.702930022516284 53.480024558499281 0 0 0 0 60.47277318792294 -106.81496304804386 0 -106.81496304804386 65.701624653773251 0 0 0 0 64.867906198117907 -99.839853827385014 0 -99.839853827385014 30.378911048872396 0 0 0 0 58.151421214750371 -79.407187968061407 0 -79.407187968061407 37.086738255453383 0 0 0 0 50.638273878026666 -132.20778596644959 0 -132.20778596644959 49.419822786045188 0 0 0 0 86.80500155777554 -121.58795084193207 0 -121.58795084193207 51.901875757621383 0 0 0 0 -55.89318398353771 49.284338268336342 0 49.284338268336342 -17.99937492258141 0 0 0 0 137.30774542220115 -89.167276097591639 0 -89.167276097591639 -22.537197603309323 0 0 0 0 149.78359337765141 92.114283086262731 0 92.114283086262731 -288.55003658056012 0 0 0 0 119.10228382921241 -78.783143612578897 0 -78.783143612578897 -22.171926541894209 0 0 0 0 48.292674674814407 -24.159419463450831 0 -24.159419463450831 -20.185637715052053 0 0 0 0 20.856947292757468 -18.248408991723409 0 -18.248408991723409 30.429062194906692 0 0 0 0 15.73744944322425 -19.532065973262434 0 -19.532065973262434 32.501714714111586 0 0 0 0 15.353874028831342 -21.901493173067706 0 -21.901493173067706 31.126535979561595 0 0 0 0 -10.075379415744464 -14.308835544508838 0 -14.308835544508838 18.536750641821072 0 0 0 0 0.18763429855155422 -2.3243943521065695 0 -2.3243943521065695 5.9181044361071038 0 0 0 0 18.512471946143705 -20.514062026844385 0 -20.514062026844385 29.262979373050257 0 0 0 0 -3.2866192795713651 -4.0521418638097275 0 -4.0521418638097275 0.25164256808506025 0 0 0 0 -25.88713378196735 -15.922711147504742 0 -15.922711147504742 -12.820908885971221 0 0 0 0 -23.569897720801237 -3.4834656066668686 0 -3.4834656066668686 34.663957255634159 0 0 0 0 -106.39564341324512 9.2053563798526739 0 9.2053563798526739 -18.843574838477252 0 0 0 0 -28.812390799082095 -21.553336119242886 0 -21.553336119242886 -6.6071163781907671 0 0 0 0 -31.428584965744449 -15.362799665865168 0 -15.362799665865168 -6.745210055665666 0 0 0 0 6.156919744745192 -18.491640515871737 0 -18.491640515871737 10.546286794814529 0 0 0 0 -30.31797947252835 -26.39315803372665 0 -26.39315803372665 -9.6713009460290777 0 0 0 0 -57.087585160036724 -62.452125338295446 0 -62.452125338295446 91.017552225606778 0 0 0 0 -0.95198087374344453 -2.1524462949499306 0 -2.1524462949499306 24.325011619885458 0 0 0 0 -126.97975707956493 -41.532035859949247 0 -41.532035859949247 98.208898673721706 0 0 0 0 -83.592060727757598 -155.45834275494781 0 -155.45834275494781 -59.835722310614074 0 0 0 0 -43.099544175417577 -70.266081547284557 0 -70.266081547284557 -58.4295109043087 0 0 0 0 -99.056324790928556 -139.24196146588656 0 -139.24196146588656 42.274724783215788 0 0 0 0 -7.1215716012065968 -83.253541922684235 0 -83.253541922684235 -10.813613887799875 0 0 0 0 -10.621892297746854 -79.535789494395431 0 -79.535789494395431 4.3949105907668127 0 0 0 0 -16.507219647385682 -52.69150260888 0 -52.69150260888 -11.995792307032389 0 0 0 0 -56.387354453189857 -81.345638936756444 0 -81.345638936756444 -6.511234293346206 0 0 0 0 -25.445398725718405 -46.667130080601055 0 -46.667130080601055 18.096491826530837 0 0 0 0 39.577529808659598 2.5102426048943016 0 2.5102426048943016 -138.93802927257821 0 0 0 0 2.7879460686150423 -26.817607584332109 0 -26.817607584332109 -26.056568362029793 0 0 0 0 42.191583612024715 -57.821121805509392 0 -57.821121805509392 -41.786492868346159 0 0 0 0 -41.099647358878428 -23.755008209107473 0 -23.755008209107473 -38.750412592351722 0 0 0 0 -12.172982767770982 -7.8384661575062289 0 -7.8384661575062289 -3.2000077416162629 0 0 0 0 144.14252944826421 -35.025049453668544 0 -35.025049453668544 -13.809952838359095 0 0 0 0 23.448619393022454 -141.29818645214436 0 -141.29818645214436 111.06734977484848 0 0 0 0 -141.19879089035567 -71.932538116796422 0 -71.932538116796422 154.50127502034593 0 0 0 0 -16.869295716467605 -32.376149392304796 0 -32.376149392304796 -21.261340178860337 0 0 0 0 -38.06738733252314 16.838661627618421 0 16.838661627618421 -16.924839838911794 0 0 0 0 -17.995251960954462 -11.004937320871583 0 -11.004937320871583 -0.92460263315986069 0 0 0 0 -47.095900953972887 -28.681264148734044 0 -28.681264148734044 61.811724807894279 0 0 0 0 -111.67194860340987 40.66568175039265 0 40.66568175039265 45.975366335846047 0 0 0 0 -31.386276871351583 -5.645318424445577 0 -5.645318424445577 -8.7726452041133598 0 0 0 0 -57.67771060170071 -11.568574831479964 0 -11.568574831479964 35.601701413150295 0 0 0 0 -45.857438291497601 -0.65970130060668453 0 -0.65970130060668453 -1.0789927454716235 0 0 0 0 -44.874300693606983 -21.870126912603155 0 -21.870126912603155 16.740639591807849 0 0 0 0 -35.490405318264493 -18.43632796631573 0 -18.43632796631573 17.881808572165028 0 0 0 0 -30.366199357117694 -33.61838882316988 0 -33.61838882316988 23.396990541939886 0 0 0 0 -39.184978672210036 -36.938475623865997 0 -36.938475623865997 40.073080667505565 0 0 0 0 -63.856182468993211 -40.009902827861879 0 -40.009902827861879 55.45667606313873 0 0 0 0 -25.974012348153792 -67.607146849689343 0 -67.607146849689343 69.139408828512387 0 0 0 0 -38.532462716630107 -41.704290057614344 0 -41.704290057614344 31.622756649383518 0 0 0 0 -28.104535301113174 -51.09943464855678 0 -51.09943464855678 37.78280047995213 0 0 0 0 -10.066744822701367 -61.550578965732711 0 -61.550578965732711 17.577259784444323 0 0 0 0 -14.629627225901856 -51.690289056531697 0 -51.690289056531697 7.929350395592337 0 0 0 0 -14.31405259586154 -49.075072920670209 0 -49.075072920670209 12.128506726476189 0 0 0 0 -19.717386729341342 -43.49317622192757 0 -43.49317622192757 20.119680400915968 0 0 0 0 -33.314742415504043 -38.136610244757321 0 -38.136610244757321 18.010812808264745 0 0 0 0 2.4794758281435634 24.800779105134552 0 24.800779105134552 47.058013481368107 0 0 0 0 156.98902878998979 -66.431517336951401 0 -66.431517336951401 8.7536721096621477 0 0 0 0 0.063614878339591119 -0.17229981617586709 0 -0.17229981617586709 1.2406420545967265 0 0 0 0 31.269068733017775 -71.252032792062892 0 -71.252032792062892 23.678949197794282 0 0 0 0 1.4075172652846959 -48.170497913456529 0 -48.170497913456529 6.7407526799834159 0 0 0 0 22.983869584152785 -21.721053991497683 0 -21.721053991497683 12.516552269942622 0 0 0 0 -13.758281842998258 -50.465863477558742 0 -50.465863477558742 14.083814706817066 0 0 0 0 -22.498259553605749 -20.905017432391105 0 -20.905017432391105 13.728446748187707 0 0 0 0 -0.32975348157552498 -1.5054372877159583 0 -1.5054372877159583 3.1735780535977796 0 0 0 0 -1.7985042340874315 -10.114467998801047 0 -10.114467998801047 0.92037874007110076 0 0 0 0 -49.645119642458582 3.215547032430436 0 3.215547032430436 10.978558743416215 0 0 0 0 -27.184376112875725 -42.662521092512179 0 -42.662521092512179 6.1300380315260554 0 0 0 0 -42.465289416970336 -60.813382088139406 0 -60.813382088139406 -12.711440901875903 0 0 0 0 -19.123821326479856 -42.349263227411939 0 -42.349263227411939 -45.065629135511699 0 0 0 0 -61.562390387447522 -22.624362436246884 0 -22.624362436246884 -22.344548290966486 0 0 0 0 -0.24652713527527759 -0.74579644710866688 0 -0.74579644710866688 0.36432178837693141 0 0 0 0 -64.926734233209118 -48.718043004911237 0 -48.718043004911237 -42.544440766072512 0 0 0 0 -3.6790629612241901 -42.989771527107223 0 -42.989771527107223 4.5430766717508959 0 0 0 0 -8.2933813871652546 -44.825275953322375 0 -44.825275953322375 3.8133870947276591 0 0 0 0 -7.6173330680744016 -37.071022485821004 0 -37.071022485821004 9.6762860701128375 0 0 0 0 -10.129929829477078 -54.422733637373312 0 -54.422733637373312 -15.164962102790014 0 0 0 0 -12.387966983689694 -53.615108724734455 0 -53.615108724734455 6.078949576956802 0 0 0 0 -5.8761862674591612 -49.443457591863989 0 -49.443457591863989 -11.217239961264568 0 0 0 0 -5.3157121611116054 -38.461888191220169 0 -38.461888191220169 -4.3868227295679389 0 0 0 0 -7.2394084333900537 -44.295677910387894 0 -44.295677910387894 -22.07044954594312 0 0 0 0 -22.127377690709181 -42.68706409630795 0 -42.68706409630795 -8.5002268133321195 0 0 0 0 0.95677962529316574 -41.946693589263305 0 -41.946693589263305 -10.180159194536827 0 0 0 0 1.5963734156493956 -42.37647903366269 0 -42.37647903366269 -4.7005698416396626 0 0 0 0 4.7632568710751002 -33.839383470744906 0 -33.839383470744906 -1.0730639229004737 0 0 0 0 9.6048388825256552 -38.357908615522319 0 -38.357908615522319 0.35646869971247952 0 0 0 0 47.479602978723051 19.194276637915209 0 19.194276637915209 22.460783081842237 0 0 0 0 -0.078657265865956838 -0.63074634633735371 0 -0.63074634633735371 4.2462725430701553 0 0 0 0 96.442707198394146 -57.249273064944646 0 -57.249273064944646 -4.5784197870671051 0 0 0 0 15.898887627820841 -30.466380572348498 0 -30.466380572348498 -1.86520130122517 0 0 0 0 1.2845202260066888 -13.717405147701204 0 -13.717405147701204 7.010273959631661 0 0 0 0 22.976417197748788 -28.402287502114632 0 -28.402287502114632 -2.0422464180373936 0 0 0 0 10.217597278013272 -34.761410773509851 0 -34.761410773509851 -1.8468043206360392 0 0 0 0 -1.5312910365319112 -36.211358049517003 0 -36.211358049517003 2.9303038947364257 0 0 0 0 17.24859411897296 -22.191622701142478 0 -22.191622701142478 0.74484129184202175 0 0 0 0 5.4642913551047059 -33.302231701572055 0 -33.302231701572055 3.9677091937483056 0 0 0 0 4.5637038643908454 -19.290342526283439 0 -19.290342526283439 8.8546030975667236 0 0 0 0 -54.708285569220664 -14.763430477313136 0 -14.763430477313136 9.6747919829467719 0 0 0 0 -40.253417565238124 -20.851516193917632 0 -20.851516193917632 12.36520039117022 0 0 0 0 -33.766249087726464 -15.065167155173185 0 -15.065167155173185 12.799037305361708 0 0 0 0 -18.805081301247128 -17.018869321443162 0 -17.018869321443162 4.7366565932316007 0 0 0 0 -29.641482382099639 -22.941509058768133 0 -22.941509058768133 3.2965542764311522 0 0 0 0 -22.436704429850636 -18.516212875033318 0 -18.516212875033318 11.103823795656353 0 0 0 0 -15.629729716696602 -21.79584377235733 0 -21.79584377235733 9.8509568223526003 0 0 0 0 -21.721888285806926 -5.9769701893001184 0 -5.9769701893001184 0.55097302523063263 0 0 0 0 -40.59765233743201 -2.1228977606024273 0 -2.1228977606024273 10.141565091787925 0 0 0 0 -7.3603028965042654 -14.723314779322834 0 -14.723314779322834 8.4807373995136004 0 0 0 0 -8.1638603293722554 -12.773059245906552 0 -12.773059245906552 3.8845297914049297 0 0 0 0 -12.354558848825036 -21.580240094843248 0 -21.580240094843248 7.2133638036939374 0 0 0 0 -13.233325877799871 -19.963741086774462 0 -19.963741086774462 4.6394586981004977 0 0 0 0 -2.9541633398107479 -11.052705805045662 0 -11.052705805045662 7.964122097735526 0 0 0 0 -1.1177694389825774 -15.664596506269845 0 -15.664596506269845 -10.014111156011495 0 0 0 0 1.2197128354646101 -2.628296517171556 0 -2.628296517171556 8.0479750316141789 0 0 0 0 -30.470267086458421 -22.25817163663919 0 -22.25817163663919 6.3318676820636028 0 0 0 0 32.472800874108088 -7.5964663188788109 0 -7.5964663188788109 9.7983501563553546 0 0 0 0 46.616662615883342 -38.296606406611204 0 -38.296606406611204 0.012733971037960146 0 0 0 0 -0.96170287054591375 -14.984990302075619 0 -14.984990302075619 4.7537095652397596 0 0 0 0 -30.458194595822079 -20.655796922128502 0 -20.655796922128502 7.0375677799529512 0 0 0 0 -33.225965789313705 -24.915951129160931 0 -24.915951129160931 12.763761137539404 0 0 0 0 -28.148398837767672 -24.021242935556074 0 -24.021242935556074 6.5472045403816992 0 0 0 0 -30.766759519508014 -22.168102179031848 0 -22.168102179031848 13.153498741725343 0 0 0 0 -21.88981569610587 -30.503123796432192 0 -30.503123796432192 14.632197466624348 0 0 0 0 -23.001903691673078 -32.951738515025681 0 -32.951738515025681 10.877679544893908 0 0 0 0 -8.3072367278909951 -35.996460908838344 0 -35.996460908838344 11.056920222603367 0 0 0 0 -15.487843138516837 -19.68991451362308 0 -19.68991451362308 10.261092300926975 0 0 0 0 -27.229835971247667 -19.686341743261437 0 -19.686341743261437 12.155481661153317 0 0 0 0 -19.792556743072055 -33.810519540998939 0 -33.810519540998939 163.75264082961985 0 0 0 0 3.093395216474164 -48.773063622817062 0 -48.773063622817062 137.7620251381959 0 0 0 0 7.4802723801440152 -28.05714943460589 0 -28.05714943460589 141.92180911408468 0 0 0 0 21.714463893093125 -47.546259065587037 0 -47.546259065587037 130.19652139936807 0 0 0 0 -27.120502644087537 -34.746210935223644 0 -34.746210935223644 131.28191259543473 0 0 0 0 -36.32568605324559 -59.057706238840183 0 -59.057706238840183 126.203775308888 0 0 0 0 -44.354662604332589 -46.431552176451532 0 -46.431552176451532 111.57447865340146 0 0 0 0 -57.785268779967737 -70.617506724316627 0 -70.617506724316627 111.957690596048 0 0 0 0 -43.725023988034081 -52.2836340169506 0 -52.2836340169506 119.0332401722244 0 0 0 0 -45.357224299237714 -59.803999538162316 0 -59.803999538162316 133.91619343598722 0 0 0 0 -41.16483607261398 -39.760452409314894 0 -39.760452409314894 147.47775472750982 0 0 0 0 -38.465181707040756 -40.643675024570257 0 -40.643675024570257 140.51554761476746 0 0 0 0 -23.863854223633098 -49.98107772707408 0 -49.98107772707408 146.436503430421 0 0 0 0 -26.501198149816446 -28.649327956009529 0 -28.649327956009529 164.36723802286724 0 0 0 0 -34.746209024049676 -44.967561160524383 0 -44.967561160524383 151.65859980721689 0 0 0 0 -33.788473642114695 -26.602174147800156 0 -26.602174147800156 168.27351841000018 0 0 0 0 -22.330312673673689 -19.505016514022827 0 -19.505016514022827 159.26731720778844 0 0 0 0 -14.421261384068202 -7.541906886630386 0 -7.541906886630386 188.20199718445247 0 0 0 0 2.4988710270226875 -36.320068789293146 0 -36.320068789293146 162.51198571424902 0 0 0 0 -22.662963962642607 -39.43285075030235 0 -39.43285075030235 186.77138102597928 0 0 0 0 0.34237342368760437 -28.509096551941184 0 -28.509096551941184 191.32043787698603 0 0 0 0 -10.446217388969671 -2.6576827900789795 0 -2.6576827900789795 266.58570837811931 0 0 0 0 -11.599303747546401 -12.623648296489591 0 -12.623648296489591 196.89075198416685 0 0 0 0 1.7508075515197561 17.721458404616897 0 17.721458404616897 176.93536014984875 0 0 0 0 -9.9325107956688043 4.2459194167631722 0 4.2459194167631722 169.91872271327884 0 0 0 0 -6.6639952346959035 16.871556021424112 0 16.871556021424112 214.42571986650273 0 0 0 0 13.851956604916268 26.228974299361653 0 26.228974299361653 181.76831509837939 0 0 0 0 -4.1059818495936966 -2.995840587618801 0 -2.995840587618801 0.25228798084271076 0 0 0 0 -12.808107896591537 -16.13314776840889 0 -16.13314776840889 8.1591678842987676 0 0 0 0 -7.8298448059431394 -15.325258225156631 0 -15.325258225156631 -26.689353481647231 0 0 0 0 -2.8734996967687039 -8.7460853169095572 0 -8.7460853169095572 -18.692859353941003 0 0 0 0 0.8671598469223909 -2.7687920219132209 0 -2.7687920219132209 0.082977193798372539 0 0 0 0 -3.3672865884522487 -4.5561071539377007 0 -4.5561071539377007 0.35069020003534868 0 0 0 0 -12.582134476473584 -1.5990014758390316 0 -1.5990014758390316 143.9087321007737 0 0 0 0 -0.40007440218326451 -1.7295016011136646 0 -1.7295016011136646 -0.57754525023760017 0 0 0 0 -7.1336325419933928 -7.7375623191496743 0 -7.7375623191496743 0.29653836358374974 0 0 0 0 -8.1833551755325971 5.9324541934859099 0 5.9324541934859099 152.79647589208798 0 0 0 0 -3.5450146424900595 20.812098446568598 0 20.812098446568598 181.93957197974487 0 0 0 0 -24.352604679526848 -12.862274543618696 0 -12.862274543618696 189.67035508763365 0 0 0 0 -29.876137118511906 -19.181593710398374 0 -19.181593710398374 165.64289068826838 0 0 0 0 -24.4904486529922 -22.072225922478992 0 -22.072225922478992 152.97493998203208 0 0 0 0 -12.589422871155875 -19.893418318224121 0 -19.893418318224121 142.14686617371626 0 0 0 0 -32.393784863330438 -36.796777453266259 0 -36.796777453266259 131.21759070982989 0 0 0 0 -3.7677842085049633 -21.135538293020545 0 -21.135538293020545 126.06405611850641 0 0 0 0 0.62900801165596931 -8.4794709177131153 0 -8.4794709177131153 135.53981947686862 0 0 0 0 4.9425843965145759 -8.2153127918036262 0 -8.2153127918036262 -23.364252938368736 0 0 0 0 -7.1881401669488696 -12.449266594709115 0 -12.449266594709115 -3.789240592994588 0 0 0 0 -13.570442708891278 -29.221527671816148 0 -29.221527671816148 119.44512338063032 0 0 0 0 -12.23451627070699 -9.1217473828164657 0 -9.1217473828164657 3.3192465177926351 0 0 0 0 -3.1367687946826841 -4.6472578702869853 0 -4.6472578702869853 -0.23638769450339803 0 0 0 0 -15.178569113782942 -30.621616919781445 0 -30.621616919781445 121.81659914233205 0 0 0 0 -22.178879947955465 -35.622215881618104 0 -35.622215881618104 127.4293594817027 0 0 0 0 -15.655941776405598 -34.171484737169521 0 -34.171484737169521 114.84923638376858 0 0 0 0 -29.401969562102749 -54.334854002064276 0 -54.334854002064276 114.83157199419875 0 0 0 0 -21.985843319745982 -42.96332768844195 0 -42.96332768844195 131.75407271585209 0 0 0 0 -37.261685642245084 -42.136510819086652 0 -42.136510819086652 141.3287336631729 0 0 0 0 -37.57979928918212 -42.497480272152643 0 -42.497480272152643 142.0354687357576 0 0 0 0 -41.273304520580496 -62.272601892883358 0 -62.272601892883358 119.17417807565653 0 0 0 0 -60.117747366675758 -60.722989635545673 0 -60.722989635545673 131.34276783003952 0 0 0 0 -40.894130988042946 -56.472473618103962 0 -56.472473618103962 127.15066815177124 0 0 0 0 -46.023613621904587 -72.124290944468612 0 -72.124290944468612 104.25751189065159 0 0 0 0 -62.187634332756716 -70.441011836459438 0 -70.441011836459438 104.18387453047035 0 0 0 0 -42.688128120078545 -83.877663126535481 0 -83.877663126535481 104.45800888923804 0 0 0 0 -47.772762350419725 -73.605603944060931 0 -73.605603944060931 97.74893906794648 0 0 0 0 -36.744906975262893 -78.928233649003232 0 -78.928233649003232 98.255739371539676 0 0 0 0 -49.917172514649792 -64.207132958762486 0 -64.207132958762486 122.11977699250656 0 0 0 0 -24.375363947243386 -81.906089214313397 0 -81.906089214313397 95.008407351221649 0 0 0 0 -29.087184141097168 -93.73015616923476 0 -93.73015616923476 111.25129966635495 0 0 0 0 -4.6494610345732781 -93.42679113796305 0 -93.42679113796305 99.931930764445497 0 0 0 0 45.951630104051688 -108.46382692271469 0 -108.46382692271469 38.839458510026816 0 0 0 0 -7.6440446388223791 -108.15190632895337 0 -108.15190632895337 107.7279036466814 0 0 0 0 -19.564589557360705 -84.516435070520856 0 -84.516435070520856 99.818655064304039 0 0 0 0 -14.150805770519582 -63.977081891192483 0 -63.977081891192483 81.305376790143782 0 0 0 0 4.2139217427566109 -42.882043243706676 0 -42.882043243706676 47.840221331980501 0 0 0 0 -5.7601346417814057 -42.592441634887109 0 -42.592441634887109 96.328362146847667 0 0 0 0 1.3842556556082855 -1.0033393894545952 0 -1.0033393894545952 -7.4417764756581164 0 0 0 0 -2.5786002493881099 -4.8808181417409777 0 -4.8808181417409777 -0.29066825803379204 0 0 0 0 -4.5072415339218423 -8.2802977485393967 0 -8.2802977485393967 10.134753770168572 0 0 0 0 -1.9724433694736945 -9.6920371530059128 0 -9.6920371530059128 4.9209827500026222 0 0 0 0 -1.3363229822571157 -6.4726309796242276 0 -6.4726309796242276 7.4576424556776146 0 0 0 0 11.026419296574204 -48.151247798122313 0 -48.151247798122313 48.547984136960508 0 0 0 0 17.638112845138039 -23.035745996823039 0 -23.035745996823039 -26.739120561433083 0 0 0 0 7.4138217699301094 -14.034092351988875 0 -14.034092351988875 0.47176473791296303 0 0 0 0 12.647425389823184 -54.289174684923637 0 -54.289174684923637 -51.174277298732022 0 0 0 0 -3.3486457736416924 13.002328302030946 0 13.002328302030946 -37.71380541113831 0 0 0 0 -9.2339952671536594 -2.7329679779886646 0 -2.7329679779886646 12.063015129476298 0 0 0 0 -6.9627181299792937 -2.284521369313552 0 -2.284521369313552 10.639587239209504 0 0 0 0 -10.550416273702467 -3.7823674298672358 0 -3.7823674298672358 10.836521448964049 0 0 0 0 -1.9909481968506135 -4.7267789591425586 0 -4.7267789591425586 0.034614565607832493 0 0 0 0 -10.439171438638368 -3.3818392747552934 0 -3.3818392747552934 11.772219334610782 0 0 0 0 -8.0166785347737459 -3.5908864023431306 0 -3.5908864023431306 9.5459111802592815 0 0 0 0 -7.0751282164283111 -30.613680339627535 0 -30.613680339627535 65.869416675184766 0 0 0 0 -0.36765452800387877 0.5873486720759189 0 0.5873486720759189 5.2361620031669354 0 0 0 0 -56.321483469277155 -43.300607343195225 0 -43.300607343195225 96.499980135712576 0 0 0 0 -57.358756438687124 -11.703272278373333 0 -11.703272278373333 49.965958546690672 0 0 0 0 -10.196462358536337 2.5838966629280549 0 2.5838966629280549 0.86813580196030671 0 0 0 0 -30.81871453058011 39.790501403749658 0 39.790501403749658 -48.700404060669825 0 0 0 0 -107.67215531277179 85.486765516317973 0 85.486765516317973 -74.250225439514224 0 0 0 0 -0.17010041308725476 -0.36698676458041035 0 -0.36698676458041035 0.77661252738769759 0 0 0 0 -60.366495327216398 -55.556988620113771 0 -55.556988620113771 -53.514335549845327 0 0 0 0 -95.512073957918801 -45.706670363133526 0 -45.706670363133526 29.490304515256867 0 0 0 0 -162.49610218566613 -16.571081274761127 0 -16.571081274761127 16.864080928753538 0 0 0 0 -93.373686284647192 -7.3691964280369575 0 -7.3691964280369575 -42.565748809396609 0 0 0 0 -177.89778766345262 -75.20918627536048 0 -75.20918627536048 -43.129583885238389 0 0 0 0 -190.17799159804781 -22.394326974850628 0 -22.394326974850628 0.3156385352781399 0 0 0 0 0.12337650024710456 14.14836000898049 0 14.14836000898049 -78.03262893124338 0 0 0 0 -0.20177788715037082 -1.0837507586926716 0 -1.0837507586926716 -0.38395204689026485 0 0 0 0 14.377578696559794 -50.408028800149623 0 -50.408028800149623 -120.80762283455897 0 0 0 0 -26.863149575727221 -44.565603295083861 0 -44.565603295083861 -146.76008224086399 0 0 0 0 10.372633742796097 -54.024440547322229 0 -54.024440547322229 -5.9853498657233786 0 0 0 0 -160.89430257003096 -51.659545288471236 0 -51.659545288471236 -4.9716272707846656 0 0 0 0 -34.989463322730103 -40.810316426103554 0 -40.810316426103554 34.38476044082563 0 0 0 0 45.483430516856593 -78.464286908940892 0 -78.464286908940892 6.6902000959089492 0 0 0 0 -32.520947796934706 -58.497953769506239 0 -58.497953769506239 56.14169992796451 0 0 0 0 14.442467492409378 -35.379262384128197 0 -35.379262384128197 6.7555096541127568 0 0 0 0 32.857329030908659 -97.944994661507735 0 -97.944994661507735 67.556042274587526 0 0 0 0 12.651011204523456 -93.936405361033394 0 -93.936405361033394 69.230755234783373 0 0 0 0 1.0456162080579006 -0.22856473737837391 0 -0.22856473737837391 -0.19611299468632559 0 0 0 0 64.459239408242865 -39.058085679172109 0 -39.058085679172109 52.574491520791526 0 0 0 0 -13.914908023050884 -22.762815572979889 0 -22.762815572979889 49.266072163565241 0 0 0 0 254.66005512749689 -297.71900996036857 0 -297.71900996036857 229.35363103398595 0 0 0 0 27.190291699293084 -229.9205667050237 0 -229.9205667050237 339.64770345716533 0 0 0 0 -39.061536566567611 -116.42685930973403 0 -116.42685930973403 285.18201338768631 0 0 0 0 179.1044084246405 -87.672609394082428 0 -87.672609394082428 121.40074175964037 0 0 0 0 -70.400123718422037 -54.628219858512239 0 -54.628219858512239 205.3644534795767 0 0 0 0 17.464962897172882 -166.72534798566585 0 -166.72534798566585 178.68369448974772 0 0 0 0 -88.589475761910762 16.810256060944539 0 16.810256060944539 105.61069187759858 0 0 0 0 0.23000986987384708 0.13706844132983775 0 0.13706844132983775 2.2141985269566646 0 0 0 0 373.80919187372001 -169.19203265875126 0 -169.19203265875126 43.689178252701822 0 0 0 0 95.757973261745065 15.200517148750805 0 15.200517148750805 -51.481174341301084 0 0 0 0 189.63019549458477 -3.268293633545909 0 -3.268293633545909 -20.800838645327531 0 0 0 0 266.22755376997338 -42.090547014784534 0 -42.090547014784534 -1.1638018823050515 0 0 0 0 125.1237560633781 -96.729419782968762 0 -96.729419782968762 44.402144192652599 0 0 0 0 241.91251083924544 -124.71543421844763 0 -124.71543421844763 45.179842926860147 0 0 0 0 146.42005343636629 -159.1170285145331 0 -159.1170285145331 136.27959046889191 0 0 0 0 114.13666889175147 -158.30136437339024 0 -158.30136437339024 136.98736307446507 0 0 0 0 65.123543122304909 -110.39277393160228 0 -110.39277393160228 95.989486249890604 0 0 0 0 75.80709090664277 -112.89294865040301 0 -112.89294865040301 95.926307416191776 0 0 0 0 111.28100652146168 -78.742484129393233 0 -78.742484129393233 21.08191149195045 0 0 0 0 36.439932331545606 -40.175603636101187 0 -40.175603636101187 8.1708609251727466 0 0 0 0 44.006723597573 26.138476785281455 0 26.138476785281455 5.3034041627279294 0 0 0 0 73.7738404677566 -62.598607447011091 0 -62.598607447011091 47.054788514817119 0 0 0 0 48.735630437205145 -28.566246138122551 0 -28.566246138122551 19.129843862013331 0 0 0 0 1.4445809715145295 -2.2217067840103937 0 -2.2217067840103937 -0.46638869702699837 0 0 0 0 -3.1171668577498792 -13.80960814495208 0 -13.80960814495208 -5.3481854762430885 0 0 0 0 -0.83772213666270545 -19.247738274752919 0 -19.247738274752919 -20.020274935918849 0 0 0 0 -16.603683233321135 -12.841282388077161 0 -12.841282388077161 -7.6404732660957961 0 0 0 0 -0.47241207417813513 -8.4290314337806489 0 -8.4290314337806489 -6.1342048840987715 0 0 0 0 -13.705178595890175 -13.095698109124896 0 -13.095698109124896 -0.32053695863578469 0 0 0 0 -10.013429766922528 -7.6039509013943256 0 -7.6039509013943256 -0.061957011360318504 0 0 0 0 -9.2642918011570146 -13.586242316695461 0 -13.586242316695461 -1.4296521308451702 0 0 0 0 -19.109262254719852 -15.791046511168588 0 -15.791046511168588 -9.8816993634718528 0 0 0 0 -1.7930844667870869 -2.0810597739339922 0 -2.0810597739339922 5.2153884548739278 0 0 0 0 -0.76212034330415435 -1.5439778231379089 0 -1.5439778231379089 -0.13897327472932908 0 0 0 0 -6.311055794612912 -12.873953760135919 0 -12.873953760135919 39.593645241571721 0 0 0 0 -16.353984287417916 -16.181980565834237 0 -16.181980565834237 -12.789377421617246 0 0 0 0 9.5248488644956524 -13.611118745046497 0 -13.611118745046497 -1.6486582232846558 0 0 0 0 -35.660358390417059 -115.55851736898285 0 -115.55851736898285 0.040176293422746312 0 0 0 0 -35.417305717699492 -31.907785793582661 0 -31.907785793582661 13.093968115825191 0 0 0 0 -1.3504661274172491 -0.39758901995695872 0 -0.39758901995695872 -0.16010399598109615 0 0 0 0 -21.573660553702211 -28.689672602935389 0 -28.689672602935389 -4.1701085355998657 0 0 0 0 -29.501336220961093 -14.545735940857412 0 -14.545735940857412 -20.162628484416928 0 0 0 0 2.8623040090824361 -4.483972267320496 0 -4.483972267320496 -17.498897843039231 0 0 0 0 -34.578855367855795 -6.9280478444225082 0 -6.9280478444225082 -28.297265848847019 0 0 0 0 -17.602990803148714 -4.612489230621577 0 -4.612489230621577 -45.962106923601823 0 0 0 0 -11.987494248816802 -7.1565151072245499 0 -7.1565151072245499 -46.566715825809752 0 0 0 0 -17.37667401694307 -10.932211276292037 0 -10.932211276292037 -42.187285503285239 0 0 0 0 -3.159835312897485 -5.5021277799060044 0 -5.5021277799060044 -5.1656775823939824 0 0 0 0 -5.0219094461391727 -4.9541155654713176 0 -4.9541155654713176 -1.803907275936151 0 0 0 0 -2.9117841778098619 -6.6386983337028855 0 -6.6386983337028855 -8.0970831041617792 0 0 0 0 -4.7996003908669067 -3.926179957388209 0 -3.926179957388209 1.6754186921458265 0 0 0 0 -13.915355834313232 -12.009317598827693 0 -12.009317598827693 1.1561731513793347 0 0 0 0 -13.961320745274861 -13.266182056449907 0 -13.266182056449907 1.5066157450642095 0 0 0 0 -5.0170484104419302 -13.923794536104651 0 -13.923794536104651 -10.824640385583507 0 0 0 0 -0.73748197106603541 -2.3254007911852792 0 -2.3254007911852792 1.6151271284469146 0 0 0 0 -14.2629906678103 1.0973398319274565 0 1.0973398319274565 -9.2670600578985614 0 0 0 0 -14.752808333847497 -1.2108936147124041 0 -1.2108936147124041 -8.5179326175220922 0 0 0 0 0.53803276907304465 -1.3296394086202508 0 -1.3296394086202508 -1.2220033848134051 0 0 0 0 -5.8553693124030701 -5.1286575596120034 0 -5.1286575596120034 0.41921355576423303 0 0 0 0 -8.0754821682212423 -3.4822141725514939 0 -3.4822141725514939 3.1817257809434523 0 0 0 0 1.9765319208381698 -13.214532307185436 0 -13.214532307185436 -1.1425343214941677 0 0 0 0 -4.4904173062877817 -20.225233028319053 0 -20.225233028319053 -45.982895025726066 0 0 0 0 -5.6428724126581074 -14.935084925063165 0 -14.935084925063165 -51.430729515723215 0 0 0 0 -11.369868514808331 -12.960313889083409 0 -12.960313889083409 -44.014327422806673 0 0 0 0 -9.9411079234050703 -10.789662117428634 0 -10.789662117428634 -46.622192686190829 0 0 0 0 -12.470740395216126 -14.332488648922663 0 -14.332488648922663 -44.40667077258604 0 0 0 0 -12.933848555636359 -15.720052118347667 0 -15.720052118347667 -37.762979875649762 0 0 0 0 -9.9655080183001701 -24.852164667750003 0 -24.852164667750003 -30.563293151004473 0 0 0 0 -23.585494562037638 -22.695033830063721 0 -22.695033830063721 -13.543134565257787 0 0 0 0 -9.6692042281592876 -23.8837821500274 0 -23.8837821500274 -48.394421436356424 0 0 0 0 -9.927514405502734 -34.532656767370099 0 -34.532656767370099 -25.155704942801094 0 0 0 0 -25.912380772703727 -46.098341696789703 0 -46.098341696789703 18.570680143686332 0 0 0 0 -18.985200480596177 -52.537856731406464 0 -52.537856731406464 -25.595648751390399 0 0 0 0 -25.291324968435219 -50.547624138791434 0 -50.547624138791434 17.344218243411433 0 0 0 0 -22.594378520363534 -38.058917886510244 0 -38.058917886510244 -11.092571760217425 0 0 0 0 -26.731777904708906 -44.038908114471724 0 -44.038908114471724 26.302168614198308 0 0 0 0 -32.590547750369296 -26.511759557748519 0 -26.511759557748519 -0.6409009543240245 0 0 0 0 -28.270441407788894 -47.070818564478031 0 -47.070818564478031 37.46489336603554 0 0 0 0 -22.717236965952907 -61.221613093088308 0 -61.221613093088308 51.285427931332379 0 0 0 0 -23.757990624604645 -64.465193646165062 0 -64.465193646165062 55.325558219261438 0 0 0 0 -25.657443520336528 -42.848792507757025 0 -42.848792507757025 26.925072774570253 0 0 0 0 -28.773803519813555 -44.398054680863424 0 -44.398054680863424 81.050604428979568 0 0 0 0 -14.258659406586958 -52.284212546606796 0 -52.284212546606796 52.998679925075521 0 0 0 0 -40.990435947598598 -80.452722852349325 0 -80.452722852349325 115.02133577085806 0 0 0 0 -40.765763620855068 -76.606784125287049 0 -76.606784125287049 62.418662943692652 0 0 0 0 -47.947615077073351 -93.03588506019787 0 -93.03588506019787 90.142870416711048 0 0 0 0 -33.378736914166893 -66.188463948956951 0 -66.188463948956951 70.338924457480971 0 0 0 0 -47.08931126974494 -86.166574638950806 0 -86.166574638950806 71.098426363616454 0 0 0 0 -61.829220867071854 -80.217735780281146 0 -80.217735780281146 70.907766921416766 0 0 0 0 -59.868425501967295 -57.941921705758432 0 -57.941921705758432 96.260026454903709 0 0 0 0 -55.270839703996899 -80.845938073566685 0 -80.845938073566685 77.139932677220713 0 0 0 0 -59.328445218759953 -69.286630803243497 0 -69.286630803243497 56.467622985604976 0 0 0 0 -77.849408363741532 -83.550064050728906 0 -83.550064050728906 77.080974817231066 0 0 0 0 -51.23045893008748 -75.263504023434507 0 -75.263504023434507 37.935148348498842 0 0 0 0 -68.197215992265228 -98.06829301302605 0 -98.06829301302605 22.17611998006214 0 0 0 0 -53.289841733234425 -74.922206085719154 0 -74.922206085719154 1.5188717756682308 0 0 0 0 -82.45328880372108 -88.836565714544122 0 -88.836565714544122 51.469227236801089 0 0 0 0 -57.352347390979048 -85.394759705116485 0 -85.394759705116485 -2.9843653958560026 0 0 0 0 -73.559943109648884 -82.343790818215211 0 -82.343790818215211 -3.1001120576729591 0 0 0 0 -83.943274318540716 -110.90577587432381 0 -110.90577587432381 -44.052779850031584 0 0 0 0 -62.197756671388561 -101.94854878375645 0 -101.94854878375645 -44.462545564896573 0 0 0 0 -49.391947585365415 -71.40178855835984 0 -71.40178855835984 -57.668659988531545 0 0 0 0 -36.961291988374796 -71.480551550722794 0 -71.480551550722794 17.216136914585149 0 0 0 0 -47.237081800518354 -83.136954069308558 0 -83.136954069308558 -37.553774519687522 0 0 0 0 -38.812125007356371 -82.222748127564046 0 -82.222748127564046 -37.457288372608446 0 0 0 0 -42.123237085132132 -78.074490964218057 0 -78.074490964218057 14.044466823634139 0 0 0 0 -19.406148567475611 -50.935003317064911 0 -50.935003317064911 -31.636879424288054 0 0 0 0 -17.958946527581247 -54.75751148262907 0 -54.75751148262907 -35.300176558212115 0 0 0 0 -11.401039976728498 -43.437593585365903 0 -43.437593585365903 -65.639732830033381 0 0 0 0 -17.8686275077348 -60.239128471503136 0 -60.239128471503136 -89.570578449862296 0 0 0 0 -18.844685531690629 -32.895644982167141 0 -32.895644982167141 -74.897746717484551 0 0 0 0 -2.0838964941067388 -20.180677507609289 0 -20.180677507609289 -61.883584494762999 0 0 0 0 -6.3295736411928374 -32.57168392973108 0 -32.57168392973108 -96.752277851086546 0 0 0 0 -2.7065285347573607 -5.0005829954852992 0 -5.0005829954852992 0.57465874401601225 0 0 0 0 -10.477622770518792 -9.8752020896736212 0 -9.8752020896736212 8.1057070936985838 0 0 0 0 -7.6741639594838489 11.869011676149967 0 11.869011676149967 -71.105341465661695 0 0 0 0 -3.8644319192808325 -3.8723728494069292 0 -3.8723728494069292 -12.703629248740981 0 0 0 0 -10.676392922545347 -4.2148853227126892 0 -4.2148853227126892 0.69310438530919782 0 0 0 0 -0.3472905846074994 -0.60790167891660829 0 -0.60790167891660829 1.001743073017368 0 0 0 0 -3.4582936372498807 5.8915383180919889 0 5.8915383180919889 -5.4123448710797675 0 0 0 0 -1.3034954889462824 -12.003791477805862 0 -12.003791477805862 -3.5739653370637825 0 0 0 0 -1.7398193294084194 -0.20427887257937982 0 -0.20427887257937982 -10.832981631571784 0 0 0 0 -53.189894647730398 -133.11216098798604 0 -133.11216098798604 -222.61249822348418 0 0 0 0 -3.8200107994716745 -55.921807603544949 0 -55.921807603544949 -304.42944704267575 0 0 0 0 -0.3033046045925758 -0.66638267731017997 0 -0.66638267731017997 -1.3406639499022432 0 0 0 0 -10.960787991312827 -40.991307811073057 0 -40.991307811073057 -161.14563618577085 0 0 0 0 -13.872403988429141 -51.265750345444758 0 -51.265750345444758 -169.60502114900009 0 0 0 0 -42.35650282655115 -93.092715980939829 0 -93.092715980939829 -105.86288979144592 0 0 0 0 -58.223046146422348 -68.123821906270678 0 -68.123821906270678 -103.18560467586394 0 0 0 0 -87.479041228496499 -131.91673386719958 0 -131.91673386719958 -103.93324047519036 0 0 0 0 -68.45269249568446 -99.753031651383026 0 -99.753031651383026 -139.41658635588101 0 0 0 0 -90.611003879845157 -106.35489035090541 0 -106.35489035090541 -19.822435594198396 0 0 0 0 -101.90384309467663 -72.488489413892921 0 -72.488489413892921 -153.88617096942653 0 0 0 0 -117.57666854720446 -106.24533862475982 0 -106.24533862475982 -117.13699971452388 0 0 0 0 -3.2687683076874237 7.3743241291322192 0 7.3743241291322192 -15.850664680037426 0 0 0 0 -89.045261903604114 -130.86591878819854 0 -130.86591878819854 -165.74780592910065 0 0 0 0 -0.6885793621186167 2.7217502289231561 0 2.7217502289231561 -17.053606088058586 0 0 0 0 1.1204716763032465 -4.5316095626518891 0 -4.5316095626518891 0.95134799401777048 0 0 0 0 -76.867550147544534 -106.63738590370576 0 -106.63738590370576 -207.48793045568254 0 0 0 0 -1.3016517301584827 22.358167878860513 0 22.358167878860513 2.2228306878769217 0 0 0 0 37.247393226389249 -36.704006288809978 0 -36.704006288809978 -9.3041436405355853 0 0 0 0 37.731408895400818 -245.26470857189452 0 -245.26470857189452 -491.25295428812206 0 0 0 0 3.6611203339772587 -3.8793277681684231 0 -3.8793277681684231 1.2907367495390005 0 0 0 0 -17.604684483912934 -9.2351723514429978 0 -9.2351723514429978 7.2526099515507667 0 0 0 0 -6.8204551455564797 -77.076591709734203 0 -77.076591709734203 -384.07365551964995 0 0 0 0 -23.826266498926657 -180.40135149625644 0 -180.40135149625644 -262.45110866538016 0 0 0 0 -73.378439133264692 -57.808067013073014 0 -57.808067013073014 -256.17582695200508 0 0 0 0 -97.30828809306513 -129.17552624114251 0 -129.17552624114251 -117.0316919789002 0 0 0 0 -41.287996396706149 -76.888599918748696 0 -76.888599918748696 -113.44178890014484 0 0 0 0 -28.13578436428179 -26.170893854852693 0 -26.170893854852693 45.362437296755161 0 0 0 0 -53.235884639346295 -110.57770875324695 0 -110.57770875324695 9.3349093526685465 0 0 0 0 -70.78441169108828 -76.860155637488333 0 -76.860155637488333 53.645006908187497 0 0 0 0 -54.60476867062971 -60.477499503828767 0 -60.477499503828767 -20.651234304712005 0 0 0 0 -72.030184651641321 -69.994196299808209 0 -69.994196299808209 -36.925858270338722 0 0 0 0 -65.044369901617756 -61.030568047821362 0 -61.030568047821362 36.421741127837777 0 0 0 0 -92.003886741700626 -103.61146288361306 0 -103.61146288361306 9.3765883551932347 0 0 0 0 -57.767227819735581 -82.222277098461745 0 -82.222277098461745 57.08230826736326 0 0 0 0 -56.362388793102582 -56.26243423640517 0 -56.26243423640517 80.848479150190542 0 0 0 0 -67.010535003068071 -79.716590269072185 0 -79.716590269072185 80.440954023297309 0 0 0 0 -55.627985938717757 -68.50694162524087 0 -68.50694162524087 98.580259052574547 0 0 0 0 -33.080023558522953 -39.373021825553678 0 -39.373021825553678 93.8402194066839 0 0 0 0 -20.815846635312482 -54.249641501492079 0 -54.249641501492079 111.17493721567644 0 0 0 0 20.85248835206221 -38.855164867570238 0 -38.855164867570238 88.141884661003132 0 0 0 0 -9.4647765358386096 -27.39365096027359 0 -27.39365096027359 118.04213417524261 0 0 0 0 -31.171597013475548 -38.464661161247932 0 -38.464661161247932 94.371958297757374 0 0 0 0 -22.750235018964304 -45.02552048704365 0 -45.02552048704365 52.560630249173926 0 0 0 0 -68.73207313345938 -56.71798995191125 0 -56.71798995191125 91.508972387435279 0 0 0 0 -177.84544197915056 -341.03253367831621 0 -341.03253367831621 -219.88295859775644 0 0 0 0 -11.893502472099385 -96.714851325535676 0 -96.714851325535676 -45.379367265617475 0 0 0 0 7.0338003103813236 -7.508996568958878 0 -7.508996568958878 6.6891647802838357 0 0 0 0 -168.05359277785101 30.444608784091542 0 30.444608784091542 3.0181663762068638 0 0 0 0 3.6061838493735934 -3.1503664225352681 0 -3.1503664225352681 2.4850390753807901 0 0 0 0 250.02178982944406 -113.06976617102964 0 -113.06976617102964 -287.22534399703045 0 0 0 0 -66.812342468901079 -119.57446363983581 0 -119.57446363983581 361.89559799121798 0 0 0 0 -27.396163025846818 -87.693470239225462 0 -87.693470239225462 280.49593784805438 0 0 0 0 27.357266179713406 79.170145393913117 0 79.170145393913117 71.577946912424068 0 0 0 0 52.392208319348356 -163.090085518048 0 -163.090085518048 200.90657885455494 0 0 0 0 103.85396608435531 -99.13288551135588 0 -99.13288551135588 58.845308242060128 0 0 0 0 45.675662627397287 -20.22290992328044 0 -20.22290992328044 -10.445214642473729 0 0 0 0 68.360936858203786 -74.498296580016358 0 -74.498296580016358 36.769129150798108 0 0 0 0 -21.71754560338195 -8.3424760473280912 0 -8.3424760473280912 30.147621236145824 0 0 0 0 1.3961239555046632 -302.71449292846319 0 -302.71449292846319 346.32741067529241 0 0 0 0 1.4554580705475146 -1.1346975361257927 0 -1.1346975361257927 0.74550483259388756 0 0 0 0 62.217962630973489 -13.148169494168542 0 -13.148169494168542 -29.878234340258132 0 0 0 0 38.320699018860978 72.996412870456879 0 72.996412870456879 -100.15121561477463 0 0 0 0 118.99225942573685 295.63623352075592 0 295.63623352075592 297.85181277118681 0 0 0 0 2.8896612980758647 -1.3545058349315138 0 -1.3545058349315138 0.67322022713978669 0 0 0 0 -11.207885188434375 -21.707934365634173 0 -21.707934365634173 -21.620810995927968 0 0 0 0 -22.677803182663411 -13.294246979501622 0 -13.294246979501622 5.619098581380058 0 0 0 0 5.048565533737019 9.1715521706844356 0 9.1715521706844356 -15.206855971833647 0 0 0 0 17.217460037105411 -4.3889087306060901 0 -4.3889087306060901 -133.11813729231108 0 0 0 0 -101.96018732895232 -16.371222452116854 0 -16.371222452116854 33.904693827278606 0 0 0 0 -77.903803837622036 80.732706699643131 0 80.732706699643131 356.84552499092024 0 0 0 0 0.46943965226223305 -0.28759276568569181 0 -0.28759276568569181 0.80428188063605432 0 0 0 0 -66.538631951677644 -166.04446932858741 0 -166.04446932858741 -83.327832880262577 0 0 0 0 -107.32046307962628 9.1303656007539757 0 9.1303656007539757 -45.102520316008849 0 0 0 0 -39.622084037593595 -81.812500086338332 0 -81.812500086338332 16.759948383285519 0 0 0 0 320.03904399045223 -201.78583504716335 0 -201.78583504716335 -265.98306743990543 0 0 0 0 21.293299166367433 -246.30887210069159 0 -246.30887210069159 460.57127815970716 0 0 0 0 83.73959310221835 -94.432078657927377 0 -94.432078657927377 144.19504768932643 0 0 0 0 2.3257392035634759 -0.31380107504809374 0 -0.31380107504809374 -0.19778508429527353 0 0 0 0 279.80791283748476 -52.376271612477467 0 -52.376271612477467 -463.37853476500641 0 0 0 0 7.2709737989698624 -13.931844005601306 0 -13.931844005601306 14.914585471980899 0 0 0 0 -12.175673171514063 0.75806436061066051 0 0.75806436061066051 19.498879762570141 0 0 0 0 -12.211421588399389 -6.0053671296291213 0 -6.0053671296291213 29.553491932648285 0 0 0 0 -63.192999091934325 -111.03718713012677 0 -111.03718713012677 -158.54594689283476 0 0 0 0 4.6714740773142651 -1.6558039802686189 0 -1.6558039802686189 -0.1132194827144124 0 0 0 0 -0.28348583203401034 -0.65847153470039288 0 -0.65847153470039288 1.172922239964624 0 0 0 0 0.20997145648270177 -4.0790714609432008 0 -4.0790714609432008 0.49466787295561687 0 0 0 0 5.865496215475801 -3.4078521453659789 0 -3.4078521453659789 -0.51677434434942526 0 0 0 0 3.7793414797170044 -22.886601669374613 0 -22.886601669374613 -4.5634166941754302 0 0 0 0 2.5257330676822676 -12.52009690646355 0 -12.52009690646355 -6.9417962588668161 0 0 0 0 -34.094975115074703 -45.456668577490746 0 -45.456668577490746 -11.671887186566209 0 0 0 0 4.6510849173118913 -9.0770040017177962 0 -9.0770040017177962 -19.682049912962611 0 0 0 0 -82.804166659983821 -94.653160684665636 0 -94.653160684665636 -36.508136769367411 0 0 0 0 -5.1541401171975849 -42.39113250603873 0 -42.39113250603873 -117.01448280399018 0 0 0 0 -138.74009809110612 -6.9091864225356403 0 -6.9091864225356403 131.92894074882406 0 0 0 0 -4.3428265109826043 -20.734675032628616 0 -20.734675032628616 -9.6903617180760193 0 0 0 0 -39.522426686613471 -34.413400488390835 0 -34.413400488390835 35.726266861751355 0 0 0 0 5.9737087179346418 50.495296540470918 0 50.495296540470918 41.350280498217217 0 0 0 0 -39.883060767380812 -18.886260079385465 0 -18.886260079385465 15.031774225049048 0 0 0 0 -15.96826379932827 2.3279309583504073 0 2.3279309583504073 -9.8756734540411344 0 0 0 0 -32.734629264912655 -7.2540695007119211 0 -7.2540695007119211 16.652690998784237 0 0 0 0 -17.695728884958953 -2.2335219398228219 0 -2.2335219398228219 9.4852767570373544 0 0 0 0 -16.507285265780524 -15.664265238528174 0 -15.664265238528174 -0.63113863741455134 0 0 0 0 -17.317055699164484 -16.904001012155277 0 -16.904001012155277 -0.42207676236284897 0 0 0 0 -19.427587762322219 -20.912599309569032 0 -20.912599309569032 -6.2900759644908248 0 0 0 0 -4.4211068570657517 -25.893634701197698 0 -25.893634701197698 -38.313112387994806 0 0 0 0 -14.052948306167309 -18.738631540042206 0 -18.738631540042206 23.938679529705041 0 0 0 0 0.052038152675329741 -1.9284619998333099 0 -1.9284619998333099 -0.54903002224711805 0 0 0 0 -36.699167049722746 -35.649417440843536 0 -35.649417440843536 -6.5176956284603875 0 0 0 0 0.048914000640554178 -8.3574790402251988 0 -8.3574790402251988 -6.5935926834622265 0 0 0 0 6.2516451557221444 -10.159720838549219 0 -10.159720838549219 -19.721565986586938 0 0 0 0 -15.32209354771112 -19.192533978248321 0 -19.192533978248321 -4.222493733452211 0 0 0 0 -14.677997500060883 -17.289237821412826 0 -17.289237821412826 -3.6899613670066174 0 0 0 0 -7.0353132024881688 -12.085811957012965 0 -12.085811957012965 8.7295972900501511 0 0 0 0 -13.065209559737951 -10.173073384940693 0 -10.173073384940693 -2.9791547585155058 0 0 0 0 -7.0857902208381347 -11.139428532291276 0 -11.139428532291276 -6.8069453196312679 0 0 0 0 -3.6340674248440337 -9.8007894508969002 0 -9.8007894508969002 -9.7423311159691366 0 0 0 0 -1.5637143854822604 -7.4823034032154929 0 -7.4823034032154929 -1.3081694982162686 0 0 0 0 1.8321087875328885 -9.1786095203951845 0 -9.1786095203951845 3.3539524251027615 0 0 0 0 -0.040837357015334419 -9.0183712639827718 0 -9.0183712639827718 4.7028935743037437 0 0 0 0 0.98051325710730453 -7.3432234830552261 0 -7.3432234830552261 0.055746867583366111 0 0 0 0 -0.83070079186836665 -6.644045613171329 0 -6.644045613171329 2.8702565905032316 0 0 0 0 -0.51737721424910887 -9.5326368594743371 0 -9.5326368594743371 11.298070540578919 0 0 0 0 0.47371123003017401 -6.4559213301435374 0 -6.4559213301435374 0.8117040017107513 0 0 0 0 0.9272742584162188 -8.512882441036254 0 -8.512882441036254 2.5139656469800684 0 0 0 0 10.568700829225236 -9.9166054935876673 0 -9.9166054935876673 -8.9353173324043382 0 0 0 0 4.4663988341817458 -5.4526704924428486 0 -5.4526704924428486 0.074716229957175528 0 0 0 0 6.1353030472997405 -3.0933910644255054 0 -3.0933910644255054 -1.9560922977118551 0 0 0 0 3.1967454156510939 -5.5562466289120493 0 -5.5562466289120493 -2.9287685189819967 0 0 0 0 3.5209243482822785 -4.6896745362591901 0 -4.6896745362591901 0.59984376047941623 0 0 0 0 7.2403614219338124 -5.3429347471607898 0 -5.3429347471607898 -1.4986105319954461 0 0 0 0 2.9537348645189105 -5.1049205564500433 0 -5.1049205564500433 -1.2114526000673607 0 0 0 0 3.3071648641453066 -4.5897126667805423 0 -4.5897126667805423 -2.3268082459435391 0 0 0 0 5.8544105230132466 -3.6721880782584364 0 -3.6721880782584364 -2.6640113852860523 0 0 0 0 -0.54558700915305991 -4.5354443254322447 0 -4.5354443254322447 0.75364109403283264 0 0 0 0 2.8984746617981934 -3.6537031967051163 0 -3.6537031967051163 0.19290368789230783 0 0 0 0 2.0585104751423557 -6.1486986737634197 0 -6.1486986737634197 -4.2495596901953832 0 0 0 0 4.0346352232108984 -5.0778529131912364 0 -5.0778529131912364 -2.8035050036878602 0 0 0 0 4.1802341037837323 -5.141312308549459 0 -5.141312308549459 -3.105196223887674 0 0 0 0 4.3139509761676891 -5.110025871092148 0 -5.110025871092148 -3.103410879253147 0 0 0 0 3.2580785772161107 -5.6897699960500177 0 -5.6897699960500177 -2.9369918616248469 0 0 0 0 4.5191278550771585 -5.7742896577328793 0 -5.7742896577328793 -3.1513765849667834 0 0 0 0 -0.76325407537024148 -6.575827780081454 0 -6.575827780081454 -2.8493997646910429 0 0 0 0 4.194951233908796 -4.7327086847581086 0 -4.7327086847581086 -3.3658796096160586 0 0 0 0 2.0015477227983371 -3.5997803970057376 0 -3.5997803970057376 0.53881101558768307 0 0 0 0 1.1378294843234471 -2.6017322318184597 0 -2.6017322318184597 -4.4492199863889255 0 0 0 0 3.8972399791127827 -5.0948578124152846 0 -5.0948578124152846 -2.7575772904856422 0 0 0 0 2.7053525143140345 -3.1915523364688454 0 -3.1915523364688454 -0.58312695019033978 0 0 0 0 2.4303533381295708 -1.3785681293464727 0 -1.3785681293464727 -3.0362809627119205 0 0 0 0 3.7987832536515107 -3.4356393669244909 0 -3.4356393669244909 -2.4140489075813285 0 0 0 0 4.1504232962913647 -5.2873052866925718 0 -5.2873052866925718 -3.4070880366889469 0 0 0 0 5.1287753300603072 -4.0203475526250259 0 -4.0203475526250259 -0.88823835424955178 0 0 0 0 -0.66638237386359833 -2.9551254519028589 0 -2.9551254519028589 -1.9366962199128466 0 0 0 0 0.52713185006558305 -4.1449188551785383 0 -4.1449188551785383 0.8714346646885609 0 0 0 0 -0.0021758164714498207 -0.031993592333741105 0 -0.031993592333741105 -0.3054361819308582 0 0 0 0 14.838810046484468 -4.3972813960208441 0 -4.3972813960208441 -10.40554347862053 0 0 0 0 4.1891760346261435 -5.2113500540863242 0 -5.2113500540863242 -1.98200483290384 0 0 0 0 2.9087671928855587 -1.9760815445921844 0 -1.9760815445921844 -2.9872959634816851 0 0 0 0 4.7350583025581727 -0.64202915452915477 0 -0.64202915452915477 -2.9765455152082723 0 0 0 0 5.204025001337925 -8.9607890636284537 0 -8.9607890636284537 -7.5064455140891369 0 0 0 0 11.129212022824504 -7.509227583228494 0 -7.509227583228494 -10.18327386465171 0 0 0 0 1.9594634150819061 -1.396673586645484 0 -1.396673586645484 0.54633142176075822 0 0 0 0 2.4203066043000803 -4.965474222082463 0 -4.965474222082463 -12.413143949828736 0 0 0 0 -0.66332430102579565 -8.2381392507486453 0 -8.2381392507486453 -11.26045322687969 0 0 0 0 -9.0830085242046152 -12.463702883706901 0 -12.463702883706901 -6.5103994585588225 0 0 0 0 0.7727436577637018 -0.27840863703433794 0 -0.27840863703433794 -0.044513041668807318 0 0 0 0 18.419041318805284 13.174535598845978 0 13.174535598845978 3.8469082606789016 0 0 0 0 2.2190692570648025 -9.2457190077911946 0 -9.2457190077911946 -14.615140577276179 0 0 0 0 2.9057975104817615 -5.9914692008937891 0 -5.9914692008937891 -7.3658892950916197 0 0 0 0 1.6868974905632967 -8.0288409171598687 0 -8.0288409171598687 -7.8517547573283082 0 0 0 0 2.8106316170437822 -5.9169532436235386 0 -5.9169532436235386 -7.4013644962469698 0 0 0 0 6.0470905197850016 -2.1323718302423913 0 -2.1323718302423913 -6.9996051467423968 0 0 0 0 2.9575102299459104 -8.2412669073587494 0 -8.2412669073587494 -4.8158842001503217 0 0 0 0 5.2839540255758948 -7.6855344361329117 0 -7.6855344361329117 0.0023796066125214566 0 0 0 0 -0.32084119033976322 -6.4567520882518465 0 -6.4567520882518465 -4.6479538012717967 0 0 0 0 -0.59888613996145068 -3.9701890783544513 0 -3.9701890783544513 -1.7203964566542709 0 0 0 0 -2.5065135983495566 -4.5129951207600243 0 -4.5129951207600243 -7.3436213985896757 0 0 0 0 -2.0102407548311021 -5.4861242831211712 0 -5.4861242831211712 -5.1788465091640319 0 0 0 0 1.0111010059985759 -0.65812188445102038 0 -0.65812188445102038 0.52334573102933035 0 0 0 0 -1.0060018417420906 -10.828974910735269 0 -10.828974910735269 -10.740885196456475 0 0 0 0 -0.82816498963484264 -4.5650107679066423 0 -4.5650107679066423 0.0091698817777796648 0 0 0 0 -2.4554678179214307 -22.434810252449552 0 -22.434810252449552 19.316194677041494 0 0 0 0 4.4783631113728006 -5.5768041775991151 0 -5.5768041775991151 -6.8510502889839699 0 0 0 0 26.405847006219517 46.075326068784761 0 46.075326068784761 11.83049881642728 0 0 0 0 18.696446748731432 -0.097599981721145923 0 -0.097599981721145923 45.334514695045073 0 0 0 0 28.261416981124739 -42.154163622931264 0 -42.154163622931264 -85.496930194878587 0 0 0 0 -9.1740374383798553 2.7825002277422755 0 2.7825002277422755 11.724796185301685 0 0 0 0 24.007967852677666 6.2508067401402059 0 6.2508067401402059 -27.908248321167775 0 0 0 0 19.098819361998267 -13.745222514080524 0 -13.745222514080524 -27.173778207232317 0 0 0 0 11.674031026226281 -5.6024348329381137 0 -5.6024348329381137 1.4724015417989058 0 0 0 0 -3.0662990067939973 3.7377991368439325 0 3.7377991368439325 -5.4791763428765989 0 0 0 0 20.79500506155 -44.699108633646574 0 -44.699108633646574 -37.172891933191295 0 0 0 0 18.016569981370594 -57.082484202454907 0 -57.082484202454907 26.580779747920602 0 0 0 0 12.08458831605958 -2.3085723296303513 0 -2.3085723296303513 25.881549953108333 0 0 0 0 227.61796084761954 -1.1090205234304449 0 -1.1090205234304449 -90.850406280351308 0 0 0 0 105.56785296344697 47.278405601428403 0 47.278405601428403 -28.263084434220218 0 0 0 0 242.79415787966536 128.63837229668934 0 128.63837229668934 11.894638941088488 0 0 0 0 8.9353770834299233 -3.9126410832569221 0 -3.9126410832569221 1.6443028794995485 0 0 0 0 45.135332148926864 50.962309752934743 0 50.962309752934743 -65.012892521091544 0 0 0 0 -58.797084434600038 10.926094790406751 0 10.926094790406751 45.639594290169043 0 0 0 0 40.340265112117777 69.041250128462707 0 69.041250128462707 54.41508822599485 0 0 0 0 0.078597553547012922 -0.2718807885639265 0 -0.2718807885639265 0.42333578750880108 0 0 0 0 112.812805488717 -37.191251409835331 0 -37.191251409835331 57.645050155762874 0 0 0 0 81.601685339102914 -17.54260936036917 0 -17.54260936036917 0.035147919071268026 0 0 0 0 48.150597926587579 -67.126982079931622 0 -67.126982079931622 64.669238837990633 0 0 0 0 179.04550596841545 -66.062728655277169 0 -66.062728655277169 0.014791449108088273 0 0 0 0 104.73761254843794 -61.36069036830213 0 -61.36069036830213 64.30328850895603 0 0 0 0 175.36131117463901 -148.14693704976344 0 -148.14693704976344 46.653803739998693 0 0 0 0 33.757457454631549 -133.4650293042148 0 -133.4650293042148 50.628397359101655 0 0 0 0 3.6319218923760594 -1.5285731849191713 0 -1.5285731849191713 0.65176934011993737 0 0 0 0 317.71991947837319 41.419519753518699 0 41.419519753518699 24.209651586330438 0 0 0 0 310.56988475363778 -117.30346763920534 0 -117.30346763920534 -10.252643570633154 0 0 0 0 100.22390734642522 -72.591822800690352 0 -72.591822800690352 -0.038994376078788986 0 0 0 0 15.794171892421218 -16.602825687825316 0 -16.602825687825316 169.19574825697327 0 0 0 0 189.31916674688 -212.29162631897179 0 -212.29162631897179 -27.626803193414162 0 0 0 0 -102.30952489420463 -62.684289742591318 0 -62.684289742591318 -85.743492999688897 0 0 0 0 349.54182710938176 31.988940010099213 0 31.988940010099213 -123.08048154772041 0 0 0 0 57.582532314083437 -14.404423943597067 0 -14.404423943597067 -95.536442648677621 0 0 0 0 199.72137753054267 -47.812060070029474 0 -47.812060070029474 -141.66123190516782 0 0 0 0 261.34677459516388 -124.12254156876497 0 -124.12254156876497 -69.799706332651112 0 0 0 0 260.89291736002758 -34.859298918984749 0 -34.859298918984749 -202.7669793093628 0 0 0 0 73.645832265745412 -147.85480589167855 0 -147.85480589167855 -279.72789069390456 0 0 0 0 31.179523377345134 -4.6855115187381671 0 -4.6855115187381671 -118.32554810055444 0 0 0 0 -84.953474704734617 -155.63126330074374 0 -155.63126330074374 334.05223165362941 0 0 0 0 5.1934751866579063 -25.495034690975444 0 -25.495034690975444 -41.61934974934411 0 0 0 0 -6.2609664367091682 -19.981101349945675 0 -19.981101349945675 -33.029906426781963 0 0 0 0 0.3154258143356401 -33.309793294925839 0 -33.309793294925839 -30.929799556339276 0 0 0 0 0.52831956673610314 -20.691154076385033 0 -20.691154076385033 -35.762441726245015 0 0 0 0 -19.914943263026998 6.5010874670897465 0 6.5010874670897465 -48.009265227517062 0 0 0 0 936.70139090811244 -1056.3989764770486 0 -1056.3989764770486 1079.7660380229281 0 0 0 0 12.645867295907919 -18.23777479299315 0 -18.23777479299315 -34.282886210585275 0 0 0 0 -1.090232306926282 -20.415422148744256 0 -20.415422148744256 -29.662342401508795 0 0 0 0 7.5622637499369825 -3.2500346032119545 0 -3.2500346032119545 1.1651901074485345 0 0 0 0 23.006734847051121 -8.1627082146951579 0 -8.1627082146951579 -37.896672306654182 0 0 0 0 22.556110832172863 -13.952449922077903 0 -13.952449922077903 -32.880801350445836 0 0 0 0 16.342469566144473 -8.6459528827817849 0 -8.6459528827817849 -21.730773694856907 0 0 0 0 -12.924800368269302 -15.645216304869791 0 -15.645216304869791 -24.424194934799743 0 0 0 0 0.2494649729410412 -19.235234778465383 0 -19.235234778465383 -3.6079214062301617 0 0 0 0 -11.004786863266872 -26.470621572980235 0 -26.470621572980235 -8.3200734646416095 0 0 0 0 0.048468006014900311 -22.096338839186501 0 -22.096338839186501 -26.797804536279727 0 0 0 0 -0.46281259764941751 -27.079892439811374 0 -27.079892439811374 -5.7594382395946013 0 0 0 0 -0.70069265381076207 -22.01106875927735 0 -22.01106875927735 -6.3969763332715956 0 0 0 0 11.897162913277725 -7.8760435704894007 0 -7.8760435704894007 23.954268394492829 0 0 0 0 12.892373507463617 -38.70872216566022 0 -38.70872216566022 17.882627349721133 0 0 0 0 -5.8327629838820485 -27.417231887104208 0 -27.417231887104208 22.061744889133934 0 0 0 0 -13.526826928145056 -29.252656127333466 0 -29.252656127333466 21.645986827395063 0 0 0 0 -12.593129881924369 -33.476690055534164 0 -33.476690055534164 -6.1951764869590988 0 0 0 0 -6.6701749795414571 -25.392375528991579 0 -25.392375528991579 -5.0377277146944834 0 0 0 0 -13.774081490168726 -42.977042873772916 0 -42.977042873772916 38.273592739871674 0 0 0 0 -19.542881158968953 -19.11862281345384 0 -19.11862281345384 36.380733755957863 0 0 0 0 14.095055980074335 -80.367338862168253 0 -80.367338862168253 56.112915116215845 0 0 0 0 69.116110326088886 -48.165895063666539 0 -48.165895063666539 -51.263861978015484 0 0 0 0 9.3237054861769479 -53.821434714676798 0 -53.821434714676798 -29.033263996963797 0 0 0 0 12.994825466159792 30.831660415011129 0 30.831660415011129 -97.590419246706006 0 0 0 0 2.3897549507374691 -142.95620515284463 0 -142.95620515284463 -85.270059920781932 0 0 0 0 -15.158531515049376 -70.04365518310351 0 -70.04365518310351 153.0721219662264 0 0 0 0 3.2799998867838762 -1.5364262231590153 0 -1.5364262231590153 0.05790106851420429 0 0 0 0 52.705026901585228 23.412505346845137 0 23.412505346845137 -155.26459205962601 0 0 0 0 -22.067273799352165 -92.80997610314671 0 -92.80997610314671 551.44811451293572 0 0 0 0 10.166216058502226 -2.6950209309063595 0 -2.6950209309063595 -0.60865033030011606 0 0 0 0 33.802736388167048 -51.492271201994299 0 -51.492271201994299 -96.460216138289979 0 0 0 0 -11.503054115116498 -45.029284500195899 0 -45.029284500195899 -41.603669806035214 0 0 0 0 -101.80385289528658 -121.82349224898462 0 -121.82349224898462 361.6471043854217 0 0 0 0 25.065060921230724 -122.16873984698941 0 -122.16873984698941 271.43799909233712 0 0 0 0 14.455405614417941 -27.984562606510735 0 -27.984562606510735 129.96766017201662 0 0 0 0 -28.777543454720217 -95.143320136256079 0 -95.143320136256079 177.29554134252976 0 0 0 0 -97.89078456111929 -42.096387670546392 0 -42.096387670546392 230.34772347199396 0 0 0 0 7.5188921497206138 -88.994488007940163 0 -88.994488007940163 247.92598674493593 0 0 0 0 115.28674688513189 -4.1596413840570676 0 -4.1596413840570676 266.47519405698949 0 0 0 0 107.10312338533902 -98.627091675933116 0 -98.627091675933116 113.11713697095547 0 0 0 0 39.730196387747583 -33.868190282821161 0 -33.868190282821161 76.059570369444373 0 0 0 0 68.660180293627946 -79.879758961122207 0 -79.879758961122207 -3.1582483772253909 0 0 0 0 -78.59321689474109 -22.432689120147188 0 -22.432689120147188 72.721731412639201 0 0 0 0 -88.026503355595196 -25.414253858634765 0 -25.414253858634765 74.603190217287192 0 0 0 0 33.996695791531607 -98.028020284008221 0 -98.028020284008221 62.419024774972058 0 0 0 0 4.7162177001737291 -52.505958010528047 0 -52.505958010528047 12.315757769374613 0 0 0 0 6.8877879174628731 -79.842611802757915 0 -79.842611802757915 -22.221304723661888 0 0 0 0 -37.103266204097963 -91.179394023121858 0 -91.179394023121858 -4.9994461622773088 0 0 0 0 -29.47089027491802 -97.910193220483052 0 -97.910193220483052 -171.80629226331075 0 0 0 0 -246.55243389985662 59.198728070776269 0 59.198728070776269 77.358997615585395 0 0 0 0 -155.24947772369705 79.782141060682989 0 79.782141060682989 -103.99922223690464 0 0 0 0 -87.539559791275678 -20.871529386568 0 -20.871529386568 44.838204548133945 0 0 0 0 -158.10864373181357 33.330650402233005 0 33.330650402233005 54.494505963339179 0 0 0 0 -287.90241689756022 12.132043302346801 0 12.132043302346801 227.34553726372542 0 0 0 0 -107.97508561372888 -44.625826838937428 0 -44.625826838937428 173.81009495826584 0 0 0 0 0.22839796261443546 -0.76912638511565845 0 -0.76912638511565845 10.751749932963712 0 0 0 0 -185.87670389439336 -17.475465625986544 0 -17.475465625986544 212.75960347946238 0 0 0 0 545.33980942460175 -193.80351683495155 0 -193.80351683495155 742.06553683397942 0 0 0 0 -224.6375024838635 -10.494770078365036 0 -10.494770078365036 271.00144711001849 0 0 0 0 -128.74282113818026 -70.607050095402883 0 -70.607050095402883 261.43959002216434 0 0 0 0 -194.34569231336263 -30.924453736091891 0 -30.924453736091891 238.52535957674991 0 0 0 0 -239.17078288195262 14.881531158775033 0 14.881531158775033 199.66657721389493 0 0 0 0 -258.94650880293784 -53.79840873205103 0 -53.79840873205103 351.42103059278452 0 0 0 0 -209.69199492766347 -41.426975633603433 0 -41.426975633603433 323.8065069615659 0 0 0 0 540.76743744934447 -248.30665117497597 0 -248.30665117497597 92.504644037562684 0 0 0 0 54.854860781585103 104.65958470483565 0 104.65958470483565 -43.402659019338898 0 0 0 0 -91.3568385312999 -81.963734046305945 0 -81.963734046305945 18.656328013563325 0 0 0 0 -1102.4822744438052 428.61013983710291 0 428.61013983710291 1255.7966970632515 0 0 0 0 339.43908990327509 23.066118193200055 0 23.066118193200055 -99.345930189192586 0 0 0 0 3.2914893156915905 -2.0321945139072373 0 -2.0321945139072373 1.7037350260579025 0 0 0 0 13.480463269259417 -67.096506561145361 0 -67.096506561145361 502.49792619903383 0 0 0 0 -54.423736998240202 -171.06922686496182 0 -171.06922686496182 1119.5637318123809 0 0 0 0 448.38120918538334 -249.44586414580044 0 -249.44586414580044 -486.87145678322122 0 0 0 0 663.42276062371275 -821.1935028916896 0 -821.1935028916896 172.6527695759396 0 0 0 0 153.72581491658639 -193.9697944801519 0 -193.9697944801519 -116.69757169497825 0 0 0 0 283.59414187403399 -439.79545797692754 0 -439.79545797692754 279.9614925251808 0 0 0 0 13.144770377020897 -38.722279173649625 0 -38.722279173649625 221.14324584222049 0 0 0 0 106.10560928201176 -230.8016161192777 0 -230.8016161192777 206.09628360982606 0 0 0 0 25.659296159886253 -63.137107817276046 0 -63.137107817276046 110.77778664854668 0 0 0 0 10.464821374511757 -61.077916806485064 0 -61.077916806485064 148.14626426900395 0 0 0 0 47.941822333822074 -133.41073414964717 0 -133.41073414964717 103.75205598155117 0 0 0 0 9.555512399557756 -50.229634801454722 0 -50.229634801454722 53.426733046668232 0 0 0 0 21.380440879945127 -72.741312063123587 0 -72.741312063123587 85.736603473200375 0 0 0 0 6.2142281312306 -6.3883295071908019 0 -6.3883295071908019 1.231078127542812 0 0 0 0 9.1073250434437796 -7.4254490364737649 0 -7.4254490364737649 71.513669334525503 0 0 0 0 21.354426904221327 -26.892624226054977 0 -26.892624226054977 27.451427241747297 0 0 0 0 9.3426473784761939 -5.9262595843463863 0 -5.9262595843463863 1.9309948528464211 0 0 0 0 4.8845856496054694 -30.842000377549994 0 -30.842000377549994 138.8000656313161 0 0 0 0 1.0692950508300783 -4.1363644985285646 0 -4.1363644985285646 -2.9204966011493525 0 0 0 0 33.190086397797131 -46.386144654790769 0 -46.386144654790769 39.503799100415563 0 0 0 0 38.146004273428844 -51.47946488654452 0 -51.47946488654452 13.369042338134022 0 0 0 0 5.5058968948178517 -23.23627352270978 0 -23.23627352270978 23.794536751615851 0 0 0 0 42.022204893084563 -90.458214504892567 0 -90.458214504892567 81.031211456614983 0 0 0 0 20.614418003066021 -12.449105565222908 0 -12.449105565222908 -7.4654359815040152 0 0 0 0 -8.4769167243466654 -7.0132483768857128 0 -7.0132483768857128 36.347565137089418 0 0 0 0 2.1192512565825226 -4.9359439290683191 0 -4.9359439290683191 -1.1446040538207578 0 0 0 0 3.7838954263042979 -4.9987395043499419 0 -4.9987395043499419 0.44116283234779985 0 0 0 0 9.5619900349020099 -23.259843158213698 0 -23.259843158213698 12.500265702070465 0 0 0 0 8.0319940495164701 -7.6346812851115828 0 -7.6346812851115828 3.723461451341791 0 0 0 0 0.65336877542848271 0.12499249241431798 0 0.12499249241431798 -1.7592559558681877 0 0 0 0 -0.72956226272344793 -7.2336050805151899 0 -7.2336050805151899 3.7056789193011355 0 0 0 0 0.47473947450998821 -5.2951175931066246 0 -5.2951175931066246 5.4345840007536026 0 0 0 0 0.81689995668875781 -3.7893967645177327 0 -3.7893967645177327 4.1811345222777163 0 0 0 0 4.1616595811810839 -7.2280890869697032 0 -7.2280890869697032 2.520964011482647 0 0 0 0 4.854583331347385 -8.3434328363737222 0 -8.3434328363737222 4.3116820134637237 0 0 0 0 1.8277210626820306 -7.0108090879166411 0 -7.0108090879166411 7.4087492830531119 0 0 0 0 4.241467117348293 -9.468133425581982 0 -9.468133425581982 -8.1898653551033931 0 0 0 0 0.68746166158008304 -0.80612652676684959 0 -0.80612652676684959 0.22614343642182355 0 0 0 0 -6.695110563347157 -2.3643449532874001 0 -2.3643449532874001 12.770432665580302 0 0 0 0 2.4641196906042353 -5.4740092058230552 0 -5.4740092058230552 2.6338141165168798 0 0 0 0 0.44295423915900756 -8.0821297949041764 0 -8.0821297949041764 -2.2703318473622858 0 0 0 0 2.820377485094216 -2.3415144355617059 0 -2.3415144355617059 1.0852786318847158 0 0 0 0 -3.4427746059463971 -6.1965428010225878 0 -6.1965428010225878 3.707544871641403 0 0 0 0 2.1298488477509636 -1.8024917076832025 0 -1.8024917076832025 -3.9875972515656031 0 0 0 0 3.20466897095978 -2.227697709551034 0 -2.227697709551034 0.90675899858986497 0 0 0 0 4.1912807831158716 -6.4682448932890111 0 -6.4682448932890111 -4.8054362926304748 0 0 0 0 3.2293636172554692 -4.4281229035800855 0 -4.4281229035800855 0.98432748332076869 0 0 0 0 10.406395543546751 -11.055459733792304 0 -11.055459733792304 -1.3855501575144444 0 0 0 0 2.4251722091048578 -4.8344750976357318 0 -4.8344750976357318 0.91678426050521011 0 0 0 0 19.061410526599047 -9.4124280848300259 0 -9.4124280848300259 -5.0304061313408965 0 0 0 0 19.00497264602177 -1.8479565426141562 0 -1.8479565426141562 -29.118673946759372 0 0 0 0 -1.868929050226825 -20.008309058518535 0 -20.008309058518535 20.567331084836042 0 0 0 0 -0.18207643661509199 -1.1690352489601494 0 -1.1690352489601494 1.0040165404064312 0 0 0 0 4.8701673236109855 -4.2647980043275311 0 -4.2647980043275311 1.0102077670314884 0 0 0 0 4.835863095859505 -5.5028343989679733 0 -5.5028343989679733 3.3835219433146051 0 0 0 0 13.810789368966198 -7.5031619005840184 0 -7.5031619005840184 -12.589985920275922 0 0 0 0 13.532270473805511 -20.81523779490999 0 -20.81523779490999 -33.390791895096299 0 0 0 0 -3.0477810443584303 -31.561076270498233 0 -31.561076270498233 52.690799176556538 0 0 0 0 0.13139551234515334 -0.62196873850345824 0 -0.62196873850345824 0.18397629201683596 0 0 0 0 26.349056579288799 -26.688639134222285 0 -26.688639134222285 -9.9544041952649422 0 0 0 0 3.4890834898817502 -8.8177224078954168 0 -8.8177224078954168 -6.6444520571603789 0 0 0 0 0.47606149196644765 -1.4960630439645684 0 -1.4960630439645684 -17.249884960165218 0 0 0 0 -6.8100094411952341 -2.5183608009883756 0 -2.5183608009883756 -5.5849323553266004 0 0 0 0 -7.4329848519969346 -11.261840219272926 0 -11.261840219272926 -14.245839135643109 0 0 0 0 5.7005407325759734 -9.7677021668205271 0 -9.7677021668205271 -29.994200409389123 0 0 0 0 3.8157982768580041 -1.6963928496370499 0 -1.6963928496370499 -4.4756957089075513 0 0 0 0 -0.24682374704912036 -1.5554227240613727 0 -1.5554227240613727 -4.4276109224047104 0 0 0 0 -2.9459046635965933 -6.5281980083000235 0 -6.5281980083000235 -4.9170523023349233 0 0 0 0 8.8560470001748399 -6.1999651810838259 0 -6.1999651810838259 -4.9334807297377665 0 0 0 0 -2.3867105702163371 -9.3925413274660059 0 -9.3925413274660059 3.4833603706319991 0 0 0 0 3.7823582937962783 -9.4815750040615967 0 -9.4815750040615967 -0.45680196628018166 0 0 0 0 -0.78763016314769985 -4.1832502737050952 0 -4.1832502737050952 -4.0962929661913563 0 0 0 0 0.22884344996123218 -5.9657940316792519 0 -5.9657940316792519 -5.7113648882466634 0 0 0 0 -1.34174415447103 -4.5746811260269169 0 -4.5746811260269169 -0.044762822753909859 0 0 0 0 -1.6642568455688433 -6.6395187525668007 0 -6.6395187525668007 2.0646852916970602 0 0 0 0 4.2803164144715993 -11.09308775081081 0 -11.09308775081081 -13.581372831769841 0 0 0 0 0.99503806530773353 -1.6137275525079815 0 -1.6137275525079815 0.23963272706713301 0 0 0 0 1.8625755233682639 -7.2819816816136154 0 -7.2819816816136154 -4.8453841196096619 0 0 0 0 -1.5522709785586812 -6.3042014470984213 0 -6.3042014470984213 -1.9359708749070705 0 0 0 0 -0.28855095118304241 -4.7293653317351207 0 -4.7293653317351207 -2.8665176029848602 0 0 0 0 5.7086521952505791 -7.7086533740803134 0 -7.7086533740803134 -11.762684500306932 0 0 0 0 0.29295564004678454 -2.8758707899023648 0 -2.8758707899023648 0.98388928387794294 0 0 0 0 -6.9847989104623593 -9.9005271464566249 0 -9.9005271464566249 -3.5017692073488433 0 0 0 0 -0.92590173886674165 -1.3702642318512517 0 -1.3702642318512517 -19.03032320982129 0 0 0 0 1.2553898867045064 -12.83596135809421 0 -12.83596135809421 -5.7943260297688539 0 0 0 0 7.8252712486064411 -12.731823151589197 0 -12.731823151589197 -5.8640197251361315 0 0 0 0 -3.1795552133489764 -12.757915009713543 0 -12.757915009713543 6.1436087834063073 0 0 0 0 -0.93150008392722938 -4.2889078242856122 0 -4.2889078242856122 -3.2673494971839432 0 0 0 0 3.125678872858316 -2.1109845223618322 0 -2.1109845223618322 -5.5572264011689185 0 0 0 0 1.599093068413822 -1.7077488475933933 0 -1.7077488475933933 -5.6380729131742555 0 0 0 0 0.54165219789956609 -6.3824342413463455 0 -6.3824342413463455 13.675196939158923 0 0 0 0 0.81329800557184484 -1.3695297171893959 0 -1.3695297171893959 -2.1923303756360042 0 0 0 0 2.9245970575466345 -5.5656329845132859 0 -5.5656329845132859 -6.6273449253803847 0 0 0 0 0.76238044342380817 -3.2774040597623753 0 -3.2774040597623753 -5.0190246988604486 0 0 0 0 2.8171744690862397 -2.3763116898026055 0 -2.3763116898026055 -1.3326711601675925 0 0 0 0 3.1217559076940233 -3.8900041902343219 0 -3.8900041902343219 -4.8866502128048523 0 0 0 0 -0.55540288843937091 -0.63652828615661861 0 -0.63652828615661861 -0.36643770842416501 0 0 0 0 -3.3112615395893954 -6.7263260514127978 0 -6.7263260514127978 -2.2489359246592358 0 0 0 0 -4.0662938998100344 -3.3480616696097059 0 -3.3480616696097059 -2.456838341013281 0 0 0 0 -0.42826021408797477 0.22377111794815363 0 0.22377111794815363 0.58359485317613746 0 0 0 0 -7.5572618312862687 -5.0306301482441995 0 -5.0306301482441995 -0.0052899047823302681 0 0 0 0 15.433144283159436 2.4918655375549861 0 2.4918655375549861 -2.9861627443617635 0 0 0 0 -0.89904879971921758 -4.3819673025673431 0 -4.3819673025673431 -2.662868423211183 0 0 0 0 2.4737673446743429 -3.0399652634569065 0 -3.0399652634569065 -4.2428829116579436 0 0 0 0 -0.51286359431491224 -0.58115350099567564 0 -0.58115350099567564 -0.49061733937499596 0 0 0 0 -2.6365519761866381 -5.5887448848407075 0 -5.5887448848407075 -1.9482703722051156 0 0 0 0 0.42217376565326958 -7.1113572213052976 0 -7.1113572213052976 -1.4419639799343713 0 0 0 0 -3.4712554991712636 -4.9754779976397003 0 -4.9754779976397003 1.5594117529872165 0 0 0 0 2.2854251759140425 -4.8844360273251368 0 -4.8844360273251368 0.0066475084804575478 0 0 0 0 -1.0462201419672965 -2.4245844123252027 0 -2.4245844123252027 2.801857097246284 0 0 0 0 1.7473341415826553 -5.4320221093303189 0 -5.4320221093303189 1.9862251646736695 0 0 0 0 -0.30878470881373232 -3.3530080226355494 0 -3.3530080226355494 -0.023894050100352615 0 0 0 0 -1.23302453128872 -3.1209671798424097 0 -3.1209671798424097 0.67616472830923158 0 0 0 0 -1.8061308672110812 -10.983111844447308 0 -10.983111844447308 -22.919045666520105 0 0 0 0 0.035450532134894797 -0.38898302622245495 0 -0.38898302622245495 -0.37430476936884105 0 0 0 0 -8.7582855790045642 7.9850377913971897 0 7.9850377913971897 -1.9013349970828131 0 0 0 0 -3.8214586430694908 -2.7895480680836044 0 -2.7895480680836044 3.6260917832196355 0 0 0 0 -4.6630972139245159 -0.77854040008878655 0 -0.77854040008878655 5.9707749399567547 0 0 0 0 -0.92875239904469709 -1.9204155318857374 0 -1.9204155318857374 -0.23619899641107622 0 0 0 0 -0.91877528960142296 -3.4288137622127728 0 -3.4288137622127728 3.6223399206995808 0 0 0 0 -0.4702467690868426 -0.83235025929875661 0 -0.83235025929875661 0.38885775952839552 0 0 0 0 -2.960254316084729 -7.4191927483698237 0 -7.4191927483698237 0.51314900338593361 0 0 0 0 -1.5955844167507323 -7.8816170899247027 0 -7.8816170899247027 0.15902212399669224 0 0 0 0 -6.0163240365983484 -4.6206926060408477 0 -4.6206926060408477 20.995877019202453 0 0 0 0 -14.737590901402541 -20.867740297759156 0 -20.867740297759156 19.537329836710342 0 0 0 0 0.48038342813424606 -12.754256860142959 0 -12.754256860142959 8.5709006247670914 0 0 0 0 -3.971918198381843 -23.901345170762852 0 -23.901345170762852 5.0901226660971588 0 0 0 0 -12.346025828815485 -61.935711697313081 0 -61.935711697313081 -2.7473362954115146 0 0 0 0 -15.284518559243097 -41.075630061556694 0 -41.075630061556694 -51.938937930635802 0 0 0 0 0.15885109779921655 -0.93274800988562845 0 -0.93274800988562845 0.0030501428821523291 0 0 0 0 8.3054603617030125 -40.744244504294329 0 -40.744244504294329 165.15119007583689 0 0 0 0 -0.26960490354084654 -0.71894703110605285 0 -0.71894703110605285 0.681252582927101 0 0 0 0 -2.7784024756618706 -10.424284565996004 0 -10.424284565996004 9.5473215363235795 0 0 0 0 -21.929176728273774 -23.542950856213793 0 -23.542950856213793 98.156996555464502 0 0 0 0 1.9028091601226151 26.0639777377055 0 26.0639777377055 36.139403812005185 0 0 0 0 -1.3687531375208217 -2.7138881661383216 0 -2.7138881661383216 4.1930889587944371 0 0 0 0 -0.15955956671774771 -1.6181177404929992 0 -1.6181177404929992 -2.5855286862652278 0 0 0 0 4.9576747676553623 -12.781168207069641 0 -12.781168207069641 2.7302854293675409 0 0 0 0 -116.72612433628484 -31.711689272243348 0 -31.711689272243348 55.061803198292182 0 0 0 0 -63.834478272045509 -7.313408885980607 0 -7.313408885980607 -90.76776995115506 0 0 0 0 -13.062805033441578 3.7893508788783947 0 3.7893508788783947 11.57432052000695 0 0 0 0 -10.378930276500284 -4.1522502678335513 0 -4.1522502678335513 15.549179977129825 0 0 0 0 -31.142642884198096 -24.833634151234946 0 -24.833634151234946 0.036094758808758343 0 0 0 0 50.743506146016472 -32.313469888035797 0 -32.313469888035797 -43.609064602349463 0 0 0 0 -0.28274623697407847 -0.20366584256321474 0 -0.20366584256321474 -0.75340154787375724 0 0 0 0 -120.49677202817716 -155.79377984591883 0 -155.79377984591883 -0.048641744719134294 0 0 0 0 -307.88684389428749 -43.408213377178072 0 -43.408213377178072 116.06763393162692 0 0 0 0 88.00371739795348 -1.7098625881671978 0 -1.7098625881671978 -36.943871863373715 0 0 0 0 229.01923371283578 -175.26827319310269 0 -175.26827319310269 -0.077443241987553799 0 0 0 0 -241.33938339324595 -198.08788426252158 0 -198.08788426252158 272.73960358176919 0 0 0 0 -0.17883817781545513 -0.90406072681665695 0 -0.90406072681665695 -0.98423988690751685 0 0 0 0 67.853574375601283 -227.49174787367701 0 -227.49174787367701 -2.0225522740911401 0 0 0 0 48.378961167085677 -100.01924878220154 0 -100.01924878220154 -32.991619909924339 0 0 0 0 47.556967999421914 -103.74661063634028 0 -103.74661063634028 -5.9430739335875842 0 0 0 0 0.24803132428276253 -0.98892517113043432 0 -0.98892517113043432 1.4880907460009354 0 0 0 0 53.199202221762405 -66.746659354785152 0 -66.746659354785152 -77.919965430737648 0 0 0 0 52.867716351946441 -67.568617292193949 0 -67.568617292193949 2.0635518289418542 0 0 0 0 -65.988390640508271 -76.138537223867459 0 -76.138537223867459 101.59154790595676 0 0 0 0 -152.31617500869106 -73.603745518162214 0 -73.603745518162214 -12.819372246922285 0 0 0 0 -155.29535121456661 -80.224922030202833 0 -80.224922030202833 -17.304413141464465 0 0 0 0 -237.13770816953206 -80.114524647071448 0 -80.114524647071448 4.5358862006069103 0 0 0 0 -65.386391858879506 -248.92030218532318 0 -248.92030218532318 125.91997393374913 0 0 0 0 -0.55467951565156048 -0.064556700358583186 0 -0.064556700358583186 0.42982053345112092 0 0 0 0 -203.81533726219789 -90.785991675458718 0 -90.785991675458718 -0.058193058030155953 0 0 0 0 -227.30652341240625 -83.176103605836033 0 -83.176103605836033 -38.500407103929319 0 0 0 0 -205.78237293045595 -55.014069003815166 0 -55.014069003815166 -35.591139511911024 0 0 0 0 -181.1726440957641 -84.650216825448297 0 -84.650216825448297 -13.794404501628378 0 0 0 0 -166.60332501168295 -87.128143208492475 0 -87.128143208492475 -52.714135090386662 0 0 0 0 -135.41685585023379 -83.856647640923256 0 -83.856647640923256 -24.752194272456109 0 0 0 0 -163.92538897377381 -97.564090531108377 0 -97.564090531108377 -19.770149784219029 0 0 0 0 -153.57201036004653 -71.940979668420368 0 -71.940979668420368 -34.041098918260104 0 0 0 0 -191.65194917159533 -103.02689866587571 0 -103.02689866587571 -17.912812455306266 0 0 0 0 -139.47099079616351 -97.182904745197447 0 -97.182904745197447 -14.163093702765764 0 0 0 0 -152.80253502681035 -99.837861295526636 0 -99.837861295526636 -18.245678185721772 0 0 0 0 -177.80468205389798 -76.241357974254242 0 -76.241357974254242 -13.031547387246974 0 0 0 0 0.51893726234517867 -2.2718199663834078 0 -2.2718199663834078 4.0137631111110537 0 0 0 0 -194.38191026946646 -68.912362348471248 0 -68.912362348471248 22.577124583032855 0 0 0 0 -259.39318292691485 -97.330310631386055 0 -97.330310631386055 -33.979081749674151 0 0 0 0 -0.47042819275596814 -0.071111929054037404 0 -0.071111929054037404 0.41135363295121863 0 0 0 0 -192.28185396471738 -154.20705460937992 0 -154.20705460937992 -19.72391202221479 0 0 0 0 -294.89174946516823 -91.079146671540002 0 -91.079146671540002 11.160759167847573 0 0 0 0 -92.531938233037408 -123.47663215094872 0 -123.47663215094872 -61.354054593502951 0 0 0 0 -198.37786855951231 -45.207451242642492 0 -45.207451242642492 -21.48085323127998 0 0 0 0 -215.31042621289134 -10.587096750861747 0 -10.587096750861747 -50.198010173793591 0 0 0 0 -120.72978125427142 -65.723076100545768 0 -65.723076100545768 -141.23595985676366 0 0 0 0 -141.52024358686094 -86.603322814915373 0 -86.603322814915373 -96.234865279848236 0 0 0 0 -143.96716247533823 -105.88700245212203 0 -105.88700245212203 -24.402753866783314 0 0 0 0 -145.07962311496522 -82.85323476899066 0 -82.85323476899066 -34.871425707344315 0 0 0 0 133.25728576996812 -101.26944270837157 0 -101.26944270837157 -38.062916438915636 0 0 0 0 -0.34715286059710787 -1.6784674109860465 0 -1.6784674109860465 -1.9338285904488117 0 0 0 0 213.80691461342826 -139.63756685272892 0 -139.63756685272892 -47.680116670344432 0 0 0 0 85.309903989612764 -91.098552420662145 0 -91.098552420662145 72.595997796255688 0 0 0 0 144.48163767003905 -43.8015214220286 0 -43.8015214220286 -62.642532729951199 0 0 0 0 50.329463737796914 -119.32000226218588 0 -119.32000226218588 -32.164966684893443 0 0 0 0 -45.818285359530819 -3.3442442752602801 0 -3.3442442752602801 -61.37432250770371 0 0 0 0 -9.1489527042654117 -53.402219616053117 0 -53.402219616053117 -20.194182556037958 0 0 0 0 -42.02858365047507 -125.10525029588644 0 -125.10525029588644 -39.048128933016415 0 0 0 0 80.599091623197864 -112.16048614893634 0 -112.16048614893634 -21.560566344222025 0 0 0 0 99.42078516251604 -18.147006774797774 0 -18.147006774797774 -13.899009500516058 0 0 0 0 -40.001609290378383 -49.025806536007622 0 -49.025806536007622 -22.984318586277368 0 0 0 0 13.075795664558655 -13.009060043892532 0 -13.009060043892532 -31.809002959519148 0 0 0 0 18.935789532210947 -85.968890003777233 0 -85.968890003777233 -47.810024205919035 0 0 0 0 -0.11064632846584169 -0.67573938564545966 0 -0.67573938564545966 -1.0063074331592361 0 0 0 0 254.80895615613645 -18.971903325191761 0 -18.971903325191761 -69.597000689926972 0 0 0 0 -106.54302764599062 -27.528228142316038 0 -27.528228142316038 170.97304538855133 0 0 0 0 97.521980172199818 -12.27048476138043 0 -12.27048476138043 60.767932667862624 0 0 0 0 150.70154216335459 -51.923472005091753 0 -51.923472005091753 -60.988494194285522 0 0 0 0 198.90268292204672 -100.26050263273828 0 -100.26050263273828 -55.352670320547986 0 0 0 0 -38.732576247654947 -81.278041262697116 0 -81.278041262697116 145.29965570898457 0 0 0 0 129.32349049712712 51.804765254809354 0 51.804765254809354 158.29201947163142 0 0 0 0 3.3866142811353939 -133.89738856335134 0 -133.89738856335134 206.49223852055911 0 0 0 0 154.90888443076005 -158.13050130404372 0 -158.13050130404372 97.334851194518706 0 0 0 0 54.553075411440432 -46.809263043961437 0 -46.809263043961437 -24.095495685778587 0 0 0 0 148.46882650784681 -66.904284715074596 0 -66.904284715074596 -50.260382220974861 0 0 0 0 -38.093767336743952 -122.18622140632579 0 -122.18622140632579 -21.686861361391493 0 0 0 0 -279.22196033852094 -132.17825313981893 0 -132.17825313981893 50.019160278781783 0 0 0 0 -119.49735221292417 -111.84724446656492 0 -111.84724446656492 -58.679873412243069 0 0 0 0 -61.053508768424877 -17.268814810534423 0 -17.268814810534423 20.899895994205963 0 0 0 0 0.48875515086949672 -2.2960429675940102 0 -2.2960429675940102 4.4448727579549612 0 0 0 0 -181.49695210681875 -133.33499821256373 0 -133.33499821256373 -18.294149200653919 0 0 0 0 -155.6894051445579 -73.797026402315851 0 -73.797026402315851 -30.165968963721753 0 0 0 0 74.160719161042152 -120.51359954915279 0 -120.51359954915279 -40.536798961775276 0 0 0 0 0.058434566880033678 -0.82428905952943055 0 -0.82428905952943055 2.0953433964330728 0 0 0 0 -226.07024196089912 -64.401564604652322 0 -64.401564604652322 153.71952990651516 0 0 0 0 -167.41099549364048 20.607638693004446 0 20.607638693004446 125.35674049077898 0 0 0 0 -60.423989034497254 -7.4428981802057024 0 -7.4428981802057024 108.64258532675922 0 0 0 0 -95.951492490292338 -45.345377998333561 0 -45.345377998333561 70.260503593184694 0 0 0 0 -80.46442410846231 -92.065681388102348 0 -92.065681388102348 155.43706879833553 0 0 0 0 35.178180193342541 -89.323343641591237 0 -89.323343641591237 -19.021099621884787 0 0 0 0 -50.731617245386474 12.981851088121402 0 12.981851088121402 26.866167307190153 0 0 0 0 -27.959889541275857 -22.904877929146096 0 -22.904877929146096 -20.011933912683162 0 0 0 0 43.680502303278047 64.204141176976918 0 64.204141176976918 67.693746497810935 0 0 0 0 66.368193779481999 -75.34029835167712 0 -75.34029835167712 78.7242737446104 0 0 0 0 44.290014563881869 14.674267832318947 0 14.674267832318947 5.9890369232689409 0 0 0 0 52.575356884251718 -1.1580339641436694 0 -1.1580339641436694 191.98775030819888 0 0 0 0 180.55847731422634 -201.72711111168337 0 -201.72711111168337 246.50597920525615 0 0 0 0 -61.346137450502525 -24.653761561559776 0 -24.653761561559776 155.71960395007591 0 0 0 0 -48.182443527416126 -55.162306937917947 0 -55.162306937917947 -121.6377989616667 0 0 0 0 -1.1682268695492599 -1.7768178024309123 0 -1.7768178024309123 0.082707083843818197 0 0 0 0 -232.13252194888582 14.311061701782364 0 14.311061701782364 4.7000816401050542 0 0 0 0 -2.1752269842217569 -1.4517596274860907 0 -1.4517596274860907 -0.51802161909211186 0 0 0 0 -198.67549985104779 -111.25743927768963 0 -111.25743927768963 330.91581616731128 0 0 0 0 -14.074855240735928 -160.24999442419289 0 -160.24999442419289 -466.81571562529643 0 0 0 0 -24.738861986114216 -44.177247644813178 0 -44.177247644813178 -211.71298244889476 0 0 0 0 6.7494871514493298 39.916252479852119 0 39.916252479852119 -35.944748456280195 0 0 0 0 -93.127614241333049 -154.05735873731192 0 -154.05735873731192 116.34838293001485 0 0 0 0 -106.10148341079093 -219.14948089741756 0 -219.14948089741756 -208.73839807478589 0 0 0 0 10.357213245858475 -213.65624310220119 0 -213.65624310220119 18.026312980609873 0 0 0 0 -57.821249657078397 -119.02383273687883 0 -119.02383273687883 -35.768580277816 0 0 0 0 -65.787902408634181 -141.07328923054774 0 -141.07328923054774 32.157969328270156 0 0 0 0 -45.443378151330762 -181.01493984643821 0 -181.01493984643821 0.1526463390164281 0 0 0 0 63.042703728369816 -119.11284089414403 0 -119.11284089414403 34.717929206663939 0 0 0 0 -37.931246518558908 -151.9843671990277 0 -151.9843671990277 84.480973148643898 0 0 0 0 -0.20452902204624479 -44.453993234511472 0 -44.453993234511472 168.10888078621883 0 0 0 0 -0.77614817087503951 -0.49914019382195463 0 -0.49914019382195463 0.64268296332331332 0 0 0 0 -4.718652954709853 -16.561699144318709 0 -16.561699144318709 6.3020238105800672 0 0 0 0 54.106726152769113 -86.368496716480195 0 -86.368496716480195 -4.8512102396489354 0 0 0 0 65.127276731647726 -59.039708506979878 0 -59.039708506979878 29.247154218942342 0 0 0 0 316.24002083186269 -82.39772306044506 0 -82.39772306044506 -27.295375185396551 0 0 0 0 6.5031588194076448 -96.198439589923055 0 -96.198439589923055 14.266441880041384 0 0 0 0 -25.418945669204732 -140.89709233508438 0 -140.89709233508438 43.26713672220103 0 0 0 0 79.925660580338445 -189.05153175912892 0 -189.05153175912892 3.177159990716973 0 0 0 0 -39.471403127671238 -156.85966318706869 0 -156.85966318706869 0.4016572299475456 0 0 0 0 -137.18143154777965 -93.148275821281914 0 -93.148275821281914 -8.7710919288401783 0 0 0 0 -105.24188992346444 -82.968334987748676 0 -82.968334987748676 -18.8816502312784 0 0 0 0 -71.279346099073337 -103.29520301430057 0 -103.29520301430057 7.8170394736780509 0 0 0 0 -25.356345623546076 -130.59521559389214 0 -130.59521559389214 -6.5083703777690971 0 0 0 0 -21.15113792156194 -124.3823883625746 0 -124.3823883625746 -10.800729816781313 0 0 0 0 -58.751657672761212 -97.231352318602148 0 -97.231352318602148 -8.836337077201506 0 0 0 0 -69.112994494528948 -105.50856050178891 0 -105.50856050178891 -26.295769071643008 0 0 0 0 -95.185376760263352 -82.355770341164316 0 -82.355770341164316 -20.021670561307474 0 0 0 0 -117.71600999924976 -82.396796885821459 0 -82.396796885821459 -24.786745729121321 0 0 0 0 -113.13799136223815 -99.648579998378409 0 -99.648579998378409 -9.8273177881219453 0 0 0 0 -105.6894030266003 -84.848347278697474 0 -84.848347278697474 -26.321234021903365 0 0 0 0 -137.48245640677192 -94.440873860008651 0 -94.440873860008651 -11.005359084309021 0 0 0 0 -126.38537924185403 -99.967345622162156 0 -99.967345622162156 -18.019863270157657 0 0 0 0 -102.80200853935094 -97.447271923811059 0 -97.447271923811059 -15.581001834176277 0 0 0 0 -65.07580518771988 -108.09860020507222 0 -108.09860020507222 -25.328294571587321 0 0 0 0 -66.824575047394035 -111.34749741728922 0 -111.34749741728922 -20.834400309742705 0 0 0 0 -63.672719313320613 -98.787701834893028 0 -98.787701834893028 -24.801799713597575 0 0 0 0 -114.98594084624256 -104.82684559581867 0 -104.82684559581867 -0.0027650591164030914 0 0 0 0 -60.824764918145775 -138.89464260745717 0 -138.89464260745717 -10.754649219126804 0 0 0 0 -4.8990619278040413 -120.65510118941438 0 -120.65510118941438 -25.645762620159076 0 0 0 0 -50.536637329850691 -129.83594417714176 0 -129.83594417714176 -0.04808229185800883 0 0 0 0 -65.36889836759633 -147.64955093366098 0 -147.64955093366098 -12.260447434557136 0 0 0 0 -83.308860069644425 -136.6948609560136 0 -136.6948609560136 0.0096169574135274161 0 0 0 0 -121.70250131917282 -153.80852427635909 0 -153.80852427635909 3.3270660654825406 0 0 0 0 -69.067178258676677 -159.6823333816485 0 -159.6823333816485 -10.090584735455195 0 0 0 0 -120.83356741797741 -109.92286177440585 0 -109.92286177440585 -5.7418612116380245 0 0 0 0 -76.892938043296454 -137.49778476936535 0 -137.49778476936535 0.030183844030056528 0 0 0 0 -44.6890825686055 -116.10331347503507 0 -116.10331347503507 -27.811869657170973 0 0 0 0 -17.434498205433783 -151.73641679970842 0 -151.73641679970842 -0.10162258052150719 0 0 0 0 -60.445577942085492 -106.37046149492289 0 -106.37046149492289 -16.432524061408913 0 0 0 0 -59.52791284117211 -114.87288284094848 0 -114.87288284094848 -27.562965095156869 0 0 0 0 58.6869555172334 -65.230564797401712 0 -65.230564797401712 -39.871737151808702 0 0 0 0 136.41570994406266 -42.488718437791249 0 -42.488718437791249 25.800896479966468 0 0 0 0 -19.793001581414501 -138.64491819672548 0 -138.64491819672548 -0.70651611517087076 0 0 0 0 -58.091344750700046 -71.627967892012748 0 -71.627967892012748 -31.31136229913136 0 0 0 0 -186.0083233811979 -148.4414281421632 0 -148.4414281421632 -34.163534374367373 0 0 0 0 -270.70513999723516 -67.346287901315009 0 -67.346287901315009 -34.491119763663278 0 0 0 0 -560.21947083072121 -207.77974293233274 0 -207.77974293233274 22.343769768101993 0 0 0 0 0.1300748920695618 -0.96722511590657057 0 -0.96722511590657057 -0.090857847518172719 0 0 0 0 -210.30739225857906 -213.71229257236701 0 -213.71229257236701 -28.622262434137156 0 0 0 0 -158.27347919593285 -58.332078568681936 0 -58.332078568681936 -23.430179140274049 0 0 0 0 -18.430326910631265 -87.898308339602409 0 -87.898308339602409 -182.18528093608347 0 0 0 0 -119.09976768523484 -164.52814752431186 0 -164.52814752431186 -96.901725029194495 0 0 0 0 -74.055229376366697 -105.68360835828571 0 -105.68360835828571 -27.263694788995053 0 0 0 0 -0.14082559910658787 -0.9337575919418768 0 -0.9337575919418768 -0.2749786345022418 0 0 0 0 14.584686124624568 -107.79063943799883 0 -107.79063943799883 0.1467105767060275 0 0 0 0 -66.81859062678086 -120.56063842289404 0 -120.56063842289404 174.23102150460181 0 0 0 0 -80.109388132561435 -186.25040676486969 0 -186.25040676486969 89.381174545584145 0 0 0 0 -59.865489722295024 -188.87543834539429 0 -188.87543834539429 -33.544154468591842 0 0 0 0 -74.634022303191387 -202.26325876036162 0 -202.26325876036162 -16.781024839259771 0 0 0 0 -148.41673633265054 -183.4558762485749 0 -183.4558762485749 -28.279207055786173 0 0 0 0 -130.17642737836286 -161.1570854544716 0 -161.1570854544716 -28.063415351156436 0 0 0 0 -70.556431063281707 -228.05950428570031 0 -228.05950428570031 -46.239057634251367 0 0 0 0 -71.444563275348628 -189.82793859032245 0 -189.82793859032245 0.0355434202356264 0 0 0 0 -57.828365856608343 -180.00172855706433 0 -180.00172855706433 -13.531360776109068 0 0 0 0 -43.048516377378292 -187.60613403536718 0 -187.60613403536718 -49.963804605488804 0 0 0 0 11.192674609965252 -177.25516038786736 0 -177.25516038786736 -48.093785450386349 0 0 0 0 13.306223304522064 -192.96645739152882 0 -192.96645739152882 -30.003900742253791 0 0 0 0 59.746952836108363 -176.2892888881359 0 -176.2892888881359 -58.868150042704656 0 0 0 0 433.23679461535266 -103.11221466933011 0 -103.11221466933011 -8.3483244486815238 0 0 0 0 139.3904068232423 -24.707439331546993 0 -24.707439331546993 98.3472156548778 0 0 0 0 374.7721207947252 -193.46900625379567 0 -193.46900625379567 -45.612936027373962 0 0 0 0 0.38020498013460013 -0.98745614249300928 0 -0.98745614249300928 -0.076487563584478835 0 0 0 0 -574.49227606740988 -293.51567979326228 0 -293.51567979326228 -30.23999268172156 0 0 0 0 -302.12875380121568 -155.47010000619184 0 -155.47010000619184 -125.11454095062072 0 0 0 0 21.781245944637249 -210.46039699794937 0 -210.46039699794937 -55.133895992139514 0 0 0 0 -245.46792101096253 -294.85766683313341 0 -294.85766683313341 -67.966149305309955 0 0 0 0 -200.46253895681821 -129.04681689717108 0 -129.04681689717108 -38.358207267205216 0 0 0 0 -164.98510356123734 -154.32812558387741 0 -154.32812558387741 -20.837381809424187 0 0 0 0 -284.58271617795799 -197.99075522546082 0 -197.99075522546082 -67.163428812227721 0 0 0 0 -172.58795494742299 -178.11194689870354 0 -178.11194689870354 -105.06600354654256 0 0 0 0 -171.32126108390548 -144.00126039392796 0 -144.00126039392796 -26.588749116865074 0 0 0 0 -106.53616877560307 -155.98385796268667 0 -155.98385796268667 -74.249493252929824 0 0 0 0 -115.12922295133774 -119.16880575461812 0 -119.16880575461812 9.8250675543858961 0 0 0 0 -118.99445591448602 -145.88350586628621 0 -145.88350586628621 -44.308469383629927 0 0 0 0 -147.17427662197042 -119.83232884220524 0 -119.83232884220524 -16.244330477367839 0 0 0 0 -106.05793178889871 -138.75810204196841 0 -138.75810204196841 -28.791452082678006 0 0 0 0 -102.28511225495754 -237.64220391913625 0 -237.64220391913625 -118.04708410602871 0 0 0 0 -131.29996044492054 -210.73248771923318 0 -210.73248771923318 -142.45346644334859 0 0 0 0 -101.7233646520308 -235.87916163199588 0 -235.87916163199588 -126.18016466908375 0 0 0 0 -165.04051169138074 -226.21824854844817 0 -226.21824854844817 -104.24747123857014 0 0 0 0 -112.83110006272273 -257.1233267793059 0 -257.1233267793059 -87.750565023958188 0 0 0 0 -178.84540195522459 -189.89490998389374 0 -189.89490998389374 -31.003754068400667 0 0 0 0 -181.30739107854629 -210.36184104210918 0 -210.36184104210918 -116.28536741986318 0 0 0 0 -268.42995469436573 -191.23635846500474 0 -191.23635846500474 -90.243749201534229 0 0 0 0 -232.24315646966534 -232.37684429735782 0 -232.37684429735782 -109.47530013390315 0 0 0 0 -318.86370489665569 -144.79316439614013 0 -144.79316439614013 -62.791581068093365 0 0 0 0 -168.85916572189853 -194.55243085045186 0 -194.55243085045186 -119.67822579546919 0 0 0 0 -138.61804206174565 -209.77489085100933 0 -209.77489085100933 -112.95992450432641 0 0 0 0 -204.61165236335 -124.85881776959923 0 -124.85881776959923 -74.365110236387409 0 0 0 0 10.896372230732595 -28.441673408241513 0 -28.441673408241513 -23.313753114891824 0 0 0 0 10.521649524459463 27.113250357521792 0 27.113250357521792 -3.1758592279952609 0 0 0 0 132.67818087407613 70.725918357937189 0 70.725918357937189 49.098616885878073 0 0 0 0 19.537034571823824 9.4035195506712626 0 9.4035195506712626 19.045743786944513 0 0 0 0 -391.43394971825228 -240.90842014774853 0 -240.90842014774853 -78.870472594531748 0 0 0 0 7.2727993525325871 -50.578754755448585 0 -50.578754755448585 24.658143407999887 0 0 0 0 1.0696819766135937 -2.1141706767153643 0 -2.1141706767153643 -1.243441383076302 0 0 0 0 -279.07234153855234 -224.73809947845712 0 -224.73809947845712 -148.22430320296917 0 0 0 0 422.87782746438893 -151.02950270961173 0 -151.02950270961173 -2.3636607686894422 0 0 0 0 346.21142288375722 88.09002845996838 0 88.09002845996838 -5.9102347203261161 0 0 0 0 1.6908642402070591 -1.192326553491494 0 -1.192326553491494 1.0664942658149599 0 0 0 0 113.67048517807598 -101.03565879348207 0 -101.03565879348207 -0.9320668301643309 0 0 0 0 231.83305866957107 7.0376971947289348 0 7.0376971947289348 -41.341775277600391 0 0 0 0 189.40928948436158 -109.20820462618622 0 -109.20820462618622 -59.405217426552554 0 0 0 0 48.930615475301238 -112.00412199616039 0 -112.00412199616039 -45.359978421572123 0 0 0 0 103.87421195457659 -92.505502657484385 0 -92.505502657484385 -77.632316881481529 0 0 0 0 101.10578046923183 -40.907317137392965 0 -40.907317137392965 -58.829258268360718 0 0 0 0 94.583258229282364 -54.223243298562011 0 -54.223243298562011 -43.214693861053092 0 0 0 0 85.056331265368499 -58.60806003900143 0 -58.60806003900143 -42.084159167254256 0 0 0 0 35.576787851348854 -93.324343240681628 0 -93.324343240681628 -43.063794363686611 0 0 0 0 2.074987870028508 -189.38343957769121 0 -189.38343957769121 -64.326389068042772 0 0 0 0 -50.756947415672585 -210.08522912193484 0 -210.08522912193484 -408.09706549284965 0 0 0 0 -0.47797114225410731 -0.44991822458217712 0 -0.44991822458217712 -0.32589957518631341 0 0 0 0 -85.851551183139236 -69.479071995097911 0 -69.479071995097911 122.88628580866339 0 0 0 0 117.44423705075133 -183.29016986079932 0 -183.29016986079932 -747.13852462581963 0 0 0 0 -9.7493321833171649 -89.419548193192895 0 -89.419548193192895 122.36995275035224 0 0 0 0 29.761884461576301 -132.34497106792605 0 -132.34497106792605 47.600937826733571 0 0 0 0 41.785068150096777 37.551662992675119 0 37.551662992675119 31.678199713507638 0 0 0 0 2.1061518149635958 -13.1007618059175 0 -13.1007618059175 18.512144993850598 0 0 0 0 -0.32208946375568814 -0.57823848870298278 0 -0.57823848870298278 -0.44373084569169696 0 0 0 0 -24.633125750632644 -49.674252828517638 0 -49.674252828517638 23.365635881262278 0 0 0 0 12.555894448250911 -22.954118293277133 0 -22.954118293277133 7.5982514558345429 0 0 0 0 -23.930862830797196 -34.254240612317517 0 -34.254240612317517 -543.18251808632886 0 0 0 0 -14.381948419402761 -173.07825269260502 0 -173.07825269260502 -439.87748653459494 0 0 0 0 -78.886372473528354 -168.71232231836257 0 -168.71232231836257 -342.28776150119302 0 0 0 0 2.2935148607468978 -4.1807639555078495 0 -4.1807639555078495 3.1001985250177739 0 0 0 0 29.122892814359602 -11.966658604517761 0 -11.966658604517761 -2.7980715011617576 0 0 0 0 14.353337942359758 -6.0483126360877577 0 -6.0483126360877577 -3.8338413496021531 0 0 0 0 24.890449439187478 -17.427951434813281 0 -17.427951434813281 5.4087402577388275 0 0 0 0 24.502770186990347 -20.128125932187686 0 -20.128125932187686 4.4591431039516465 0 0 0 0 51.848056236667617 -63.121680742355238 0 -63.121680742355238 12.588312777386818 0 0 0 0 27.796429386142336 -37.573646243694384 0 -37.573646243694384 -11.994517743958568 0 0 0 0 30.475336706618691 -23.775868394586723 0 -23.775868394586723 -2.4482128872987232 0 0 0 0 110.32329538841259 -0.62704876304451318 0 -0.62704876304451318 -15.20081208375268 0 0 0 0 43.345284465416626 -21.209151648647094 0 -21.209151648647094 -18.465286712180387 0 0 0 0 66.361913184905461 -30.74972476201674 0 -30.74972476201674 -14.708234244324558 0 0 0 0 39.954915688356778 -24.0219767253584 0 -24.0219767253584 -5.7046873979270458 0 0 0 0 3.309883462676785 -2.4797529098842297 0 -2.4797529098842297 -3.6450934674230453 0 0 0 0 -119.05993564211713 -126.88902561995474 0 -126.88902561995474 -98.687887329011573 0 0 0 0 -113.3269988545735 -114.77482483524818 0 -114.77482483524818 -73.889027522796823 0 0 0 0 16.877026678355833 -2.067460799094988 0 -2.067460799094988 -41.666574326796763 0 0 0 0 -6.359815216745119 -144.16570102336118 0 -144.16570102336118 -467.49468377921949 0 0 0 0 5.159806748355507 -4.6439637077181466 0 -4.6439637077181466 -1.2232019964421994 0 0 0 0 -5.2950511782000831 -6.0068197577784304 0 -6.0068197577784304 21.962486633766275 0 0 0 0 -15.448323353419255 -1.3662855499078432 0 -1.3662855499078432 11.274752022856774 0 0 0 0 -2.5375846041917143 -2.1591353284855188 0 -2.1591353284855188 -0.18413861912281249 0 0 0 0 -18.722795436265187 38.146009643975049 0 38.146009643975049 -94.949215508408088 0 0 0 0 -157.69815434600605 -127.71067450503324 0 -127.71067450503324 -220.59736846540181 0 0 0 0 -103.14674718455717 -111.59085761320966 0 -111.59085761320966 -391.89672522390993 0 0 0 0 -29.29499435138132 -144.74200674385793 0 -144.74200674385793 -394.34346095625051 0 0 0 0 0.15797692395191909 -0.8868749047611999 0 -0.8868749047611999 -0.71559062950229446 0 0 0 0 2.21692047463437 -4.4328178253281383 0 -4.4328178253281383 -3.8650275627538733 0 0 0 0 6.4835233930671325 -2.9289824284043711 0 -2.9289824284043711 -5.5875434542689391 0 0 0 0 1.1369130317285325 -3.6680836469482259 0 -3.6680836469482259 -3.742166663741866 0 0 0 0 2.360346457673586 -6.6823182598545827 0 -6.6823182598545827 -7.9211512523615966 0 0 0 0 -2.9236346389843675 -7.551717744256166 0 -7.551717744256166 -3.8205277903980459 0 0 0 0 2.5514775455551622 -5.0529576079838527 0 -5.0529576079838527 -0.41167924769367659 0 0 0 0 -0.42827196368353171 -7.3175437070770961 0 -7.3175437070770961 -0.01001454815707592 0 0 0 0 0.49138525829403079 -7.1317075349979859 0 -7.1317075349979859 -5.4466823731781915 0 0 0 0 1.161670838381081 -4.5265343025598135 0 -4.5265343025598135 -0.023797495283189973 0 0 0 0 6.5313423179465282 -5.8252153206065636 0 -5.8252153206065636 0.26036850039930393 0 0 0 0 23.119559802165895 -20.065391096575695 0 -20.065391096575695 -15.959428209163889 0 0 0 0 -55.455165792476691 -51.811716016637547 0 -51.811716016637547 -90.129151291359449 0 0 0 0 -1.7706339267706426 -5.0196843292096673 0 -5.0196843292096673 -7.0929934215982939 0 0 0 0 6.241253955369757 -3.9058275862862502 0 -3.9058275862862502 -195.6137059277371 0 0 0 0 -23.207314852702666 -189.35205921616011 0 -189.35205921616011 -345.84147761814165 0 0 0 0 -4.426540064285291 -86.887171488876902 0 -86.887171488876902 -171.60546321729998 0 0 0 0 -34.309204235132711 -147.3218455307051 0 -147.3218455307051 -126.5876540602485 0 0 0 0 -57.366076064577101 -173.09325179909047 0 -173.09325179909047 -155.33673732180978 0 0 0 0 -166.61158141371106 -151.01941449624246 0 -151.01941449624246 -51.023047945553117 0 0 0 0 -137.49895622617578 -145.45893505251934 0 -145.45893505251934 -87.13150008406592 0 0 0 0 0.64779975705092152 -2.354000462652289 0 -2.354000462652289 -0.96209887755370005 0 0 0 0 -341.81558042954339 -184.75506845102882 0 -184.75506845102882 -39.113625622965515 0 0 0 0 -216.07282244108205 -93.950916935349596 0 -93.950916935349596 -31.057574607388233 0 0 0 0 -171.05750459535216 -181.67128225070155 0 -181.67128225070155 22.610610337982507 0 0 0 0 -41.039720498804854 -149.71179396020125 0 -149.71179396020125 69.640259537794918 0 0 0 0 108.38978875532757 -161.5775356350714 0 -161.5775356350714 -3.2035928348072957 0 0 0 0 106.3436119286398 -144.76656360058041 0 -144.76656360058041 185.02385704938661 0 0 0 0 124.41313242751608 -169.54767818947255 0 -169.54767818947255 -56.726159153815388 0 0 0 0 -118.46421116684542 -185.83809312102858 0 -185.83809312102858 -5.7648732148072668 0 0 0 0 -41.203394397192824 -144.5398796151303 0 -144.5398796151303 -38.561879183844212 0 0 0 0 -90.606746077483876 -130.18613753394311 0 -130.18613753394311 -167.58107817808923 0 0 0 0 -30.639154232495457 -196.72339496198674 0 -196.72339496198674 -99.725672920498255 0 0 0 0 46.164132971907748 -222.97455915895807 0 -222.97455915895807 -195.73666812094234 0 0 0 0 56.722569627273515 -123.59234507614201 0 -123.59234507614201 -140.16706681897631 0 0 0 0 -40.83844397365101 -162.58778568769503 0 -162.58778568769503 -42.189306513370866 0 0 0 0 -53.539594848532943 -128.96018555045612 0 -128.96018555045612 -260.71179272276186 0 0 0 0 -15.893290025357601 -208.15336618472975 0 -208.15336618472975 -298.86516783757179 0 0 0 0 2.5348209341864223 -2.2736940548967439 0 -2.2736940548967439 1.2108583122017542 0 0 0 0 6.2979543119026857 -6.1021995798364514 0 -6.1021995798364514 -17.830322765053097 0 0 0 0 2.4331186576181629 -4.1064005794695966 0 -4.1064005794695966 0.71577221324333351 0 0 0 0 -134.12762644898112 -124.8971242669204 0 -124.8971242669204 -126.19250929548434 0 0 0 0 -101.16929832760172 -166.31050650445513 0 -166.31050650445513 -82.763994737621033 0 0 0 0 1.4939050596369965 -3.3803553320660651 0 -3.3803553320660651 -3.1391875477722522 0 0 0 0 1.81912424567372 -14.252234812847746 0 -14.252234812847746 6.8391363636155802 0 0 0 0 -180.03093192042161 -145.37109362936462 0 -145.37109362936462 -51.906847108321017 0 0 0 0 21.597036065630164 -117.03907101615277 0 -117.03907101615277 -176.94999760234896 0 0 0 0 1.1089427381594659 -1.8387437457356608 0 -1.8387437457356608 -6.323888569833592 0 0 0 0 -153.83264560655243 -80.974615692591215 0 -80.974615692591215 12.566907352682392 0 0 0 0 -169.1132967099561 -169.99008999137186 0 -169.99008999137186 -19.053747778110846 0 0 0 0 -236.66214455367799 -160.07092389316585 0 -160.07092389316585 -51.068741417937872 0 0 0 0 0.42512276276710281 -1.3392834948375256 0 -1.3392834948375256 -3.4215963404651006 0 0 0 0 21.670831438011078 -15.655339490398092 0 -15.655339490398092 6.4406955187077983 0 0 0 0 0.028717528030938411 0.059654738007338892 0 0.059654738007338892 -1.3354884631517052 0 0 0 0 12.309180102484561 -17.120141126929866 0 -17.120141126929866 -26.643250415581861 0 0 0 0 14.355123854122894 -45.412531391387347 0 -45.412531391387347 37.790027492967056 0 0 0 0 -13.859730892340849 -0.29840165358109516 0 -0.29840165358109516 19.39658128823794 0 0 0 0 31.700147628956984 -33.176276172566759 0 -33.176276172566759 30.083318592581691 0 0 0 0 20.746842427266756 -37.776082138460424 0 -37.776082138460424 49.609686581923597 0 0 0 0 2.9221369901115395 -10.955371129610739 0 -10.955371129610739 33.84321081559483 0 0 0 0 20.496591491500112 -51.743118449097892 0 -51.743118449097892 39.330064215393577 0 0 0 0 2.1607607151261163 -14.679261148873138 0 -14.679261148873138 129.45137540866654 0 0 0 0 -1.5828930566596426 -1.6454736768722 0 -1.6454736768722 -0.77178299793481742 0 0 0 0 -60.219048385212147 -128.8295742392815 0 -128.8295742392815 206.29644213346637 0 0 0 0 17.63631675522447 -92.769807119564575 0 -92.769807119564575 -520.05968175608996 0 0 0 0 -34.402956556267668 -259.05701434602884 0 -259.05701434602884 -194.14192437814563 0 0 0 0 -122.23244744903332 -152.5106944251711 0 -152.5106944251711 -265.94671166077114 0 0 0 0 -99.315059884845141 -91.248303278220192 0 -91.248303278220192 -111.02228246568654 0 0 0 0 -66.351062439490306 -143.91020473186381 0 -143.91020473186381 -90.100474683802531 0 0 0 0 -53.037229696836221 1.951849190138546 0 1.951849190138546 -27.400184256637658 0 0 0 0 -104.09529147755438 -109.0370989157982 0 -109.0370989157982 -94.402676864074692 0 0 0 0 -238.88334493525917 -93.450405049861274 0 -93.450405049861274 -39.865528285345135 0 0 0 0 -399.39753157892721 -276.66314712252574 0 -276.66314712252574 -115.50315176887671 0 0 0 0 0.082183578170635485 -0.76866923054746117 0 -0.76866923054746117 -1.0678995269512299 0 0 0 0 164.53298041114931 -74.740160218515484 0 -74.740160218515484 -24.039809799325667 0 0 0 0 -49.883908178913771 -22.747935285077574 0 -22.747935285077574 -94.357524006187305 0 0 0 0 -16.301581630225428 -64.192922642723261 0 -64.192922642723261 -590.39240317984331 0 0 0 0 -218.2832239927302 -114.33238185588425 0 -114.33238185588425 -95.337818460808194 0 0 0 0 -135.00091380129743 -300.28755540376733 0 -300.28755540376733 -339.57748764144708 0 0 0 0 -46.148609476008914 54.840259376531776 0 54.840259376531776 -65.327461644745199 0 0 0 0 -0.37951813838716753 1.2137706581324998 0 1.2137706581324998 -2.9599827678360029 0 0 0 0 -188.72171948140203 -170.45322471053532 0 -170.45322471053532 -268.38677147243288 0 0 0 0 -9.2586276070423992 -99.193252716961069 0 -99.193252716961069 -324.82561397170502 0 0 0 0 -55.94095134689087 -186.59171336063264 0 -186.59171336063264 -350.20609874031834 0 0 0 0 -120.42606720325784 -184.80875732520508 0 -184.80875732520508 -340.10447259510693 0 0 0 0 -51.219396525857519 -144.54909365220192 0 -144.54909365220192 -319.51752049918287 0 0 0 0 -4.3030199745967366 -129.54462918796162 0 -129.54462918796162 -356.50670244515277 0 0 0 0 -50.299470733591079 -150.23624377675878 0 -150.23624377675878 -356.11962309920636 0 0 0 0 -23.21633224794482 -20.73333741246438 0 -20.73333741246438 -155.55868546700367 0 0 0 0 71.092780683180536 -24.916729120127457 0 -24.916729120127457 -96.100667345035845 0 0 0 0 -51.826478374568978 -86.571459308643171 0 -86.571459308643171 -46.156033058871799 0 0 0 0 -51.302098551390372 -155.42455945614165 0 -155.42455945614165 -243.60029442019732 0 0 0 0 -16.967912490570143 -142.62551853150126 0 -142.62551853150126 -340.33245781450751 0 0 0 0 -87.141683035635651 -142.04801950971068 0 -142.04801950971068 -63.218107514487201 0 0 0 0 31.061540182074168 -78.399244458561952 0 -78.399244458561952 -367.46135172912227 0 0 0 0 1.0642400247608741 -0.86317349088680473 0 -0.86317349088680473 0.20527198090961818 0 0 0 0 54.30729128011626 -247.45141010197949 0 -247.45141010197949 -370.00869273613625 0 0 0 0 72.696617830518335 -39.556480347146135 0 -39.556480347146135 32.663628936572422 0 0 0 0 0.27159304208998947 -27.985371323628442 0 -27.985371323628442 -194.62795075303075 0 0 0 0 39.154466765032794 -7.6636920689979888 0 -7.6636920689979888 58.863518492230014 0 0 0 0 -4.6223696630917246 -4.030472839549109 0 -4.030472839549109 -1.4478949014642923 0 0 0 0 38.075111027678304 35.761680136664836 0 35.761680136664836 15.82679549253362 0 0 0 0 -1.4828103553338678 -42.194764895914204 0 -42.194764895914204 207.70188291922204 0 0 0 0 -5.0609556378440175 -107.62130146510844 0 -107.62130146510844 -48.408705409823597 0 0 0 0 3.5851182576752763 -45.178607145970091 0 -45.178607145970091 -73.684572968901193 0 0 0 0 16.422122442933869 -14.682534670363566 0 -14.682534670363566 -114.76685037250354 0 0 0 0 -6.4198382287371452 -5.7860035768760163 0 -5.7860035768760163 -1.9430756200951977 0 0 0 0 81.149987591646095 -94.549760880177928 0 -94.549760880177928 -94.447014536710412 0 0 0 0 -117.95752701810852 -3.9355079534443576 0 -3.9355079534443576 296.53914905314559 0 0 0 0 20.071093560128247 -69.971914299875607 0 -69.971914299875607 -46.298300899923561 0 0 0 0 40.463872274997016 -48.952117753531525 0 -48.952117753531525 -89.527451675234261 0 0 0 0 20.407992258185004 -58.781210430716783 0 -58.781210430716783 -119.51209794777606 0 0 0 0 -12.735660958772542 -15.491871210361751 0 -15.491871210361751 -97.692750428421277 0 0 0 0 -23.897204486061582 -103.4449150165583 0 -103.4449150165583 -53.48281809818036 0 0 0 0 -22.405401963179429 -7.9893597435775519 0 -7.9893597435775519 -170.41460759045367 0 0 0 0 -87.224792041412911 -141.04898829025296 0 -141.04898829025296 -123.32431272406166 0 0 0 0 -38.653228968490339 -86.516348806220776 0 -86.516348806220776 -79.314122075204068 0 0 0 0 -68.309743063117821 -82.62907790240024 0 -82.62907790240024 67.61065601287919 0 0 0 0 -62.206710610886148 -98.065515667725776 0 -98.065515667725776 -3.0881223643988278 0 0 0 0 -30.687490807818222 -61.040481808812046 0 -61.040481808812046 40.282499640263268 0 0 0 0 -44.624410694482776 -78.916525256792738 0 -78.916525256792738 -4.9457966678946832 0 0 0 0 9.03674637777317 -84.48948923865504 0 -84.48948923865504 -6.5785539095668355 0 0 0 0 7.9000240575878706 -65.959532686799321 0 -65.959532686799321 -14.942814358393662 0 0 0 0 -6.7073643615467518 -93.630283363121634 0 -93.630283363121634 16.011425451701143 0 0 0 0 -2.8522911958034456 -81.113105482510946 0 -81.113105482510946 51.361855404322341 0 0 0 0 43.31310797558308 -58.559213943676696 0 -58.559213943676696 13.013540755157919 0 0 0 0 55.145418966402985 -88.452063011830205 0 -88.452063011830205 -9.4916995224284619 0 0 0 0 40.491425726290345 -71.271487553535508 0 -71.271487553535508 -6.4564240415111271 0 0 0 0 42.887007668336992 -69.672715895683723 0 -69.672715895683723 -50.254261935728209 0 0 0 0 -87.342126988988184 -56.68809102717205 0 -56.68809102717205 -50.380050492587543 0 0 0 0 -29.994737571427322 -2.5751769479211362 0 -2.5751769479211362 -71.04256804214674 0 0 0 0 -25.243537344203105 -10.19087858380226 0 -10.19087858380226 -56.304706934200112 0 0 0 0 -49.150793224961944 8.593883419024678 0 8.593883419024678 -16.878051802110349 0 0 0 0 -121.54309452280449 -82.733775015532501 0 -82.733775015532501 -87.873863748936856 0 0 0 0 -58.320488567496795 -3.7910220846852098 0 -3.7910220846852098 -45.139993177095675 0 0 0 0 -94.945983526416057 -61.896646871718985 0 -61.896646871718985 -89.211755652010197 0 0 0 0 -81.157437036343254 -53.656449639627681 0 -53.656449639627681 -142.14699775474219 0 0 0 0 -146.47695831190731 -133.88031132902597 0 -133.88031132902597 -137.88194332813509 0 0 0 0 -160.34941849215556 -104.22157922378756 0 -104.22157922378756 -161.12648687882756 0 0 0 0 -112.74968360384514 -207.40677282954766 0 -207.40677282954766 -369.78111228753551 0 0 0 0 -129.76934801794914 -120.23662060358856 0 -120.23662060358856 -153.84253233425807 0 0 0 0 -108.61033466226945 -85.320161619692954 0 -85.320161619692954 -161.6310045037028 0 0 0 0 -22.332288488718632 -38.404113906942712 0 -38.404113906942712 -399.21126050446765 0 0 0 0 -48.716060226071022 -104.79728847485239 0 -104.79728847485239 -158.80611460433192 0 0 0 0 -125.53774764240006 -83.887834587810175 0 -83.887834587810175 -51.20541922929624 0 0 0 0 -63.690995079433378 -40.423303599071005 0 -40.423303599071005 -126.38875960134646 0 0 0 0 -41.648078089270712 -98.641011583746149 0 -98.641011583746149 -48.618865588027802 0 0 0 0 -69.896156217707357 -123.97564876272281 0 -123.97564876272281 5.2155508611504047 0 0 0 0 -66.65284162384296 -65.439262780811987 0 -65.439262780811987 12.24627537901597 0 0 0 0 37.654032039080903 -125.26390643275863 0 -125.26390643275863 46.438769517319997 0 0 0 0 60.00346482273244 3.7799909312980162 0 3.7799909312980162 17.981811292223483 0 0 0 0 -10.443982654798219 -35.106509202490997 0 -35.106509202490997 -1.2625822544960101 0 0 0 0 -38.378504085656729 -7.4190454027481678 0 -7.4190454027481678 -27.641133253391672 0 0 0 0 12.002709548240091 26.004702030627413 0 26.004702030627413 -21.589392595755271 0 0 0 0 -11.62910027121854 37.189732539883039 0 37.189732539883039 17.160634147021483 0 0 0 0 13.675716185919782 22.108514401712 0 22.108514401712 10.10995935020037 0 0 0 0 2.7661913228898811 2.8393141880205803 0 2.8393141880205803 52.53614941790056 0 0 0 0 7.4782577879332166 21.759169261100396 0 21.759169261100396 22.656350925688685 0 0 0 0 18.052453412536124 13.731368321593891 0 13.731368321593891 6.5078236921799544 0 0 0 0 14.202324952964773 20.023497706064973 0 20.023497706064973 6.0100089299958199 0 0 0 0 2.8774100308137349 23.838018697807456 0 23.838018697807456 12.028632264535645 0 0 0 0 9.3835414472973753 32.878276552961324 0 32.878276552961324 -2.2693945829710174 0 0 0 0 -7.6516117396695336 37.8415876171332 0 37.8415876171332 -0.89939142852563236 0 0 0 0 49.336805817587901 24.912689592505558 0 24.912689592505558 -21.827851978197032 0 0 0 0 34.626487799637744 4.2859003868625223 0 4.2859003868625223 -8.0209050747234869 0 0 0 0 124.06352768774514 -25.271249842645375 0 -25.271249842645375 -24.490264319435028 0 0 0 0 53.007210021633909 68.060742761907477 0 68.060742761907477 50.745992473090155 0 0 0 0 -7.4027629953170617 -21.595327324887876 0 -21.595327324887876 -48.013870071447855 0 0 0 0 15.231856055828302 -17.375749308925151 0 -17.375749308925151 20.024720246934521 0 0 0 0 8.523020679775982 -13.672349384671179 0 -13.672349384671179 28.008006753467271 0 0 0 0 12.610930977664793 -14.672941319349775 0 -14.672941319349775 17.280949141852034 0 0 0 0 16.686756102231357 -15.479046893968189 0 -15.479046893968189 17.977452396976332 0 0 0 0 35.828257131044438 -54.234489729958113 0 -54.234489729958113 82.434209939110588 0 0 0 0 11.40687102614811 -19.595187569042537 0 -19.595187569042537 16.810804500561972 0 0 0 0 14.225821387987708 -17.505241762512924 0 -17.505241762512924 20.249487665022571 0 0 0 0 13.694366475246738 -19.505857293287363 0 -19.505857293287363 14.0136079075819 0 0 0 0 13.021885546396334 -12.26570119582675 0 -12.26570119582675 6.8549724849744962 0 0 0 0 3.335935933003384 -21.176188411120165 0 -21.176188411120165 16.743574272135447 0 0 0 0 20.782844722694335 -21.862866881236187 0 -21.862866881236187 14.241777729691421 0 0 0 0 35.891710867236725 0.89308577146266543 0 0.89308577146266543 -0.59643490424059564 0 0 0 0 6.8182077212259173 2.5820720631800214 0 2.5820720631800214 2.1280607673934355 0 0 0 0 7.1036116787197443 3.7125678502475239 0 3.7125678502475239 -3.1923278365793522 0 0 0 0 -1.9306353512151873 -9.5841955790892825 0 -9.5841955790892825 9.0672745971496624 0 0 0 0 -7.0986561023000831 -4.6752429325351841 0 -4.6752429325351841 23.180217768006742 0 0 0 0 4.540065075113489 -12.369780494627776 0 -12.369780494627776 -6.1424481700278193 0 0 0 0 0.13727435046918934 -0.32079066580212512 0 -0.32079066580212512 0.2049473544382252 0 0 0 0 0.62582822867489085 -24.562992155690154 0 -24.562992155690154 71.168969748462587 0 0 0 0 48.823588612242929 -57.057814599742414 0 -57.057814599742414 32.609709652437232 0 0 0 0 15.833183208432729 -25.263179844610931 0 -25.263179844610931 10.45085616986762 0 0 0 0 19.858463379001932 -33.894279170928712 0 -33.894279170928712 25.509808526421693 0 0 0 0 14.218166473273413 -25.51341166353086 0 -25.51341166353086 10.472220309500699 0 0 0 0 15.089355187172146 -29.557661806557007 0 -29.557661806557007 13.277756079700339 0 0 0 0 6.3030608055460107 -27.114259355500508 0 -27.114259355500508 27.038654599772144 0 0 0 0 -72.498181347583341 -50.211326736824958 0 -50.211326736824958 -40.209818971409732 0 0 0 0 87.624026322412874 -19.973230229443288 0 -19.973230229443288 8.286775047879928 0 0 0 0 54.271866942818633 -3.7757378930473351 0 -3.7757378930473351 1.870166375534609 0 0 0 0 4.5550225796037012 -9.0560322969222398 0 -9.0560322969222398 5.8669652476964984 0 0 0 0 43.864510204120961 -21.660408579960858 0 -21.660408579960858 -2.073464183780743 0 0 0 0 15.835803100339945 -15.33473140300157 0 -15.33473140300157 -0.78398646389678106 0 0 0 0 21.35411187803038 -14.159366319381661 0 -14.159366319381661 -17.336866142726649 0 0 0 0 16.465080936162849 -0.194026593122544 0 -0.194026593122544 9.0497076279807516 0 0 0 0 -129.49161449095527 -40.908587655248084 0 -40.908587655248084 20.203640653904586 0 0 0 0 11.900873358433273 17.862116188836808 0 17.862116188836808 -17.641621627062705 0 0 0 0 0.2335175389777131 -0.78709518843232651 0 -0.78709518843232651 0.13544390585170163 0 0 0 0 -110.97529912147183 -7.9442933816371806 0 -7.9442933816371806 0.53801533917794586 0 0 0 0 -61.536004130233891 -36.143104737579506 0 -36.143104737579506 -27.651759145159303 0 0 0 0 -68.984392037129112 -10.880005830735399 0 -10.880005830735399 -29.397246942182392 0 0 0 0 -18.892267504565098 -12.161370404206536 0 -12.161370404206536 14.953421158177662 0 0 0 0 -1.2799239285068325 -14.307386915459574 0 -14.307386915459574 8.864400642021792 0 0 0 0 2.8538101535195892 0.6555200201291882 0 0.6555200201291882 -17.912145118199987 0 0 0 0 15.224556108839352 0.12823731299613428 0 0.12823731299613428 -22.568417048094489 0 0 0 0 -0.090821489998306859 -0.12402452065233049 0 -0.12402452065233049 -0.35393936408671678 0 0 0 0 -13.888545430639283 1.8875789704256931 0 1.8875789704256931 6.9277686019631801 0 0 0 0 -6.9400340333139638 -1.703935931076785 0 -1.703935931076785 2.957931081939023 0 0 0 0 -0.24962489151721456 -3.6520686386311354 0 -3.6520686386311354 3.4371174548518866 0 0 0 0 9.7024558836549204 -8.3462134715618959 0 -8.3462134715618959 0.21518728649789409 0 0 0 0 0.47778310859701079 -1.3679955085475797 0 -1.3679955085475797 -0.77791958491342683 0 0 0 0 -70.869687528170743 -41.076674334061863 0 -41.076674334061863 -7.665221753588412 0 0 0 0 10.945435519050079 -21.62970908754869 0 -21.62970908754869 9.1125162518819707 0 0 0 0 8.8579032726484002 -13.824209743841493 0 -13.824209743841493 11.899643722936617 0 0 0 0 11.376276424807656 -22.946936815860681 0 -22.946936815860681 12.354863236467963 0 0 0 0 14.452915910445881 -21.479123870903095 0 -21.479123870903095 0.36310394593238016 0 0 0 0 4.713401984930897 -11.083484393426261 0 -11.083484393426261 -2.6474637355931918 0 0 0 0 23.718020135494953 -18.607792528885511 0 -18.607792528885511 -8.8202084265176381 0 0 0 0 12.501031945469549 -15.265195156222035 0 -15.265195156222035 -6.1119267656504235 0 0 0 0 7.3604228482281542 -9.4594834442450519 0 -9.4594834442450519 0.34090848498181003 0 0 0 0 9.542942491649228 -17.301304711570992 0 -17.301304711570992 5.5897777909194701 0 0 0 0 -0.074587135369572621 -1.0963899470061058 0 -1.0963899470061058 0.32137320989415485 0 0 0 0 0.92635783958212414 -4.8382221699157526 0 -4.8382221699157526 3.302149773840938 0 0 0 0 4.5026850996291614 -6.901706918299169 0 -6.901706918299169 7.0221471348650084 0 0 0 0 9.9694557020329739 -6.8551052037819318 0 -6.8551052037819318 -6.3677501146844975 0 0 0 0 0.079451878346652904 -0.059788995429551406 0 -0.059788995429551406 -0.095669339044587076 0 0 0 0 1.8177618110927369 -2.9802110923709506 0 -2.9802110923709506 10.220900298951165 0 0 0 0 0.97783404192031043 -0.88500210364507303 0 -0.88500210364507303 0.32644323086334381 0 0 0 0 4.7486445343574815 -6.9603146382305567 0 -6.9603146382305567 5.2003782003703236 0 0 0 0 6.8967334964672773 -6.0291878770940457 0 -6.0291878770940457 7.526161851470988 0 0 0 0 9.0549275095777375 -13.876367407683119 0 -13.876367407683119 11.261815946847491 0 0 0 0 11.7855323361091 -16.501590062838659 0 -16.501590062838659 13.947220897243824 0 0 0 0 6.2733891247580686 -8.5816525266563985 0 -8.5816525266563985 19.261472128337118 0 0 0 0 -0.27025362024384947 -1.7937192055014037 0 -1.7937192055014037 -0.4034070429469736 0 0 0 0 2.875161218459084 11.906507825039284 0 11.906507825039284 -26.840048533616937 0 0 0 0 4.4832195768112797 -7.4912772128891447 0 -7.4912772128891447 5.8940545063863965 0 0 0 0 2.8654243311763885 -3.4174771675250923 0 -3.4174771675250923 -1.727275575555224 0 0 0 0 1.3012539008381481 -3.2534856862682275 0 -3.2534856862682275 -0.24118393722934162 0 0 0 0 -0.77743978472926756 -6.5323825728974043 0 -6.5323825728974043 -8.1462744269720133 0 0 0 0 7.6298598675880385 -7.9559086949366247 0 -7.9559086949366247 -13.758049431287873 0 0 0 0 8.2899905599551857 -10.917268287741081 0 -10.917268287741081 -11.461031298567832 0 0 0 0 3.1636351796905728 -19.560896897411567 0 -19.560896897411567 15.647194339373527 0 0 0 0 24.773186899692973 -17.351362786030222 0 -17.351362786030222 -24.074156754231808 0 0 0 0 7.5747134641651428 -24.349391704421578 0 -24.349391704421578 16.220809262755211 0 0 0 0 -8.2580684331157954 -7.3391824841123707 0 -7.3391824841123707 9.9975865308188077 0 0 0 0 -0.55509203874524538 -3.17556535903854 0 -3.17556535903854 0.79936742864214527 0 0 0 0 1.4451112149185974 -3.8662209959475149 0 -3.8662209959475149 -0.92187688879130292 0 0 0 0 0.48964027363626883 -6.417839154786634 0 -6.417839154786634 -2.7971523650737709 0 0 0 0 -2.2719202928137747 -4.9811983129056898 0 -4.9811983129056898 -0.97053353542651166 0 0 0 0 0.11015095794186891 -12.61124160075633 0 -12.61124160075633 8.6139573034197383 0 0 0 0 -7.6863440132956384 0.73568868149322952 0 0.73568868149322952 32.013454318595905 0 0 0 0 -5.8713606556111699 0.79757615728522069 0 0.79757615728522069 5.2565327851461916 0 0 0 0 -31.748153842828287 -15.209162395778549 0 -15.209162395778549 47.52473024914525 0 0 0 0 -29.18286518965715 -5.5764429337559704 0 -5.5764429337559704 82.158238378904571 0 0 0 0 -18.61693662316361 -32.15057143781587 0 -32.15057143781587 49.738409367859276 0 0 0 0 1.9457508401146697 -21.55244598947138 0 -21.55244598947138 14.9479439250008 0 0 0 0 20.060771962196611 58.919101478207949 0 58.919101478207949 -131.49057142752463 0 0 0 0 -7.8312988236602905 -45.387523423065431 0 -45.387523423065431 60.915429337841488 0 0 0 0 -8.5726229940336367 -6.8880990771393051 0 -6.8880990771393051 -2.5072518086395448 0 0 0 0 -32.888581818950655 -36.818331125868099 0 -36.818331125868099 -21.420154480652855 0 0 0 0 52.594203242830872 -53.649620646147014 0 -53.649620646147014 -105.75053155158639 0 0 0 0 14.740770872763278 -18.993377147919091 0 -18.993377147919091 19.320865557413981 0 0 0 0 16.79078377667247 -39.160806337249596 0 -39.160806337249596 34.110807166107406 0 0 0 0 -6.7095048897904128 -5.5754047450389876 0 -5.5754047450389876 -2.0413846239852163 0 0 0 0 12.189155359417782 -69.910409156210335 0 -69.910409156210335 106.49093267015178 0 0 0 0 8.6322349835282921 11.509875134456252 0 11.509875134456252 -163.75492874444899 0 0 0 0 47.802281871659716 -23.887269777088022 0 -23.887269777088022 7.3538782764335338 0 0 0 0 -0.753297718164049 2.9367268616097135 0 2.9367268616097135 89.731324443315316 0 0 0 0 27.008759992283558 -69.821878080159877 0 -69.821878080159877 -37.904544464692663 0 0 0 0 67.62557168796684 35.083238807049838 0 35.083238807049838 -140.04042225689773 0 0 0 0 -4.2878487415373456 36.635780624130348 0 36.635780624130348 -128.29215907242178 0 0 0 0 -36.237839041034931 -53.281805351322873 0 -53.281805351322873 56.242205441427359 0 0 0 0 -0.78912823620427552 -0.54802641769878058 0 -0.54802641769878058 -0.67185793317591092 0 0 0 0 -5.1219943218055715 -4.0119317122669145 0 -4.0119317122669145 -1.3717030577430336 0 0 0 0 -34.047959046479264 -136.67890419622927 0 -136.67890419622927 226.85749052710435 0 0 0 0 -97.641826696265525 -108.03973631144436 0 -108.03973631144436 45.55581458155666 0 0 0 0 109.00130554901239 50.217103176258661 0 50.217103176258661 144.79519234287363 0 0 0 0 -170.89118851366266 -164.5158941677837 0 -164.5158941677837 192.29659667215674 0 0 0 0 -39.828832447367859 -28.713432171466593 0 -28.713432171466593 0.47504028180628666 0 0 0 0 -106.86385592642318 -103.61927075606127 0 -103.61927075606127 -59.387915192473884 0 0 0 0 -85.699053835405721 -74.339123462168573 0 -74.339123462168573 -70.005183341934753 0 0 0 0 11.500815623850769 -51.211569615642475 0 -51.211569615642475 1.7877126899365976 0 0 0 0 -0.17979189348017144 -127.09399923802965 0 -127.09399923802965 -56.577962100454897 0 0 0 0 5.4834748296507314 -41.354483202347183 0 -41.354483202347183 -66.714793478901584 0 0 0 0 87.618441721735849 22.549722208006642 0 22.549722208006642 -13.656814742658753 0 0 0 0 119.91050209857349 -121.42563271342897 0 -121.42563271342897 -17.971216365524015 0 0 0 0 46.38080835571418 28.974350753153885 0 28.974350753153885 5.2017175961300381 0 0 0 0 1.5639431493090328 -0.018400075920741443 0 -0.018400075920741443 0.10270941541758227 0 0 0 0 8.171717310630811 15.236821951831189 0 15.236821951831189 9.7149157151197869 0 0 0 0 4.3430852906458579 -0.49858912068894767 0 -0.49858912068894767 -0.45201853601515163 0 0 0 0 8.7525500305637252 -12.669103819703196 0 -12.669103819703196 -4.031934511849613 0 0 0 0 4.0299576296574742 -8.1244677515378498 0 -8.1244677515378498 5.1534877279918874 0 0 0 0 -1.2454448413678101 -2.3056305449598309 0 -2.3056305449598309 -1.506826805645602 0 0 0 0 -12.426666971922714 -0.77097798048271216 0 -0.77097798048271216 10.26937762513262 0 0 0 0 -1.0682733423677746 31.814501963864132 0 31.814501963864132 -69.139840584812646 0 0 0 0 -0.14789731454509436 -0.27670718942679251 0 -0.27670718942679251 -0.68097680500972757 0 0 0 0 46.941661367887718 6.5519401613946684 0 6.5519401613946684 -10.444764317944646 0 0 0 0 12.748774337506802 -121.2442524142034 0 -121.2442524142034 7.9121982901109504 0 0 0 0 22.836391754611213 -179.60921977610451 0 -179.60921977610451 -43.563426450526094 0 0 0 0 -180.14179514131956 -149.42291063117091 0 -149.42291063117091 22.629981118821888 0 0 0 0 -51.290342248965317 -245.82530112487257 0 -245.82530112487257 -77.237093248022575 0 0 0 0 227.21246753415653 -165.23398901074688 0 -165.23398901074688 -60.723739902986154 0 0 0 0 30.952574443230333 -95.428887904722615 0 -95.428887904722615 88.650022405200616 0 0 0 0 -1.8712384608653778 -2.5921579132008912 0 -2.5921579132008912 -1.9241180539215748 0 0 0 0 -581.18057809584934 -45.669474317294316 0 -45.669474317294316 166.97389392130935 0 0 0 0 -509.19657081619516 39.837592720150496 0 39.837592720150496 154.56677444023012 0 0 0 0 -476.86094605201652 -13.604513923726699 0 -13.604513923726699 169.99455094406039 0 0 0 0 -2.8180347516220472 -4.9877400173590978 0 -4.9877400173590978 -5.409260096976972 0 0 0 0 20.465126355807115 -132.76908484708338 0 -132.76908484708338 4.3652109818332292 0 0 0 0 -64.930130332764065 -47.147309694680189 0 -47.147309694680189 33.065083265599242 0 0 0 0 -0.38090408016432775 -121.51106381231989 0 -121.51106381231989 18.53570506271808 0 0 0 0 -39.13749173290239 -182.61050727800631 0 -182.61050727800631 -50.311900932938443 0 0 0 0 123.30235800038781 -60.139848636040369 0 -60.139848636040369 -0.058549935331029701 0 0 0 0 -0.98538078235988635 -1.4436329705496931 0 -1.4436329705496931 -1.9390125864913443 0 0 0 0 -728.33680838689452 -483.58960176943947 0 -483.58960176943947 2.0747393372275837 0 0 0 0 -86.789043682507781 -80.148336766023476 0 -80.148336766023476 0.11938987464782258 0 0 0 0 3.6439204111347863 12.66445495280368 0 12.66445495280368 32.045761016412143 0 0 0 0 -101.4382489470172 -41.129476896685446 0 -41.129476896685446 46.734466229120926 0 0 0 0 -117.71688300977075 -20.861439216128929 0 -20.861439216128929 55.664389873150867 0 0 0 0 -532.72821788186411 -121.9929159181379 0 -121.9929159181379 56.172444348278077 0 0 0 0 -2.1358234878020248 -3.9878341220422424 0 -3.9878341220422424 -5.2614180166638604 0 0 0 0 284.51547487086464 -24.924275861498245 0 -24.924275861498245 -66.090227876447898 0 0 0 0 117.45890232020611 -94.460775455220755 0 -94.460775455220755 36.091404488184708 0 0 0 0 -175.15697155566158 157.6109358469912 0 157.6109358469912 -14.983289413617968 0 0 0 0 0.68644405423674471 -342.62951603211013 0 -342.62951603211013 -190.29698938615002 0 0 0 0 -109.98781819813667 -162.74397650510946 0 -162.74397650510946 -150.08645222699897 0 0 0 0 -183.21843294777136 -124.38445442994635 0 -124.38445442994635 -39.49109557320719 0 0 0 0 -254.07745843149496 -261.75744766418393 0 -261.75744766418393 -112.71844215551846 0 0 0 0 -18.567580793111119 -10.74093431484107 0 -10.74093431484107 -50.998913950284759 0 0 0 0 -322.88342395179279 -142.24371568664264 0 -142.24371568664264 2.1795942358521643 0 0 0 0 233.24467292114241 -127.07639918595964 0 -127.07639918595964 5.5045085820347595 0 0 0 0 -0.16299055003102536 -0.59228579837439099 0 -0.59228579837439099 -0.10482844926349344 0 0 0 0 -239.96143209757065 -99.881255950233935 0 -99.881255950233935 49.497013817486732 0 0 0 0 -227.82172562785286 -184.66427298814926 0 -184.66427298814926 -0.28690496845229063 0 0 0 0 -87.971910662078244 -101.43571454495759 0 -101.43571454495759 -0.028652928484007134 0 0 0 0 -127.46204804709305 -136.10686999732752 0 -136.10686999732752 16.66668664730787 0 0 0 0 -140.27559327872586 -63.808484967519689 0 -63.808484967519689 47.349777576196971 0 0 0 0 -25.300863429088395 -75.602710644677472 0 -75.602710644677472 -0.038559432834517793 0 0 0 0 -42.208818877956219 -117.78500892522061 0 -117.78500892522061 -57.889748606668945 0 0 0 0 126.56653417233974 -197.24443169563165 0 -197.24443169563165 -24.13972590839694 0 0 0 0 26.930029712160831 -84.180891691291436 0 -84.180891691291436 -137.0440077481453 0 0 0 0 -18.683494096856521 -41.537348497707171 0 -41.537348497707171 -54.532990772691846 0 0 0 0 -1.2229870114988444 -49.246533361922957 0 -49.246533361922957 128.91853893824373 0 0 0 0 187.19975575347962 -81.994223546890225 0 -81.994223546890225 51.781824428942855 0 0 0 0 34.486626367226563 -106.15101735226744 0 -106.15101735226744 203.44317920968842 0 0 0 0 0.18664859797234357 -0.98743812906734618 0 -0.98743812906734618 0.25892768196751437 0 0 0 0 84.193659439772091 -89.05173132249638 0 -89.05173132249638 52.709882586033928 0 0 0 0 67.11566035463693 -27.239196329174774 0 -27.239196329174774 33.817676271438813 0 0 0 0 24.397728474544238 -75.873046496081088 0 -75.873046496081088 44.144961296675319 0 0 0 0 -5.9210310341641161 -55.165966318287246 0 -55.165966318287246 30.756901363241923 0 0 0 0 18.270868301773589 -55.498951988201952 0 -55.498951988201952 36.190464199116832 0 0 0 0 13.428195161169128 -38.532344896861332 0 -38.532344896861332 -5.1371505519673519 0 0 0 0 14.251014701095755 -53.988606918129619 0 -53.988606918129619 22.597519807171921 0 0 0 0 -3.1278402099314917 -33.011400799216062 0 -33.011400799216062 -11.275750619580322 0 0 0 0 14.934448410294863 -32.386544574103027 0 -32.386544574103027 1.2876026587382512 0 0 0 0 30.440325901216056 -62.772086323343501 0 -62.772086323343501 21.595543915173039 0 0 0 0 31.645473126305461 -5.8640414238812326 0 -5.8640414238812326 4.9607839762575168 0 0 0 0 3.8566136041536083 51.635905868191003 0 51.635905868191003 18.534709757488599 0 0 0 0 0.097958161168230973 -0.90225285366551944 0 -0.90225285366551944 -0.038570453040669861 0 0 0 0 70.085574928425558 -33.069845008451011 0 -33.069845008451011 21.217473404576594 0 0 0 0 -40.602419053694803 -1.149845812786225 0 -1.149845812786225 -44.001088989360142 0 0 0 0 29.426507236490579 -81.965860994763716 0 -81.965860994763716 -104.52371836164093 0 0 0 0 -501.63209022969295 65.329052150226744 0 65.329052150226744 115.86047876799785 0 0 0 0 -3.3677811656236187 -3.2941736047763976 0 -3.2941736047763976 -3.3886872759701987 0 0 0 0 91.206817681253597 -19.722110756825714 0 -19.722110756825714 -37.190620688543277 0 0 0 0 -459.6872115285787 14.092573501373181 0 14.092573501373181 68.201054260825913 0 0 0 0 62.043810854771436 -161.57075365161745 0 -161.57075365161745 -81.49094751980374 0 0 0 0 -5.4490827234497097 -8.4503977800256038 0 -8.4503977800256038 -10.302533558792376 0 0 0 0 -2.5339981890160739 -2.9553606066624845 0 -2.9553606066624845 0.52955283181254487 0 0 0 0 -22.068897782047316 -38.105192332620391 0 -38.105192332620391 38.388715696270765 0 0 0 0 22.228473460076202 -41.032846103198608 0 -41.032846103198608 66.906504801435403 0 0 0 0 51.10683746405266 -16.655365241922482 0 -16.655365241922482 85.114829641564029 0 0 0 0 116.57078849742538 26.35844132674174 0 26.35844132674174 -25.921891635669454 0 0 0 0 117.30063312604761 10.101449425117607 0 10.101449425117607 41.103964561618341 0 0 0 0 261.34798383282032 39.62036982499194 0 39.62036982499194 41.880027614653955 0 0 0 0 31.096757725703355 64.666921167525288 0 64.666921167525288 119.05942338262685 0 0 0 0 -4.1530265602620311 -5.4386684507746175 0 -5.4386684507746175 1.0222759447915166 0 0 0 0 -5.7781485108008113 -15.990082938350774 0 -15.990082938350774 -8.4063293221264743 0 0 0 0 -376.92675763668649 -248.75509296177052 0 -248.75509296177052 -104.6201924650577 0 0 0 0 6.9558413749473402 -115.79818661079662 0 -115.79818661079662 -200.42035533069247 0 0 0 0 -10.136867156035805 -99.360059329228534 0 -99.360059329228534 -21.051339923149499 0 0 0 0 -30.844999110298886 17.266346599370991 0 17.266346599370991 -81.794274682979903 0 0 0 0 -16.964491802904377 -16.444949033503235 0 -16.444949033503235 -3.247021924411456 0 0 0 0 -0.50921455073530453 -6.5675263341167778 0 -6.5675263341167778 4.0791361218217794 0 0 0 0 146.46915076725782 52.214061868020508 0 52.214061868020508 -43.272837457912829 0 0 0 0 -25.967548765144102 -60.574572377663003 0 -60.574572377663003 43.563812303542363 0 0 0 0 157.76621706931473 31.870609813398914 0 31.870609813398914 -17.372429658818874 0 0 0 0 102.51807642635686 43.266886762010472 0 43.266886762010472 25.006129535818218 0 0 0 0 97.077979467656405 53.857344340773125 0 53.857344340773125 10.471025017786815 0 0 0 0 94.160879328799638 39.771568798389126 0 39.771568798389126 -23.423085015582416 0 0 0 0 -10.932224838250249 -6.8246082276198194 0 -6.8246082276198194 -18.398360400591628 0 0 0 0 -4.6268764741425628 -12.863382882159001 0 -12.863382882159001 -19.035880452720768 0 0 0 0 -12.407717550114057 -17.012123967814546 0 -17.012123967814546 -16.25371815890685 0 0 0 0 -21.301983744280733 -13.146939871072391 0 -13.146939871072391 -19.374746571158539 0 0 0 0 -6.8366661572847249 -10.41616504822143 0 -10.41616504822143 3.1369636034366 0 0 0 0 0.54810137868798847 -26.495947532792798 0 -26.495947532792798 -30.496729321988823 0 0 0 0 1.9932288843774586 -34.978935062318499 0 -34.978935062318499 5.5165394939158432 0 0 0 0 0.28150261146492994 -20.923172101396744 0 -20.923172101396744 -7.3556116388426744 0 0 0 0 17.925009073788033 -15.594618698816703 0 -15.594618698816703 -14.077826007200201 0 0 0 0 -29.27329915221344 -11.694579060836986 0 -11.694579060836986 5.5605806239618687 0 0 0 0 -2.7330586376850299 -2.6131000166640383 0 -2.6131000166640383 -1.8269546682266125 0 0 0 0 0.22589564544250607 -5.4311531080384157 0 -5.4311531080384157 -19.346852147438767 0 0 0 0 6.5805763273674529 -7.8929594685687334 0 -7.8929594685687334 -18.65957797109877 0 0 0 0 9.375559829910344 -22.549627957781922 0 -22.549627957781922 -15.320099688222399 0 0 0 0 -4.2533036191089195 -20.349453628488845 0 -20.349453628488845 -15.219627246093296 0 0 0 0 -11.098184364057573 -33.16756985260659 0 -33.16756985260659 10.395332020252681 0 0 0 0 -9.2806177073016443 -28.134896813453452 0 -28.134896813453452 13.762910830072542 0 0 0 0 -12.246113764951588 -12.52112964915068 0 -12.52112964915068 -9.5391747673365899 0 0 0 0 -7.3545300555262827 -8.7630195516378429 0 -8.7630195516378429 5.8297875968691137 0 0 0 0 -95.9093027352028 -225.72021520861745 0 -225.72021520861745 -326.25172314532938 0 0 0 0 -102.43742213172482 -210.90096423928344 0 -210.90096423928344 -358.114057276327 0 0 0 0 -171.21523151515248 -390.01248423874495 0 -390.01248423874495 -668.40719589610399 0 0 0 0 -155.20425874461398 -240.84441011253648 0 -240.84441011253648 -523.43159032810763 0 0 0 0 -6.7073748157640054 -7.6893847101658288 0 -7.6893847101658288 4.4654707472856572 0 0 0 0 -15.997614752933259 -26.263747744571447 0 -26.263747744571447 78.873606018573355 0 0 0 0 -16.556080237751303 -20.933294643615227 0 -20.933294643615227 52.279989236210895 0 0 0 0 -8.3743215390995829 -7.1992253668258854 0 -7.1992253668258854 111.9369900595666 0 0 0 0 2.90889595963381 -81.408484657952613 0 -81.408484657952613 109.11231391015644 0 0 0 0 -18.784631821706853 -53.117706188730381 0 -53.117706188730381 73.815834668537718 0 0 0 0 -25.229671712581876 -68.014831186959782 0 -68.014831186959782 63.061733012499644 0 0 0 0 -24.114179867116036 -52.873698299868011 0 -52.873698299868011 76.284699315999205 0 0 0 0 -11.451805341966974 -45.757115892091861 0 -45.757115892091861 41.345705417483259 0 0 0 0 -3.853937807796683 -34.936969265227162 0 -34.936969265227162 6.8315813587323646 0 0 0 0 -23.854272948529001 -50.679732483040993 0 -50.679732483040993 39.470394164485697 0 0 0 0 -5.0123748400492332 -67.775599720898754 0 -67.775599720898754 54.597583861048406 0 0 0 0 -25.682443193201834 -62.172207976773279 0 -62.172207976773279 57.874988784947163 0 0 0 0 -12.061137634245824 -79.143149082266063 0 -79.143149082266063 75.108300839427102 0 0 0 0 -22.074075817773974 -59.677792533687807 0 -59.677792533687807 45.980005901184995 0 0 0 0 -37.272741626367861 -54.169379655195826 0 -54.169379655195826 48.241410405293209 0 0 0 0 -3.2256077658519189 -36.92203688920813 0 -36.92203688920813 53.859124536638774 0 0 0 0 -11.531762264969984 -62.594911666071766 0 -62.594911666071766 1.6784712597273028 0 0 0 0 0.52932957619763243 -1.5662607717458741 0 -1.5662607717458741 0.37195853435011905 0 0 0 0 -13.557091148919426 -60.048162839309953 0 -60.048162839309953 -0.96030581093532419 0 0 0 0 13.364966434137386 -43.860274469418982 0 -43.860274469418982 0.041359342731084325 0 0 0 0 40.826350174089043 -161.49409090255733 0 -161.49409090255733 75.120828643828645 0 0 0 0 63.838523894115497 -157.39643726129543 0 -157.39643726129543 75.114542246266026 0 0 0 0 83.606498094928611 -121.88413216096797 0 -121.88413216096797 0.13679159686580533 0 0 0 0 23.441395394858773 -80.858905957654315 0 -80.858905957654315 115.07675036986984 0 0 0 0 5.8993123143691264 -128.18602609298978 0 -128.18602609298978 214.75631961396903 0 0 0 0 0.24512466959708235 -0.95107836091409226 0 -0.95107836091409226 0.25486875576743095 0 0 0 0 42.191425982482542 -126.22309952560317 0 -126.22309952560317 -123.3502129567853 0 0 0 0 42.451119940945546 -119.145748832599 0 -119.145748832599 55.865131652812124 0 0 0 0 -13.992353322822055 -37.515913402028673 0 -37.515913402028673 -14.508866422298524 0 0 0 0 14.011020951240425 -97.345460825405098 0 -97.345460825405098 48.656047815329657 0 0 0 0 24.347700138164328 -81.591339836606949 0 -81.591339836606949 42.539037532371367 0 0 0 0 43.625621955940915 -113.53020691604797 0 -113.53020691604797 87.1644470818228 0 0 0 0 48.305389858183844 -114.83477477912493 0 -114.83477477912493 44.504198428373527 0 0 0 0 59.778844440683315 -110.33156096432958 0 -110.33156096432958 44.557910135121347 0 0 0 0 54.774746996044996 -108.55374614974517 0 -108.55374614974517 47.477781941010107 0 0 0 0 58.146960199828754 -109.39298906220938 0 -109.39298906220938 30.956378506356486 0 0 0 0 35.399418949221399 -128.28496550462796 0 -128.28496550462796 86.36206941866476 0 0 0 0 55.139308812273157 -105.82481027995527 0 -105.82481027995527 47.498702881131095 0 0 0 0 45.880282151289066 -101.75372700975913 0 -101.75372700975913 77.626692444648143 0 0 0 0 54.09040268994795 -88.616280322034072 0 -88.616280322034072 81.148033123326968 0 0 0 0 56.457140270151285 -92.516510024298668 0 -92.516510024298668 33.175810640084819 0 0 0 0 47.784225391551445 -82.877831520041582 0 -82.877831520041582 80.504494541461327 0 0 0 0 -11.363532845167356 -103.99902836115598 0 -103.99902836115598 233.89721984565858 0 0 0 0 1.9495978152608586 -8.8083873725513513 0 -8.8083873725513513 -26.080854247040406 0 0 0 0 -0.079942028372254725 -0.81577894080557201 0 -0.81577894080557201 -0.10774137636934711 0 0 0 0 37.898001624032986 -39.585414225605746 0 -39.585414225605746 163.06233876489932 0 0 0 0 -45.46496817105799 -191.26387485313171 0 -191.26387485313171 -0.25388357846895815 0 0 0 0 2.2342509353620699 -169.39776441660979 0 -169.39776441660979 109.45640654384988 0 0 0 0 40.023076227556885 -169.19410968336751 0 -169.19410968336751 5.3933144990660367 0 0 0 0 20.886531161799212 -115.07790284099974 0 -115.07790284099974 111.29205616767285 0 0 0 0 8.9295477718515031 -151.14979920622864 0 -151.14979920622864 157.90933914838388 0 0 0 0 27.607374408275064 -96.298179741508648 0 -96.298179741508648 162.42565431456023 0 0 0 0 47.137757568229063 -4.9431250439611176 0 -4.9431250439611176 88.251570236652697 0 0 0 0 7.4426759290690825 -43.795818288479495 0 -43.795818288479495 74.683288028712923 0 0 0 0 3.8684519368716792 0.80127899593435359 0 0.80127899593435359 0.050905090958622168 0 0 0 0 -0.34569395736688691 -1.4002500923119854 0 -1.4002500923119854 -0.36173030146523821 0 0 0 0 44.862386764081748 -21.245143957785331 0 -21.245143957785331 8.438584608011297 0 0 0 0 39.092766222151113 -47.074732252029207 0 -47.074732252029207 55.46992918669639 0 0 0 0 41.955271958401681 -42.565989390906452 0 -42.565989390906452 62.555383300037647 0 0 0 0 25.853669783306941 -46.500013806010429 0 -46.500013806010429 -6.9140008977119578 0 0 0 0 27.236431112767605 -62.698479438320646 0 -62.698479438320646 57.69229183137918 0 0 0 0 30.60588868114246 -55.315331229110598 0 -55.315331229110598 73.694470902859393 0 0 0 0 46.606398226340389 -90.357007626253107 0 -90.357007626253107 33.740547957819217 0 0 0 0 42.678762976107464 -77.569935844589054 0 -77.569935844589054 -5.3165765892044874 0 0 0 0 8.8695468200476171 -89.493217530038237 0 -89.493217530038237 7.3539443190124985 0 0 0 0 6.7054840017444803 -79.521678952368347 0 -79.521678952368347 -29.581817143553053 0 0 0 0 -0.17968809979356593 -20.61921619725581 0 -20.61921619725581 55.962275785581369 0 0 0 0 8.6864700021069439 -24.438229081441932 0 -24.438229081441932 -65.042966468539817 0 0 0 0 -50.424423119995481 -122.35853190208763 0 -122.35853190208763 -53.915944554817543 0 0 0 0 -45.504612729670043 -103.79981010968004 0 -103.79981010968004 -29.671945640577178 0 0 0 0 -31.060992627091764 -129.96360658260346 0 -129.96360658260346 -5.451933526787343 0 0 0 0 4.1609839218144771 -89.663534162193173 0 -89.663534162193173 8.2192002307983785 0 0 0 0 57.431229734069348 -119.50553818338267 0 -119.50553818338267 24.126100802148812 0 0 0 0 55.812107503796142 -111.17802884362573 0 -111.17802884362573 -1.8588806901250337 0 0 0 0 48.432261483472757 -149.14112806103185 0 -149.14112806103185 0.64123101295604101 0 0 0 0 33.977212609097933 -150.07136396064948 0 -150.07136396064948 155.01243053415055 0 0 0 0 -44.486666434029758 -103.05200711008456 0 -103.05200711008456 53.348522790638526 0 0 0 0 -96.587001419586613 -178.78153564170225 0 -178.78153564170225 -22.037248205746437 0 0 0 0 -74.557559257819776 -290.70950795052431 0 -290.70950795052431 60.728099566513265 0 0 0 0 -85.122624965239083 -234.05842890613076 0 -234.05842890613076 -120.54028350058616 0 0 0 0 -29.489108199975817 -515.66544428521138 0 -515.66544428521138 -1025.9011515549673 0 0 0 0 -1.6072401325475987 -2.5126559850889087 0 -2.5126559850889087 0.98057762466181764 0 0 0 0 -75.303235298079017 -111.35550549978279 0 -111.35550549978279 607.55510684330056 0 0 0 0 32.168510025485375 -64.775342034416099 0 -64.775342034416099 160.22171186859219 0 0 0 0 18.414105734796976 -61.294429108941586 0 -61.294429108941586 110.64639356557154 0 0 0 0 -13.398189448749235 -29.554594212787833 0 -29.554594212787833 240.29185214678 0 0 0 0 23.797091932769035 -85.964037949149315 0 -85.964037949149315 159.08516702605448 0 0 0 0 -157.94693645503139 -320.94110248180186 0 -320.94110248180186 -772.67509192285752 0 0 0 0 -157.32424070757224 -364.30542056103332 0 -364.30542056103332 -796.42560962837342 0 0 0 0 -4.569813489533459 -5.9088927763179449 0 -5.9088927763179449 3.1426737226149015 0 0 0 0 -0.40373801752502914 -195.90124076258326 0 -195.90124076258326 -698.05622712941715 0 0 0 0 -69.774802088629258 -270.28553421200695 0 -270.28553421200695 -697.34693396186049 0 0 0 0 -165.63847519557021 -270.4834936416637 0 -270.4834936416637 -262.45947470586998 0 0 0 0 -105.5546227135037 -301.98465646988279 0 -301.98465646988279 -948.11937622581536 0 0 0 0 -100.23324904122637 8.1530180195495632 0 8.1530180195495632 83.531905549364069 0 0 0 0 -0.920548586843843 -1.9450156432475971 0 -1.9450156432475971 -0.55103424851784133 0 0 0 0 59.871539922763986 -42.085573017393472 0 -42.085573017393472 -38.647029012920029 0 0 0 0 3.802172365126161 -5.4471676601341983 0 -5.4471676601341983 1.044027034137935 0 0 0 0 -1.2010998475156143 -3.3840641260638122 0 -3.3840641260638122 -0.33562043328404223 0 0 0 0 -42.411952306591047 5.9948325697132532 0 5.9948325697132532 21.966920133894746 0 0 0 0 -147.52513922305661 -162.198384027678 0 -162.198384027678 -361.11348592845479 0 0 0 0 -92.781017317602164 -274.24536399701992 0 -274.24536399701992 -168.12582584285337 0 0 0 0 -163.22795477806585 -437.41936348447416 0 -437.41936348447416 -511.1571076140317 0 0 0 0 25.835579820607336 -59.09188347514737 0 -59.09188347514737 -386.5017692314068 0 0 0 0 65.145392605620145 -143.10051151450079 0 -143.10051151450079 -801.15505760352153 0 0 0 0 -180.67524126514229 -244.02486717951399 0 -244.02486717951399 -739.77316035158037 0 0 0 0 64.320063414592369 -68.21789681124028 0 -68.21789681124028 -190.57708016568176 0 0 0 0 43.576872473932781 -46.065516315870809 0 -46.065516315870809 -80.343420825600333 0 0 0 0 36.36095649123763 -164.62725944834983 0 -164.62725944834983 -395.97259437751927 0 0 0 0 37.677257652666412 -148.06221303725624 0 -148.06221303725624 -219.58344161594141 0 0 0 0 65.534191657309975 3.1114900276427875 0 3.1114900276427875 -286.16269294451558 0 0 0 0 65.416952623400903 -0.5162551898338279 0 -0.5162551898338279 -396.51109093712148 0 0 0 0 57.473026052874957 -26.507082092409746 0 -26.507082092409746 -180.32975325094048 0 0 0 0 -5.5454235051220166 -70.457963970564379 0 -70.457963970564379 -77.479338081009473 0 0 0 0 -1.3786158562834316 -63.115884946695587 0 -63.115884946695587 -190.14397286026178 0 0 0 0 0.68279919728612271 -4.9293804541888022 0 -4.9293804541888022 0.64653381071850724 0 0 0 0 -15.934016901609766 -125.92609846312087 0 -125.92609846312087 -154.96409454436252 0 0 0 0 48.617116078331492 74.623723613242191 0 74.623723613242191 -264.93357695881787 0 0 0 0 46.604445210786253 -95.433558347948747 0 -95.433558347948747 -232.15069007561124 0 0 0 0 -2.8986477669076329 -5.98381732617284 0 -5.98381732617284 -2.3397823320526117 0 0 0 0 51.88873621005996 -131.75578486814584 0 -131.75578486814584 150.93156569558778 0 0 0 0 71.397912300426469 -108.127046843887 0 -108.127046843887 13.15476497007694 0 0 0 0 110.49068005224126 -113.80127356780031 0 -113.80127356780031 12.508374620143513 0 0 0 0 32.62448106435204 -64.6882310627484 0 -64.6882310627484 7.4163183767818737 0 0 0 0 36.155942438901548 -62.119243148290479 0 -62.119243148290479 -14.386678438100716 0 0 0 0 -5.6344266064141522 -6.7779106218865284 0 -6.7779106218865284 -2.3798012172285929 0 0 0 0 -64.760623166949244 -182.74832081792192 0 -182.74832081792192 117.09999427564617 0 0 0 0 12.391481411062784 -39.705050285275206 0 -39.705050285275206 -35.326913560644243 0 0 0 0 64.570697914801713 -82.840416576344978 0 -82.840416576344978 -51.598627665370941 0 0 0 0 36.759719022253307 -72.394415719841106 0 -72.394415719841106 -47.644395258495933 0 0 0 0 61.643118423902934 -90.855027474107828 0 -90.855027474107828 -50.607667669286457 0 0 0 0 76.640012993402706 -92.037581748561934 0 -92.037581748561934 -43.112631215982219 0 0 0 0 87.336136486858777 -91.396142258967302 0 -91.396142258967302 -53.40419912978723 0 0 0 0 86.147968703535298 -74.499037101043541 0 -74.499037101043541 -52.728892565152364 0 0 0 0 86.111597640259788 -71.980306274108443 0 -71.980306274108443 -25.200547271577307 0 0 0 0 35.306177865131758 -7.2050706836616882 0 -7.2050706836616882 -52.994987653151384 0 0 0 0 116.21798555869827 -99.535705185442566 0 -99.535705185442566 -15.740363881079702 0 0 0 0 0.99324838068084986 -0.76814683068164769 0 -0.76814683068164769 -0.3367078813585298 0 0 0 0 51.783564809906238 -101.17480129993601 0 -101.17480129993601 69.345263520181106 0 0 0 0 73.153697271650344 -54.923941723318421 0 -54.923941723318421 48.427962611187468 0 0 0 0 1.8245838304008402 -0.77774875536850274 0 -0.77774875536850274 -0.42244033947225823 0 0 0 0 28.879441321509148 -5.4768328056634346 0 -5.4768328056634346 -38.660853285487974 0 0 0 0 34.348211722997803 -4.9039178840630484 0 -4.9039178840630484 -107.85762879253707 0 0 0 0 -24.321432017251027 -12.548113476111666 0 -12.548113476111666 17.742132693954773 0 0 0 0 12.091904816041279 1.2556158519257679 0 1.2556158519257679 -78.282113223722263 0 0 0 0 23.324115187813732 -40.155941546374379 0 -40.155941546374379 13.11543631927816 0 0 0 0 58.851829030896624 -75.840200796893441 0 -75.840200796893441 -51.420666661764699 0 0 0 0 82.978574161603319 -94.098602566243358 0 -94.098602566243358 -37.897090831811511 0 0 0 0 18.404870420057705 -16.23040975058575 0 -16.23040975058575 -102.49436830724881 0 0 0 0 34.216776814912009 -34.956777300389149 0 -34.956777300389149 -55.7161148412888 0 0 0 0 66.141768906805737 -62.715928219873604 0 -62.715928219873604 -79.779416136454529 0 0 0 0 36.525039289449751 -16.749185655048791 0 -16.749185655048791 -106.63812246279485 0 0 0 0 21.071932173339519 -11.134231609710696 0 -11.134231609710696 -106.43777967297683 0 0 0 0 57.666655274410004 -45.937886648473977 0 -45.937886648473977 -115.57424196479587 0 0 0 0 45.320519723414691 -50.837828586062187 0 -50.837828586062187 -84.268262378755026 0 0 0 0 91.998997078839238 -81.037988576106727 0 -81.037988576106727 -97.629656731174236 0 0 0 0 86.506823439740401 -94.887847098324528 0 -94.887847098324528 -68.093460005620727 0 0 0 0 73.533895146516443 -89.832333175944768 0 -89.832333175944768 -62.496835791956983 0 0 0 0 90.670690337423366 -107.03708341397214 0 -107.03708341397214 -64.072580229736559 0 0 0 0 76.092400469386121 -115.22373795742169 0 -115.22373795742169 -14.301438924760077 0 0 0 0 99.729836452943346 -118.07365099055914 0 -118.07365099055914 -103.31142465863695 0 0 0 0 54.398255710289959 -61.226540665236826 0 -61.226540665236826 -90.066900071653436 0 0 0 0 58.087266282273049 -102.45548965943453 0 -102.45548965943453 -156.21920642960686 0 0 0 0 10.807338723010616 -93.247613953693872 0 -93.247613953693872 -131.75277870457467 0 0 0 0 6.2435913012623132 -71.237455918952264 0 -71.237455918952264 -174.75683345779908 0 0 0 0 33.813722571212566 -25.355416554015392 0 -25.355416554015392 -171.70243787081836 0 0 0 0 20.16791732348247 -33.125355670801582 0 -33.125355670801582 -169.43889340524038 0 0 0 0 15.609602474109124 16.342518773417396 0 16.342518773417396 -200.20860753983925 0 0 0 0 53.019383376537007 -72.290064801863991 0 -72.290064801863991 -112.62104320005892 0 0 0 0 57.183928807147822 -53.473924682702091 0 -53.473924682702091 -143.09827820784631 0 0 0 0 42.363328636354709 -15.968533529750857 0 -15.968533529750857 -161.02203043968166 0 0 0 0 19.194983083325496 -3.9974676256206294 0 -3.9974676256206294 -137.0461166225723 0 0 0 0 34.151555845259281 -33.806804542953614 0 -33.806804542953614 -111.34475180720312 0 0 0 0 8.7156185924159217 -14.241686626891351 0 -14.241686626891351 -100.11587426492952 0 0 0 0 -5.1322158058687819 30.31387152522916 0 30.31387152522916 -150.72260476844531 0 0 0 0 8.1803918965015328 4.6658648506872851 0 4.6658648506872851 -16.870088590215346 0 0 0 0 -5.27125700574652 33.730970338959196 0 33.730970338959196 -164.95398476933224 0 0 0 0 0.064702351444971384 -3.6130226627936484 0 -3.6130226627936484 -2.5493536687300811 0 0 0 0 4.8044397790781659 29.483395309644948 0 29.483395309644948 -163.20508914084166 0 0 0 0 1.6452834685209723 -0.39197522855527822 0 -0.39197522855527822 -1.1347007550662482 0 0 0 0 18.629305528675104 -15.251470049645832 0 -15.251470049645832 14.72848058049567 0 0 0 0 28.873266218692152 -39.189892907570538 0 -39.189892907570538 20.608406851135896 0 0 0 0 19.663887580401934 4.1367613163311034 0 4.1367613163311034 -23.641641097852698 0 0 0 0 0.41811224001207847 -3.3802114819285318 0 -3.3802114819285318 -3.0931806686650347 0 0 0 0 -13.213320218812441 -5.2789509466347226 0 -5.2789509466347226 -10.587666756695398 0 0 0 0 -6.5628507508008624 -20.846559429966874 0 -20.846559429966874 -36.792128111977945 0 0 0 0 20.86012607273392 -6.1895132129141075 0 -6.1895132129141075 -46.117439143548836 0 0 0 0 52.871615772568475 23.025734220673257 0 23.025734220673257 -79.233628755687278 0 0 0 0 64.503612998747485 -27.851555516296685 0 -27.851555516296685 -43.134318072577116 0 0 0 0 69.995005486935042 -4.7856930594125515 0 -4.7856930594125515 -58.627976755404234 0 0 0 0 50.63349056424704 -17.107536404288112 0 -17.107536404288112 -30.450052246869745 0 0 0 0 60.724170710687758 -21.843774137303626 0 -21.843774137303626 -35.75503189214669 0 0 0 0 49.071030575592886 -9.1702479726791353 0 -9.1702479726791353 -23.039886291982839 0 0 0 0 102.11216794816391 -38.954507116559398 0 -38.954507116559398 -17.470384924454265 0 0 0 0 33.094012090132537 -66.778438720065765 0 -66.778438720065765 83.683143119160377 0 0 0 0 -9.0975425653050479 53.019453072466604 0 53.019453072466604 -225.99675979139647 0 0 0 0 -19.618897078107693 34.647400911690056 0 34.647400911690056 -174.90925370916739 0 0 0 0 0.9881247069504937 -2.8321052195249834 0 -2.8321052195249834 -3.8012780087676177 0 0 0 0 -4.5695208784691204 -159.69273878503736 0 -159.69273878503736 138.08152548575163 0 0 0 0 63.257997287118997 1.3891597481824647 0 1.3891597481824647 -0.87534146997313655 0 0 0 0 -13.5182888679592 30.467722534055611 0 30.467722534055611 -607.44185940433999 0 0 0 0 0.48408214719759002 -1.4741600085210731 0 -1.4741600085210731 -1.7364757944964158 0 0 0 0 -85.728019477477574 -191.78803117180769 0 -191.78803117180769 -531.21944610208629 0 0 0 0 -43.524231483926997 103.45360524002535 0 103.45360524002535 -312.99917200353957 0 0 0 0 11.968359147791489 -18.886269854783677 0 -18.886269854783677 -416.25481702610432 0 0 0 0 11.117495151629555 -5.2434502685173356 0 -5.2434502685173356 -222.74824689659579 0 0 0 0 19.782876852425943 -22.464998040529508 0 -22.464998040529508 -263.75410262627156 0 0 0 0 -75.026381274528831 -162.03315062969432 0 -162.03315062969432 -229.17161277333048 0 0 0 0 -57.85667882270036 -100.59052835830107 0 -100.59052835830107 -216.25390969854016 0 0 0 0 -45.700461431570147 -118.71239936505663 0 -118.71239936505663 -218.12755644580466 0 0 0 0 -65.293795578487334 -128.94343179114821 0 -128.94343179114821 -120.06110897443159 0 0 0 0 -86.705117367273488 -170.37626026628641 0 -170.37626026628641 -307.82000266052319 0 0 0 0 -182.98869555989131 -199.97190667868722 0 -199.97190667868722 -144.71359340937124 0 0 0 0 -167.90957748791334 -215.90704394771137 0 -215.90704394771137 -153.36595538450092 0 0 0 0 -194.37239899404904 -243.06106657446571 0 -243.06106657446571 -162.40634770194083 0 0 0 0 -100.64593194265763 -274.83723158690555 0 -274.83723158690555 -93.017913376164188 0 0 0 0 -147.5013530588194 -200.61625103938286 0 -200.61625103938286 -194.72780339392557 0 0 0 0 -111.36434457230462 -146.26640731833959 0 -146.26640731833959 -71.952962261555513 0 0 0 0 -38.508431610438492 -149.84590456710794 0 -149.84590456710794 -148.82091544098421 0 0 0 0 -31.643146405263906 -117.17243495590992 0 -117.17243495590992 -14.610577084244142 0 0 0 0 55.108844749003765 -86.420693804442635 0 -86.420693804442635 -30.758680105944222 0 0 0 0 87.161984422245951 -166.3765288002387 0 -166.3765288002387 -40.704433030460905 0 0 0 0 -63.239135452209666 -286.40838267213167 0 -286.40838267213167 478.4874776364868 0 0 0 0 69.581303758786817 -82.447962424341313 0 -82.447962424341313 195.20631454809882 0 0 0 0 0.33780078887320997 -343.03401555602704 0 -343.03401555602704 78.763882462576248 0 0 0 0 39.521871508019103 -89.694225082564117 0 -89.694225082564117 -14.642802282049161 0 0 0 0 -28.584201290889723 -252.3738714378228 0 -252.3738714378228 -205.09707305479787 0 0 0 0 -136.68992722327437 -347.12379535377977 0 -347.12379535377977 -282.67522848256158 0 0 0 0 -0.62324310546724604 -2.6636269819831249 0 -2.6636269819831249 -1.1763470094486426 0 0 0 0 180.68697150402477 -122.55289780368821 0 -122.55289780368821 -790.03702793414732 0 0 0 0 -32.485322704780629 -357.40389369906143 0 -357.40389369906143 -981.46216362995528 0 0 0 0 -259.35029067914184 -99.810500374429466 0 -99.810500374429466 385.74460054015617 0 0 0 0 -0.60581692597714465 -2.4531302639463846 0 -2.4531302639463846 0.046723283474507937 0 0 0 0 -146.43747579997762 -458.40743963283421 0 -458.40743963283421 -105.04012660302942 0 0 0 0 -71.607489601590714 -237.38399347030827 0 -237.38399347030827 -391.83069441365114 0 0 0 0 -66.502875951931856 -250.67679704159764 0 -250.67679704159764 -357.37453428778008 0 0 0 0 -63.541429970151057 -238.41675344973214 0 -238.41675344973214 -314.51623481314618 0 0 0 0 -148.6956295054315 -213.68300655591975 0 -213.68300655591975 -316.56525950386913 0 0 0 0 -72.531013996580441 -233.99848486223345 0 -233.99848486223345 -212.7502333749153 0 0 0 0 -121.65196227017259 -275.03806508746857 0 -275.03806508746857 -212.24635294911241 0 0 0 0 14.667919494473608 -183.36060407491459 0 -183.36060407491459 -333.37944929174409 0 0 0 0 -25.937287183503486 -79.893021554597453 0 -79.893021554597453 -121.5681219413018 0 0 0 0 -264.65845919392268 -184.69470916539467 0 -184.69470916539467 -209.14239323808397 0 0 0 0 -262.94247503120823 -295.34966995745799 0 -295.34966995745799 -205.40404473035369 0 0 0 0 -249.37168404958538 -128.4023843528712 0 -128.4023843528712 -57.776994248314168 0 0 0 0 -1.8958369289975181 -1.9136594828997708 0 -1.9136594828997708 -0.25190946876692522 0 0 0 0 8.0701253676415945 -21.905090301600467 0 -21.905090301600467 -193.83788792080122 0 0 0 0 44.007674670428969 -72.708952872510054 0 -72.708952872510054 -137.51030278276266 0 0 0 0 -24.856729943378923 1.5228494393563778 0 1.5228494393563778 152.80980605310106 0 0 0 0 -0.85177302565766411 -2.8604337912753692 0 -2.8604337912753692 -3.5801132075508484 0 0 0 0 135.05737158136776 -35.058874082735088 0 -35.058874082735088 -29.573947485732788 0 0 0 0 -12.151890900135186 14.411721917392242 0 14.411721917392242 -30.264376675231688 0 0 0 0 229.16834078495958 54.908257355964452 0 54.908257355964452 17.466502404458424 0 0 0 0 141.58069059039417 -153.55440392114883 0 -153.55440392114883 -15.51513603924468 0 0 0 0 -60.723485224027172 -97.879179389375622 0 -97.879179389375622 -119.77607041224564 0 0 0 0 0.98653966172606999 -0.72113195546778996 0 -0.72113195546778996 2.2873013205396191 0 0 0 0 -131.00886383056695 -80.174380400560494 0 -80.174380400560494 -84.87067044313244 0 0 0 0 21.122940503764767 -294.42818126037218 0 -294.42818126037218 -117.26938689056988 0 0 0 0 -112.25484403647533 -228.93583138330223 0 -228.93583138330223 -42.090384654460649 0 0 0 0 135.00057024062926 -67.093593214728799 0 -67.093593214728799 -172.16101182317288 0 0 0 0 -15.340069714233323 -160.63061928539446 0 -160.63061928539446 -219.36173924987997 0 0 0 0 -45.555925370966179 -222.81009577175246 0 -222.81009577175246 -190.40369911554444 0 0 0 0 -205.33734909169834 -256.56860607953149 0 -256.56860607953149 -185.16572169195535 0 0 0 0 -111.79587249543238 -197.02654767499871 0 -197.02654767499871 -142.55538066435474 0 0 0 0 -186.35325685743919 -267.54851496462288 0 -267.54851496462288 -139.26194466141078 0 0 0 0 -202.06541099058813 -233.29269652352696 0 -233.29269652352696 -192.37775478627736 0 0 0 0 -145.1824011681274 -268.93538859110959 0 -268.93538859110959 -249.99155039476136 0 0 0 0 -134.12279121976098 -232.95748321901738 0 -232.95748321901738 -264.74827529950016 0 0 0 0 -132.37271140411121 -237.7053182162847 0 -237.7053182162847 -307.53321541959667 0 0 0 0 -143.40794315915582 -272.52901330480768 0 -272.52901330480768 -290.12408909675105 0 0 0 0 -269.51168274987685 -357.5463025694753 0 -357.5463025694753 -393.35505625907854 0 0 0 0 14.497639707578855 -189.853452050741 0 -189.853452050741 -104.9112877040443 0 0 0 0 79.205206974726934 -171.882167495874 0 -171.882167495874 -624.07719208287199 0 0 0 0 -46.46386041484584 -2.300258253051652 0 -2.300258253051652 -10.022019825551979 0 0 0 0 -41.452267836644751 134.64669375835228 0 134.64669375835228 -231.84404434262524 0 0 0 0 43.498210931385984 30.965323113876366 0 30.965323113876366 -206.63723422378962 0 0 0 0 -60.925531499324279 69.713478839415075 0 69.713478839415075 -69.229779608771423 0 0 0 0 -0.40701631812603534 -0.8453090912377732 0 -0.8453090912377732 -5.5583529659875808 0 0 0 0 -465.2601342291473 -393.5311438619251 0 -393.5311438619251 -258.64893041889218 0 0 0 0 -43.31381863095703 -236.05529232272738 0 -236.05529232272738 -637.66090378020908 0 0 0 0 -313.78808812576426 -31.097721722550887 0 -31.097721722550887 -413.05533295487476 0 0 0 0 -93.459726657416468 -176.90612452708683 0 -176.90612452708683 -317.20082221129906 0 0 0 0 -37.42371918264962 -113.43683565169681 0 -113.43683565169681 -289.28592294581631 0 0 0 0 -0.12393212622646388 -81.499027026842327 0 -81.499027026842327 -183.29152059523358 0 0 0 0 -4.6520932082094077 -110.175262568162 0 -110.175262568162 -279.65758411083698 0 0 0 0 16.157996305020788 -60.433251536192074 0 -60.433251536192074 -292.0925644743138 0 0 0 0 17.926534054780404 -111.58841099348194 0 -111.58841099348194 -319.18316322978353 0 0 0 0 -62.147164224184507 -57.308776325067015 0 -57.308776325067015 -323.8106019999741 0 0 0 0 20.199963617544199 -100.3488521841723 0 -100.3488521841723 -424.64273738722386 0 0 0 0 -44.89521764440326 -218.05025426862159 0 -218.05025426862159 -338.91460381270281 0 0 0 0 -10.662311167371627 -194.06346838826948 0 -194.06346838826948 -313.87837913488192 0 0 0 0 -14.829150023941111 -213.91210740989573 0 -213.91210740989573 -345.85393304794479 0 0 0 0 -55.551901039922086 -252.82849057822523 0 -252.82849057822523 -382.06220263037108 0 0 0 0 -36.407152651376236 -203.94235384165177 0 -203.94235384165177 -263.95279438219768 0 0 0 0 0.35701734442625721 -0.50290886446719796 0 -0.50290886446719796 -1.2010105931231934 0 0 0 0 -27.77127202283782 -159.12756221065206 0 -159.12756221065206 -293.8243187228868 0 0 0 0 0.3799918801415636 -0.29848392499463472 0 -0.29848392499463472 -0.97814231619961944 0 0 0 0 95.378829127304925 -15.861796586750643 0 -15.861796586750643 -206.95649465175529 0 0 0 0 -22.79641812664704 -93.890400962042804 0 -93.890400962042804 -109.45191552610686 0 0 0 0 0.13288865352205903 -146.46683099486654 0 -146.46683099486654 -37.743557563876493 0 0 0 0 -30.25925149883733 -97.446131168541342 0 -97.446131168541342 -103.12482727693441 0 0 0 0 -2.9224236749323609 -109.90611582855581 0 -109.90611582855581 -231.66917441098167 0 0 0 0 26.337293127309749 -50.610375607538117 0 -50.610375607538117 -235.98717038155519 0 0 0 0 -11.720260977696853 -104.8538724525215 0 -104.8538724525215 73.616607445512273 0 0 0 0 12.857523554943327 -95.324660147537998 0 -95.324660147537998 -104.55486879035425 0 0 0 0 -21.139286351924966 -127.86080105531073 0 -127.86080105531073 13.036699671495626 0 0 0 0 -7.4007095185897924 -90.018175355003223 0 -90.018175355003223 41.884086461984452 0 0 0 0 -38.48808884950995 -172.5643294554111 0 -172.5643294554111 -34.546427432622295 0 0 0 0 -8.1163632678735667 -104.75238443971239 0 -104.75238443971239 -114.08538040786107 0 0 0 0 11.433811756220166 -15.010484033658486 0 -15.010484033658486 -6.760254227511723 0 0 0 0 2.3130607045732177 -14.2881795699127 0 -14.2881795699127 -2.7974985604168978 0 0 0 0 2.2270275933477706 -13.382345281642046 0 -13.382345281642046 -1.8313749169701623 0 0 0 0 0.018234086519441917 -15.610027068810041 0 -15.610027068810041 -4.0019609383189163 0 0 0 0 2.6086931562022073 -8.3281305583511767 0 -8.3281305583511767 -14.827709990638141 0 0 0 0 0.93912089009245392 -12.100540630555088 0 -12.100540630555088 -2.1543117957153299 0 0 0 0 20.367570458878618 -22.15270677726096 0 -22.15270677726096 -14.483324517821984 0 0 0 0 0.12743715448266357 -0.58779265902813194 0 -0.58779265902813194 -0.29921608100096186 0 0 0 0 43.171773117996054 5.7425906555558868 0 5.7425906555558868 -8.5356476886468045 0 0 0 0 41.759798902108741 -5.4393569549120002 0 -5.4393569549120002 -10.393143604815812 0 0 0 0 -0.71221018714830819 -2.8158897942143035 0 -2.8158897942143035 -10.014352878920954 0 0 0 0 -6.7030014320648661 -20.081172639953479 0 -20.081172639953479 -7.3946874848161315 0 0 0 0 -5.5424233497069508 -12.96107695671526 0 -12.96107695671526 -6.9620334548062601 0 0 0 0 16.891668658738126 -5.1670165960790655 0 -5.1670165960790655 -18.265363192593213 0 0 0 0 5.0888030695605266 -5.3146545825275098 0 -5.3146545825275098 -10.17821253821603 0 0 0 0 3.7920837045712688 1.3577888686354527 0 1.3577888686354527 -4.3028693780870526 0 0 0 0 5.1217951176295173 -1.3380353305392418 0 -1.3380353305392418 -4.5751906243518761 0 0 0 0 0.30153299402566347 -2.7395940914747356 0 -2.7395940914747356 -1.8579934357835839 0 0 0 0 1.9625106775438326 -3.7617079418157573 0 -3.7617079418157573 -3.7175850155290391 0 0 0 0 16.286202821287588 -0.70154044128184978 0 -0.70154044128184978 -12.010696923596697 0 0 0 0 12.589184671984185 -10.474243813239184 0 -10.474243813239184 -5.2643462234218532 0 0 0 0 22.378885099624313 -13.945785143149806 0 -13.945785143149806 -10.222253501052208 0 0 0 0 25.727551155214314 2.6346841529875746 0 2.6346841529875746 0.70673925173832686 0 0 0 0 14.01602093387919 -3.496377781531919 0 -3.496377781531919 -7.9162011590169641 0 0 0 0 13.238392967125947 -5.8508390324902848 0 -5.8508390324902848 -4.0698274487704111 0 0 0 0 16.741371304127824 -9.8685935257421988 0 -9.8685935257421988 -6.3589698545101783 0 0 0 0 8.9652965937711997 -9.0402049908152549 0 -9.0402049908152549 -6.1100721436814638 0 0 0 0 9.9256169116097226 -6.8748712426538532 0 -6.8748712426538532 -2.5451611615153524 0 0 0 0 8.8953632544362335 -4.1487225947248589 0 -4.1487225947248589 -4.5060207959591025 0 0 0 0 7.3952915249865327 -5.4845577764174323 0 -5.4845577764174323 -5.2566517405252853 0 0 0 0 9.5472725475378866 -5.7326267975593055 0 -5.7326267975593055 -5.2944342459277323 0 0 0 0 0.85640337037875014 -0.71402879425928489 0 -0.71402879425928489 -5.9285027002806228 0 0 0 0 1.5850323319396011 -0.45648807714655959 0 -0.45648807714655959 -4.8208551958850876 0 0 0 0 0.045466965516880009 0.26885016270289253 0 0.26885016270289253 -0.46531502296886051 0 0 0 0 -0.79704709460074952 -0.64165239822488296 0 -0.64165239822488296 -1.5269231106395935 0 0 0 0 -20.664591481188836 -8.8102938945812639 0 -8.8102938945812639 -3.0414777184564628 0 0 0 0 1.2154187600613113 3.7767697593582312 0 3.7767697593582312 -8.4942635402458109 0 0 0 0 5.9005205563007621 0.84082027363820089 0 0.84082027363820089 -3.897458715899802 0 0 0 0 -7.1923801949378685 2.6004657392295485 0 2.6004657392295485 -6.505205836994719 0 0 0 0 -0.74551083984935929 -0.21800227948154927 0 -0.21800227948154927 0.23591969452834505 0 0 0 0 5.2168603118443571 -5.1716019974903702 0 -5.1716019974903702 6.4344186790358435 0 0 0 0 8.5111129809629347 -4.6680671467902357 0 -4.6680671467902357 -2.3211411127578572 0 0 0 0 4.9251954255196324 33.372171625388091 0 33.372171625388091 0.77890757234854391 0 0 0 0 1.5138411901134532 -9.3206129934933415 0 -9.3206129934933415 8.5204841905433568 0 0 0 0 -0.82755777116835816 -14.595679821880367 0 -14.595679821880367 6.1743871712023974 0 0 0 0 0.16453645028741448 -13.89662782695541 0 -13.89662782695541 0.72947203281819384 0 0 0 0 -0.99000794907624368 -14.486991428534566 0 -14.486991428534566 0.72381728448408467 0 0 0 0 3.8520081655387912 -7.8780749782015391 0 -7.8780749782015391 1.7613653822209017 0 0 0 0 -1.287060059592477 -12.87760776903724 0 -12.87760776903724 4.0053958153112035 0 0 0 0 4.1473329637155985 -10.068661703568068 0 -10.068661703568068 -1.0358522848337088 0 0 0 0 2.5931867940917073 -13.106009687934829 0 -13.106009687934829 -1.0572251684425282 0 0 0 0 1.5129812793802557 -12.425889984900095 0 -12.425889984900095 0.15952613030003704 0 0 0 0 6.5282588985701295 -12.30638195632082 0 -12.30638195632082 -1.9188006946951646 0 0 0 0 8.602958990033585 -9.384748289763138 0 -9.384748289763138 -1.9326844349034218 0 0 0 0 0.11071404878748581 -14.330263162375559 0 -14.330263162375559 -1.154266073625422 0 0 0 0 -0.014598643287172308 -14.316756074700606 0 -14.316756074700606 -0.97445118364248628 0 0 0 0 -0.45268577144452138 -16.052038698786816 0 -16.052038698786816 -3.1087491520347612 0 0 0 0 0.037241814259687089 -14.495685874216178 0 -14.495685874216178 -3.9314153750804053 0 0 0 0 1.1926427552698442 -15.332861702912169 0 -15.332861702912169 -8.964417983912881 0 0 0 0 -6.2746953924889937 29.752686534167371 0 29.752686534167371 34.022731024011591 0 0 0 0 -2.207060376622394 -18.711040829534795 0 -18.711040829534795 -0.93362345554714921 0 0 0 0 -4.12272936645752 -56.993215237648442 0 -56.993215237648442 -82.098454045477411 0 0 0 0 2.0002368156783632 -81.194389451948155 0 -81.194389451948155 -434.41339776927532 0 0 0 0 0.79387965381533832 -75.734784041278829 0 -75.734784041278829 -210.88518123954327 0 0 0 0 -0.70651762491769432 -0.28505466982807004 0 -0.28505466982807004 -0.42941768003955971 0 0 0 0 0.068311018199799831 -144.25288911724468 0 -144.25288911724468 -319.74488294390994 0 0 0 0 -23.868781925359144 -154.26227236386376 0 -154.26227236386376 -321.93116309332754 0 0 0 0 -0.53518360341331572 -158.08051176248455 0 -158.08051176248455 -336.83636193903158 0 0 0 0 -139.41649818643236 -224.90906535803242 0 -224.90906535803242 -205.97305023870467 0 0 0 0 -25.809892623533415 -155.59334966155654 0 -155.59334966155654 -277.66113442952155 0 0 0 0 -35.741155901239836 -141.43918308584034 0 -141.43918308584034 -291.43746428925806 0 0 0 0 -60.836919004213996 -115.737899753178 0 -115.737899753178 -158.93621413954497 0 0 0 0 -46.260223757324638 -93.512022707591768 0 -93.512022707591768 -127.76955822901618 0 0 0 0 -35.10981413358877 -16.434800211833362 0 -16.434800211833362 -85.018022579389253 0 0 0 0 -3.88247805872561 -26.832933161569599 0 -26.832933161569599 -183.80763198607383 0 0 0 0 -20.177245342578317 -55.025654540840605 0 -55.025654540840605 -231.29443402621109 0 0 0 0 -13.091114142964216 -6.2828358589422351 0 -6.2828358589422351 15.470904087501367 0 0 0 0 -1.4210704182130129 -1.2296199758618442 0 -1.2296199758618442 -0.46573934867032563 0 0 0 0 5.4735640903527383 21.552218391572751 0 21.552218391572751 -34.121453695544915 0 0 0 0 -5.6029935524929897 -29.46347095447527 0 -29.46347095447527 -12.006703549208396 0 0 0 0 -0.52736894850750105 15.211668082362166 0 15.211668082362166 -27.439585813131998 0 0 0 0 3.7403253147567739 7.6768020007421001 0 7.6768020007421001 -19.59703984200678 0 0 0 0 -1.3302470880629684 -1.5684827018989909 0 -1.5684827018989909 -0.75219685876645892 0 0 0 0 -1.5361806548717141 -2.4493715845464976 0 -2.4493715845464976 -2.753973842664891 0 0 0 0 -0.18501817502898632 0.19736584497912091 0 0.19736584497912091 -0.30019161402793237 0 0 0 0 15.110307453876885 -2.3929605892890322 0 -2.3929605892890322 -22.904988194384714 0 0 0 0 1.9612203101351042 -5.0062249924349089 0 -5.0062249924349089 -6.5431217940858915 0 0 0 0 -1.603884914671653 1.7579116065517155 0 1.7579116065517155 -8.9490546891756821 0 0 0 0 0.96334526992723113 0.41722178292275203 0 0.41722178292275203 -6.632261797789397 0 0 0 0 -2.0843868568481412 -0.47673089048294059 0 -0.47673089048294059 -5.9667781908010511 0 0 0 0 0.37566279808635272 0.2859464522345867 0 0.2859464522345867 -3.447250332839765 0 0 0 0 15.647182486543898 18.607050002713549 0 18.607050002713549 -116.82989450055152 0 0 0 0 -0.52439682969998103 0.18208191840312793 0 0.18208191840312793 -5.8309860675853997 0 0 0 0 0.092226565073360689 -1.194035706384966 0 -1.194035706384966 -5.4184204001321632 0 0 0 0 -0.13216454736175365 -0.60334249356583314 0 -0.60334249356583314 -4.4451348689217411 0 0 0 0 0.56231769776786678 -2.0122168811576557 0 -2.0122168811576557 -4.1055523025725051 0 0 0 0 -23.084688285256561 32.544508143068924 0 32.544508143068924 24.653515414320282 0 0 0 0 -56.775239473212423 -18.134362253749714 0 -18.134362253749714 -15.993327062466051 0 0 0 0 0.46844725213304628 -0.56438581674046873 0 -0.56438581674046873 -0.68444470913891564 0 0 0 0 13.472369819399319 -102.15688122097708 0 -102.15688122097708 -103.75706854818054 0 0 0 0 42.526480772688956 -79.783473031257017 0 -79.783473031257017 -197.12112188492029 0 0 0 0 42.307847020067129 -21.928240078191266 0 -21.928240078191266 -130.38493826956324 0 0 0 0 -0.038486301953390978 -1.1260522451766164 0 -1.1260522451766164 -2.392603522811541 0 0 0 0 0.072772086840309669 -0.59375055594546211 0 -0.59375055594546211 -2.0941624718564782 0 0 0 0 -0.34569576330703455 -0.69977839076762471 0 -0.69977839076762471 -1.8565484585002134 0 0 0 0 -6.0560994399747869 -13.652135267087942 0 -13.652135267087942 -32.673571298157185 0 0 0 0 6.1908372932230122 -3.3068608064240834 0 -3.3068608064240834 -1.7001320201552517 0 0 0 0 -0.047122932760665037 -0.18317885786673571 0 -0.18317885786673571 -0.48392801532228535 0 0 0 0 0.10652213331387728 -0.52010490056592218 0 -0.52010490056592218 -0.60499591403922537 0 0 0 0 58.294282048946116 28.249074674691201 0 28.249074674691201 -54.277346221109383 0 0 0 0 51.904329296452488 40.035959826182079 0 40.035959826182079 6.7302341089452966 0 0 0 0 -31.256134409391962 33.745453365039793 0 33.745453365039793 83.234620955098762 0 0 0 0 -50.400662485533303 90.543598002319527 0 90.543598002319527 -60.948970526720586 0 0 0 0 -38.242913659618353 -63.37289556146925 0 -63.37289556146925 10.873322873991128 0 0 0 0 -0.55832497327782704 -0.099876709771923089 0 -0.099876709771923089 0.8050020763759953 0 0 0 0 -61.255404856764017 41.528956084301399 0 41.528956084301399 26.216570462207528 0 0 0 0 115.67380684323143 -10.371105852110304 0 -10.371105852110304 -91.892311438842626 0 0 0 0 -0.23563579367612508 -2.3412642739637093 0 -2.3412642739637093 -21.217783882517047 0 0 0 0 19.005873689087366 -43.027245502341884 0 -43.027245502341884 -21.111408431310338 0 0 0 0 30.016702825200809 7.4316978533003066 0 7.4316978533003066 -116.79637860741605 0 0 0 0 -29.220532844352419 2.4833583993131469 0 2.4833583993131469 -47.340043016682102 0 0 0 0 -45.309714246719523 -41.484404597980756 0 -41.484404597980756 -116.68293873058428 0 0 0 0 -69.857317624970165 -89.503129720578727 0 -89.503129720578727 -110.16855567628045 0 0 0 0 -73.050711304109427 -59.823561637852436 0 -59.823561637852436 -72.539941162527612 0 0 0 0 -16.302068144595978 1.5341024758204185 0 1.5341024758204185 -10.746349069681855 0 0 0 0 -0.28649662907386819 -2.1475445376297841 0 -2.1475445376297841 -14.760266588053351 0 0 0 0 -41.098280684211204 -114.86595294684912 0 -114.86595294684912 -81.895127296193095 0 0 0 0 -97.989889673432117 -94.189158203468196 0 -94.189158203468196 -73.0709450349691 0 0 0 0 3.7180602191206162 13.250811020883475 0 13.250811020883475 -26.557280097726107 0 0 0 0 -0.70751111800564104 31.005230211785602 0 31.005230211785602 -51.58567962343659 0 0 0 0 -4.6806309002167836 12.474441140936506 0 12.474441140936506 -20.553538631538686 0 0 0 0 38.188391096336773 -16.775790568448883 0 -16.775790568448883 -30.178932087894282 0 0 0 0 5.5271963539526041 -1.0829985873842816 0 -1.0829985873842816 -12.827858218339315 0 0 0 0 3.5699273058467043 6.9791679897064114 0 6.9791679897064114 -35.365606794761334 0 0 0 0 7.0464936921343906 -6.0577289717648455 0 -6.0577289717648455 -29.562652190723384 0 0 0 0 8.6936637334374609 -4.446871039954658 0 -4.446871039954658 -27.994474232404173 0 0 0 0 4.6471281993653974 -11.071432828193792 0 -11.071432828193792 -24.601472877317974 0 0 0 0 13.179147799295606 -11.778475074868766 0 -11.778475074868766 -19.614931597510804 0 0 0 0 26.5084327091663 -6.1196948781034735 0 -6.1196948781034735 -24.830554730171571 0 0 0 0 11.178872857490205 -12.931768666790958 0 -12.931768666790958 -27.689856580669584 0 0 0 0 0.62747782814108799 -3.9105213700082224 0 -3.9105213700082224 -25.692055860050523 0 0 0 0 10.483468651527801 -12.697232070406244 0 -12.697232070406244 -24.25743479126686 0 0 0 0 8.4921788524043222 -9.3941398104507243 0 -9.3941398104507243 -21.400611699064029 0 0 0 0 10.03284944362531 -10.995277554398854 0 -10.995277554398854 -29.216716241629911 0 0 0 0 4.1577684174772003 -10.195062937694274 0 -10.195062937694274 -26.149865493658581 0 0 0 0 6.5729025336513587 -12.380060541865532 0 -12.380060541865532 -30.529891508791479 0 0 0 0 5.5976034691157111 -12.390149724273215 0 -12.390149724273215 -25.611509494282473 0 0 0 0 10.373974774429371 -11.068574901100874 0 -11.068574901100874 -26.645479639704718 0 0 0 0 5.3146080231927044 -11.25331119128532 0 -11.25331119128532 -28.191942076627129 0 0 0 0 -2.0480131988551875 -15.22024631811837 0 -15.22024631811837 -26.936330034644925 0 0 0 0 1.8344143613919073 -6.6988962537126255 0 -6.6988962537126255 -6.2989462270706689 0 0 0 0 2.8883451071878881 -1.4778267085521293 0 -1.4778267085521293 -14.88004126477972 0 0 0 0 4.2649304258302436 -3.8410795926338324 0 -3.8410795926338324 -4.1247615970506324 0 0 0 0 2.4122153971841414 -1.864555735552166 0 -1.864555735552166 -3.9752886009879518 0 0 0 0 0.98882006513485976 -0.29008642879580293 0 -0.29008642879580293 -4.2324575508519047 0 0 0 0 6.9850121822055371 -3.8129571539793687 0 -3.8129571539793687 -4.1248113622977147 0 0 0 0 1.3856618650445105 -0.52352438695121606 0 -0.52352438695121606 -4.6695587111853953 0 0 0 0 4.653205515425725 -1.9461057517428344 0 -1.9461057517428344 -4.6135874684968314 0 0 0 0 2.446281461081103 -1.2034806973366621 0 -1.2034806973366621 -5.8754565556085012 0 0 0 0 2.1833150920588196 -1.2437909856208762 0 -1.2437909856208762 -7.436937837399455 0 0 0 0 1.4009190730357659 0.39977903324779618 0 0.39977903324779618 -9.0378738105382581 0 0 0 0 2.6061707119387663 -2.2206893891520334 0 -2.2206893891520334 -6.7456172684478481 0 0 0 0 3.1465907037636498 -1.8969050940795569 0 -1.8969050940795569 -4.6148369771572106 0 0 0 0 0.51028065544569046 -1.5662781763765565 0 -1.5662781763765565 -4.0130591655882526 0 0 0 0 11.339157134185371 -12.89890543407455 0 -12.89890543407455 -29.171029613593362 0 0 0 0 2.4797904160684467 2.1322349580253466 0 2.1322349580253466 -3.7187664688983162 0 0 0 0 32.396305718946678 1.6425404493293172 0 1.6425404493293172 -28.31584304763237 0 0 0 0 2.4707936748709471 0.07627050922383205 0 0.07627050922383205 -9.7333228089867134 0 0 0 0 29.041831720311166 -0.37660757561752689 0 -0.37660757561752689 -29.531165938507911 0 0 0 0 2.5190550855979623 2.1993413908610382 0 2.1993413908610382 -4.4017815120248134 0 0 0 0 -14.746337943375693 -3.644965177445556 0 -3.644965177445556 -20.854463489918999 0 0 0 0 2.2418328462839661 -0.43378580220422869 0 -0.43378580220422869 -5.4840074595875308 0 0 0 0 0.86317080371736665 1.969490913039408 0 1.969490913039408 -6.4155575832444924 0 0 0 0 1.845263427923534 -0.27679502971964265 0 -0.27679502971964265 -3.3340874007757559 0 0 0 0 0.2096208237376942 -0.75486907865310116 0 -0.75486907865310116 -2.7825274404204379 0 0 0 0 0.57915890038127316 0.77024010028091716 0 0.77024010028091716 -2.2448609372400283 0 0 0 0 0.50600374708301388 0.068086828767263796 0 0.068086828767263796 -2.8860498965514125 0 0 0 0 0.87028505335183581 -0.47646550453191594 0 -0.47646550453191594 -8.0332082061777328 0 0 0 0 -1.681655624150153 -1.433092893947105 0 -1.433092893947105 -6.010989600144967 0 0 0 0 0.54019396770796035 0.69674835944336522 0 0.69674835944336522 -2.9914475535514882 0 0 0 0 0.1017286230053287 0.91129391296999529 0 0.91129391296999529 -6.3302988733130405 0 0 0 0 0.82256570772187843 0.50705603799497112 0 0.50705603799497112 -3.3699360240734677 0 0 0 0 0.51410277282541372 0.58081149372710428 0 0.58081149372710428 -2.0429659451230506 0 0 0 0 0.64162433911031513 0.20546437743163715 0 0.20546437743163715 -2.8273862149824374 0 0 0 0 0.26721257993526137 0.20655823918741234 0 0.20655823918741234 -4.8286080012578907 0 0 0 0 1.8383189796222723 0.094289518587174825 0 0.094289518587174825 -8.1968501053906948 0 0 0 0 1.6702922973918248 -0.059975071339749775 0 -0.059975071339749775 -8.1304768920035713 0 0 0 0 1.7406565939563734 0.47282357257336116 0 0.47282357257336116 -6.952324591253273 0 0 0 0 2.3197162274728527 -0.85228930372318246 0 -0.85228930372318246 -4.7591424491375349 0 0 0 0 1.8232607221143553 0.10800908724650071 0 0.10800908724650071 -8.1283604633115942 0 0 0 0 1.1118944480977007 0.34134376837710079 0 0.34134376837710079 -7.8664590157823113 0 0 0 0 1.6691935869530425 -0.33439102388001629 0 -0.33439102388001629 -7.9523089159702067 0 0 0 0 1.7792392762584832 -0.71961519473381408 0 -0.71961519473381408 -6.9231112419459642 0 0 0 0 1.7471951844973148 0.070792752923851232 0 0.070792752923851232 -4.3991195873739244 0 0 0 0 1.347485031143151 -0.25126803465809644 0 -0.25126803465809644 -7.9157011021316066 0 0 0 0 1.7427642419988842 -1.6057165677224248 0 -1.6057165677224248 -9.4255900436146476 0 0 0 0 1.5943557244972908 -1.9007668594297229 0 -1.9007668594297229 -6.0433365270346258 0 0 0 0 1.6450677595955909 -1.7556122742563316 0 -1.7556122742563316 -2.9097355748071596 0 0 0 0 0.052462016769553088 -3.7365612160675639 0 -3.7365612160675639 -1.8388674250745822 0 0 0 0 0.038687290742238645 -0.14377758829414322 0 -0.14377758829414322 0.16237803550372476 0 0 0 0 -9.8099452266651497 -7.7636961205971602 0 -7.7636961205971602 0.48313366597085405 0 0 0 0 3.4389760495441806 0.658043710762513 0 0.658043710762513 -4.3716534073464572 0 0 0 0 -1.3159337600554863 2.2720046171361901 0 2.2720046171361901 -4.716252686345797 0 0 0 0 -0.44123548610514263 -1.4443870935756422 0 -1.4443870935756422 -3.3970845180756442 0 0 0 0 5.9914730586169753 1.5959014373820537 0 1.5959014373820537 -9.7069595960583683 0 0 0 0 14.945284017181621 1.686804623197304 0 1.686804623197304 -33.368663214225307 0 0 0 0 -1.4370564077689778 10.132719396767243 0 10.132719396767243 -16.271571218841927 0 0 0 0 -6.8656686331160017 4.0545385470441033 0 4.0545385470441033 -3.03451230210527 0 0 0 0 -13.585611693993997 3.4326688236733389 0 3.4326688236733389 -22.233909356233198 0 0 0 0 -10.08334382389512 -8.7125657902170133 0 -8.7125657902170133 -5.9869565438984864 0 0 0 0 -3.0531844482575252 -10.457771105120628 0 -10.457771105120628 -39.222806863968799 0 0 0 0 -0.4909339640793533 -0.20722567023851468 0 -0.20722567023851468 -0.11051406761731819 0 0 0 0 -2.9151753444493806 -11.592662794697389 0 -11.592662794697389 -42.94728378981381 0 0 0 0 1.4308264315732231 -2.1488641758824087 0 -2.1488641758824087 -21.83494107288243 0 0 0 0 -10.672603945959054 -8.2634598673521396 0 -8.2634598673521396 -18.720799268226983 0 0 0 0 22.043579280748872 2.4198070548380883 0 2.4198070548380883 42.551831100707204 0 0 0 0 8.8922972994278098 -13.014115557740752 0 -13.014115557740752 5.1090628090332757 0 0 0 0 6.4825599407304253 10.705603857317328 0 10.705603857317328 -50.150938644506823 0 0 0 0 -0.38935604674183466 -1.7487536425868289 0 -1.7487536425868289 0.3691417777604471 0 0 0 0 8.90070387052765 0.25499802884405653 0 0.25499802884405653 -20.659271537351742 0 0 0 0 -1.6068959132790042 -0.14021030772300946 0 -0.14021030772300946 -13.672972875059713 0 0 0 0 -0.26150053044624499 -4.0473515972511347 0 -4.0473515972511347 -15.951160934177771 0 0 0 0 5.5355930993955553 -0.15592853958696651 0 -0.15592853958696651 -12.713182575014798 0 0 0 0 8.1638948305135273 2.1835258290839192 0 2.1835258290839192 -29.835467165983573 0 0 0 0 6.2965867250768497 9.9332921662353328 0 9.9332921662353328 -48.173980741985815 0 0 0 0 -0.75174504765163874 -18.565334614886524 0 -18.565334614886524 -17.573715700782486 0 0 0 0 10.311885488639746 -1.479084361583773 0 -1.479084361583773 -39.224201668665046 0 0 0 0 7.7500401299021178 3.6224440593405234 0 3.6224440593405234 -46.905066122537391 0 0 0 0 12.599335088012594 3.9499007211325079 0 3.9499007211325079 -53.93825833293522 0 0 0 0 17.213369240860629 0.429151337742951 0 0.429151337742951 -54.99656443537333 0 0 0 0 18.346087544403417 -2.6275646665362729 0 -2.6275646665362729 -46.472724638974114 0 0 0 0 1.7545956025351188 -10.360203984217151 0 -10.360203984217151 -1.7482792830596736 0 0 0 0 20.555528151337057 14.049217543626582 0 14.049217543626582 -36.000230434923651 0 0 0 0 18.214035521859842 -3.0227190686264294 0 -3.0227190686264294 -47.653703436779324 0 0 0 0 5.0730137780046789 -9.0203506928228308 0 -9.0203506928228308 -52.33152154596246 0 0 0 0 27.114585729352257 4.2112803024356253 0 4.2112803024356253 -61.268896841778769 0 0 0 0 -0.27577589537968805 0.053620264712238352 0 0.053620264712238352 0.044569369361873612 0 0 0 0 5.6706353598947317 -1.1876542020545457 0 -1.1876542020545457 -2.7955239338043611 0 0 0 0 -14.298759465804324 -26.645974805203878 0 -26.645974805203878 -1.5862560054156347 0 0 0 0 1.3112155867440052 0.64611534312733987 0 0.64611534312733987 -1.7690826262120538 0 0 0 0 0.42338752598073981 -1.3053893973692867 0 -1.3053893973692867 -3.2769280809665489 0 0 0 0 17.23834088611784 37.072771290967921 0 37.072771290967921 38.384687807352748 0 0 0 0 1.1475016319043334 0.4561248288657076 0 0.4561248288657076 -8.9847939826759742 0 0 0 0 16.590216519296519 -79.540465556056006 0 -79.540465556056006 -132.2128124227529 0 0 0 0 -0.15497635286340739 -5.5813412665928421 0 -5.5813412665928421 -16.467684874295937 0 0 0 0 7.8811059904728609 -20.501565858754475 0 -20.501565858754475 -19.143389363847291 0 0 0 0 -68.284908733439806 -19.051459209120367 0 -19.051459209120367 26.622560971978601 0 0 0 0 16.043994901565384 5.8231833001768791 0 5.8231833001768791 -70.448879706094885 0 0 0 0 3.9846400637834449 -40.385229265162707 0 -40.385229265162707 -63.214178790840378 0 0 0 0 -14.341783503785337 -19.112843408159279 0 -19.112843408159279 -8.4811931190070027 0 0 0 0 -0.48619658644020092 -23.835569139985637 0 -23.835569139985637 -21.934260304673444 0 0 0 0 -12.381618236160648 29.66318916363889 0 29.66318916363889 -79.966928755988192 0 0 0 0 -11.786853384814094 -8.8151719425659394 0 -8.8151719425659394 1.4445111614186317 0 0 0 0 -6.3347520037568756 -4.4374255776583595 0 -4.4374255776583595 3.3308826371667237 0 0 0 0 -0.27736537876178602 -0.31885903408892169 0 -0.31885903408892169 -0.56927500742604664 0 0 0 0 17.294621570668824 11.302116633651167 0 11.302116633651167 -98.278321200295977 0 0 0 0 -1.9754159145632002 2.8021504232224288 0 2.8021504232224288 -45.600535778710764 0 0 0 0 -8.4687138097579009 -4.2896882434488361 0 -4.2896882434488361 11.254105961888854 0 0 0 0 -2.061766084512783 -38.849117600395402 0 -38.849117600395402 -51.382326889164688 0 0 0 0 2.2128478573704342 35.482288224292461 0 35.482288224292461 -40.215070776861467 0 0 0 0 4.9356810085207812 2.7583750404316021 0 2.7583750404316021 -8.4303715735243046 0 0 0 0 7.3598459206509688 7.7145512387457984 0 7.7145512387457984 -20.679748538092099 0 0 0 0 -2.350104488069519 0.6202074153952708 0 0.6202074153952708 -3.816518856681796 0 0 0 0 1.9840591266456613 -6.4780362355231773 0 -6.4780362355231773 -19.39184932866192 0 0 0 0 3.6778186230494612 -8.2302030209411896 0 -8.2302030209411896 -34.762771812411302 0 0 0 0 -1.4116156102791138 0.013947765417469782 0 0.013947765417469782 -22.824155276458441 0 0 0 0 3.9732402565095981 0.018273297613632167 0 0.018273297613632167 -22.896834754193151 0 0 0 0 2.4796968540849775 2.2171355346090422 0 2.2171355346090422 -12.284765811637044 0 0 0 0 8.5474484310834669 -2.4208819476416465 0 -2.4208819476416465 -23.38555158777308 0 0 0 0 0.81857309115855514 8.0032382775809765 0 8.0032382775809765 -2.7419666266105196 0 0 0 0 8.8269671744965308 8.7540012298904912 0 8.7540012298904912 -4.9942104709371051 0 0 0 0 1.1937746454277658 4.4599369238694635 0 4.4599369238694635 -5.0204161432848196 0 0 0 0 8.5211042299633846 4.9878637921246991 0 4.9878637921246991 -11.989334166582239 0 0 0 0 1.2254935278681316 2.350688996997345 0 2.350688996997345 0.47636384918732233 0 0 0 0 -4.2240459375643695 -1.1838308643855271 0 -1.1838308643855271 -7.2447345729351582 0 0 0 0 2.6315529555777175 7.9736977802604088 0 7.9736977802604088 4.2931867130973842 0 0 0 0 6.7104469923633587 -9.1890228622507948 0 -9.1890228622507948 -17.411879394403513 0 0 0 0 9.4258291792175442 -14.717355762261832 0 -14.717355762261832 -15.100449303019559 0 0 0 0 5.0988359154813843 1.3887959890394157 0 1.3887959890394157 -9.2267875884636403 0 0 0 0 -1.6464504150815173 -5.6343816141850098 0 -5.6343816141850098 -2.6465693684348555 0 0 0 0 2.5998775298394321 -8.9885216078364465 0 -8.9885216078364465 -15.486584473275798 0 0 0 0 -5.1516237741125224 -4.2782016052915424 0 -4.2782016052915424 -18.347417245991892 0 0 0 0 -4.8263661850069184 -7.3896071496801596 0 -7.3896071496801596 -6.9343749865511199 0 0 0 0 1.7212782174133281 -2.1962128120112538 0 -2.1962128120112538 -3.1445475556902238 0 0 0 0 1.5795473003969818 -1.0340966260392186 0 -1.0340966260392186 -3.3262843564618265 0 0 0 0 4.0409967092100496 -1.7262583626001131 0 -1.7262583626001131 -9.1499552594439422 0 0 0 0 -1.6884285753840231 -5.0211938678257866 0 -5.0211938678257866 -3.2577812744020775 0 0 0 0 0.018928242186142086 -3.7474917695512246 0 -3.7474917695512246 -4.0731438497854491 0 0 0 0 -0.4667799962515673 -1.2778030069669271 0 -1.2778030069669271 -1.5451081460786042 0 0 0 0 43.1955770661109 -27.494466095376083 0 -27.494466095376083 7.6390577829733957 0 0 0 0 -13.701069733174336 -16.318676200823575 0 -16.318676200823575 -8.8546017970820685 0 0 0 0 2.5444888400697891 -6.9683973316414267 0 -6.9683973316414267 -10.692418347780404 0 0 0 0 -0.8992194435750207 -6.5650671222674646 0 -6.5650671222674646 -7.3523526584413048 0 0 0 0 3.636744489251214 -0.66892837103659986 0 -0.66892837103659986 -11.410474976499017 0 0 0 0 -1.4842849090071013 -8.2878582055648167 0 -8.2878582055648167 -2.3434740363882156 0 0 0 0 -0.6764342218884849 -11.243868939610365 0 -11.243868939610365 -16.292887323284958 0 0 0 0 4.2641031164130254 -3.9081205305628828 0 -3.9081205305628828 -3.6041272061438576 0 0 0 0 -2.6864891632576473 -8.0478522841094673 0 -8.0478522841094673 -1.9096793518265258 0 0 0 0 0.71927421345208131 -4.8556887681870649 0 -4.8556887681870649 -3.8572530184064817 0 0 0 0 -1.725487908037735 -17.52781285092334 0 -17.52781285092334 -30.945180742726734 0 0 0 0 1.0364031463111161 -5.1725526960034962 0 -5.1725526960034962 -1.0181627968443649 0 0 0 0 0.70661280701845186 -1.1448413223674834 0 -1.1448413223674834 -0.68171684662616627 0 0 0 0 -4.2562758436761214 -14.154231179410999 0 -14.154231179410999 -28.722171507562962 0 0 0 0 -10.393126602503571 -33.135965201566023 0 -33.135965201566023 -28.356304315419038 0 0 0 0 -12.815838983096683 -21.59403022705942 0 -21.59403022705942 -30.835850029459834 0 0 0 0 5.3330119502061279 -16.270373157190988 0 -16.270373157190988 -39.803707283706899 0 0 0 0 8.8993396972873597 -7.4518525205912738 0 -7.4518525205912738 -30.862711899380884 0 0 0 0 2.2181811019218003 -15.894358144438684 0 -15.894358144438684 -36.064242183940223 0 0 0 0 29.22669050665354 -3.0693255795558798 0 -3.0693255795558798 -49.87012878122232 0 0 0 0 13.710922230888173 -17.782878764557609 0 -17.782878764557609 -45.786300512669186 0 0 0 0 31.670271487057107 -19.717927442387463 0 -19.717927442387463 -63.720488214672514 0 0 0 0 15.09054516487447 -34.344702194580918 0 -34.344702194580918 -69.029035545991064 0 0 0 0 25.170534437054812 -8.5870137892443381 0 -8.5870137892443381 -57.173897049364314 0 0 0 0 42.73602460303664 -11.098900794630026 0 -11.098900794630026 -58.313110240223068 0 0 0 0 37.917656344132411 -18.410360699541343 0 -18.410360699541343 -35.411691421223964 0 0 0 0 49.842511436569112 -5.4253192214100636 0 -5.4253192214100636 -54.100047871852439 0 0 0 0 20.703195997288276 3.3426344682329727 0 3.3426344682329727 -53.160536956995202 0 0 0 0 20.920309358243685 12.66429968029297 0 12.66429968029297 -36.032114124340296 0 0 0 0 40.068712995430815 10.881464308968816 0 10.881464308968816 -60.369065337472421 0 0 0 0 -11.210211946689014 -25.80226196019612 0 -25.80226196019612 -48.19945973090762 0 0 0 0 -0.54076586055816733 -36.417384620957364 0 -36.417384620957364 -135.18815491584792 0 0 0 0 15.395709628704935 -28.310941851483221 0 -28.310941851483221 -55.331180965625208 0 0 0 0 11.946601057363296 -19.279524004286941 0 -19.279524004286941 -28.722317659226519 0 0 0 0 23.981510937494022 -25.656064437643181 0 -25.656064437643181 -59.922921091897024 0 0 0 0 39.722247975921164 -13.810864303863582 0 -13.810864303863582 -63.367641289310995 0 0 0 0 21.708101783969141 -15.710617234115034 0 -15.710617234115034 -103.04244209076569 0 0 0 0 -0.051021895924882266 0.36744232341442284 0 0.36744232341442284 -0.40071291743010562 0 0 0 0 -120.4880670102757 -93.13321182089021 0 -93.13321182089021 -60.140736966343866 0 0 0 0 -66.112547827709022 -41.590020509693204 0 -41.590020509693204 -43.782088635560285 0 0 0 0 -4.7996470566922653 -44.636252167109888 0 -44.636252167109888 -38.757551030052127 0 0 0 0 10.17062377892762 -9.0946897233543496 0 -9.0946897233543496 -30.132234035447254 0 0 0 0 16.131046805645155 -10.983711338826481 0 -10.983711338826481 -15.782782731525003 0 0 0 0 -0.43661778688589692 -0.35717452696967911 0 -0.35717452696967911 1.0018598558587009 0 0 0 0 14.347542011708356 7.7345908151746698 0 7.7345908151746698 -0.70636544426452019 0 0 0 0 0.13992294235274017 0.029270450368045431 0 0.029270450368045431 -1.0482100993857628 0 0 0 0 -53.83406223052225 -34.386527444247804 0 -34.386527444247804 4.5179910908309466 0 0 0 0 78.294249610689803 -40.2488886999854 0 -40.2488886999854 -14.547061830751773 0 0 0 0 66.265447232752194 -21.385312844020518 0 -21.385312844020518 -1.2736094032879919 0 0 0 0 138.17934352885709 -12.144590832688209 0 -12.144590832688209 -29.825424983988341 0 0 0 0 80.608215523343461 -43.107003596125651 0 -43.107003596125651 -34.657107754812841 0 0 0 0 40.330910397449315 -13.152140491431055 0 -13.152140491431055 -78.056081010408889 0 0 0 0 44.87523307396259 2.9904064964312056 0 2.9904064964312056 -24.907181289856794 0 0 0 0 72.580875438054136 -38.41832424611539 0 -38.41832424611539 -0.59935289129862213 0 0 0 0 164.96054424700549 39.074263377725401 0 39.074263377725401 -69.316830673889854 0 0 0 0 44.676397783303401 -22.663088953133411 0 -22.663088953133411 -91.169132320375866 0 0 0 0 61.015486328064981 13.068273209730933 0 13.068273209730933 -126.23860852164762 0 0 0 0 0.96839957560384704 -2.814896421545324 0 -2.814896421545324 -2.7717353748789222 0 0 0 0 35.034451677132893 32.106846412731102 0 32.106846412731102 -131.01688110896976 0 0 0 0 -5.6413671076425089 -13.092248352437309 0 -13.092248352437309 -38.254025619844469 0 0 0 0 -4.0938469122620518 1.4588798561671865 0 1.4588798561671865 -93.697126782353735 0 0 0 0 1.0547991965675187 -2.0599659441671214 0 -2.0599659441671214 -2.0697859954985276 0 0 0 0 74.103894181819669 -77.228015549385873 0 -77.228015549385873 70.753865397437949 0 0 0 0 65.104028192953592 -95.539958853957614 0 -95.539958853957614 35.536591721847799 0 0 0 0 -1.6328535000266129 56.587087305468231 0 56.587087305468231 -156.93094728836422 0 0 0 0 -24.613515746373196 33.708744630562705 0 33.708744630562705 -57.228366413281037 0 0 0 0 -25.022958172295148 11.229294331797064 0 11.229294331797064 -93.477369317883131 0 0 0 0 -3.1772103559037532 12.266098436848097 0 12.266098436848097 -99.300533527624793 0 0 0 0 -7.5063639709842391 10.58305539466528 0 10.58305539466528 -40.980816481596776 0 0 0 0 12.227282895339158 -34.263598451942926 0 -34.263598451942926 -36.134694631893012 0 0 0 0 -35.551999657981014 -33.745228287358714 0 -33.745228287358714 -62.062627697025164 0 0 0 0 -13.089557713990871 -4.2737051366329979 0 -4.2737051366329979 -24.39478274551584 0 0 0 0 -21.923996294279277 -42.624514846270358 0 -42.624514846270358 -8.5053659865261579 0 0 0 0 -44.45534813292943 -20.330131256738241 0 -20.330131256738241 5.9573742029569985 0 0 0 0 -22.475688511652208 -43.395401785764989 0 -43.395401785764989 -9.2782143696931598 0 0 0 0 4.5769976660449174 -19.375459415638034 0 -19.375459415638034 3.9871097522018317 0 0 0 0 -22.828050536692899 -45.555633193329413 0 -45.555633193329413 34.926592090164377 0 0 0 0 17.537499612148622 -43.784266077484972 0 -43.784266077484972 23.04816749690508 0 0 0 0 47.985625722120858 -3.4238957655961713 0 -3.4238957655961713 -17.606231867755923 0 0 0 0 60.416151503277433 -46.122750306237322 0 -46.122750306237322 -11.197189053351394 0 0 0 0 75.860979717535884 -33.285683158197571 0 -33.285683158197571 -4.262537992974103 0 0 0 0 88.580657736216381 -57.604829505873568 0 -57.604829505873568 -2.1862824037198152 0 0 0 0 27.900777088583709 -16.07687376695867 0 -16.07687376695867 0.55527848047495354 0 0 0 0 42.770255165745766 -53.835314268302682 0 -53.835314268302682 23.28240166665455 0 0 0 0 1.3343572400680159 -0.64859307750143813 0 -0.64859307750143813 -0.91777232828562205 0 0 0 0 33.894894863362424 20.085310552554802 0 20.085310552554802 9.5006083601674618 0 0 0 0 15.428176339779384 -37.68959109901607 0 -37.68959109901607 89.359044792077839 0 0 0 0 90.271507980158276 -85.083230881242343 0 -85.083230881242343 41.239976729861155 0 0 0 0 0.20458749733146675 -0.14740871879611461 0 -0.14740871879611461 -0.72125076221032458 0 0 0 0 0.77100895410148951 3.9279000460928728 0 3.9279000460928728 6.5574904424611304 0 0 0 0 69.653980373173908 7.8113962594316035 0 7.8113962594316035 66.889240567848901 0 0 0 0 143.25157319618847 -46.135910133853031 0 -46.135910133853031 -5.7385404920537439 0 0 0 0 70.240837813760663 -85.606737057991268 0 -85.606737057991268 42.375757432068895 0 0 0 0 120.01153218295167 3.3267732155545673 0 3.3267732155545673 -20.630832535352965 0 0 0 0 37.100041419413174 -7.5521713179477956 0 -7.5521713179477956 -20.189120819808522 0 0 0 0 36.014280507285548 -55.343676909784335 0 -55.343676909784335 -7.596164573878923 0 0 0 0 60.589595381121399 -28.060630312969806 0 -28.060630312969806 -29.752881214222725 0 0 0 0 13.374301452134205 2.7498012810792716 0 2.7498012810792716 -11.556850341348763 0 0 0 0 35.398252282810063 23.497219248642068 0 23.497219248642068 2.6281808187900424 0 0 0 0 46.398245629850862 -12.460516529181405 0 -12.460516529181405 -18.059855954890736 0 0 0 0 8.4116256267886911 3.0719617135354724 0 3.0719617135354724 -11.00544567903853 0 0 0 0 16.822715675203654 5.8009917154413415 0 5.8009917154413415 -15.572758805879857 0 0 0 0 28.011258027127042 -5.214316813359801 0 -5.214316813359801 -26.620305319243926 0 0 0 0 22.233733050453338 -12.70934541585757 0 -12.70934541585757 -21.272799321901402 0 0 0 0 19.041594570424422 -16.562681881149729 0 -16.562681881149729 -33.42476939727203 0 0 0 0 6.0359783762614825 -3.9745389194904419 0 -3.9745389194904419 -34.492305238290101 0 0 0 0 13.038533871189429 -3.8695861203486857 0 -3.8695861203486857 -26.594884766939742 0 0 0 0 14.660244464841526 -6.9462578611528443 0 -6.9462578611528443 -33.914306144073635 0 0 0 0 8.1345461804048682 0.99912575961934635 0 0.99912575961934635 -25.298127423789992 0 0 0 0 23.599302440139581 -29.274340617703274 0 -29.274340617703274 -29.311992165744414 0 0 0 0 28.341020705598567 -10.319442001733478 0 -10.319442001733478 -29.353059168366599 0 0 0 0 9.0497223819620558 -13.299859242833918 0 -13.299859242833918 -34.434648816410117 0 0 0 0 17.820173767783672 -19.335273697871344 0 -19.335273697871344 -42.584224954167439 0 0 0 0 9.4922257752041332 -31.160012493484828 0 -31.160012493484828 -34.63520625115234 0 0 0 0 27.525050574487977 -28.343858165126221 0 -28.343858165126221 -34.247798601343675 0 0 0 0 15.700606847995005 -45.740090540700294 0 -45.740090540700294 -25.055355163345666 0 0 0 0 -0.53320436474314192 -37.35897538296922 0 -37.35897538296922 -28.6277826473397 0 0 0 0 13.416866257025504 -44.934442894708809 0 -44.934442894708809 -20.239042388770031 0 0 0 0 18.285189365753467 -40.969044334293358 0 -40.969044334293358 -18.931631281636328 0 0 0 0 -2.8570862877859327 -45.992342746842041 0 -45.992342746842041 -16.280164658033755 0 0 0 0 3.5646726501709054 -43.27929877585666 0 -43.27929877585666 -22.726593686105844 0 0 0 0 -11.122353178981939 -42.650387446423338 0 -42.650387446423338 -16.407160610340725 0 0 0 0 -18.088252935371202 -33.11305927401736 0 -33.11305927401736 -19.655503734129525 0 0 0 0 -12.251034364851876 -40.31846384437813 0 -40.31846384437813 -15.107628018940886 0 0 0 0 -23.744316113741661 -41.558092096369364 0 -41.558092096369364 -4.3736342917400179 0 0 0 0 -34.18042522739961 -40.96162480820567 0 -40.96162480820567 -4.2557983490482911 0 0 0 0 -1.6503886550490279 -49.100321803263796 0 -49.100321803263796 -12.251619345228391 0 0 0 0 -49.655790967182838 -42.70648703380175 0 -42.70648703380175 8.3046584145467932 0 0 0 0 -14.906472398050937 -43.664235280591129 0 -43.664235280591129 -6.3110363856467302 0 0 0 0 -18.668603057649761 -49.439217002944588 0 -49.439217002944588 -2.045544624885224 0 0 0 0 22.028375740606862 -59.172137771847702 0 -59.172137771847702 -0.21597123943138286 0 0 0 0 24.977369522255685 -41.729760479234756 0 -41.729760479234756 0.24943830275879009 0 0 0 0 -7.9542011390076368 -52.086553472676314 0 -52.086553472676314 -1.1782094474583573 0 0 0 0 18.472384640794019 -55.191817349533807 0 -55.191817349533807 -12.365297546592046 0 0 0 0 -0.092681962975120769 -6.4564634939060852 0 -6.4564634939060852 -10.705978187887013 0 0 0 0 -0.30294480173414584 -6.4499267187820166 0 -6.4499267187820166 2.7164980063996107 0 0 0 0 2.3611916121881222 -7.495943993650144 0 -7.495943993650144 -11.586064886856548 0 0 0 0 0.81488089670210684 -7.6470127741035867 0 -7.6470127741035867 -16.682635137634861 0 0 0 0 1.0987677207289046 -3.1422127582970241 0 -3.1422127582970241 -0.29281517905819854 0 0 0 0 -5.4503182363514497 -30.093450707820011 0 -30.093450707820011 19.846275452580812 0 0 0 0 -7.4680361440759953 -38.42333927807158 0 -38.42333927807158 -23.048760868838144 0 0 0 0 -5.6500613425268966 -4.6601140342718281 0 -4.6601140342718281 38.822347574901869 0 0 0 0 -0.078283096364096139 -0.87178138552803475 0 -0.87178138552803475 2.162289073614692 0 0 0 0 -9.1048393653791209 -36.008705577168257 0 -36.008705577168257 -26.116161045145418 0 0 0 0 0.055585251675438485 -15.735680047819187 0 -15.735680047819187 -28.486195724421123 0 0 0 0 4.5549805992268375 -30.640900745460385 0 -30.640900745460385 -31.121780450386723 0 0 0 0 1.3814430284101036 -14.546964137747182 0 -14.546964137747182 -43.520133305457421 0 0 0 0 4.4182386409001424 -27.531392904381335 0 -27.531392904381335 -47.222079201314045 0 0 0 0 12.4915504390774 -37.473217952441701 0 -37.473217952441701 -37.853840106999996 0 0 0 0 8.5411360880825669 -25.271416415052954 0 -25.271416415052954 -42.180165453250083 0 0 0 0 9.9389946971550671 -24.232920965136145 0 -24.232920965136145 -65.663125578959807 0 0 0 0 6.6586783377410939 -30.917112943030588 0 -30.917112943030588 -50.21267948577588 0 0 0 0 4.8383293986116769 -21.767943166083569 0 -21.767943166083569 -43.038182874021004 0 0 0 0 0.98298197262920439 -17.841265185204975 0 -17.841265185204975 -46.467413981990831 0 0 0 0 -5.2583705477009062 -29.274203565073549 0 -29.274203565073549 -50.369410883572073 0 0 0 0 -18.332159927624161 -12.683187631693727 0 -12.683187631693727 -50.930756765961632 0 0 0 0 3.4192258957846207 -18.982213355186104 0 -18.982213355186104 -49.17488395439068 0 0 0 0 4.0626516988959338 -9.2670573148134281 0 -9.2670573148134281 -41.271888787938224 0 0 0 0 8.5293631858066874 -2.5921700967355719 0 -2.5921700967355719 -42.862196296471666 0 0 0 0 7.5867213157143851 -12.476100297260928 0 -12.476100297260928 -53.20482956610067 0 0 0 0 13.72698030614265 -13.506595850878512 0 -13.506595850878512 -41.27556233292853 0 0 0 0 0.82575217102566967 -11.515498991066124 0 -11.515498991066124 -41.572196227600216 0 0 0 0 8.4438743201189936 -14.709398334004618 0 -14.709398334004618 -47.878886847771355 0 0 0 0 -4.2149032382149016 -6.2634635753274779 0 -6.2634635753274779 -61.192754580807559 0 0 0 0 -3.8136885140120285 -13.995806200840889 0 -13.995806200840889 -47.839080435222968 0 0 0 0 3.0036973455107727 -5.0008486368478771 0 -5.0008486368478771 -61.004891876007605 0 0 0 0 10.514233535061067 -8.9218677678209133 0 -8.9218677678209133 -73.795277142829946 0 0 0 0 -0.45424315057243803 -10.552958151754183 0 -10.552958151754183 -12.963694940850473 0 0 0 0 0.16763051441375865 -11.878783880008996 0 -11.878783880008996 -14.287819865959591 0 0 0 0 -1.3741293612744627 -9.6464114977834683 0 -9.6464114977834683 0.6195302515820944 0 0 0 0 1.1622674689317769 -7.0626188005373756 0 -7.0626188005373756 -1.4769703056249941 0 0 0 0 0.11970618208579253 -8.3381315631559119 0 -8.3381315631559119 -64.562124060043061 0 0 0 0 3.0881822355991169 -4.4441026275678013 0 -4.4441026275678013 0.3533475093095042 0 0 0 0 1.8510562393475993 -9.4901345693324402 0 -9.4901345693324402 -12.313697544916977 0 0 0 0 -14.859994202110101 -27.425204225233756 0 -27.425204225233756 -103.21817198389908 0 0 0 0 0.81527084398662364 -2.4945653876479028 0 -2.4945653876479028 -1.2507614721598941 0 0 0 0 2.4510951098621678 -5.0562297815884918 0 -5.0562297815884918 -8.154228015358818 0 0 0 0 1.3373063465310224 -7.8742143447893795 0 -7.8742143447893795 -4.9203434008013573 0 0 0 0 3.2562621555553051 -10.648914796307508 0 -10.648914796307508 -9.2466680003426518 0 0 0 0 0.75129497593031047 -3.2293977850028881 0 -3.2293977850028881 0.21567448789507893 0 0 0 0 2.690775599684267 -4.6481140834727874 0 -4.6481140834727874 -5.4332205435341692 0 0 0 0 -2.9970607951709098 -6.9979540953463584 0 -6.9979540953463584 -7.5130021025943279 0 0 0 0 -0.29579533911055478 -4.8614116129838294 0 -4.8614116129838294 -7.8933905606522785 0 0 0 0 0.079860674220526562 -9.6793906745779168 0 -9.6793906745779168 -6.4007114538326277 0 0 0 0 16.949309123087005 1.5529784519985697 0 1.5529784519985697 -5.1038359497454167 0 0 0 0 10.686409522515532 -9.9504550809065222 0 -9.9504550809065222 -8.559107194925673 0 0 0 0 1.3941636077934163 -3.7274965039681547 0 -3.7274965039681547 -3.4392215782590938 0 0 0 0 0.47588830563094042 -0.080879741848701059 0 -0.080879741848701059 -0.11537862936248189 0 0 0 0 -22.43969866679754 -9.4704415663368309 0 -9.4704415663368309 -4.7095771165440965 0 0 0 0 -26.204784774547988 -19.185448164449781 0 -19.185448164449781 -6.0602194720740954 0 0 0 0 -16.121493284076521 -13.264572107125232 0 -13.264572107125232 -12.706770755668913 0 0 0 0 -1.5639712162583237 -18.266547003756386 0 -18.266547003756386 -19.71446331541847 0 0 0 0 1.5438701630966989 -7.2067570140126236 0 -7.2067570140126236 -8.4378995434653916 0 0 0 0 -1.0742240711733757 -8.208439016516877 0 -8.208439016516877 -8.6745647301559075 0 0 0 0 -22.806698227686866 -15.113049390022752 0 -15.113049390022752 -2.7282062703588963 0 0 0 0 0.28377917321806923 -0.86880600167526723 0 -0.86880600167526723 -0.078103891102912826 0 0 0 0 -4.2625977923162282 -7.1895456917709453 0 -7.1895456917709453 -1.1706392596297519 0 0 0 0 -0.53261112961760659 -4.4781035179883446 0 -4.4781035179883446 0.24180812180627953 0 0 0 0 -3.6272289349337257 -6.0030011251759277 0 -6.0030011251759277 -0.79458065035214531 0 0 0 0 -4.6889446236067087 -6.5002116238281591 0 -6.5002116238281591 -4.8401577293323577 0 0 0 0 6.3849829972477892 -13.685927635745429 0 -13.685927635745429 -4.9494020721425613 0 0 0 0 -10.7699936925369 -13.935794612429845 0 -13.935794612429845 -1.8534028699596092 0 0 0 0 -3.949848483181114 -12.337879300815644 0 -12.337879300815644 -1.6217034247802076 0 0 0 0 28.443632931812317 -6.574890330872222 0 -6.574890330872222 -6.9586307859420913 0 0 0 0 -0.16565424856283073 -1.286195256800049 0 -1.286195256800049 -1.2041499094889083 0 0 0 0 -12.556126790807866 -6.2537012298066657 0 -6.2537012298066657 10.914717846248095 0 0 0 0 -2.5380077673835331 -10.776217952116895 0 -10.776217952116895 -10.93192271854798 0 0 0 0 -2.5380077674003587 -10.776217952109164 0 -10.776217952109164 -10.931922718551505 0 0 0 0 0.9164769787385012 -5.8636629019702013 0 -5.8636629019702013 -1.8455845383314227 0 0 0 0 -2.5380077674053609 -10.776217952112802 0 -10.776217952112802 -10.931922718549686 0 0 0 0 -1.9193013124237766 -4.0849942053405339 0 -4.0849942053405339 -1.8227408893644039 0 0 0 0 91.957890744773977 -14.62709651779096 0 -14.62709651779096 -6.5921877680292482 0 0 0 0 -100.61901745063551 0.14848429267931351 0 0.14848429267931351 10.77127938061949 0 0 0 0 -18.065153446452314 -6.590192155229488 0 -6.590192155229488 -3.3178832282919757 0 0 0 0 76.6531896287579 -61.090872606855555 0 -61.090872606855555 4.1852481103396713 0 0 0 0 12.565710672008208 -27.356494267706694 0 -27.356494267706694 -12.662821176424586 0 0 0 0 -14.438992866842455 -15.410912554783863 0 -15.410912554783863 1.13899983868032 0 0 0 0 19.109601153727453 -37.559648217145877 0 -37.559648217145877 -5.5676334796626179 0 0 0 0 -28.532601750172034 -22.55259613782664 0 -22.55259613782664 -1.5436322455407208 0 0 0 0 4.7873469275741627 -17.306772995651954 0 -17.306772995651954 -2.3021887867726036 0 0 0 0 -22.436717476176455 -10.653309259469552 0 -10.653309259469552 4.3106912530643058 0 0 0 0 79.941416804900655 -51.547578464467733 0 -51.547578464467733 26.545754856968415 0 0 0 0 -18.45191536288803 -8.1293279735564283 0 -8.1293279735564283 5.8942899519215644 0 0 0 0 -0.56172810700879161 -1.3208619657827221 0 -1.3208619657827221 -1.3222287490855109 0 0 0 0 -5.3377978568689244 -7.1984834967203746 0 -7.1984834967203746 -5.887395451064295 0 0 0 0 -1.6657462552971749 -3.8800237312482242 0 -3.8800237312482242 2.1525348265811282 0 0 0 0 -5.2163264859882474 -13.514645482681772 0 -13.514645482681772 5.5538401169696954 0 0 0 0 -0.63329476446779154 -7.2462558225715838 0 -7.2462558225715838 -9.7821916502116437 0 0 0 0 1.3047851131796051 -10.798778313514049 0 -10.798778313514049 -5.5672885957983453 0 0 0 0 1.7799388601985919 -4.1880592658090183 0 -4.1880592658090183 -7.4864024261071336 0 0 0 0 -6.8237027523589404 -8.6840042996398097 0 -8.6840042996398097 -7.1261872055765707 0 0 0 0 1.0873223225198672 -6.1602772536498378 0 -6.1602772536498378 -9.9165609854735521 0 0 0 0 107.69401711529008 49.535082588437945 0 49.535082588437945 57.337315516155286 0 0 0 0 1.9158896701410413 -9.3512050540966811 0 -9.3512050540966811 -1.8753911260473615 0 0 0 0 19.899279588344143 2.3834388232498895 0 2.3834388232498895 -21.750171049485971 0 0 0 0 -69.359508161508074 -37.861566630960283 0 -37.861566630960283 2.1120839430941487 0 0 0 0 -67.676443656725951 -41.988179548316907 0 -41.988179548316907 -8.8267894929567774 0 0 0 0 -0.39585238222966979 -0.28446851966373821 0 -0.28446851966373821 -0.59429326268806193 0 0 0 0 103.56164231728582 -65.653402183519745 0 -65.653402183519745 -30.996102233879355 0 0 0 0 -0.35389414058985658 -0.75087329774817313 0 -0.75087329774817313 -0.76499880699647704 0 0 0 0 6.983142679602679 -6.7803321960345784 0 -6.7803321960345784 -1.5064031035835797 0 0 0 0 -0.93293026129550682 -2.7196787205821131 0 -2.7196787205821131 -6.1431864677044992 0 0 0 0 6.8376627853813261 -8.3691785014189009 0 -8.3691785014189009 -11.575519991212786 0 0 0 0 1.3738137924834 -0.73846266456093002 0 -0.73846266456093002 -1.7273847313698774 0 0 0 0 70.647665798045637 -14.304400800885105 0 -14.304400800885105 46.720088696578387 0 0 0 0 128.32723714411259 14.684184306832321 0 14.684184306832321 42.06130672992731 0 0 0 0 14.42327744688555 4.4299357492833451 0 4.4299357492833451 -9.5749940606574455 0 0 0 0 -0.48390061774126281 -1.130314541922596 0 -1.130314541922596 -3.0168135432644085 0 0 0 0 -0.1841255314536161 -0.9751379103766773 0 -0.9751379103766773 -0.43563939224731385 0 0 0 0 -22.864490345338709 38.314723042471087 0 38.314723042471087 -12.267475317419667 0 0 0 0 -32.42331108737767 -15.594459277648411 0 -15.594459277648411 2.7644018307009901 0 0 0 0 -9.2665379585450864 38.839456228267863 0 38.839456228267863 -24.139664380377326 0 0 0 0 -96.523490319877965 -6.7232369744863263 0 -6.7232369744863263 5.0908053332614145 0 0 0 0 -15.905221835731936 -8.0464998648035362 0 -8.0464998648035362 11.274035147184804 0 0 0 0 -9.0110505559277954 -6.9306379220051895 0 -6.9306379220051895 4.9852040593032143 0 0 0 0 -11.326642481300041 -12.82032687950732 0 -12.82032687950732 21.443113498447019 0 0 0 0 -3.4555899477636558 -11.789865782588095 0 -11.789865782588095 6.1519917463965612 0 0 0 0 -3.7119243512352114 -3.4110445792152859 0 -3.4110445792152859 3.1619326304330571 0 0 0 0 -12.340019457863946 3.2610912440746915 0 3.2610912440746915 0.041304984503767628 0 0 0 0 -6.0016874627274888 -7.7992175214351569 0 -7.7992175214351569 -4.3775479776468078 0 0 0 0 -2.8891757017081545 -12.873409878254961 0 -12.873409878254961 2.4100388476350645 0 0 0 0 -6.3720254165128116 -6.4694587976942124 0 -6.4694587976942124 1.7364145028921412 0 0 0 0 -3.339888728743972 -13.171793168856539 0 -13.171793168856539 1.8654619371130821 0 0 0 0 -7.8057263976115792 -26.519519637434314 0 -26.519519637434314 3.3985140664467508 0 0 0 0 -10.57496248192183 -6.6145451252439216 0 -6.6145451252439216 8.7669301467340119 0 0 0 0 4.0379051701511344 -14.182853780557707 0 -14.182853780557707 -6.5693538229138539 0 0 0 0 -7.6410075168132607 -35.692780992894086 0 -35.692780992894086 -42.647526446197844 0 0 0 0 -2.1862659341923303 -7.1660933332675771 0 -7.1660933332675771 -4.6913257420850627 0 0 0 0 8.335311887338321 -17.493746370234021 0 -17.493746370234021 -9.9030290517703179 0 0 0 0 -1.0310613986966115 -5.9789008569865896 0 -5.9789008569865896 -5.638756440016774 0 0 0 0 20.157605527756459 -9.1151077489666932 0 -9.1151077489666932 -6.4686775083109751 0 0 0 0 14.992635891945611 -0.9795032738215923 0 -0.9795032738215923 -18.885473416731202 0 0 0 0 6.9707056273618946 1.1776532777726061 0 1.1776532777726061 -27.572164740866583 0 0 0 0 4.5181390776160697 0.11679291154905513 0 0.11679291154905513 0.37803614920812834 0 0 0 0 4.4954110919661616 -3.1084148244985954 0 -3.1084148244985954 3.836352100107888 0 0 0 0 4.2583129600461689 -4.43334573221955 0 -4.43334573221955 -1.1272575663551834 0 0 0 0 18.203368207462518 -9.0302636882661318 0 -9.0302636882661318 -11.891287668609948 0 0 0 0 9.7849415834134561 -5.7844651809264178 0 -5.7844651809264178 0.11879668262554333 0 0 0 0 12.781564703444019 -4.0414218160403834 0 -4.0414218160403834 -0.036942651084245881 0 0 0 0 1.0717818713522043 -1.3923199978646696 0 -1.3923199978646696 0.83860558664155249 0 0 0 0 3.8297009590383055 -5.7017243749846784 0 -5.7017243749846784 -2.6993182743921409 0 0 0 0 1.7231089012757366 -4.4184481530405719 0 -4.4184481530405719 4.5059315795206203 0 0 0 0 13.929903552794713 -4.5264791684530792 0 -4.5264791684530792 -2.1253328391849209 0 0 0 0 5.6175113406554544 -4.8753244441325929 0 -4.8753244441325929 -5.7511838434206162 0 0 0 0 10.521705120394472 -3.9324918555430486 0 -3.9324918555430486 -0.042121126145502785 0 0 0 0 0.68952705871698328 -1.4014002395229221 0 -1.4014002395229221 -0.58713214279365911 0 0 0 0 0.15860204589048621 -4.3697137076826529 0 -4.3697137076826529 -3.3541743332168217 0 0 0 0 6.52465435562317 -7.6515244211541358 0 -7.6515244211541358 -1.315834412670938 0 0 0 0 12.907105027265061 -10.967123552345583 0 -10.967123552345583 -0.3052975556711317 0 0 0 0 2.6140736376019049 -15.684531572698234 0 -15.684531572698234 -7.4331094897552248 0 0 0 0 12.957383677941408 -13.152784577578501 0 -13.152784577578501 -1.0668080152681796 0 0 0 0 -1.4223174416655979 -7.0999092478758659 0 -7.0999092478758659 -6.0505551474569259 0 0 0 0 0.81587643573633173 -8.768751667881407 0 -8.768751667881407 2.2571135387334404 0 0 0 0 1.2314386607768029 -14.487404839965166 0 -14.487404839965166 -8.3483177745747525 0 0 0 0 6.6155314177140099 -12.167163657698893 0 -12.167163657698893 -6.195968821988572 0 0 0 0 21.352220341098473 -4.4101330715807308 0 -4.4101330715807308 5.7664321752454271 0 0 0 0 -0.41270492598577846 -2.2480442778844445 0 -2.2480442778844445 0.056798148066658172 0 0 0 0 8.9056391145986709 7.4079742270878342 0 7.4079742270878342 17.454632173395112 0 0 0 0 -21.880531818121199 -123.65443324664784 0 -123.65443324664784 -46.840580101931664 0 0 0 0 -1.2435624901503299 -5.3095495992390198 0 -5.3095495992390198 -8.4332478834484448 0 0 0 0 9.1864158385469636 11.376753779327828 0 11.376753779327828 3.7892221911497472 0 0 0 0 5.7220886738050467 -4.9681999521390026 0 -4.9681999521390026 -8.1952011276007397 0 0 0 0 7.429175331884835 -8.6356375915413537 0 -8.6356375915413537 -7.4588112357450882 0 0 0 0 0.50892881886284158 -3.6755006184084777 0 -3.6755006184084777 -6.3420370275980531 0 0 0 0 3.6687042525813283 -3.3892686647742956 0 -3.3892686647742956 -0.76950413568334319 0 0 0 0 2.4693062991270835 -7.9872545130974686 0 -7.9872545130974686 -4.6563013340401085 0 0 0 0 4.0568384607831831 -8.6616040856861218 0 -8.6616040856861218 -19.749166408245401 0 0 0 0 0.95666786547008087 -5.0888939949650194 0 -5.0888939949650194 -23.822577678607558 0 0 0 0 -9.8676967623032397 -22.828415588959615 0 -22.828415588959615 -12.777260674549325 0 0 0 0 -1.0648649663760104 -3.2308910652818206 0 -3.2308910652818206 2.6609951714029449 0 0 0 0 -2.9920060241583997 -8.2752326912639091 0 -8.2752326912639091 -7.9792271703227016 0 0 0 0 0.91745729410091315 -9.1980890822204096 0 -9.1980890822204096 0.93940255906550174 0 0 0 0 -8.4510829464579729 -16.781518301906544 0 -16.781518301906544 -14.389172572106872 0 0 0 0 1.8004395528478199 -10.752176798752771 0 -10.752176798752771 -21.328400837297522 0 0 0 0 6.6990393877276802 -1.7274790226392724 0 -1.7274790226392724 -37.156220521894284 0 0 0 0 -5.8156438991813957 -2.7167156653003985 0 -2.7167156653003985 -36.943783607614023 0 0 0 0 -0.53689142670191359 -19.750063211657107 0 -19.750063211657107 -57.837560892547117 0 0 0 0 8.6730899713320468 -5.6944656964506066 0 -5.6944656964506066 -60.349556329876577 0 0 0 0 -4.6474904560036521 -12.112571787472916 0 -12.112571787472916 -25.891402678955728 0 0 0 0 6.9267809066986956 -5.2362942036620552 0 -5.2362942036620552 -44.372265555948616 0 0 0 0 4.4798762391519702 1.3385991652535054 0 1.3385991652535054 -11.660873334997518 0 0 0 0 -3.4210767575787031 -5.909046299282636 0 -5.909046299282636 -29.646824808311067 0 0 0 0 4.6217711824610888 4.7075221644809062 0 4.7075221644809062 5.5619997205421896 0 0 0 0 2.9673477178091261 -9.8273830147907013 0 -9.8273830147907013 -2.9052110612370505 0 0 0 0 6.2580507736929576 -8.8086103565474332 0 -8.8086103565474332 -6.0770061675784746 0 0 0 0 15.637279743106774 -12.62457955145328 0 -12.62457955145328 -2.4518847493600333 0 0 0 0 0.37182980694105794 -4.7086373020272916 0 -4.7086373020272916 -4.792111998342353 0 0 0 0 4.5632612914341735 -7.8234964549255892 0 -7.8234964549255892 -6.611859457397145 0 0 0 0 4.8815859434871527 -9.4853551558744584 0 -9.4853551558744584 -16.154278519123636 0 0 0 0 -5.0938044756130694 -8.7740563894099068 0 -8.7740563894099068 -6.4479963749927265 0 0 0 0 10.957243971319258 -0.4270263300923034 0 -0.4270263300923034 -18.600207099225372 0 0 0 0 -0.93460923461285006 -5.5770461525132919 0 -5.5770461525132919 -0.89468900099551996 0 0 0 0 -5.8087803040543804 -12.054746837722632 0 -12.054746837722632 -4.4127034687055584 0 0 0 0 -0.89635067598981522 -9.734605384623201 0 -9.734605384623201 -2.8941226327795135 0 0 0 0 16.959833122979035 -13.995177511265865 0 -13.995177511265865 -3.1415299658110598 0 0 0 0 7.3886308903813998 -5.3539033720594915 0 -5.3539033720594915 -17.592250913991911 0 0 0 0 11.799855422062919 -14.53504965943419 0 -14.53504965943419 -14.656818494312677 0 0 0 0 6.0746710721723503 -6.6261443191106082 0 -6.6261443191106082 -13.535567969763179 0 0 0 0 2.3119227464355845 -10.633572765694495 0 -10.633572765694495 -17.729971585283408 0 0 0 0 13.169434959323553 -4.0571215814106836 0 -4.0571215814106836 -9.6775763438345166 0 0 0 0 4.1986625890421188 -1.457005793484595 0 -1.457005793484595 -4.2131197364057016 0 0 0 0 3.1159534763615611 -3.2917904597125833 0 -3.2917904597125833 -9.1377614910486695 0 0 0 0 4.2361718135798583 -10.043133012755789 0 -10.043133012755789 -14.923189101202297 0 0 0 0 13.000101378131149 -4.4035287889773826 0 -4.4035287889773826 -3.1184993844366318 0 0 0 0 0.49354363896052078 -1.4347850164409515 0 -1.4347850164409515 -3.6644111904675682 0 0 0 0 0.1273958645287987 -0.55660484458004689 0 -0.55660484458004689 -0.46295552006451501 0 0 0 0 1.3021991384972331 -3.9304865045193029 0 -3.9304865045193029 -10.17265804679122 0 0 0 0 0.76962634095863125 -0.24314918891262138 0 -0.24314918891262138 0.051626619312081345 0 0 0 0 1.7217214103722682 0.093413467707824438 0 0.093413467707824438 -7.2284718818095435 0 0 0 0 11.958399821962303 -3.6785830709759466 0 -3.6785830709759466 -0.53912169996692683 0 0 0 0 13.96100117336664 -6.6104501626853107 0 -6.6104501626853107 -3.779572048864793 0 0 0 0 -3.1801281642106005 -13.652101901321657 0 -13.652101901321657 9.4124053405357699 0 0 0 0 12.462503235496115 -19.565925847735343 0 -19.565925847735343 -64.068768118348089 0 0 0 0 8.4940698336286005 -0.44172841331601376 0 -0.44172841331601376 -0.041517837016726844 0 0 0 0 17.628413105681147 47.162491505651701 0 47.162491505651701 -32.134903831065458 0 0 0 0 12.148893427718576 -3.9635136432707441 0 -3.9635136432707441 -54.298737691600309 0 0 0 0 -12.836652428015441 -22.181789560582047 0 -22.181789560582047 -26.727308370585888 0 0 0 0 0.66981483652671159 -2.6692432467261824 0 -2.6692432467261824 -17.873546933335092 0 0 0 0 4.4336365067174484 0.54822663557933993 0 0.54822663557933993 -16.86920735719832 0 0 0 0 1.6358350976770453 -3.2937946871388704 0 -3.2937946871388704 -18.42710255018028 0 0 0 0 -2.7044474933973106 -0.072232397649713675 0 -0.072232397649713675 -18.368129775894886 0 0 0 0 -0.0098892708447237965 -6.5489981751843516 0 -6.5489981751843516 -13.817488743714875 0 0 0 0 -6.9035727927894186 -6.5514992959529081 0 -6.5514992959529081 -12.884032990576088 0 0 0 0 -2.9210953957608581 -10.408652325788353 0 -10.408652325788353 -13.537956814136123 0 0 0 0 1.4799090704982518 -5.3433744277745063 0 -5.3433744277745063 -18.206816027110108 0 0 0 0 2.627413954702206 -8.5335076607657356 0 -8.5335076607657356 -15.524256833507025 0 0 0 0 16.73953618044834 -11.732539745326903 0 -11.732539745326903 -14.694629930238079 0 0 0 0 -0.90205987769226681 -5.1725204129603384 0 -5.1725204129603384 -14.007859458246019 0 0 0 0 4.1477890459154878 -19.18649066970238 0 -19.18649066970238 -10.171212234809218 0 0 0 0 16.763422004150925 -11.464230846853752 0 -11.464230846853752 -14.088169377117083 0 0 0 0 22.177928724806407 -7.7699829451667028 0 -7.7699829451667028 -11.729237890524018 0 0 0 0 -0.11400357660416915 -2.1654223969445923 0 -2.1654223969445923 -2.7563867408099179 0 0 0 0 -1.6229231909415347 -5.6151810080429456 0 -5.6151810080429456 -7.1574407195048053 0 0 0 0 2.4814106868452654 -9.7273515567939057 0 -9.7273515567939057 -14.941228889989361 0 0 0 0 10.99568295545032 -4.5639604731054533 0 -4.5639604731054533 -12.266603747645604 0 0 0 0 4.5237240674177883 -15.473349182575475 0 -15.473349182575475 -2.1752339190221051 0 0 0 0 14.509005608226289 -7.9885098070608365 0 -7.9885098070608365 -22.002790255288346 0 0 0 0 0.62917872211255599 -7.1599041182362271 0 -7.1599041182362271 -8.6707648317473058 0 0 0 0 -7.521392049960923 -8.8128207098291114 0 -8.8128207098291114 2.4878856272789562 0 0 0 0 0.34902892934442775 -5.8895489147147444 0 -5.8895489147147444 -2.6755817805306865 0 0 0 0 0.3712339456724294 -8.5600081799166219 0 -8.5600081799166219 -11.393294705885637 0 0 0 0 -5.7109641925489996 -7.8307641191804578 0 -7.8307641191804578 -1.7308129930670475 0 0 0 0 0.52462278620077996 -2.7416839289944619 0 -2.7416839289944619 -12.323407788684563 0 0 0 0 -0.37556717585865584 -1.0497122213647891 0 -1.0497122213647891 -2.1232089361565114 0 0 0 0 0.45319640893103497 -4.0749923266480659 0 -4.0749923266480659 -3.0780896341400559 0 0 0 0 3.1756055153637135 -5.2858387025053162 0 -5.2858387025053162 -10.120078696276778 0 0 0 0 3.6268846448701879 -0.80222171949128551 0 -0.80222171949128551 -5.9471971778266379 0 0 0 0 -1.3854656933326623 -1.8227059223554534 0 -1.8227059223554534 -17.1238145367588 0 0 0 0 8.0030035480413062 3.4628730451158845 0 3.4628730451158845 -27.182489614478982 0 0 0 0 -2.864077734078819 -9.1710116483341722 0 -9.1710116483341722 -9.234657379219243 0 0 0 0 2.746258524244773 -2.1261547961233411 0 -2.1261547961233411 -5.3800143474182152 0 0 0 0 0.48148678804864176 -2.9987905005691573 0 -2.9987905005691573 -2.9695966009685435 0 0 0 0 1.278660946013872 -3.4041173022095848 0 -3.4041173022095848 -5.1391062809584724 0 0 0 0 3.0358739036855695 -2.1153549342075166 0 -2.1153549342075166 -3.0426917100235187 0 0 0 0 2.1502089137637057 -2.6007234665296908 0 -2.6007234665296908 -2.8831385603756581 0 0 0 0 3.5415870193116135 -0.074605598655292482 0 -0.074605598655292482 -1.4208665263063254 0 0 0 0 3.2544927597518836 -6.6437396051726409 0 -6.6437396051726409 -5.2438034762294592 0 0 0 0 0.15346091501669434 -3.2931880903063302 0 -3.2931880903063302 -7.5921411385352258 0 0 0 0 -76.199574230646249 20.194968496143701 0 20.194968496143701 -19.181360653961747 0 0 0 0 -2.036835088875705 6.427285026556433 0 6.427285026556433 -13.20438691453819 0 0 0 0 -9.7304611836261756 -9.2379814513615202 0 -9.2379814513615202 -1.6715079912810324 0 0 0 0 0.38011426319622288 -0.42885747034419097 0 -0.42885747034419097 -0.30008728652605399 0 0 0 0 105.5629514270986 5.2947738897037198 0 5.2947738897037198 -70.36463899080627 0 0 0 0 -0.31595436903752017 -2.1633516939498278 0 -2.1633516939498278 0.34110578354537457 0 0 0 0 -3.1551041474522208 -11.193908606516743 0 -11.193908606516743 -8.1713325864784565 0 0 0 0 -0.054288975676088924 -3.1465973392632662 0 -3.1465973392632662 -4.3569467404271336 0 0 0 0 8.7245329256002151 -5.5292393817726406 0 -5.5292393817726406 -5.499206584471267 0 0 0 0 -1.666711827774634 -8.39746014687762 0 -8.39746014687762 -7.5551078891776342 0 0 0 0 1.3169488799967723 -4.8859716671481017 0 -4.8859716671481017 -6.347380480863908 0 0 0 0 -1.0690969152192338 -7.4723559457736428 0 -7.4723559457736428 -7.1443863639519805 0 0 0 0 -0.38255023228248319 -9.0112950402328806 0 -9.0112950402328806 -3.740897510870127 0 0 0 0 0.50947680527497141 -7.7553839020531541 0 -7.7553839020531541 -4.1813684063245091 0 0 0 0 -1.095679034557691 -5.5741542338233785 0 -5.5741542338233785 -1.2710109239962257 0 0 0 0 7.0059441286648507 -6.2777646406111671 0 -6.2777646406111671 -2.1693083499267232 0 0 0 0 -3.2994392610889918 -6.5223296187473352 0 -6.5223296187473352 -6.0237039312698926 0 0 0 0 -0.85015767624783223 -3.2006199463108942 0 -3.2006199463108942 -1.7419709984453524 0 0 0 0 -0.58570308045862163 -3.6617197490710414 0 -3.6617197490710414 -1.6463970093546978 0 0 0 0 -0.015360211666120449 -4.7845684088553639 0 -4.7845684088553639 -5.0974605211931703 0 0 0 0 2.0186888316646545 -9.1922110573676807 0 -9.1922110573676807 -5.1167277608239754 0 0 0 0 -0.85504166149371486 -8.2362005693633193 0 -8.2362005693633193 -5.2987647208119597 0 0 0 0 0.20045814976201592 -6.7780534233710643 0 -6.7780534233710643 -6.0485099709679169 0 0 0 0 -6.7526406512588437 -8.432539406201613 0 -8.432539406201613 -3.8114034106711188 0 0 0 0 -2.2684201178781223 -3.2466901605594103 0 -3.2466901605594103 0.13721958620317309 0 0 0 0 -1.2778420224094589 -4.0617104275845008 0 -4.0617104275845008 -3.271431006794046 0 0 0 0 1.3714917378685785 -1.8451532599675211 0 -1.8451532599675211 -2.5848645647043664 0 0 0 0 -0.41899306487911048 -0.31971973211566507 0 -0.31971973211566507 -0.24407594691578005 0 0 0 0 -7.759501403352715 -11.928159998600279 0 -11.928159998600279 -7.0254206658037219 0 0 0 0 0.55465108086919468 0.17674010552164532 0 0.17674010552164532 -0.028942595418708805 0 0 0 0 1.5237095030079502 -2.5272570959059486 0 -2.5272570959059486 -1.8525354539389518 0 0 0 0 -17.833403809419451 -13.283533907364358 0 -13.283533907364358 -7.2427675106346214 0 0 0 0 -2.1406638253793062 -9.3090426041289902 0 -9.3090426041289902 -10.951944492782332 0 0 0 0 5.4575756378271763 1.5646377663772455 0 1.5646377663772455 -3.9038933683177675 0 0 0 0 5.9710021723587943 -9.38020457970606 0 -9.38020457970606 -8.8360728204570478 0 0 0 0 -3.2119835211342433 -8.4226435388468417 0 -8.4226435388468417 -3.9403786505881726 0 0 0 0 -3.5561441104619007 -5.7516837171037878 0 -5.7516837171037878 -4.9244172506932955 0 0 0 0 -4.1927200666032149 -9.0895440385274924 0 -9.0895440385274924 -7.8661949402364826 0 0 0 0 -3.0210218981774233 -4.8917005345747384 0 -4.8917005345747384 -3.8743381052919617 0 0 0 0 3.6381955630154152 -6.9063777147466965 0 -6.9063777147466965 -3.7217616430079943 0 0 0 0 -2.4629763872558215 -4.6075496790804138 0 -4.6075496790804138 -3.6713354880228062 0 0 0 0 -11.160645792297146 -14.476711184686565 0 -14.476711184686565 -3.1047301744129072 0 0 0 0 -4.0508789050279788 -4.9640629053349077 0 -4.9640629053349077 -3.2000079710605434 0 0 0 0 -1.4528671727584879 -5.5922576296147781 0 -5.5922576296147781 -8.7841243278996899 0 0 0 0 4.6470294193077279 -21.811024145571736 0 -21.811024145571736 4.8340685208797787 0 0 0 0 -16.928584350250503 -20.909810562721585 0 -20.909810562721585 14.153320839819646 0 0 0 0 -0.95261495100429272 -4.7182250478660261 0 -4.7182250478660261 -4.6717916397118806 0 0 0 0 1.7274797707650578 -8.4089268477600854 0 -8.4089268477600854 0.97075958652203553 0 0 0 0 2.3934312217352272 1.5939763434148304 0 1.5939763434148304 -8.9294199380874524 0 0 0 0 -3.6248971189733226 -5.1833335114310906 0 -5.1833335114310906 -4.161846008333896 0 0 0 0 -5.0911383887931052 -4.7000584661365057 0 -4.7000584661365057 -2.3522742634916862 0 0 0 0 -7.077635847053898 -1.7377524734138463 0 -1.7377524734138463 40.738922609363726 0 0 0 0 0.64350737350083875 -0.52637416609417187 0 -0.52637416609417187 0.55566454973351287 0 0 0 0 -15.483942013239584 -8.2234892554754815 0 -8.2234892554754815 22.26771760778211 0 0 0 0 -5.9148052006203216 -5.1175794355884374 0 -5.1175794355884374 7.3588851161367419 0 0 0 0 -3.5474674446795689 -10.21183560786352 0 -10.21183560786352 -5.0351944318329771 0 0 0 0 -0.8099468850705307 -4.9971769045387191 0 -4.9971769045387191 -0.24930477468228673 0 0 0 0 -4.0026651799907995 -9.2848950447265679 0 -9.2848950447265679 4.9849524112832455 0 0 0 0 -2.8846057673754615 -5.8290399192486184 0 -5.8290399192486184 -4.1839935379584237 0 0 0 0 -3.2125904849481515 -3.5036068530267981 0 -3.5036068530267981 -1.2363451976782465 0 0 0 0 6.8729502581354609 -9.4684519168122279 0 -9.4684519168122279 -1.1560902521769094 0 0 0 0 4.6101464394746472 -15.553386425022794 0 -15.553386425022794 9.8268175080984292 0 0 0 0 0.8956239286845431 -2.6277544560009147 0 -2.6277544560009147 0.38796156108743951 0 0 0 0 -2.7545088691531419 -7.2365623815786648 0 -7.2365623815786648 -9.5942716815334279 0 0 0 0 -1.5798711260067648 -1.9402589876362981 0 -1.9402589876362981 0.97811675610000748 0 0 0 0 7.5048243938215933 -3.5528783123300798 0 -3.5528783123300798 -4.5507651596690266 0 0 0 0 -10.384651880907768 2.3738350520438871 0 2.3738350520438871 -0.73903555619449435 0 0 0 0 7.3926105043679513 4.9968129863429489 0 4.9968129863429489 -13.416578815466892 0 0 0 0 3.5816192796846735 -6.687215065966484 0 -6.687215065966484 -2.9215933512759875 0 0 0 0 -2.044111756466009 -6.5062194936274409 0 -6.5062194936274409 -2.4495780481493057 0 0 0 0 0.070659925979271065 -3.0838894058210826 0 -3.0838894058210826 -4.1690076467093604 0 0 0 0 -1.0619195045803735 -3.0082580178567468 0 -3.0082580178567468 -3.5183892542224404 0 0 0 0 -0.015478754827199737 -5.1950073583718677 0 -5.1950073583718677 -1.0706643766784509 0 0 0 0 0.084896210262741079 -3.5460466248721332 0 -3.5460466248721332 -3.1450438132092131 0 0 0 0 -0.20147353084212227 -3.4195300029048212 0 -3.4195300029048212 -6.0559431455417325 0 0 0 0 -0.80430174950015498 -3.5418147995351319 0 -3.5418147995351319 -2.1813060942167795 0 0 0 0 0.60883580712470575 -4.6064998414066167 0 -4.6064998414066167 -4.1574272198495237 0 0 0 0 0.33262575158084928 -2.182681862810389 0 -2.182681862810389 -0.15913368717093324 0 0 0 0 -10.936414014382535 -10.417105366869578 0 -10.417105366869578 4.1237518563584672 0 0 0 0 -1.4291831202083785 -2.6405498071456606 0 -2.6405498071456606 -2.4379609026177613 0 0 0 0 -0.25402726543840259 -0.79264864600774132 0 -0.79264864600774132 -1.0804019506658538 0 0 0 0 -1.1430751790467184 -1.0274169535116471 0 -1.0274169535116471 -1.9612364005438394 0 0 0 0 0.11335186822179821 -2.3589501496974208 0 -2.3589501496974208 -4.4921954741354284 0 0 0 0 6.1888334909817786 -13.174298159611453 0 -13.174298159611453 61.755555317492622 0 0 0 0 2.6965547746149241 -2.4430202107395189 0 -2.4430202107395189 -7.640895482616088 0 0 0 0 -0.042136466502604719 -0.22102945059535939 0 -0.22102945059535939 -0.67644674386089876 0 0 0 0 16.147321069669488 -22.052380489508607 0 -22.052380489508607 57.997490332124926 0 0 0 0 -0.74591612695033405 -1.3148430288599444 0 -1.3148430288599444 -0.76639612313660921 0 0 0 0 -7.6146882568318688 -13.089901043326108 0 -13.089901043326108 11.496342661188521 0 0 0 0 -0.18594004902058714 -0.39278947068335501 0 -0.39278947068335501 -0.98530811419578701 0 0 0 0 -0.01761047755189793 -1.5193892473188271 0 -1.5193892473188271 -2.6323472974318065 0 0 0 0 -2.0117535696321696 -2.3234160549992948 0 -2.3234160549992948 -1.4403453278173552 0 0 0 0 -14.227060765582792 -16.49652373393991 0 -16.49652373393991 68.070036962553388 0 0 0 0 19.639030783007911 -22.653728321636322 0 -22.653728321636322 -13.264694145740634 0 0 0 0 20.088488129178586 -46.295638638834362 0 -46.295638638834362 2.392417762361049 0 0 0 0 -6.608417533148895 -39.219266378668863 0 -39.219266378668863 18.212687485551896 0 0 0 0 -2.1185422194794228 -44.840174235988911 0 -44.840174235988911 20.949002836134355 0 0 0 0 -10.33178664843399 -19.784537820133608 0 -19.784537820133608 -1.2830309807891354 0 0 0 0 0.3926683033130729 -0.19259282674520861 0 -0.19259282674520861 -0.079775399584719242 0 0 0 0 2.0487099397105339 1.1452361648557599 0 1.1452361648557599 51.934723112292659 0 0 0 0 0.03520081375609152 -39.271537636805135 0 -39.271537636805135 12.798919658240834 0 0 0 0 -1.6196891341369337 -35.0796800054068 0 -35.0796800054068 6.3611262429708404 0 0 0 0 -38.200551977133728 -17.640593092218012 0 -17.640593092218012 2.2799375640088044 0 0 0 0 -23.213048755485943 -14.99331478831192 0 -14.99331478831192 -7.9690486401840417 0 0 0 0 -12.034399856638629 -8.4719883453321643 0 -8.4719883453321643 -14.74732183788953 0 0 0 0 -25.363558334197478 -7.6628789585119179 0 -7.6628789585119179 -4.5697452217196997 0 0 0 0 -26.497508552252839 -12.555776136357196 0 -12.555776136357196 -9.2345639690438048 0 0 0 0 -45.257567570544779 -4.78713297664072 0 -4.78713297664072 -12.489298384947467 0 0 0 0 -34.916055623296415 -23.507474758420656 0 -23.507474758420656 -31.815651021415349 0 0 0 0 61.239841672522743 -130.82443020028262 0 -130.82443020028262 -58.203491033789632 0 0 0 0 119.25753216051817 10.257324249816179 0 10.257324249816179 -17.559761480530312 0 0 0 0 -13.105446278841555 -55.570623411780389 0 -55.570623411780389 9.1063140752796699 0 0 0 0 -81.264043828150534 -42.420324226449232 0 -42.420324226449232 6.5704095712682147 0 0 0 0 0.22599826552186464 -0.44747600043569591 0 -0.44747600043569591 -0.63826594219973143 0 0 0 0 -15.352491348721742 -13.14853008689586 0 -13.14853008689586 -5.0915704130801203 0 0 0 0 0.55365102200769911 -0.48169159056077504 0 -0.48169159056077504 0.13539940121805871 0 0 0 0 0.53232594831024471 -3.5663739943427828 0 -3.5663739943427828 -9.7137221882585365 0 0 0 0 -13.572844440018798 0.41807477464069898 0 0.41807477464069898 -8.0701779679049537 0 0 0 0 0.11067566156445352 -0.29373691343667829 0 -0.29373691343667829 -0.22021925221440197 0 0 0 0 -5.7570830937074788 0.68148088271038887 0 0.68148088271038887 17.470995214232516 0 0 0 0 6.7144344946646015 5.638057761088362 0 5.638057761088362 -11.725645251688405 0 0 0 0 2.5830510991181654 12.826363553883539 0 12.826363553883539 14.282799729012595 0 0 0 0 -8.3445159657894692 3.3822743571183764 0 3.3822743571183764 52.289488690726785 0 0 0 0 -27.590883448576278 -18.319474409949635 0 -18.319474409949635 79.828732003806067 0 0 0 0 0.046107732987366035 -17.02021177821905 0 -17.02021177821905 26.712778539068267 0 0 0 0 -0.11389951511227991 -3.757939767791072 0 -3.757939767791072 -13.193833488419557 0 0 0 0 -32.061055599888277 4.1448544989920038 0 4.1448544989920038 45.660848883530321 0 0 0 0 -0.021841790302659092 0.27671789257825941 0 0.27671789257825941 0.11019292844479323 0 0 0 0 -35.076066516056017 20.166185545540657 0 20.166185545540657 95.591170162896873 0 0 0 0 0.39386680518423844 0.32912781181422446 0 0.32912781181422446 -0.22127836965846259 0 0 0 0 -1.039862113942003 -53.097419563542154 0 -53.097419563542154 19.635180329026753 0 0 0 0 8.8268987402771018 -5.176100956348364 0 -5.176100956348364 -18.184923141534682 0 0 0 0 1.7967662996888976 -3.0246049312979721 0 -3.0246049312979721 -9.0235282198329969 0 0 0 0 0.67938179703629942 0.03824704764640785 0 0.03824704764640785 -0.8375823097863524 0 0 0 0 -11.45483521593269 3.3714655294534168 0 3.3714655294534168 -3.9372198305370603 0 0 0 0 19.683578981150276 10.564077663923001 0 10.564077663923001 53.615453953389306 0 0 0 0 0.37969780504863593 -3.5364880087606707 0 -3.5364880087606707 -4.1064708049998444 0 0 0 0 0.65851086230759392 -1.2060598974424011 0 -1.2060598974424011 -3.247496075190611 0 0 0 0 -0.38133709381031622 0.64114273963700441 0 0.64114273963700441 -4.7751957009663784 0 0 0 0 -0.854556735180104 -1.2139546561969023 0 -1.2139546561969023 -0.6246967586919161 0 0 0 0 -0.91074538235625369 1.9292546932979349 0 1.9292546932979349 -3.4870001690728714 0 0 0 0 0.00011333367365295999 -3.893064980032932 0 -3.893064980032932 -2.098434827355959 0 0 0 0 -1.3942842058741007 0.65270924521891516 0 0.65270924521891516 -0.300965375000942 0 0 0 0 -1.6971765597372723 -3.5066159651587441 0 -3.5066159651587441 2.0973578736987974 0 0 0 0 0.15470404385652614 -0.5718638909729501 0 -0.5718638909729501 -0.85504243823051507 0 0 0 0 0.8966379505036457 0.21074864620845801 0 0.21074864620845801 4.8876068705794751 0 0 0 0 0.52101404599365964 0.39900018801730042 0 0.39900018801730042 -1.3551906043634179 0 0 0 0 7.6817421359010041e-05 0.041236684159230208 0 0.041236684159230208 -1.5378774203800276 0 0 0 0 -0.54204020503949124 0.78648778528841223 0 0.78648778528841223 -0.65034407123689952 0 0 0 0 0.66554744344102801 -2.3511033295086463 0 -2.3511033295086463 -6.2053806077910849 0 0 0 0 -0.22893723342349404 -0.1777563011141865 0 -0.1777563011141865 -8.4145726357045305 0 0 0 0 -0.0013330190249689622 -1.5864149703486419 0 -1.5864149703486419 -4.4605465946870027 0 0 0 0 -0.042423104839713233 1.0386284685352898 0 1.0386284685352898 -0.96171129337891248 0 0 0 0 -0.69835681788026704 -0.62729824246230237 0 -0.62729824246230237 0.45079396116534554 0 0 0 0 0.48700936369800729 -2.4082561094685246 0 -2.4082561094685246 -3.2901462540196462 0 0 0 0 0.88874448921887961 -0.083973065419968407 0 -0.083973065419968407 -4.2440622131625787 0 0 0 0 -0.48562382056938702 -0.26986533504626031 0 -0.26986533504626031 -0.55037071536894544 0 0 0 0 -0.32396432774839923 0.36160326549884303 0 0.36160326549884303 -1.6720275699717604 0 0 0 0 1.3074586883598869 0.35637719649166399 0 0.35637719649166399 -1.2717501621016756 0 0 0 0 1.3156903510371194 -1.2407752149820226 0 -1.2407752149820226 -6.4513548239560805 0 0 0 0 0.51296005133070821 -1.9667854415388533 0 -1.9667854415388533 -3.3997868708042667 0 0 0 0 1.7264465065018157 -1.4369949522542811 0 -1.4369949522542811 -4.1609926157178734 0 0 0 0 1.1900051800266667 1.0085925870653689 0 1.0085925870653689 -1.5552507078407034 0 0 0 0 -2.4042668863221479 -8.2436192581910746 0 -8.2436192581910746 -0.25796773811066487 0 0 0 0 0.22520478866467641 -0.35090461264085326 0 -0.35090461264085326 -0.92199893432674562 0 0 0 0 13.698308315877512 -0.21987700836052682 0 -0.21987700836052682 -35.588297573551245 0 0 0 0 8.4804375151288696 -6.4591847086101097 0 -6.4591847086101097 -15.814004986215195 0 0 0 0 1.3565456724954856 2.8239987417896373 0 2.8239987417896373 -17.210797440493479 0 0 0 0 2.5980214763494587 9.1382518294922193 0 9.1382518294922193 -31.984027420284974 0 0 0 0 6.3352578102312691 -1.2025356386191106 0 -1.2025356386191106 -23.056433632794324 0 0 0 0 4.7012319068235229 -0.37479929378969246 0 -0.37479929378969246 -25.916247881820709 0 0 0 0 13.86335640219113 -4.0118397644187098 0 -4.0118397644187098 -25.646961561096902 0 0 0 0 11.64841432821413 -8.5425774992359038 0 -8.5425774992359038 -21.83169407558421 0 0 0 0 12.090276663158875 -4.7953633554038788 0 -4.7953633554038788 -24.673401518841729 0 0 0 0 9.9166434013895923 -8.9814171806929153 0 -8.9814171806929153 -29.011832672132641 0 0 0 0 11.191953384876797 -11.275726868690185 0 -11.275726868690185 -17.359637995245976 0 0 0 0 15.245102732231317 -14.247824941941872 0 -14.247824941941872 -15.005555238699799 0 0 0 0 16.653170116587717 -13.38047248879684 0 -13.38047248879684 -15.830971346970728 0 0 0 0 12.104293989414145 -10.080548849204661 0 -10.080548849204661 -16.205705567675977 0 0 0 0 11.020609995739505 -12.998741193368005 0 -12.998741193368005 -14.191719421370408 0 0 0 0 1.8451199714118047 -19.742595967889088 0 -19.742595967889088 -9.9439460943513041 0 0 0 0 14.039067800349585 -17.683921775039607 0 -17.683921775039607 -9.6619602367009065 0 0 0 0 5.0841503092888161 -8.6427687355426315 0 -8.6427687355426315 -5.3793663635342455 0 0 0 0 16.288445839925771 -8.0311017448252642 0 -8.0311017448252642 -9.5142195409653141 0 0 0 0 9.1669564094590896 7.3750001747516762 0 7.3750001747516762 -20.14136944859456 0 0 0 0 27.61467248549161 -5.7738236875338771 0 -5.7738236875338771 -22.740147540398766 0 0 0 0 -0.072374841935015866 -17.266674226811347 0 -17.266674226811347 -25.777492220282966 0 0 0 0 0.0011637810475804145 -2.2604379435920237 0 -2.2604379435920237 1.384886488731695 0 0 0 0 -0.55464983954950497 -0.048393359336898811 0 -0.048393359336898811 0.27935534394664963 0 0 0 0 -1.4702146131118639 25.793559897107443 0 25.793559897107443 -68.183096239171391 0 0 0 0 -2.7519767865906033 2.4031168883568625 0 2.4031168883568625 -17.928401781161483 0 0 0 0 7.50976719242135 -1.3779637173440733 0 -1.3779637173440733 -25.708812228269835 0 0 0 0 20.945388112557794 -63.079918732143597 0 -63.079918732143597 -17.72855638829833 0 0 0 0 2.5503940103399145 -27.838297771673751 0 -27.838297771673751 -23.763432937610787 0 0 0 0 -20.608654469171597 -50.016385543401611 0 -50.016385543401611 -21.364696555392584 0 0 0 0 16.808878436590476 -47.359890699121934 0 -47.359890699121934 0.068447402214587783 0 0 0 0 25.703912810429756 -48.001825135665058 0 -48.001825135665058 16.919390115505394 0 0 0 0 45.292043298640692 -33.666622528402513 0 -33.666622528402513 10.599215593241297 0 0 0 0 39.24281388298391 -48.137238289906691 0 -48.137238289906691 27.932720234608496 0 0 0 0 46.365805936229293 -21.172644374126946 0 -21.172644374126946 31.074901924610458 0 0 0 0 40.152330215570714 -48.226716025816131 0 -48.226716025816131 1.2409610397808137 0 0 0 0 23.661588658230812 -42.031473017032113 0 -42.031473017032113 -0.48633005060764845 0 0 0 0 26.784064716666762 -49.633520573150236 0 -49.633520573150236 4.5484946378082896 0 0 0 0 23.966059413836774 -57.812289716588566 0 -57.812289716588566 -4.9388387841863732 0 0 0 0 22.921735638260543 -48.921609073780019 0 -48.921609073780019 7.199819411343924 0 0 0 0 30.824236981156446 -33.768244874730044 0 -33.768244874730044 2.5009624986014387 0 0 0 0 11.265122024057973 -22.765099822191132 0 -22.765099822191132 4.0202232404863025 0 0 0 0 4.0635455925848873 -31.248634442059483 0 -31.248634442059483 4.8989871853791556 0 0 0 0 9.52637904106723 -40.851574168259958 0 -40.851574168259958 15.383167137235432 0 0 0 0 -6.6931255918934767 -30.137985122559257 0 -30.137985122559257 11.226961728805691 0 0 0 0 -5.9853189197219763 -18.961302330593753 0 -18.961302330593753 4.9801662457775819 0 0 0 0 12.124159569565336 -54.581449436506318 0 -54.581449436506318 25.853334755869582 0 0 0 0 8.3528403806471943 -44.550787298509931 0 -44.550787298509931 6.9742740955616682 0 0 0 0 4.2915799585562127 -39.133024715620195 0 -39.133024715620195 18.255023203761993 0 0 0 0 17.328211161481249 -74.409142441820222 0 -74.409142441820222 40.291021801311217 0 0 0 0 2.7078335775258893 -39.224976673871879 0 -39.224976673871879 23.802838388324744 0 0 0 0 -1.7047992848865761 -38.817100901151207 0 -38.817100901151207 63.34382686630488 0 0 0 0 13.727932249384821 -59.339192351694237 0 -59.339192351694237 7.5947309688981477 0 0 0 0 17.847247229957702 -59.135925034207503 0 -59.135925034207503 7.6043260993264994 0 0 0 0 -6.0999662717733827 -49.868185326189177 0 -49.868185326189177 7.9274630855525174 0 0 0 0 35.867277895620418 -49.555726453989791 0 -49.555726453989791 6.9527841789586091 0 0 0 0 93.97272440492452 33.049799353265371 0 33.049799353265371 4.1207470451918198 0 0 0 0 96.097807899594045 -97.671317044781972 0 -97.671317044781972 43.883961065246694 0 0 0 0 -14.983522404864402 2.4530874390152348 0 2.4530874390152348 7.9930248643922823 0 0 0 0 19.527048955871578 9.2845622944496426 0 9.2845622944496426 -4.4288897364040167 0 0 0 0 -0.0040299971722734806 -0.026378956697771461 0 -0.026378956697771461 0.46876260770785905 0 0 0 0 -2.0865892825292662 -2.7210244885262256 0 -2.7210244885262256 6.3978030053860309 0 0 0 0 -10.884223918433236 12.318940168642257 0 12.318940168642257 -0.92924845094648845 0 0 0 0 6.1125659546594306 1.3672305261850397 0 1.3672305261850397 -2.1405742173992621 0 0 0 0 -4.0618474994971621 4.8497223451286118 0 4.8497223451286118 0.56489609440086497 0 0 0 0 -27.484762239487054 -2.4482604653908311 0 -2.4482604653908311 6.0908396663708118 0 0 0 0 -7.2252002071936658 -1.7063609143115173 0 -1.7063609143115173 4.0585784616196179 0 0 0 0 -4.9090553038671487 -8.4449973688360842 0 -8.4449973688360842 5.4126040835944877 0 0 0 0 -4.3558821009317139 -3.4264908791809283 0 -3.4264908791809283 1.2026888814941614 0 0 0 0 -8.5149090844995499 1.319666063870045 0 1.319666063870045 1.6270669188706961 0 0 0 0 -3.2362762891352759 1.8119993909458572 0 1.8119993909458572 1.4667987667198759 0 0 0 0 -2.9700036046351785 0.27250902071236816 0 0.27250902071236816 1.8529282742792716 0 0 0 0 1.05321124629927 -1.5032461117242519 0 -1.5032461117242519 -10.402796596996268 0 0 0 0 1.5639585083339558 -3.258959328225 0 -3.258959328225 1.9064191527357508 0 0 0 0 0.58258435224684035 -4.3850249087399789 0 -4.3850249087399789 5.6860538002392786 0 0 0 0 3.5303152355478931 -6.4227063516630025 0 -6.4227063516630025 3.3172770187183467 0 0 0 0 1.4938109965241892 -5.4617879547167831 0 -5.4617879547167831 3.0028018840462209 0 0 0 0 9.2137833140150178 -7.3796819720992062 0 -7.3796819720992062 -0.97614256432461843 0 0 0 0 36.519565143369164 -10.839591110486253 0 -10.839591110486253 -8.1368179086239252 0 0 0 0 -0.47194038218879797 0.0096476371463616317 0 0.0096476371463616317 0.027751965519865252 0 0 0 0 -0.16081248428054096 1.9941774788812836 0 1.9941774788812836 -0.65147504438937176 0 0 0 0 -14.340420469675792 8.4346204142084389 0 8.4346204142084389 3.9725833442562362 0 0 0 0 -0.25488405018742721 0.065641769497592595 0 0.065641769497592595 0.013936665664324721 0 0 0 0 -44.802805206860626 -33.127860693263074 0 -33.127860693263074 -34.952553034225275 0 0 0 0 -3.5270871518227978 0.78930827481508459 0 0.78930827481508459 0.80680116205985541 0 0 0 0 -1.8636142019161461 -0.087005131113173206 0 -0.087005131113173206 2.315981486838254 0 0 0 0 -5.7334035711182878 3.7389245801987272 0 3.7389245801987272 -5.8246761164700729 0 0 0 0 3.4161995866868438 -6.9189425765300712 0 -6.9189425765300712 -40.725514504127204 0 0 0 0 -0.38027042522515742 -0.062651156948729358 0 -0.062651156948729358 -0.20923748543943788 0 0 0 0 -18.216203223301818 -42.682809955684206 0 -42.682809955684206 -48.499638977756149 0 0 0 0 -17.248538916534017 -15.617657594547381 0 -15.617657594547381 -11.571684950839199 0 0 0 0 -18.772096333792888 -28.999135889793251 0 -28.999135889793251 -41.144811082159322 0 0 0 0 -40.187351209478493 -13.844108378476449 0 -13.844108378476449 -1.9764371598794241 0 0 0 0 -20.810637064012553 -42.647512198425829 0 -42.647512198425829 -42.62985764830546 0 0 0 0 -15.332564304217613 -15.527699669974936 0 -15.527699669974936 -1.931006933240667 0 0 0 0 -23.271867795193884 -25.088193002462504 0 -25.088193002462504 8.6778741370271746 0 0 0 0 -23.180025646008289 -14.598161555459228 0 -14.598161555459228 12.051848891767804 0 0 0 0 1.5012780614410985 -16.062884319585464 0 -16.062884319585464 5.1729087584963054 0 0 0 0 2.2353760581067945 -16.482998919314014 0 -16.482998919314014 -8.114807593070509 0 0 0 0 -0.85969172300610808 -22.819594022963429 0 -22.819594022963429 -18.893776629318836 0 0 0 0 -7.3346372749542752 -20.649371151887863 0 -20.649371151887863 -8.2201104368796223 0 0 0 0 -5.7863351000925149 -26.601403356705305 0 -26.601403356705305 1.9264258396324294 0 0 0 0 -5.1938647823858446 -25.458703845451055 0 -25.458703845451055 -10.294109154217495 0 0 0 0 -0.47490598587864952 -25.674724951673852 0 -25.674724951673852 1.8035968722133475 0 0 0 0 -4.2933688822761269 -28.672807968933739 0 -28.672807968933739 9.7568579263679567 0 0 0 0 -29.354875039531052 -42.84964626137581 0 -42.84964626137581 9.6622409845749644 0 0 0 0 -2.1643464667231456 -33.057613741088971 0 -33.057613741088971 13.156791732245438 0 0 0 0 2.5741341142033889 -30.657374853534748 0 -30.657374853534748 5.6775838772955467 0 0 0 0 -5.9411082262720356 -17.144465490983293 0 -17.144465490983293 12.240393041623975 0 0 0 0 62.439819479091966 -60.886041928419218 0 -60.886041928419218 -9.3095616893660917 0 0 0 0 0.05382535684909584 -0.28793504685359395 0 -0.28793504685359395 0.24321764381785016 0 0 0 0 -138.70174013454903 -13.76439358622838 0 -13.76439358622838 21.641089629844828 0 0 0 0 -85.44275191678139 -44.725667815223233 0 -44.725667815223233 19.232166935102214 0 0 0 0 -18.683906179051974 -11.942491733540464 0 -11.942491733540464 12.702743045127136 0 0 0 0 1.9493245599492184 -33.321641464056484 0 -33.321641464056484 27.255591945896413 0 0 0 0 -16.135208207327651 -7.2435986604750724 0 -7.2435986604750724 5.9999300169110938 0 0 0 0 40.015529294510998 -28.14698220037144 0 -28.14698220037144 -41.78186248952079 0 0 0 0 -12.472821339172697 -13.741789403909934 0 -13.741789403909934 -1.7128316469834317 0 0 0 0 0.3598754626109617 -0.5541195705890658 0 -0.5541195705890658 0.32477515669247659 0 0 0 0 6.4312780979626041 -9.5295387930209472 0 -9.5295387930209472 -18.163299369091874 0 0 0 0 0.34046849765181797 -0.47330269297036409 0 -0.47330269297036409 0.29236900482036887 0 0 0 0 -3.0997150306577623 -3.7967816564982968 0 -3.7967816564982968 19.608752949685368 0 0 0 0 2.4924862718053191 -2.4333230944339448 0 -2.4333230944339448 18.924255855996307 0 0 0 0 -4.5976057493364806 -1.2094775736150041 0 -1.2094775736150041 15.663829871535199 0 0 0 0 -9.0538589600255364 -14.27814907845277 0 -14.27814907845277 15.401453051362012 0 0 0 0 -16.563010576636543 -5.7281835453036365 0 -5.7281835453036365 8.1895919916751154 0 0 0 0 -6.9536993867181991 -8.4946348521211803 0 -8.4946348521211803 31.044357653172483 0 0 0 0 14.470851435517488 -26.456605496610791 0 -26.456605496610791 13.273450128509467 0 0 0 0 -5.9759237454849057 -21.251490369793999 0 -21.251490369793999 13.198265223707494 0 0 0 0 19.228138338603458 -25.497129431218127 0 -25.497129431218127 -6.8604223376960363 0 0 0 0 -5.7133467621783893 -25.954018874966096 0 -25.954018874966096 -2.3457053884812922 0 0 0 0 25.740625753716358 -39.183969746912908 0 -39.183969746912908 19.325756670274131 0 0 0 0 17.009010776531341 -20.108623688298394 0 -20.108623688298394 23.096436826959916 0 0 0 0 46.289676012478594 -38.784832586658922 0 -38.784832586658922 34.55311512267599 0 0 0 0 48.918384549005623 -30.616653226854851 0 -30.616653226854851 26.999470242415555 0 0 0 0 0.11538206192584077 -0.23956736059250261 0 -0.23956736059250261 0.19456032268332102 0 0 0 0 2.4476661069888905 -12.33543116806959 0 -12.33543116806959 73.609242413514949 0 0 0 0 -0.99851895256915668 -3.9976046990050236 0 -3.9976046990050236 4.5289330014870757 0 0 0 0 20.125174648527263 7.2064153770493249 0 7.2064153770493249 -11.069082836365851 0 0 0 0 30.822355591463293 -11.770452285306419 0 -11.770452285306419 17.60956173692955 0 0 0 0 17.908775414978663 -19.898916981816001 0 -19.898916981816001 79.916826687544017 0 0 0 0 23.444058938313447 -10.346743657457409 0 -10.346743657457409 31.829860747861858 0 0 0 0 51.98474602083661 -44.664708092635919 0 -44.664708092635919 53.653474081196691 0 0 0 0 55.573889802309168 -47.862249591382806 0 -47.862249591382806 24.437846660839568 0 0 0 0 56.807675116895098 -50.856705173401679 0 -50.856705173401679 26.985315814374189 0 0 0 0 11.896933133614425 -27.297081839222301 0 -27.297081839222301 172.55090015329915 0 0 0 0 111.19960914051126 -99.000708132013642 0 -99.000708132013642 64.861703784337806 0 0 0 0 -69.08676218718665 6.0312303646751388 0 6.0312303646751388 74.538193295016754 0 0 0 0 0.32153898728883767 -0.65437924317099316 0 -0.65437924317099316 1.3695659354233385 0 0 0 0 -74.823735672515795 -88.436215775534038 0 -88.436215775534038 145.7797584965183 0 0 0 0 -79.323920622463447 -68.400573194677463 0 -68.400573194677463 56.734395292438421 0 0 0 0 -58.347293687293586 -62.5977973736899 0 -62.5977973736899 -7.0684609352865664 0 0 0 0 156.72762036185622 -32.952572930815222 0 -32.952572930815222 0.41738648632599507 0 0 0 0 32.408020515438693 8.4630195945428568 0 8.4630195945428568 4.619899911558889 0 0 0 0 16.528514364735656 -14.88336903267782 0 -14.88336903267782 3.0312530572118703 0 0 0 0 1.1021933886683914 -1.9744122919707507 0 -1.9744122919707507 3.2184200670529322 0 0 0 0 -2.2162892539142831 -3.4448694279376468 0 -3.4448694279376468 7.1904452950602717 0 0 0 0 2.0136679620881459 -2.9317636549711281 0 -2.9317636549711281 4.3758176044547952 0 0 0 0 1.7922709323924728 -0.92308449096803713 0 -0.92308449096803713 1.2337367661505336 0 0 0 0 23.101374738062987 -15.22702372120466 0 -15.22702372120466 10.577140851833974 0 0 0 0 2.5045501773074648 3.2166653927333755 0 3.2166653927333755 13.084635617065032 0 0 0 0 43.095420543273804 -44.65039834864865 0 -44.65039834864865 32.369869175259737 0 0 0 0 29.822485178321131 -11.094818613548341 0 -11.094818613548341 3.1841131762876103 0 0 0 0 62.265414810337461 -29.911727154155415 0 -29.911727154155415 16.601589264834502 0 0 0 0 77.272509744242143 -34.829554625880519 0 -34.829554625880519 17.381217458664423 0 0 0 0 64.423792962036941 -35.103963000490012 0 -35.103963000490012 21.736149257210855 0 0 0 0 69.26353585616198 -42.14943426875061 0 -42.14943426875061 23.447035376231725 0 0 0 0 0.58548632453060634 -1.0044784425403996 0 -1.0044784425403996 -0.99938319044522572 0 0 0 0 49.42518390928501 -56.140748908679598 0 -56.140748908679598 62.33425320290371 0 0 0 0 8.6641089656204713 -137.97579350922115 0 -137.97579350922115 156.65390750128245 0 0 0 0 1.9354990590618399 -89.944441726235709 0 -89.944441726235709 -8.0895908590218824 0 0 0 0 -57.979027293646141 -78.575639982025677 0 -78.575639982025677 51.079835269762953 0 0 0 0 -60.152665006850384 -66.849443113477719 0 -66.849443113477719 36.089719740884902 0 0 0 0 -53.082192696978268 -44.338722215808957 0 -44.338722215808957 7.4546762175341428 0 0 0 0 -30.789826417073527 -55.605688834745706 0 -55.605688834745706 -29.989245963221038 0 0 0 0 -28.547848014970214 -48.586111112835169 0 -48.586111112835169 -37.138907633441704 0 0 0 0 -22.214813922960275 -39.131339166257021 0 -39.131339166257021 -36.458155385415012 0 0 0 0 0.27022341827093399 -1.8552787461617584 0 -1.8552787461617584 1.454048555033399 0 0 0 0 -26.743324670811489 -50.759995245368827 0 -50.759995245368827 -66.31910605079247 0 0 0 0 -46.103482481444189 -48.260231616719466 0 -48.260231616719466 -36.880558306442254 0 0 0 0 35.697815030927813 -57.612519881873595 0 -57.612519881873595 -48.764795078312545 0 0 0 0 -32.936921544896677 -33.403502743749414 0 -33.403502743749414 -52.463800907526092 0 0 0 0 -34.22801182728108 -43.700495564285575 0 -43.700495564285575 -37.101386072936293 0 0 0 0 -19.95396121348449 -43.140328308749304 0 -43.140328308749304 -45.648906649786113 0 0 0 0 -12.061698779671133 -64.05668820040637 0 -64.05668820040637 -119.614026902771 0 0 0 0 -72.836931387322693 -38.515865030037276 0 -38.515865030037276 -58.71931934598615 0 0 0 0 -61.693795358430179 -13.76812507793511 0 -13.76812507793511 -23.858983797890687 0 0 0 0 -13.542477441543269 42.572491763778089 0 42.572491763778089 -239.60471359860094 0 0 0 0 -67.367220548843761 -33.065682075497534 0 -33.065682075497534 0.33799928444386751 0 0 0 0 -88.860531967846327 -11.269065755764132 0 -11.269065755764132 -8.0376150503616373 0 0 0 0 -56.738283915363354 -43.569784495467957 0 -43.569784495467957 -35.627233773433545 0 0 0 0 -141.08105688866453 -42.060664369347251 0 -42.060664369347251 -8.0735260749988811 0 0 0 0 111.48176053303962 -14.792760143856981 0 -14.792760143856981 -43.892283840323216 0 0 0 0 -0.027416662473592535 0.040959697919749516 0 0.040959697919749516 0.22511638864931882 0 0 0 0 -0.83713559940952109 -35.371707066540694 0 -35.371707066540694 7.0069081991466931 0 0 0 0 21.825730882539574 2.1401204558860627 0 2.1401204558860627 8.4888170325724559 0 0 0 0 -45.680741050779829 -32.988232705778842 0 -32.988232705778842 9.259415603857633 0 0 0 0 3.654144649042518 -4.7802126399361029 0 -4.7802126399361029 5.6860729718466843 0 0 0 0 3.2176900014283092 -7.4751261227197574 0 -7.4751261227197574 -0.53746782772395818 0 0 0 0 -43.864511234757629 -6.5707421412871554 0 -6.5707421412871554 7.710905472519471 0 0 0 0 4.3263009639017582 -9.1810803714133726 0 -9.1810803714133726 0.018281889049831079 0 0 0 0 -1.7639691098825097 -10.715437775350438 0 -10.715437775350438 1.1540508159796445 0 0 0 0 1.8446420782520363 -9.4290549250308686 0 -9.4290549250308686 6.8583724174677627 0 0 0 0 8.2356873978123986 -10.665061274441541 0 -10.665061274441541 -0.37104503099726571 0 0 0 0 6.556771778682787 -6.0302911842397862 0 -6.0302911842397862 16.08998221037109 0 0 0 0 3.2315560641800403 -7.6723580268662772 0 -7.6723580268662772 20.673504879607208 0 0 0 0 10.117234477636885 -12.96863694780177 0 -12.96863694780177 8.2994411439431133 0 0 0 0 -16.396134079523563 -11.564796780708093 0 -11.564796780708093 16.59880541612074 0 0 0 0 0.27827128355556852 -14.381952587280466 0 -14.381952587280466 22.324514104970149 0 0 0 0 -1.3101366682631124 -9.2997048719626036 0 -9.2997048719626036 11.033029453617928 0 0 0 0 -5.2755011596655095 -10.830690682578279 0 -10.830690682578279 24.025610896423132 0 0 0 0 -7.7159558145249321 -18.206142619074853 0 -18.206142619074853 21.431283154048288 0 0 0 0 -10.129940723750224 -5.5847973035979521 0 -5.5847973035979521 9.8218461698006649 0 0 0 0 3.9478975702165826 -11.768728593521246 0 -11.768728593521246 -5.4314633191788744 0 0 0 0 4.4012029302571571 -5.6682606364420707 0 -5.6682606364420707 6.7779701326052617 0 0 0 0 -3.5835240295377844 -18.535211501901244 0 -18.535211501901244 -1.0941625201103307 0 0 0 0 -0.12424022162904347 -0.21757009844972863 0 -0.21757009844972863 0.81336065277512404 0 0 0 0 -86.932698474038034 -21.684897520675804 0 -21.684897520675804 8.1127347683577682 0 0 0 0 41.036360352434826 9.1116609878389454 0 9.1116609878389454 -7.2703792519423587 0 0 0 0 10.581750335793004 -22.847246427915707 0 -22.847246427915707 -8.5285177077508934 0 0 0 0 3.4578244228695656 -6.1253092671310228 0 -6.1253092671310228 8.1501188566507921 0 0 0 0 -14.589582303482985 -21.970178117702517 0 -21.970178117702517 15.4990763355745 0 0 0 0 -23.959621095139482 -20.007066607573506 0 -20.007066607573506 -4.2920406816992909 0 0 0 0 1.4034207994967387 -1.7035391278091101 0 -1.7035391278091101 1.4889488671968039 0 0 0 0 -32.280795910815868 -25.149223016280303 0 -25.149223016280303 -4.8690618980617728 0 0 0 0 -25.297612285929063 -18.972337295193938 0 -18.972337295193938 -2.0246872814714152 0 0 0 0 -23.33908670564233 -18.445714371060603 0 -18.445714371060603 -1.1071549189218786 0 0 0 0 -18.155519498548529 -23.806034055511191 0 -23.806034055511191 -6.1635941935237497 0 0 0 0 -20.341463959870453 -30.709830900384986 0 -30.709830900384986 -9.5615224787234183 0 0 0 0 -22.114859493407494 -27.042115009477129 0 -27.042115009477129 -7.9312266335036838 0 0 0 0 -28.118703406133136 -34.552771160251723 0 -34.552771160251723 -8.5645390686268001 0 0 0 0 -28.993433027726496 -33.247366491887078 0 -33.247366491887078 -4.2802769484842429 0 0 0 0 -47.840388166410776 -34.128364331758348 0 -34.128364331758348 5.0083663330351555 0 0 0 0 -52.401282345145319 -25.342262271328082 0 -25.342262271328082 -5.1241188525309553 0 0 0 0 -33.532952967161691 -33.763304424219314 0 -33.763304424219314 -2.7771130663677468 0 0 0 0 -54.99629814410946 -10.543914151401623 0 -10.543914151401623 -4.2850024757317442 0 0 0 0 3.8294374096635693 -7.4095057465929131 0 -7.4095057465929131 1.7712355341791408 0 0 0 0 3.104531063342165 -4.4964075911530017 0 -4.4964075911530017 -1.6957164468281007 0 0 0 0 14.381035700486791 -0.47864591612596996 0 -0.47864591612596996 -0.52017026808334776 0 0 0 0 73.407371290671563 -38.665638409755047 0 -38.665638409755047 -7.241653169029405 0 0 0 0 24.732371969317228 -25.809565416313944 0 -25.809565416313944 -4.886318501423375 0 0 0 0 68.091148947129682 -60.670697595948241 0 -60.670697595948241 41.820225333080089 0 0 0 0 42.278448018611812 12.720322699502503 0 12.720322699502503 -26.416672630411995 0 0 0 0 0.51600649541717303 -0.10807294464725103 0 -0.10807294464725103 -0.028442884620105247 0 0 0 0 5.0066128947648849 -10.0202572875437 0 -10.0202572875437 -7.3302184667154506 0 0 0 0 5.974956577957073 -3.5969227130990475 0 -3.5969227130990475 -17.047645204907894 0 0 0 0 1.1504171708210809 0.047460775627293117 0 0.047460775627293117 -0.099950581093068536 0 0 0 0 3.6794380674250533 -6.9292915021524095 0 -6.9292915021524095 -0.63583631563278686 0 0 0 0 2.2276411451111926 -4.9893175189799877 0 -4.9893175189799877 -3.2239250783495663 0 0 0 0 3.6733185636385315 -8.0440528157012068 0 -8.0440528157012068 0.36209071130178927 0 0 0 0 3.4017674755673397 -4.986724441093429 0 -4.986724441093429 -1.4959149824462656 0 0 0 0 4.3679329359447365 -9.337979761095994 0 -9.337979761095994 -2.3101156523605368 0 0 0 0 4.1249550747288595 -7.2064207435337266 0 -7.2064207435337266 3.4093359945090924 0 0 0 0 5.1740176706043712 -7.2395926848448653 0 -7.2395926848448653 4.5965297116981674 0 0 0 0 6.868959879603608 -8.3668407888799265 0 -8.3668407888799265 0.39194475365184189 0 0 0 0 7.5768607257068652 -10.613261872165822 0 -10.613261872165822 5.5148530576489065 0 0 0 0 5.8180905148401507 -8.3184865547059417 0 -8.3184865547059417 4.4486540756188333 0 0 0 0 6.9306039682642222 -7.0650347974333272 0 -7.0650347974333272 3.1161662930280727 0 0 0 0 7.5255925526980718 -7.4683445699192816 0 -7.4683445699192816 3.363134779501479 0 0 0 0 7.2958921356089377 -7.6091324949966292 0 -7.6091324949966292 1.8767951263016585 0 0 0 0 6.8332339900275656 -8.2894860573351252 0 -8.2894860573351252 1.0807143971087498 0 0 0 0 7.5457580510396838 -4.8645929302720106 0 -4.8645929302720106 2.1170651481079403 0 0 0 0 13.400947748272756 -8.7074769186810954 0 -8.7074769186810954 2.0721176705246762 0 0 0 0 23.260164148403874 -2.2200001043865996 0 -2.2200001043865996 -3.0369817464070366 0 0 0 0 28.603176280775187 -20.956073734964775 0 -20.956073734964775 0.66673360713502916 0 0 0 0 6.8669552473966178 -17.068913838554181 0 -17.068913838554181 0.060493528190136203 0 0 0 0 11.557924506511881 -11.232661305732108 0 -11.232661305732108 0.67396824374009157 0 0 0 0 3.7831041902463767 -11.230679820391742 0 -11.230679820391742 1.0013154617849978 0 0 0 0 1.4434770882435259 -16.554413800595285 0 -16.554413800595285 0.12082792051296565 0 0 0 0 0.68959698682635917 -8.8691636971973367 0 -8.8691636971973367 -0.65039048416292644 0 0 0 0 -3.8637883810738458 -12.831688790707631 0 -12.831688790707631 -2.4258793681256066 0 0 0 0 -8.6971120459193116 -11.172761953957888 0 -11.172761953957888 -2.5828092385199852 0 0 0 0 -2.396115410983839 -13.913631995950709 0 -13.913631995950709 -7.5315816584552522 0 0 0 0 -13.422091502894546 -12.576797376636023 0 -12.576797376636023 -6.0171374511810427 0 0 0 0 -4.5713228395188708 -15.666707332786245 0 -15.666707332786245 -11.281253990317055 0 0 0 0 4.1863608564938204 -7.2589991160134559 0 -7.2589991160134559 -4.2566510446158645 0 0 0 0 -6.3832884939147334 -12.267165878645756 0 -12.267165878645756 -3.832070732641796 0 0 0 0 6.7161331923202852 -9.3268681156878301 0 -9.3268681156878301 -3.0055428890136682 0 0 0 0 2.538304053587126 -6.0367727062857739 0 -6.0367727062857739 -4.0041031566703964 0 0 0 0 5.7488533954103787 -6.4562031828629642 0 -6.4562031828629642 -1.1321961677240324 0 0 0 0 7.7808307289230925 -7.1948545883074075 0 -7.1948545883074075 -4.6281743135950819 0 0 0 0 9.8936359849153632 -9.9917328728024586 0 -9.9917328728024586 -1.5998650091187301 0 0 0 0 9.8063577168945812 -12.649216892221375 0 -12.649216892221375 5.7130783153711491 0 0 0 0 10.689668528302718 -18.165496457080735 0 -18.165496457080735 -6.5956399273327406 0 0 0 0 14.509865930441265 -14.600560936338297 0 -14.600560936338297 -6.3033946961460288 0 0 0 0 -7.4462409342386309 -36.242209689172341 0 -36.242209689172341 -11.110899220922875 0 0 0 0 43.235150079385676 -2.1877183063515986 0 -2.1877183063515986 -9.9427316256478662 0 0 0 0 1.0475303324683409 -21.867866499480442 0 -21.867866499480442 -8.4123161011443699 0 0 0 0 18.54076236749097 -5.2297734782441694 0 -5.2297734782441694 -5.4159332634135353 0 0 0 0 17.222746263641056 -12.674141164258799 0 -12.674141164258799 -12.97439772663347 0 0 0 0 4.443131339442516 -8.2334078927651717 0 -8.2334078927651717 -0.80505018234089221 0 0 0 0 10.03809819060325 -24.434501496835765 0 -24.434501496835765 19.602939988631533 0 0 0 0 19.26850839601957 5.0085687602768303 0 5.0085687602768303 10.628250495643442 0 0 0 0 8.4094257008277964 -15.858210761467944 0 -15.858210761467944 -9.9798817238697666 0 0 0 0 0.36502445736537936 -0.19916719221535217 0 -0.19916719221535217 0.1491554542461202 0 0 0 0 -3.7704484352102554 -21.072581638441989 0 -21.072581638441989 7.6813019665387401 0 0 0 0 29.946190653030385 -35.92594137211654 0 -35.92594137211654 -6.5885194630318438 0 0 0 0 49.999028647186151 -10.57085501103461 0 -10.57085501103461 -20.174759534478653 0 0 0 0 9.568318409330459 -1.0829089590934018 0 -1.0829089590934018 -6.6357679331385953 0 0 0 0 40.726118818048576 14.898037034746949 0 14.898037034746949 0.75762395444326103 0 0 0 0 16.971635919757318 -14.0964356830209 0 -14.0964356830209 -16.074866561157251 0 0 0 0 27.901186855623564 -15.949800465792578 0 -15.949800465792578 -24.02035871732005 0 0 0 0 -9.7584991205271763 -15.702569664487783 0 -15.702569664487783 -6.4688462546382652 0 0 0 0 18.796134813307617 -8.2040565444967797 0 -8.2040565444967797 -34.130913044002227 0 0 0 0 13.731880401690432 -26.519932467881517 0 -26.519932467881517 -25.41819945149291 0 0 0 0 -12.957521840717163 -17.660230936920925 0 -17.660230936920925 -19.061860044184868 0 0 0 0 -3.7737531582179145 -16.292936999096128 0 -16.292936999096128 -19.470243977089012 0 0 0 0 2.4409146214986901 -2.3131549822699 0 -2.3131549822699 0.94823710876620027 0 0 0 0 -7.7681519321280348 -23.343502393235894 0 -23.343502393235894 -11.272016232403985 0 0 0 0 -11.42157626440553 -18.98651172061227 0 -18.98651172061227 -15.245727211133271 0 0 0 0 2.1864180238176232 -3.3650550317097441 0 -3.3650550317097441 0.24701651040822981 0 0 0 0 -24.628733122311132 -16.362507059503514 0 -16.362507059503514 -5.6533145945404613 0 0 0 0 -8.4992831269648832 -15.37680430854698 0 -15.37680430854698 -12.289924626520587 0 0 0 0 -8.3557377129181987 -19.618368997522339 0 -19.618368997522339 0.59421299996574817 0 0 0 0 0.65700026237580245 -7.7266826066663885 0 -7.7266826066663885 -6.6699989162602051 0 0 0 0 0.42319278003378713 -3.888014525799008 0 -3.888014525799008 -7.6154568778292742 0 0 0 0 -12.269059374560129 -9.6379024611824207 0 -9.6379024611824207 -7.2480961713026772 0 0 0 0 -0.31770650478711104 -1.3821841024001706 0 -1.3821841024001706 -1.1668433269659602 0 0 0 0 -5.7307202111889701 -7.3393104703167076 0 -7.3393104703167076 0.52367538269552982 0 0 0 0 -1.1872312737268658 -8.7993827536702156 0 -8.7993827536702156 -3.2204739141088794 0 0 0 0 -1.1552363898662001 -7.6030893507835486 0 -7.6030893507835486 -6.3594052018623728 0 0 0 0 -0.33683627337013888 -6.4270608712618404 0 -6.4270608712618404 1.757390932296703 0 0 0 0 -2.1808913991063754 -4.6156874132546619 0 -4.6156874132546619 3.8970814783057817 0 0 0 0 -0.50009324003622169 -3.9681013523877482 0 -3.9681013523877482 -4.4378308929572086 0 0 0 0 -5.7644481229963276 -23.223791736503699 0 -23.223791736503699 -34.84712559147556 0 0 0 0 -1.8446593297012441 -4.5220242074356065 0 -4.5220242074356065 -3.7066754362786014 0 0 0 0 -7.8821330724640575 -5.1081973809668852 0 -5.1081973809668852 10.248595727884094 0 0 0 0 -16.826520727394382 -24.174600796472077 0 -24.174600796472077 -11.565916644878598 0 0 0 0 -1.4850490234914844 -4.2754181297707738 0 -4.2754181297707738 5.489998781784827 0 0 0 0 4.067057687149827 11.841198659098154 0 11.841198659098154 12.309088188194437 0 0 0 0 5.3482855611509876 1.4671395651675994 0 1.4671395651675994 29.71245709478535 0 0 0 0 -1.7751771907930873 -7.1461052257993174 0 -7.1461052257993174 9.2863067636927852 0 0 0 0 -1.7847768871528444 -6.3673322968550643 0 -6.3673322968550643 3.786290015134572 0 0 0 0 -1.1004169345469563 -8.8217913052540098 0 -8.8217913052540098 -3.263944460402854 0 0 0 0 -1.7353637811320368 -8.9835302425162809 0 -8.9835302425162809 -2.1840784546438954 0 0 0 0 -1.1660107065163281 -7.8729854321912001 0 -7.8729854321912001 2.4465344981182255 0 0 0 0 4.1691112576700107 -8.2660223872262577 0 -8.2660223872262577 -2.6085347256048408 0 0 0 0 0.8687192634718941 -7.396802370073333 0 -7.396802370073333 -1.0920855022292955 0 0 0 0 0.67698786197381788 -6.570541954567533 0 -6.570541954567533 -0.13640083982938478 0 0 0 0 1.0683444753223483 -4.9694012933958156 0 -4.9694012933958156 1.3114467859746046 0 0 0 0 4.5299395133934013 -3.8420801832035067 0 -3.8420801832035067 4.6072371326517896 0 0 0 0 -10.826098101591924 -5.552834971134871 0 -5.552834971134871 11.751613706826902 0 0 0 0 -4.4577680606538408 -3.3680459571483325 0 -3.3680459571483325 4.0347720008636569 0 0 0 0 -0.89059541419953803 -5.4282939641482244 0 -5.4282939641482244 1.0986453059995256 0 0 0 0 -4.1832981141196797 -5.031501828427281 0 -5.031501828427281 1.465850905311882 0 0 0 0 -20.834925456108977 -1.9814552520838333 0 -1.9814552520838333 11.959554199838749 0 0 0 0 -1.7148615214973688 -8.3096798555852729 0 -8.3096798555852729 -1.2679828809341416 0 0 0 0 1.8237372752069554 -6.2358965497187633 0 -6.2358965497187633 5.0121229316187339 0 0 0 0 -7.6861798059126158 0.30036440000549192 0 0.30036440000549192 4.2437217540064012 0 0 0 0 -1.433903513572659 -14.121449854461389 0 -14.121449854461389 2.0167287309195672 0 0 0 0 -8.160520714721315 -15.706955274223219 0 -15.706955274223219 24.75535378108907 0 0 0 0 2.4876587294913861 3.8016495205238243 0 3.8016495205238243 15.027373063523555 0 0 0 0 -18.802813613237959 -6.1064284510248399 0 -6.1064284510248399 7.2569722103780805 0 0 0 0 1.0460260834296591 -2.5140759659601599 0 -2.5140759659601599 -1.1407182074172322 0 0 0 0 14.846004955471017 -2.1088014377328363 0 -2.1088014377328363 -9.2675106255064748 0 0 0 0 -0.36728307086923451 -4.6744971911539324 0 -4.6744971911539324 -1.7837823905410914 0 0 0 0 -8.5534496075251809 -9.8310684285861498 0 -9.8310684285861498 -5.2019787019326031 0 0 0 0 -9.4225436493798043 -16.832876526212203 0 -16.832876526212203 -11.156287369819438 0 0 0 0 -1.244746126307291 -11.023102116221708 0 -11.023102116221708 -19.398788540955138 0 0 0 0 3.5819584559294526 -17.060524674554472 0 -17.060524674554472 -12.112137010011793 0 0 0 0 0.3736658149721741 0.13894261372126948 0 0.13894261372126948 -0.055261456379540164 0 0 0 0 0.5140086378705746 -5.4607723760618683 0 -5.4607723760618683 -10.308166942540993 0 0 0 0 -0.74445616703671647 -0.68494957600563566 0 -0.68494957600563566 0.48468675872841388 0 0 0 0 -0.43996864222208387 -11.582029466597305 0 -11.582029466597305 10.885877935879762 0 0 0 0 -0.25338226537548536 -0.4889138693331283 0 -0.4889138693331283 0.44012862077628334 0 0 0 0 -8.1102665570979298 -3.0173046236577648 0 -3.0173046236577648 38.262741087561153 0 0 0 0 25.310782573398683 -2.4658368330383382 0 -2.4658368330383382 -12.262192624988529 0 0 0 0 -3.8680034983863152 -16.105593266949654 0 -16.105593266949654 31.481225998766604 0 0 0 0 1.4831495630705831 -10.107223847242494 0 -10.107223847242494 38.444628260480386 0 0 0 0 5.8647702178841428 1.1443302343950563 0 1.1443302343950563 35.727912870934233 0 0 0 0 5.8845560679565097 -8.3011168653720233 0 -8.3011168653720233 23.095434625235612 0 0 0 0 -59.897238071876927 -48.021599199004413 0 -48.021599199004413 43.556243032702696 0 0 0 0 -5.2828252622020955 -7.0975813631848723 0 -7.0975813631848723 63.213987333556268 0 0 0 0 -0.099732680833545473 -0.17268568429439668 0 -0.17268568429439668 -0.031329578935999081 0 0 0 0 47.922990849781854 24.411998099716584 0 24.411998099716584 -78.170008180573859 0 0 0 0 6.1446280776690401 -12.875603357886575 0 -12.875603357886575 21.949993214871938 0 0 0 0 12.449414820735001 -24.996625872610821 0 -24.996625872610821 19.547344070853569 0 0 0 0 1.6525775518912269 -19.15226592102772 0 -19.15226592102772 52.284514450308052 0 0 0 0 3.1204772937253438 -38.469853573154978 0 -38.469853573154978 -38.096525864437353 0 0 0 0 1.4940742309581765 -23.229721095038258 0 -23.229721095038258 -20.869813503059049 0 0 0 0 -1.6996743284053082 -31.933427008141734 0 -31.933427008141734 -12.508748624542932 0 0 0 0 -4.6848919282010684 -15.84944720639578 0 -15.84944720639578 -14.003079592141148 0 0 0 0 -10.546938133941694 -24.472080164310682 0 -24.472080164310682 1.5952073637308786 0 0 0 0 -6.7475047329994595 -20.795595134498399 0 -20.795595134498399 -24.160330637487277 0 0 0 0 0.61200556985161647 -0.92751310154764255 0 -0.92751310154764255 0.21883212393847629 0 0 0 0 -38.698529282681193 -11.224002930078314 0 -11.224002930078314 -0.73436221277734148 0 0 0 0 0.17478465605017846 -0.28005578071952186 0 -0.28005578071952186 -20.066999460867009 0 0 0 0 -0.066736346710584371 -0.3918203064593917 0 -0.3918203064593917 -0.078173770174622348 0 0 0 0 -20.911574681500497 -24.61298468091718 0 -24.61298468091718 -10.845094386995697 0 0 0 0 -28.242883910877708 -5.2849822251710066 0 -5.2849822251710066 -5.3151769529285957 0 0 0 0 -9.9674520936087561 -18.583896884782234 0 -18.583896884782234 -8.4068192417726095 0 0 0 0 -6.6146719145426687 -12.101451963102591 0 -12.101451963102591 -7.48220762247729 0 0 0 0 -6.491509731183573 2.8978804760332864 0 2.8978804760332864 -3.308200202685839 0 0 0 0 1.6776935274647258 -16.296556128069369 0 -16.296556128069369 -7.3957652606532065 0 0 0 0 -3.6670245323425661 -3.020536759294373 0 -3.020536759294373 -38.407448900665258 0 0 0 0 -24.633513139491697 -30.52449208406324 0 -30.52449208406324 -19.548509847598325 0 0 0 0 22.141966842590136 -7.0503681889376821 0 -7.0503681889376821 -24.85884831655585 0 0 0 0 -10.165144468296148 -12.109166413019921 0 -12.109166413019921 -5.9944200851459755 0 0 0 0 -9.947046476124342 -13.092119726652527 0 -13.092119726652527 -1.7276935153349768 0 0 0 0 1.1617375280494282 -7.2550320265281023 0 -7.2550320265281023 -8.4587216195140726 0 0 0 0 3.2318057758166105 -12.084069322922005 0 -12.084069322922005 -13.463552470831928 0 0 0 0 -8.30836140500287 -17.882295215995327 0 -17.882295215995327 -5.4241357666205658 0 0 0 0 -7.682246356840551 -6.7487489817431197 0 -6.7487489817431197 -10.7811664662986 0 0 0 0 -14.950243204641083 -15.962515932407769 0 -15.962515932407769 -8.4155179268545908 0 0 0 0 10.698371298790335 -4.598039795738714 0 -4.598039795738714 -4.1886175349673067 0 0 0 0 10.08129671088318 -4.6241165922619984 0 -4.6241165922619984 -1.7339879288101656 0 0 0 0 -3.9995916961042894 -6.9914873732025171 0 -6.9914873732025171 -3.1459663715977513 0 0 0 0 6.9878766742476728 -15.248341710010209 0 -15.248341710010209 -4.6091840002627578 0 0 0 0 -0.73160293765957407 -7.2400053970982281 0 -7.2400053970982281 -3.0973947298141837 0 0 0 0 -0.74608356185407843 -2.5967162913808117 0 -2.5967162913808117 -0.29003323768799394 0 0 0 0 19.595315070080687 -2.5170810284544132 0 -2.5170810284544132 -8.0295026098756352 0 0 0 0 16.487027458306329 -12.845485820648719 0 -12.845485820648719 -22.174610124094215 0 0 0 0 1.472053066209237 -7.48605402046827 0 -7.48605402046827 -9.9693315493861689 0 0 0 0 0.6589789690666521 -15.410924146753018 0 -15.410924146753018 -9.4618722589948447 0 0 0 0 -16.192419780553109 -11.17157622597577 0 -11.17157622597577 -2.3983587289676507 0 0 0 0 -7.5527582031372731 -17.592733776540626 0 -17.592733776540626 -3.7667782060561876 0 0 0 0 -7.6411660971609763 -16.558169233494937 0 -16.558169233494937 -10.264644231025159 0 0 0 0 -2.0441652267150836 -3.2371354485102195 0 -3.2371354485102195 1.2007135172298007 0 0 0 0 -26.088737869249599 -16.946606889894611 0 -16.946606889894611 -3.8848765759212256 0 0 0 0 -9.0331306521815975 -14.018089964057083 0 -14.018089964057083 -3.5456389409046096 0 0 0 0 -2.6304686173983498 -3.0552648174904782 0 -3.0552648174904782 1.0837518649740892 0 0 0 0 -2.0766607339628536 -3.6067525275520893 0 -3.6067525275520893 -0.98553486861692363 0 0 0 0 -3.1476963299455747 -7.2604379059812345 0 -7.2604379059812345 -0.76814331746390963 0 0 0 0 -2.5245378637760041 -6.8290587812571175 0 -6.8290587812571175 -1.000046074972488 0 0 0 0 -6.0623557273924042 -5.6004507665789269 0 -5.6004507665789269 2.1048241744622391 0 0 0 0 -8.8236367454137508 -10.970718728007341 0 -10.970718728007341 -7.8657585900655249 0 0 0 0 -0.55066829160489661 -4.573544262055858 0 -4.573544262055858 0.90925340171320457 0 0 0 0 -2.2486135701834531 -4.3767741526192916 0 -4.3767741526192916 -1.1841175540268765 0 0 0 0 -1.892404312535291 -7.322240411851908 0 -7.322240411851908 -1.2356201839738787 0 0 0 0 0.58749200076090347 -5.8682891025555364 0 -5.8682891025555364 -0.42029534763423726 0 0 0 0 0.57734882317799929 -6.0215489958327453 0 -6.0215489958327453 -0.58238045323719234 0 0 0 0 0.22722791162344258 -3.5500359390277829 0 -3.5500359390277829 -3.0397046714000346 0 0 0 0 -2.1188417089251743 -4.4126419600052031 0 -4.4126419600052031 -0.10385347372948672 0 0 0 0 -2.2583147333934939 -3.7582779388284449 0 -3.7582779388284449 0.67723947448492083 0 0 0 0 -1.0307537385738792 -1.051687023131346 0 -1.051687023131346 1.0851812986628673 0 0 0 0 -1.792630627559447 -3.9526783335713844 0 -3.9526783335713844 -2.1128505304368446 0 0 0 0 -1.0204966286135235 -1.8370258794168635 0 -1.8370258794168635 0.63517903163604927 0 0 0 0 3.0854645557442382 -7.4023034003566863 0 -7.4023034003566863 -9.9982079960464034 0 0 0 0 -1.4405961171696617 -4.121816473247236 0 -4.121816473247236 0.0095549110283172922 0 0 0 0 -0.56874222275529229 -3.3294826325850653 0 -3.3294826325850653 -1.7966054891153505 0 0 0 0 -0.34576101989474761 -0.66510631506179241 0 -0.66510631506179241 0.83062248323727772 0 0 0 0 8.5608727354419898 -7.1871334275156187 0 -7.1871334275156187 -1.5903153637027572 0 0 0 0 -5.3786889460907332 -3.1451438772310212 0 -3.1451438772310212 3.71959470240472 0 0 0 0 1.124337105819663 -0.3580577127629887 0 -0.3580577127629887 -0.7476594396299463 0 0 0 0 -1.9542048987132148 -1.6872121172982588 0 -1.6872121172982588 0.33545895480347099 0 0 0 0 -1.8589728568313149 1.7783599125959881 0 1.7783599125959881 -8.3652946033980697 0 0 0 0 6.0307335801790032 -9.9634118670946918 0 -9.9634118670946918 -2.7898168181745859 0 0 0 0 -0.9158011986098229 -4.5024129712823751 0 -4.5024129712823751 -1.6729639615094953 0 0 0 0 0.11021456745546843 -3.3352711640861488 0 -3.3352711640861488 -2.948514314803603 0 0 0 0 2.4389972604230934 -4.1255986107189528 0 -4.1255986107189528 -6.3704253758114646 0 0 0 0 1.3900189870910253 -2.3337270984702627 0 -2.3337270984702627 -4.7242251618736191 0 0 0 0 1.3365281196947763 -5.4258641247697597 0 -5.4258641247697597 -1.9697073553761584 0 0 0 0 1.6438233054450393 -4.5243299861922424 0 -4.5243299861922424 -0.37726070455028093 0 0 0 0 0.42117833037277386 -3.3943310429023335 0 -3.3943310429023335 -2.4096022138083484 0 0 0 0 1.5924617453101746 -6.0316737275406922 0 -6.0316737275406922 -3.2528974476390431 0 0 0 0 1.7019553598318566 -5.3397551461471267 0 -5.3397551461471267 -2.3746305042150198 0 0 0 0 2.8782666191636963 -7.29794356806633 0 -7.29794356806633 -1.32174018772821 0 0 0 0 6.1741301083275175 -7.5854362964819302 0 -7.5854362964819302 -1.0337386188657547 0 0 0 0 -0.9216496891614625 -4.2046022882016576 0 -4.2046022882016576 -2.014731498381078 0 0 0 0 5.5105701999063967 -7.3713351049354969 0 -7.3713351049354969 -2.5922948061661373 0 0 0 0 2.9138099268721227 -4.7149052476636761 0 -4.7149052476636761 -2.8372770860479157 0 0 0 0 -0.99707337569924981 -6.1729740082473832 0 -6.1729740082473832 -4.1036539558809402 0 0 0 0 9.0505460621284328 -5.3355435484825193 0 -5.3355435484825193 -0.95242038027390663 0 0 0 0 -1.7541889691782702 -4.5953030240227895 0 -4.5953030240227895 -4.3099844931017444 0 0 0 0 -3.1524856753766439 -4.3487862423907284 0 -4.3487862423907284 -2.7361923410925897 0 0 0 0 10.111758845454688 -10.257758538007238 0 -10.257758538007238 -3.1117344183112436 0 0 0 0 6.1196765984022932 -7.562065480327874 0 -7.562065480327874 -2.819501246359323 0 0 0 0 4.3195268475733428 -8.7613111452865269 0 -8.7613111452865269 -1.8240284390813031 0 0 0 0 -1.8573749464953835 -7.1136218960227779 0 -7.1136218960227779 -0.0033826928474809392 0 0 0 0 2.2811338492083451 -14.636282212277365 0 -14.636282212277365 2.1847921936550847 0 0 0 0 -10.464177613976062 -8.952139975294358 0 -8.952139975294358 8.8031693010561867 0 0 0 0 8.1413663285215989 -7.3180758172568403 0 -7.3180758172568403 -2.2120268038270297 0 0 0 0 -0.7332386192138074 -6.3789802543360565 0 -6.3789802543360565 -2.0767519993860333 0 0 0 0 0.56057395447326286 -4.2311579491460378 0 -4.2311579491460378 1.7904126537767517 0 0 0 0 42.658638709215666 -19.481580081847824 0 -19.481580081847824 -23.353748126824939 0 0 0 0 -2.6277231945323365 -7.5706673281138137 0 -7.5706673281138137 -1.3121276208339623 0 0 0 0 -2.6932895568115782 -7.3857130908381805 0 -7.3857130908381805 -0.77568915715625053 0 0 0 0 -43.798321036309972 -3.924919859045076 0 -3.924919859045076 25.538903050958652 0 0 0 0 -6.6187282714399771 -8.5340464923010586 0 -8.5340464923010586 1.8133340918921022 0 0 0 0 -13.898303614547331 5.4339015138157265 0 5.4339015138157265 18.448208890046772 0 0 0 0 2.5691240403702977 -3.4245557772774191 0 -3.4245557772774191 -2.0812414040246949 0 0 0 0 -0.021510877359823155 -0.50948163670601865 0 -0.50948163670601865 -0.036905741890969068 0 0 0 0 -0.6438040358348438 -4.1024727579751374 0 -4.1024727579751374 2.4718720565730354 0 0 0 0 0.79803511183854425 -2.4529488791522454 0 -2.4529488791522454 -2.2494515582729946 0 0 0 0 -3.2729906344620758 -6.8686396831963066 0 -6.8686396831963066 -1.2129485095088057 0 0 0 0 -0.54871222528399066 -5.2400407065333976 0 -5.2400407065333976 -0.6164189769637396 0 0 0 0 11.704472389712464 -0.71320792778169562 0 -0.71320792778169562 0.50517474456501077 0 0 0 0 14.422133363568719 -0.044302239455646486 0 -0.044302239455646486 -0.92393478686062736 0 0 0 0 2.6678312945114158 -4.3445527542571654 0 -4.3445527542571654 1.5358257591760776 0 0 0 0 -1.4648735950674365 -4.6486414096973832 0 -4.6486414096973832 0.53936323017531862 0 0 0 0 16.118574066440488 -8.2199795919441385 0 -8.2199795919441385 0.51426850142161129 0 0 0 0 0.32426014779338774 -3.5527941227173674 0 -3.5527941227173674 -0.41712228573184262 0 0 0 0 0.015942842816002667 -3.1988171236916969 0 -3.1988171236916969 -0.26491888197415392 0 0 0 0 0.025645795656409121 -4.2094700692587343 0 -4.2094700692587343 0.91064903050506274 0 0 0 0 0.70627643442536403 -0.50372374548434973 0 -0.50372374548434973 -0.43342237838152187 0 0 0 0 0.24266981378059427 -5.1159879961778643 0 -5.1159879961778643 -0.73546254327811766 0 0 0 0 0.42418248849604634 -3.7625862285982166 0 -3.7625862285982166 -1.96220939413789 0 0 0 0 0.29283070721430704 -5.0548674980636861 0 -5.0548674980636861 -0.98667762464356201 0 0 0 0 0.23935864093073178 -5.3492251423740527 0 -5.3492251423740527 -0.81051413128443528 0 0 0 0 1.9167151842198642 -5.5373793913803206 0 -5.5373793913803206 -0.69090870458586195 0 0 0 0 -0.30789931809681548 -6.7905284060020676 0 -6.7905284060020676 -1.8515980481206498 0 0 0 0 -2.6748041472540436 -7.0916923209484324 0 -7.0916923209484324 -3.1328100139926658 0 0 0 0 -4.074408667815419 -7.2718788403423105 0 -7.2718788403423105 0.052425953777856193 0 0 0 0 -2.4007550300452749 -9.0697992964956029 0 -9.0697992964956029 -4.2915026732571278 0 0 0 0 1.250117054140395 -5.6895242956900347 0 -5.6895242956900347 -2.1371807227866313 0 0 0 0 0.7097198189426166 -4.5276010063654724 0 -4.5276010063654724 0.32440478562288177 0 0 0 0 9.1374013878196365 -10.708532086570813 0 -10.708532086570813 1.4946951904166781 0 0 0 0 17.800512517435436 32.213054603035516 0 32.213054603035516 -67.260904232574831 0 0 0 0 0.51626601953171303 3.3714552937999542 0 3.3714552937999542 5.6007978398702107 0 0 0 0 8.312599177879747 1.2361997815660288 0 1.2361997815660288 11.818901932065273 0 0 0 0 10.090720959082319 0.54879760705671288 0 0.54879760705671288 -9.4569291332863941 0 0 0 0 4.6108340898999618 -3.0416615490941794 0 -3.0416615490941794 1.4620829517601122 0 0 0 0 16.63792467417079 7.1371374296768408 0 7.1371374296768408 7.2484411189202547 0 0 0 0 3.7042095403144231 -3.1861537097693144 0 -3.1861537097693144 18.892835145825302 0 0 0 0 13.909727804771876 -4.3530337675690589 0 -4.3530337675690589 9.8128534415227477 0 0 0 0 77.894366948819879 21.45156872491134 0 21.45156872491134 -97.583179668908997 0 0 0 0 6.7762485433210369 -7.0251282701175093 0 -7.0251282701175093 4.117857630487201 0 0 0 0 -1.7539553041616696 -1.007860956909326 0 -1.007860956909326 1.1543341317632319 0 0 0 0 -5.2536552847786879 -20.073612323033558 0 -20.073612323033558 -23.520421547604201 0 0 0 0 -34.908430790684179 -77.664157007316135 0 -77.664157007316135 91.162619095241098 0 0 0 0 -113.4158002443869 -59.700654130020666 0 -59.700654130020666 100.1313482688638 0 0 0 0 10.425053583791851 -40.106470497468763 0 -40.106470497468763 103.0878220988443 0 0 0 0 23.00791058419145 -23.259478952833888 0 -23.259478952833888 -75.335772560900296 0 0 0 0 -0.10846282596019563 0.34014256266723919 0 0.34014256266723919 -0.14683694552657123 0 0 0 0 0.59970818018246064 1.4458709455575445 0 1.4458709455575445 -5.7888498522511327 0 0 0 0 -36.274139280645613 -21.522794171058194 0 -21.522794171058194 87.158918227694812 0 0 0 0 0.4059430102777295 0.094701938001989561 0 0.094701938001989561 0.0096904090423954869 0 0 0 0 82.66037150125976 -79.344095092537827 0 -79.344095092537827 50.71458219239139 0 0 0 0 -7.5655688816696056 -3.8797678311966592 0 -3.8797678311966592 -42.222281325408403 0 0 0 0 12.839513876225283 -39.050666546827415 0 -39.050666546827415 -37.464161815063562 0 0 0 0 27.984399143882001 -13.065298311796141 0 -13.065298311796141 -4.046746427364269 0 0 0 0 11.334367520406886 -29.514014943808434 0 -29.514014943808434 2.9499437025224324 0 0 0 0 19.36275988003581 -3.031427864340003 0 -3.031427864340003 29.051133120176019 0 0 0 0 19.968177800831654 -6.3037278524534486 0 -6.3037278524534486 -6.2404941578070066 0 0 0 0 3.5721840976313839 -1.7732714486055805 0 -1.7732714486055805 -1.2103093958206017 0 0 0 0 2.2511205740202058 -0.40955491673867073 0 -0.40955491673867073 -9.9630214758908551 0 0 0 0 2.7450632476305827 -4.2877649780648426 0 -4.2877649780648426 -10.703281598489411 0 0 0 0 9.6794147948662612 -3.1181918494621641 0 -3.1181918494621641 -6.1884026970938066 0 0 0 0 1.5412024665328801 -0.12311813054455456 0 -0.12311813054455456 -0.00093917508555207974 0 0 0 0 1.1728542628134164 17.676894441758122 0 17.676894441758122 11.428157147211095 0 0 0 0 11.696616143314259 -8.5174085933404058 0 -8.5174085933404058 -20.345851587142533 0 0 0 0 4.9895619625444851 -6.6278213284731464 0 -6.6278213284731464 -3.5700407278081911 0 0 0 0 -4.3768470982895451 -12.466338186411122 0 -12.466338186411122 -7.197516588090366 0 0 0 0 5.8781651250534424 -8.8457686747773323 0 -8.8457686747773323 -1.7520279938289605 0 0 0 0 -0.681795194440868 -3.7567860763580239 0 -3.7567860763580239 -4.6290958784931107 0 0 0 0 8.0829569313996217 -6.9150009163759023 0 -6.9150009163759023 -8.1443720693887371 0 0 0 0 4.973393660666261 -7.6794473070349341 0 -7.6794473070349341 -0.59573281210214191 0 0 0 0 8.3831765639990863 -9.0461266002851062 0 -9.0461266002851062 -1.3147846620158816 0 0 0 0 -0.42930631257695495 -2.8375308843349458 0 -2.8375308843349458 -3.8520405353460561 0 0 0 0 6.7015671511189794 -6.6170584327874167 0 -6.6170584327874167 -1.8645653541052525 0 0 0 0 4.5814804127589417 -6.4268048749886972 0 -6.4268048749886972 0.89230778526052745 0 0 0 0 6.5563990378131294 -14.219255674461692 0 -14.219255674461692 -3.0413890480285772 0 0 0 0 3.1712841468506667 -10.287825244613487 0 -10.287825244613487 -2.1591510577452482 0 0 0 0 8.7969752805071462 -15.105256910200296 0 -15.105256910200296 -2.6967481979881995 0 0 0 0 7.7140972870912492 -14.140790569975252 0 -14.140790569975252 -3.6317124965335097 0 0 0 0 7.1483597563987473 -13.423674818332074 0 -13.423674818332074 -2.4535081689527942 0 0 0 0 6.5508133419967631 -6.2808819050889149 0 -6.2808819050889149 3.0381549401223822 0 0 0 0 -4.9691569384413015 -29.320046485763669 0 -29.320046485763669 -22.010867201628571 0 0 0 0 8.2839802004997409 -13.84705162902128 0 -13.84705162902128 -4.9520424530164746 0 0 0 0 19.088807703758334 -1.567085858082919 0 -1.567085858082919 -7.0849484519130783 0 0 0 0 -2.2662617594858148 -5.0853712671269022 0 -5.0853712671269022 -14.278701534013635 0 0 0 0 10.768797039804042 -12.959081035876807 0 -12.959081035876807 -10.435638844663117 0 0 0 0 -10.564841763892673 -39.050120642248658 0 -39.050120642248658 -9.1102855054673455 0 0 0 0 8.0670234826775946 -21.351074728191222 0 -21.351074728191222 -30.39657723725395 0 0 0 0 17.557123578411961 -15.537963465722896 0 -15.537963465722896 -149.09742392577573 0 0 0 0 -0.43164768734242642 -0.053437664979453459 0 -0.053437664979453459 0.01411311334753762 0 0 0 0 -14.408697596784577 -56.375010202062185 0 -56.375010202062185 90.616723757451382 0 0 0 0 -6.7189757997334709 -13.020576323104251 0 -13.020576323104251 -66.148901150307211 0 0 0 0 -14.403177590387941 -28.328219188627372 0 -28.328219188627372 -28.471710331832583 0 0 0 0 3.3993168449551376 -1.9854218427217347 0 -1.9854218427217347 -54.937345398039724 0 0 0 0 -8.7950520350427723 -8.7702407748711266 0 -8.7702407748711266 -52.073801126347462 0 0 0 0 0.23350158537323296 -4.8773402946717397 0 -4.8773402946717397 -57.22443479889489 0 0 0 0 -4.978246890452283 -4.6990228379017935 0 -4.6990228379017935 -48.129088206000233 0 0 0 0 6.9165967371491206 -15.680886077433115 0 -15.680886077433115 -55.94761536475653 0 0 0 0 -3.2533666882778789 -29.362123275104523 0 -29.362123275104523 -35.149577251020673 0 0 0 0 -0.22515726745557552 -0.29830228184386876 0 -0.29830228184386876 -0.084162803003373199 0 0 0 0 -22.020208787685306 -14.393163043726418 0 -14.393163043726418 2.9079514523164107 0 0 0 0 1.3634550574024615 0.67927175355725922 0 0.67927175355725922 3.7496684581474256 0 0 0 0 8.3110814225462946 -5.4208264992312252 0 -5.4208264992312252 -8.0228152544814293 0 0 0 0 0.67988947951818091 -5.7786908608741783 0 -5.7786908608741783 3.8308822782855714 0 0 0 0 10.025688433407822 -3.1946255187108363 0 -3.1946255187108363 -10.712716177615221 0 0 0 0 -3.3899542621247747 3.1057872902447343 0 3.1057872902447343 -9.7511159226673954 0 0 0 0 -0.13578278673003297 -7.2674181343254531 0 -7.2674181343254531 7.7128577464409318 0 0 0 0 34.44018751342287 -1.7136864541434988 0 -1.7136864541434988 -63.227300288180686 0 0 0 0 -10.769826815517945 -12.158693232470796 0 -12.158693232470796 9.4452773021785106 0 0 0 0 0.8865848601173365 -1.3782525877657741 0 -1.3782525877657741 0.19080069213638495 0 0 0 0 4.3845508011190075 -1.5684154074297254 0 -1.5684154074297254 -0.033810318121251903 0 0 0 0 13.020505171201876 -13.378403283025364 0 -13.378403283025364 7.4312868834572328 0 0 0 0 0.68559191036047196 -6.3698679676431311 0 -6.3698679676431311 10.510747738286227 0 0 0 0 5.1455417063239111 -1.3096350131336294 0 -1.3096350131336294 9.999158478636673 0 0 0 0 3.2032347698809644 -1.2463489998449404 0 -1.2463489998449404 0.7320190710688621 0 0 0 0 4.0445574871509962 -1.2948304329647726 0 -1.2948304329647726 -0.23935784523177972 0 0 0 0 4.7071624789150519 -1.2890910207197521 0 -1.2890910207197521 -0.24976009020974743 0 0 0 0 1.5569130003748883 -1.4023055293469717 0 -1.4023055293469717 0.27809026256247193 0 0 0 0 13.042755359229886 -3.0841791552475115 0 -3.0841791552475115 -1.1638583762691042 0 0 0 0 0.49274209972809757 0.95117654784338068 0 0.95117654784338068 -0.5732639522733507 0 0 0 0 4.2061636995372282 -2.179850563749369 0 -2.179850563749369 1.0195045174259576 0 0 0 0 5.7100914085699515 -2.222592584623726 0 -2.222592584623726 0.037725356152805034 0 0 0 0 7.991115685015302 -3.6363078573874645 0 -3.6363078573874645 -1.2082650895135885 0 0 0 0 1.5329583375537545 -0.45373476373559152 0 -0.45373476373559152 -1.6276302103784843 0 0 0 0 4.7290434462520778 -3.1885370240002544 0 -3.1885370240002544 0.16283998946045841 0 0 0 0 9.2152140684042934 -3.8977546735504802 0 -3.8977546735504802 -4.8818109920532606 0 0 0 0 3.4398203685627777 -7.7797176794506413 0 -7.7797176794506413 -1.3130088286216051 0 0 0 0 2.6886020721218848 -3.0486109377680215 0 -3.0486109377680215 1.4805723847866537 0 0 0 0 1.6383977324549051 -5.8713892214432235 0 -5.8713892214432235 0.58624797788797878 0 0 0 0 -9.4268725376973634 -11.394693516012921 0 -11.394693516012921 4.5192766798836601 0 0 0 0 10.757413237485707 -4.124778423929456 0 -4.124778423929456 -1.9424110840168396 0 0 0 0 9.2356238519951148 -3.9365437591300179 0 -3.9365437591300179 12.760620678756823 0 0 0 0 4.00908445927098 -17.576027146961678 0 -17.576027146961678 38.299603284049226 0 0 0 0 11.186720647893708 -13.985912444513815 0 -13.985912444513815 13.463723951372231 0 0 0 0 7.0969638430865416 -4.9750500397730093 0 -4.9750500397730093 -12.342390097710449 0 0 0 0 5.6415772118716632 0.13973831719886221 0 0.13973831719886221 18.761068123258156 0 0 0 0 -9.3993094778730892 -42.645828475491044 0 -42.645828475491044 130.03922304450862 0 0 0 0 -4.6467292073054409 -22.334037822015375 0 -22.334037822015375 36.153278534362471 0 0 0 0 3.8399622603170656 -15.159431902109191 0 -15.159431902109191 17.735642314153665 0 0 0 0 4.0144623321257313 -26.505830482585225 0 -26.505830482585225 32.297571209004673 0 0 0 0 3.0263860466984625 -37.994691558047634 0 -37.994691558047634 21.354290458555624 0 0 0 0 4.1953731559554512 -28.687093461563109 0 -28.687093461563109 10.16913738475705 0 0 0 0 4.7597390389419161 -28.905441621598584 0 -28.905441621598584 8.8217206368167354 0 0 0 0 3.4203461180327395 -26.892038062112078 0 -26.892038062112078 6.8903298837831244 0 0 0 0 -16.523249568250321 -44.717839822635142 0 -44.717839822635142 -3.3606931164977141 0 0 0 0 3.4566523397903666 -37.333022330382846 0 -37.333022330382846 7.0754279650063836 0 0 0 0 -1.8072665604295253 -28.554341349383321 0 -28.554341349383321 6.6382067532140354 0 0 0 0 -6.8757561484762846 -17.480663166275917 0 -17.480663166275917 3.2538448792038253 0 0 0 0 -9.0055792236180423 -16.472365611523855 0 -16.472365611523855 -4.7452266489708563 0 0 0 0 -9.9881408662131435 -18.707484733711681 0 -18.707484733711681 2.8630539023033634 0 0 0 0 -18.778782486357159 -15.947060229589624 0 -15.947060229589624 -4.4480584843386168 0 0 0 0 -17.807014816420633 -24.285263494130049 0 -24.285263494130049 7.5553568036866636 0 0 0 0 -21.06266409552336 -18.211401431728518 0 -18.211401431728518 -0.47081355352565879 0 0 0 0 -17.047547211339406 -24.535861422917151 0 -24.535861422917151 -10.304969304706901 0 0 0 0 -28.293304672593536 -30.35324964447841 0 -30.35324964447841 -12.677751394536244 0 0 0 0 -42.802000048681293 -13.19635089746771 0 -13.19635089746771 -13.440260693285381 0 0 0 0 -17.666501507673274 -18.210467216156758 0 -18.210467216156758 -19.082065740054531 0 0 0 0 -12.585208811620362 -21.910921092561352 0 -21.910921092561352 -16.395873778114037 0 0 0 0 12.132837377716442 -3.1755584416396232 0 -3.1755584416396232 4.0627261914560222 0 0 0 0 13.138518243138606 -19.308954612230082 0 -19.308954612230082 8.9377957947765765 0 0 0 0 33.336027631066827 -8.6911715952774102 0 -8.6911715952774102 -2.1004615413548891 0 0 0 0 -62.837540229471415 -46.503293645484518 0 -46.503293645484518 -2.6088231776911925 0 0 0 0 0.64387563070952503 0.046117022514600592 0 0.046117022514600592 -0.13044617330679387 0 0 0 0 65.319581057663072 -33.544962158690396 0 -33.544962158690396 -41.663717386466487 0 0 0 0 -22.12825971582879 -17.375313452008413 0 -17.375313452008413 -6.9079731717647519 0 0 0 0 0.82274447916693516 -1.5878836519420414 0 -1.5878836519420414 4.8316112193999743 0 0 0 0 -35.979413022593462 -20.332908644003965 0 -20.332908644003965 1.1127253741506138 0 0 0 0 -78.360990374063022 -4.641947936818724 0 -4.641947936818724 68.646177077294851 0 0 0 0 12.298996521892605 0.22340605096633226 0 0.22340605096633226 -5.6090895679924415 0 0 0 0 -0.04578962477722337 -0.16607068354852572 0 -0.16607068354852572 0.36346626387327063 0 0 0 0 -18.862904983074372 -55.639197790207163 0 -55.639197790207163 115.94215806062311 0 0 0 0 130.32943952493315 -96.632794391656716 0 -96.632794391656716 49.12495931255944 0 0 0 0 187.54911002154432 -57.490537261896293 0 -57.490537261896293 14.024897691513615 0 0 0 0 0.17293742565881198 -0.44495859677840421 0 -0.44495859677840421 1.7209180852542474 0 0 0 0 -20.997701281404716 7.0947583407923958 0 7.0947583407923958 50.19576654051707 0 0 0 0 78.042874704062342 -75.309511015119824 0 -75.309511015119824 41.522610059679209 0 0 0 0 92.029093938523602 -71.93030108244875 0 -71.93030108244875 33.502941298482256 0 0 0 0 31.169423518285839 -37.987927335022505 0 -37.987927335022505 14.580963948410499 0 0 0 0 75.212222109388222 -9.2021769407056127 0 -9.2021769407056127 -4.2737366608662342 0 0 0 0 28.262351427009662 -19.624341054798151 0 -19.624341054798151 21.474005155574559 0 0 0 0 0.19767424750158613 -1.4345298855783231 0 -1.4345298855783231 4.7390105020686804 0 0 0 0 -0.02072501606682664 0.084443706398133145 0 0.084443706398133145 0.90361926925581049 0 0 0 0 40.302738278945526 -25.233579142015515 0 -25.233579142015515 16.254895417232547 0 0 0 0 18.27210417205788 22.054976634596642 0 22.054976634596642 20.819075276437388 0 0 0 0 51.719470393630445 -87.979491107356353 0 -87.979491107356353 135.13700161883207 0 0 0 0 17.981591470497733 47.416873650059642 0 47.416873650059642 70.995573776857782 0 0 0 0 -7.2666164645056597 -147.07103418228417 0 -147.07103418228417 66.618621633852399 0 0 0 0 57.934061403324108 51.640309775666992 0 51.640309775666992 -34.69971976735178 0 0 0 0 0.23434811226089813 -0.77460480024412171 0 -0.77460480024412171 1.8679598400600312 0 0 0 0 -30.55061708711969 9.9878491088770716 0 9.9878491088770716 66.571291307587671 0 0 0 0 82.169520296958126 -84.285609074226159 0 -84.285609074226159 12.81838681622412 0 0 0 0 -20.994731562002471 4.8859601320573347 0 4.8859601320573347 4.6316328175280432 0 0 0 0 -27.85373270795219 -15.619307319106952 0 -15.619307319106952 48.68871949320237 0 0 0 0 -47.228076740267625 -34.591487587709707 0 -34.591487587709707 39.752647693191648 0 0 0 0 -25.59446981318473 -45.604877844976613 0 -45.604877844976613 42.016148011598489 0 0 0 0 -47.281399048541061 -39.393848668433748 0 -39.393848668433748 136.67211274724468 0 0 0 0 7.5792409375981151 -83.41712173905853 0 -83.41712173905853 16.772016032500687 0 0 0 0 30.876101153568015 -35.054098912972222 0 -35.054098912972222 -77.944581166036073 0 0 0 0 6.584205376415639 -95.913513982939094 0 -95.913513982939094 -71.349048166228386 0 0 0 0 -93.739483806280987 -55.740950947741112 0 -55.740950947741112 -26.33469407415123 0 0 0 0 -0.082063696490121352 -0.49267806305851813 0 -0.49267806305851813 -1.612158586726764 0 0 0 0 60.387100082764391 4.5438431749525989 0 4.5438431749525989 -27.751487896155595 0 0 0 0 32.177802260403496 -24.468814053404458 0 -24.468814053404458 -26.128869266653965 0 0 0 0 14.401173097389574 -10.900582776709598 0 -10.900582776709598 -36.172645597114752 0 0 0 0 0.42614631873969766 -0.75561650121168711 0 -0.75561650121168711 -0.068094560101407353 0 0 0 0 21.592490830252245 -5.0892682974163108 0 -5.0892682974163108 -23.311606034769284 0 0 0 0 -1.4053868074015554 -70.05777191701236 0 -70.05777191701236 -103.77436066680343 0 0 0 0 72.057948602106535 11.548006594643994 0 11.548006594643994 -111.76641765709428 0 0 0 0 20.298834589812657 -13.514538290026621 0 -13.514538290026621 -35.3851881634655 0 0 0 0 -0.7048170289740483 -33.379691054280556 0 -33.379691054280556 -41.388914733712454 0 0 0 0 10.158227287170803 -23.691473484116841 0 -23.691473484116841 -39.821659062248727 0 0 0 0 -16.871791986668086 -20.012130966241784 0 -20.012130966241784 -9.7662565559458017 0 0 0 0 -2.7740356595477351 -9.3432691939779033 0 -9.3432691939779033 -22.707599293989915 0 0 0 0 -6.1558227723862728 -9.1551885784137994 0 -9.1551885784137994 -15.295262761279446 0 0 0 0 3.3227575568407701 -3.1107127837972257 0 -3.1107127837972257 -38.635375036864019 0 0 0 0 7.6520344075272533 -18.57766392540475 0 -18.57766392540475 5.5990141887141363 0 0 0 0 -0.021493120932407184 -0.73097633376164595 0 -0.73097633376164595 -4.560780512415846 0 0 0 0 -8.5337270861050456 -9.1367045082647564 0 -9.1367045082647564 -8.7971913981218677 0 0 0 0 34.239717708168882 -13.011869563565597 0 -13.011869563565597 -5.8043373877171689 0 0 0 0 -1.3483950297122647 -12.043502734575668 0 -12.043502734575668 -1.5931647680490642 0 0 0 0 8.344699734982612 -13.632280274611617 0 -13.632280274611617 -11.325554593055131 0 0 0 0 0.27874384074129921 1.1046923090452765 0 1.1046923090452765 -9.5335690484980091 0 0 0 0 -0.57796005681428753 -2.1547134427191379 0 -2.1547134427191379 -6.7562212624985136 0 0 0 0 2.0083728863410215 -1.0721882274265226 0 -1.0721882274265226 -7.120105463116488 0 0 0 0 -1.8599738025092556 -1.3726373571913761 0 -1.3726373571913761 -1.4473633031946633 0 0 0 0 -0.98482286922444473 -1.5652171344163435 0 -1.5652171344163435 -4.3689670545081754 0 0 0 0 -1.093022207805916 -7.2158338425306283 0 -7.2158338425306283 -3.17716806675935 0 0 0 0 -11.374910197921963 2.4639082900584981 0 2.4639082900584981 5.0066733511594066 0 0 0 0 -0.014388760451224059 -1.0322926366150007 0 -1.0322926366150007 -2.1439688268863808 0 0 0 0 -0.52840132829169306 -7.0960848690037892 0 -7.0960848690037892 -0.68135162914313696 0 0 0 0 -2.945604166762223 -7.3348538924992681 0 -7.3348538924992681 -0.13962467908822873 0 0 0 0 -3.6667942025282443 -3.8261606327451396 0 -3.8261606327451396 2.454600474094816 0 0 0 0 -0.29056076511107065 -4.6100594682322509 0 -4.6100594682322509 2.7943924617925617 0 0 0 0 -1.5388899728689012 -2.3250468606398726 0 -2.3250468606398726 -18.8377500821789 0 0 0 0 -1.4134105511667645 -0.94516754924157986 0 -0.94516754924157986 -0.38823258226834412 0 0 0 0 -4.301080363865367 0.1581334912211787 0 0.1581334912211787 -4.9550829129839258 0 0 0 0 0.59633301117901283 -3.894955631908033 0 -3.894955631908033 3.0714289706374984 0 0 0 0 13.717793483712512 -14.162314054114631 0 -14.162314054114631 10.852851417150305 0 0 0 0 19.670499859039523 -20.747642748847966 0 -20.747642748847966 8.1259806123453018 0 0 0 0 24.678104851718672 -22.814380310364413 0 -22.814380310364413 -6.5085025194339323 0 0 0 0 0.44759646478409643 0.13789118137843204 0 0.13789118137843204 -0.33697981055966331 0 0 0 0 -2.4484632410594713 7.3193753044197365 0 7.3193753044197365 23.416701477251991 0 0 0 0 64.084828751833356 -17.59531369657816 0 -17.59531369657816 -16.457036781932175 0 0 0 0 -11.218507003082578 1.930593544992476 0 1.930593544992476 2.4780200967597921 0 0 0 0 35.480618694148689 -20.51288580826531 0 -20.51288580826531 11.36471218801853 0 0 0 0 63.5876630576754 -47.11170853518388 0 -47.11170853518388 11.987754076738838 0 0 0 0 35.392455386351685 -17.322854197851484 0 -17.322854197851484 7.0349340475338522 0 0 0 0 33.248542849717523 -22.815567516935516 0 -22.815567516935516 0.083322574383601022 0 0 0 0 -4.593810459969518 0.30577511636738564 0 0.30577511636738564 15.396320138906049 0 0 0 0 -13.573338363702533 -10.413953279178713 0 -10.413953279178713 2.9708445654941897 0 0 0 0 1.0360281310968436 -3.3708580068468788 0 -3.3708580068468788 2.2042791942117574 0 0 0 0 0.26691299477715802 -7.5894216434635382 0 -7.5894216434635382 4.7488659472928703 0 0 0 0 -8.013659910025126 1.7836650527242455 0 1.7836650527242455 -5.7701290887616778 0 0 0 0 -2.7445857851944311 19.953240806088161 0 19.953240806088161 29.675740768682772 0 0 0 0 1.5216082437847049 -1.5245300052697406 0 -1.5245300052697406 1.7412915329063736 0 0 0 0 -10.306253511734951 -28.954254979954101 0 -28.954254979954101 1.3294954861321457 0 0 0 0 -7.2768226073271762 -7.8995895925645527 0 -7.8995895925645527 11.336141287603141 0 0 0 0 -18.149127141658028 -3.9609241436555749 0 -3.9609241436555749 16.238688339010878 0 0 0 0 -38.013823542399678 -56.24982587502933 0 -56.24982587502933 -25.28085943721635 0 0 0 0 2.3800166175151389 -13.182002709470908 0 -13.182002709470908 -0.61297325144374781 0 0 0 0 1.8125651261084386 -10.644925699302348 0 -10.644925699302348 -1.0614707227700819 0 0 0 0 5.8337142749953523 -5.8825589452299702 0 -5.8825589452299702 5.4806505966195154 0 0 0 0 -49.953774121499237 -10.6989656256128 0 -10.6989656256128 58.753914200091458 0 0 0 0 16.224689188122738 0.88749607096815453 0 0.88749607096815453 14.20068392491703 0 0 0 0 15.889472745568582 51.250461210278445 0 51.250461210278445 89.875991173968941 0 0 0 0 0.74400964750931919 -0.54253841902201394 0 -0.54253841902201394 0.41158606326386504 0 0 0 0 21.365217793340435 -40.872320625294833 0 -40.872320625294833 72.374290054178346 0 0 0 0 27.025757139411326 -4.5397961022408708 0 -4.5397961022408708 -0.84160969680033304 0 0 0 0 10.784501026598946 5.3719647417165106 0 5.3719647417165106 -2.2955530157942121 0 0 0 0 45.123174314184325 46.375315332259561 0 46.375315332259561 69.95350903098543 0 0 0 0 -21.794286066192399 -88.908346233466091 0 -88.908346233466091 -40.699679482186866 0 0 0 0 31.038294688266888 -10.503106210270289 0 -10.503106210270289 -34.512742453461215 0 0 0 0 64.947893168508017 -94.327290525954595 0 -94.327290525954595 84.701376998253892 0 0 0 0 3.6385014369279816 -18.650125444697665 0 -18.650125444697665 -10.080537806279153 0 0 0 0 11.547445660955418 -34.761373141447166 0 -34.761373141447166 -61.7491105758495 0 0 0 0 49.355747880525996 5.0620457480874848 0 5.0620457480874848 -56.584567098452681 0 0 0 0 1.867032863658135 -5.6438150839485708 0 -5.6438150839485708 0.54118048781967332 0 0 0 0 2.0667184700874941 -9.9078101454400951 0 -9.9078101454400951 14.643126250916481 0 0 0 0 -3.63259785523951 -14.09893443939518 0 -14.09893443939518 -16.456090192166812 0 0 0 0 7.1462710662485893 -7.4642465762381995 0 -7.4642465762381995 2.6158605063190912 0 0 0 0 -6.4020944851172317 -19.614621801176327 0 -19.614621801176327 -7.0343994741215283 0 0 0 0 -0.15994481871114186 -0.41578362527185853 0 -0.41578362527185853 2.3380402976578374 0 0 0 0 1.8425968121902727 -7.3730629211844523 0 -7.3730629211844523 2.9577096879289835 0 0 0 0 0.51329185719350789 -14.428623313538992 0 -14.428623313538992 -17.080340365133452 0 0 0 0 4.854511508322048 -14.845140889711274 0 -14.845140889711274 4.2593126335859779 0 0 0 0 5.9787457896955232 -7.5660508982349928 0 -7.5660508982349928 0.57915411875959499 0 0 0 0 3.0314732185170215 -6.6037070128061259 0 -6.6037070128061259 -13.283322691745639 0 0 0 0 2.9199437396674117 -15.670921069035305 0 -15.670921069035305 16.941889876169089 0 0 0 0 4.7660018307978547 -5.1373325547938267 0 -5.1373325547938267 2.3634902245350276 0 0 0 0 -0.86264530176479937 -3.1105026605251282 0 -3.1105026605251282 -0.23531598623499073 0 0 0 0 2.7198334507896789 -9.8854891344391831 0 -9.8854891344391831 12.757116461981923 0 0 0 0 0.98540897210932599 -11.370539061178533 0 -11.370539061178533 -28.781500199636866 0 0 0 0 3.2250079634283821 -10.443960617177709 0 -10.443960617177709 3.393248177628891 0 0 0 0 1.0885231687912835 -7.2758113347476296 0 -7.2758113347476296 7.9572713962821808 0 0 0 0 6.9007281818510293 -8.0196979397115911 0 -8.0196979397115911 -5.7440846810364974 0 0 0 0 9.1834412579109213 -12.740353127952176 0 -12.740353127952176 -6.9405321575154915 0 0 0 0 1.3409077978801633 -11.022554341292789 0 -11.022554341292789 0.71908965507145695 0 0 0 0 6.249705119925582 -6.15764641965501 0 -6.15764641965501 3.3197497609442457 0 0 0 0 6.3663520494746688 -6.386429753713867 0 -6.386429753713867 6.3624421656409069 0 0 0 0 1.7837511652580815 -11.127771817500843 0 -11.127771817500843 -8.975591121551588 0 0 0 0 -2.7672646826836171 -14.708294370579324 0 -14.708294370579324 2.5177873010809435 0 0 0 0 13.582263781001984 -10.045142693650519 0 -10.045142693650519 -6.3634956260227682 0 0 0 0 -0.82574666916556438 -7.7141741175619547 0 -7.7141741175619547 -4.5827859350966955 0 0 0 0 -0.31225766446550551 -16.763849303805273 0 -16.763849303805273 -0.25326410478191974 0 0 0 0 -2.7436229752388499 -26.307302481284751 0 -26.307302481284751 -0.99187975642416859 0 0 0 0 2.3012164892763129 -3.5635509796735567 0 -3.5635509796735567 -3.585371852921531 0 0 0 0 3.4598868568346006 -14.694340437923074 0 -14.694340437923074 0.86365556211308103 0 0 0 0 12.789145327694769 -22.812587669122195 0 -22.812587669122195 5.9509383656140926 0 0 0 0 -0.21973109747477793 -13.077559847679368 0 -13.077559847679368 17.055894968540088 0 0 0 0 2.3061701634322844 -1.614637820167701 0 -1.614637820167701 2.0989817199956633 0 0 0 0 10.648085717192771 -22.518857566556562 0 -22.518857566556562 18.425879609497429 0 0 0 0 22.352916067171691 0.62836849621618285 0 0.62836849621618285 11.731972521469743 0 0 0 0 -0.065558034222476635 -12.448077418389403 0 -12.448077418389403 0.86671280978089271 0 0 0 0 -2.8070256339478874 -8.6888595734018281 0 -8.6888595734018281 6.8617908487564137 0 0 0 0 6.881715267612293 -5.7010034888132566 0 -5.7010034888132566 -28.003130102817522 0 0 0 0 3.3520668062938048 -6.9305710814870416 0 -6.9305710814870416 -2.536583419747056 0 0 0 0 2.9218989514338318 -8.4672922474487677 0 -8.4672922474487677 5.0042679727412178 0 0 0 0 5.8010834701023342 -4.541507118083512 0 -4.541507118083512 -8.4083557841828309 0 0 0 0 17.127598972909709 -1.9623254216548958 0 -1.9623254216548958 -32.235808196135622 0 0 0 0 1.0786965330652034 -6.4497687391260818 0 -6.4497687391260818 -5.9925430204824313 0 0 0 0 -0.21983595306835468 6.0620690413265947 0 6.0620690413265947 -1.860461645012947 0 0 0 0 1.5229611155532439 5.5083229239985485 0 5.5083229239985485 -22.727821184143068 0 0 0 0 5.6173443370339555 -4.8730181736559643 0 -4.8730181736559643 -4.5126986400329088 0 0 0 0 3.949059760713908 3.2759924050521931 0 3.2759924050521931 38.564395298766613 0 0 0 0 17.762820426781559 -22.427896102789475 0 -22.427896102789475 14.027386357020987 0 0 0 0 -3.9458283403646988 2.9100127447574096 0 2.9100127447574096 5.5204053291627133 0 0 0 0 -7.6954120350073936 2.0352586782996696 0 2.0352586782996696 -1.7767572930697497 0 0 0 0 -9.3186204034000184 -4.0870770256096876 0 -4.0870770256096876 -2.6462714996308705 0 0 0 0 -7.6853291003465074 0.70140090534073352 0 0.70140090534073352 -11.324529864758006 0 0 0 0 0.34295110708529397 -2.1338429903708374 0 -2.1338429903708374 -0.13920902790820833 0 0 0 0 -9.1104300693109508 -4.05687463792583 0 -4.05687463792583 -6.1005626019073134 0 0 0 0 6.1304107331778823 7.3359802277725521 0 7.3359802277725521 5.3642780406844395 0 0 0 0 9.8068543115244893 -2.8791110454296813 0 -2.8791110454296813 -16.586769850381643 0 0 0 0 -3.8379430809541191 -14.810411133409616 0 -14.810411133409616 5.445377698061689 0 0 0 0 0.62579016476128002 -0.59136620686911456 0 -0.59136620686911456 0.55704964697538273 0 0 0 0 17.41085600799579 -25.795064278774589 0 -25.795064278774589 16.466194882714262 0 0 0 0 33.371193482896238 -29.808012683470416 0 -29.808012683470416 5.3681860496744775 0 0 0 0 5.6041369047704848 -8.4142888589990434 0 -8.4142888589990434 5.5823641761626277 0 0 0 0 25.568951586025378 -15.733841876908627 0 -15.733841876908627 -3.8764893327443133 0 0 0 0 37.374163193131608 -22.851327412047794 0 -22.851327412047794 -2.0836177287351347 0 0 0 0 23.415930881113923 -30.259972126914931 0 -30.259972126914931 7.8891108716779854 0 0 0 0 28.419576799438801 -29.736020729174925 0 -29.736020729174925 6.0937501219887054 0 0 0 0 1.941540688250825 -20.327783934335457 0 -20.327783934335457 29.979380529946866 0 0 0 0 30.192873306257297 -37.134178756244182 0 -37.134178756244182 12.726638047500273 0 0 0 0 65.379005350480384 -42.044340815154101 0 -42.044340815154101 10.899921001842813 0 0 0 0 -0.81220876899951922 -0.64532429212645326 0 -0.64532429212645326 -0.36167371634003231 0 0 0 0 38.518427642963047 -24.198819928722514 0 -24.198819928722514 39.708792946168614 0 0 0 0 9.9813468463621575 -32.133623306101072 0 -32.133623306101072 46.606699068363923 0 0 0 0 -5.7552991450902482 -21.816433157542633 0 -21.816433157542633 -20.673502017903729 0 0 0 0 -21.732646237241397 -22.33621153047261 0 -22.33621153047261 22.659564996274639 0 0 0 0 0.52490751502613797 -0.61713906547144148 0 -0.61713906547144148 -0.14229089361813507 0 0 0 0 -19.085165046743327 -33.202244916875316 0 -33.202244916875316 33.533819320029579 0 0 0 0 24.557880124746532 -48.228652267298003 0 -48.228652267298003 35.026225650174638 0 0 0 0 -3.3798357299717168 -54.205711181263268 0 -54.205711181263268 22.571384387501894 0 0 0 0 -7.4142826863550795 -27.52845320839242 0 -27.52845320839242 16.367369563591637 0 0 0 0 -20.819548419950877 -23.308514594247981 0 -23.308514594247981 -1.0757100833361619 0 0 0 0 -32.28695003717246 -16.301324632712294 0 -16.301324632712294 13.139835478723398 0 0 0 0 -10.131620033852528 -5.3768060982406496 0 -5.3768060982406496 2.3511303116556519 0 0 0 0 -8.8363512659815342 -6.9124338584761063 0 -6.9124338584761063 0.50507958645039253 0 0 0 0 10.403424510065179 -10.305758634242011 0 -10.305758634242011 -1.153955473944734 0 0 0 0 -10.138017599403014 -21.717152829658062 0 -21.717152829658062 4.329981788610894 0 0 0 0 -6.3913902199749373 -6.3767372884567521 0 -6.3767372884567521 2.382738244819393 0 0 0 0 -7.4710550047545894 -7.6227381173653157 0 -7.6227381173653157 -4.2835264682416891 0 0 0 0 -2.4499035434506231 -6.7450842282682393 0 -6.7450842282682393 -2.5467831103499385 0 0 0 0 -1.0118630192670035 -0.95271529746980654 0 -0.95271529746980654 -0.71807540865605901 0 0 0 0 -0.61330265574571108 -1.1618006678980226 0 -1.1618006678980226 -0.75739651056076696 0 0 0 0 33.76168439353205 0.9300730625182041 0 0.9300730625182041 -13.917544523889774 0 0 0 0 7.4539853602809671 -12.890051532311418 0 -12.890051532311418 -5.77649111655046 0 0 0 0 9.5547637015351938 -4.1121312578206926 0 -4.1121312578206926 1.5069427413573067 0 0 0 0 -11.95118637835003 -6.2836637687842085 0 -6.2836637687842085 -5.1878717508807313 0 0 0 0 23.434558129743436 -38.039642135387112 0 -38.039642135387112 -26.452227763566043 0 0 0 0 7.6641728438116843 13.631684158719054 0 13.631684158719054 5.0189613456641382 0 0 0 0 22.501972738577479 -9.141288019865442 0 -9.141288019865442 -8.3787846164177608 0 0 0 0 -1.2935906220527009 -5.958220269875353 0 -5.958220269875353 -5.8053328503975905 0 0 0 0 -1.6515722656095022 -14.184281549060415 0 -14.184281549060415 -1.4117622456060417 0 0 0 0 2.9634022736508712 -2.6966842008669119 0 -2.6966842008669119 -7.5835108589162701 0 0 0 0 -0.21893039002371095 -1.5871916614683244 0 -1.5871916614683244 -1.5447261558372425 0 0 0 0 4.3230642583516214 -5.9948758417597219 0 -5.9948758417597219 -5.5480664456426894 0 0 0 0 3.0061096035559505 -4.8467025819131511 0 -4.8467025819131511 -1.7832596004755885 0 0 0 0 1.2471058062747602 -0.46020650762011428 0 -0.46020650762011428 -6.4589830420409271 0 0 0 0 3.8603124991728919 0.051779373781300819 0 0.051779373781300819 -18.269577849850975 0 0 0 0 13.865410592030457 -15.052724646637216 0 -15.052724646637216 -29.522164151847846 0 0 0 0 7.7985562948397273 -10.517902205041537 0 -10.517902205041537 -6.9809843670063856 0 0 0 0 5.2236018323874305 -12.554021051611926 0 -12.554021051611926 -1.2886585147643927 0 0 0 0 3.4881749375991067 1.264814328895123 0 1.264814328895123 -1.7546142510349263 0 0 0 0 8.6331657380719111 -6.0441847732895262 0 -6.0441847732895262 -6.067204825169334 0 0 0 0 3.65647311373192 -14.332539549115609 0 -14.332539549115609 -17.517645271129368 0 0 0 0 -6.1141389220419455 -21.387846998984969 0 -21.387846998984969 -17.991480370820227 0 0 0 0 13.532432404242968 -18.384069305642697 0 -18.384069305642697 -19.606751563798753 0 0 0 0 17.41511079665338 -22.727974279119735 0 -22.727974279119735 -28.839599513716621 0 0 0 0 15.258385930615077 -17.235388703281387 0 -17.235388703281387 -27.023120145887333 0 0 0 0 15.089844330305965 -21.634347207675546 0 -21.634347207675546 -78.141452693763313 0 0 0 0 -21.333794435523714 -59.311448706630472 0 -59.311448706630472 -45.702752124221661 0 0 0 0 -0.6920087381142821 -25.429356405676799 0 -25.429356405676799 -62.07868108846742 0 0 0 0 -52.424276642987024 -40.15219472415265 0 -40.15219472415265 -10.05206675192585 0 0 0 0 -0.66250816224962172 -0.56268326799395751 0 -0.56268326799395751 -0.36481849389728538 0 0 0 0 -68.606196188498188 -1.476404522831217 0 -1.476404522831217 3.1787837236734049 0 0 0 0 -0.95563997622912211 19.75317651804653 0 19.75317651804653 -53.555365425439959 0 0 0 0 -0.77448319420826528 -3.1871570735610106 0 -3.1871570735610106 -0.2500200460375126 0 0 0 0 1.7743595498044058 -2.848998256571889 0 -2.848998256571889 -0.047525769482071212 0 0 0 0 4.0733642415375471 -10.291027073663088 0 -10.291027073663088 5.5678668200671382 0 0 0 0 -2.5891641595253532 -9.2049221795168705 0 -9.2049221795168705 -3.4249920492711681 0 0 0 0 8.5967407189809819 -1.4176806097079862 0 -1.4176806097079862 -2.5925560943983328 0 0 0 0 -2.1646752671786089 -8.392303413800164 0 -8.392303413800164 -1.9388894312342018 0 0 0 0 1.3944931344229803 -3.1592175994089242 0 -3.1592175994089242 -0.52819545269223767 0 0 0 0 5.0182867031237492 -3.4822929502114448 0 -3.4822929502114448 -3.194476114709687 0 0 0 0 0.3665734748675531 -3.2138058167799244 0 -3.2138058167799244 -1.7540347041539057 0 0 0 0 -3.0602341425478699 -4.0944668123311203 0 -4.0944668123311203 -0.45951420321762271 0 0 0 0 2.3884355152686112 -3.6681678090353671 0 -3.6681678090353671 -0.82014123467524769 0 0 0 0 2.2065820132584122 -3.6515614463592101 0 -3.6515614463592101 1.6046616682137937 0 0 0 0 0.19029437047174724 -5.0740066281005056 0 -5.0740066281005056 -0.44000200760638108 0 0 0 0 -1.9162668431041467 -5.0417620877730815 0 -5.0417620877730815 -1.1832700370061495 0 0 0 0 2.5318645101474431 -3.0252107450446601 0 -3.0252107450446601 -2.885497539624339 0 0 0 0 2.7415581484438007 -4.3007666831072129 0 -4.3007666831072129 1.4130667806771271 0 0 0 0 -1.4534049366629915 -0.38480622477436555 0 -0.38480622477436555 -1.547338124790258 0 0 0 0 0.97811444042811502 -4.0194842431218731 0 -4.0194842431218731 -1.1535095721902771 0 0 0 0 4.2141480471400428 -2.0926961937930173 0 -2.0926961937930173 1.0277660984465911 0 0 0 0 2.7962483170676933 -2.4325126222970539 0 -2.4325126222970539 -1.7919681883286103 0 0 0 0 1.8843165237303765 -2.6214291545784363 0 -2.6214291545784363 -2.9908363205654496 0 0 0 0 0.74359382950297004 -4.2983759787407507 0 -4.2983759787407507 -8.2001044696189638 0 0 0 0 0.22760862538780202 -4.8022094486059359 0 -4.8022094486059359 -2.5721828990854192 0 0 0 0 0.48014047293509066 -2.5488068171016494 0 -2.5488068171016494 -2.2012000299655483 0 0 0 0 -0.12683864924201771 -4.1783988911256529 0 -4.1783988911256529 -2.7436451801549993 0 0 0 0 1.481966049546827 -3.4592991584868287 0 -3.4592991584868287 -1.6112836189167865 0 0 0 0 0.97448053338030149 -4.5642820834873419 0 -4.5642820834873419 -3.381269736593822 0 0 0 0 2.2286929318684088 -5.7252323065931705 0 -5.7252323065931705 -2.706253707754513 0 0 0 0 2.6223933533183299 -2.9455077588481799 0 -2.9455077588481799 -2.1908438222653785 0 0 0 0 -1.4155383963116037 -5.016549049756577 0 -5.016549049756577 -2.7640724901939393 0 0 0 0 -1.9108067891329483 -4.7296059521490861 0 -4.7296059521490861 -3.3244292831132043 0 0 0 0 0.2642305056499481 -10.647804846809549 0 -10.647804846809549 -16.454761364590013 0 0 0 0 -0.10949814447303652 -9.7638537353859647 0 -9.7638537353859647 -7.0658724072050063 0 0 0 0 0.30872984881716548 -9.5325777435346026 0 -9.5325777435346026 -7.110410053479427 0 0 0 0 -6.0858882094789806 -13.059954361665405 0 -13.059954361665405 -9.4865038367915986 0 0 0 0 -8.9753469014030998 -22.864237163185862 0 -22.864237163185862 -29.656454629677228 0 0 0 0 -8.5346781091930097 0.074912377584041678 0 0.074912377584041678 -15.821224984105356 0 0 0 0 -6.123671098426712 -7.5604093038236897 0 -7.5604093038236897 -1.6311388750928018 0 0 0 0 -4.9942504834489228 -12.304324090548107 0 -12.304324090548107 1.6520875735091067 0 0 0 0 -2.1405716162826138 -2.4118090833435417 0 -2.4118090833435417 -10.894738354618312 0 0 0 0 1.5160709206725187 -9.6943049221449655 0 -9.6943049221449655 -2.2465407966010389 0 0 0 0 -1.9853037430602853 -6.2876566199402077 0 -6.2876566199402077 -1.8105588397447718 0 0 0 0 22.261075775202698 -18.613313113689401 0 -18.613313113689401 -3.2023735534849038 0 0 0 0 9.0846360634113807 -22.704731610096132 0 -22.704731610096132 -1.4477198127224256 0 0 0 0 0.12672971902853813 -2.2468068224994409 0 -2.2468068224994409 -4.399706167598211 0 0 0 0 -4.5099999949441845 -6.5703800077288292 0 -6.5703800077288292 -5.72711628703847 0 0 0 0 23.02614311760226 -8.0211329259236663 0 -8.0211329259236663 -23.209593160248915 0 0 0 0 -13.223781622534261 -23.943833810831165 0 -23.943833810831165 -1.7208612902190907 0 0 0 0 12.537828029685443 0.56992895879511707 0 0.56992895879511707 5.7513500334498531 0 0 0 0 22.504173106228336 -0.75535311693829499 0 -0.75535311693829499 -13.171313646628732 0 0 0 0 -0.10642020442840039 0.044716543615692217 0 0.044716543615692217 -0.30805489427233113 0 0 0 0 20.28422840652911 -12.919148291211513 0 -12.919148291211513 -11.012010575157547 0 0 0 0 1.9691310780012561 -2.3754223166772119 0 -2.3754223166772119 0.094414653234149881 0 0 0 0 7.6070700614520437 -9.1707252583273906 0 -9.1707252583273906 -9.5106853054316929 0 0 0 0 0.38695514443861612 -12.511886681365922 0 -12.511886681365922 6.2373490310919806 0 0 0 0 -2.4904266914721482 -8.7935012254934826 0 -8.7935012254934826 -6.2643358240747862 0 0 0 0 6.9868875097317868 -23.841316346030567 0 -23.841316346030567 -3.8997760731865583 0 0 0 0 -12.918257649243969 -7.1394123993486573 0 -7.1394123993486573 4.151824290368495 0 0 0 0 -30.886952867923128 -16.737578078333399 0 -16.737578078333399 -0.73505857245436346 0 0 0 0 0.039028378967486788 -16.499234603338664 0 -16.499234603338664 -8.3794253614769332 0 0 0 0 -1.0211899831174378 -12.656115437101107 0 -12.656115437101107 -10.703325118923203 0 0 0 0 -3.891644741818709 -17.763359851851419 0 -17.763359851851419 1.8179059822487034 0 0 0 0 -1.8113025650911823 -13.869194645092421 0 -13.869194645092421 -5.4901525007062446 0 0 0 0 -1.4266057510485552 -13.576964916741417 0 -13.576964916741417 -7.1490590399291278 0 0 0 0 -0.24392266884660785 -17.969594993189276 0 -17.969594993189276 -5.9211480892093391 0 0 0 0 -14.301863382852389 -26.932290037641792 0 -26.932290037641792 26.291204082888953 0 0 0 0 -5.6321312861371418 -9.458341348686794 0 -9.458341348686794 -5.475537236155505 0 0 0 0 0.78182218087295041 -13.467348404806899 0 -13.467348404806899 6.3906265643329334 0 0 0 0 10.233420499844215 -26.745231253432394 0 -26.745231253432394 4.0831879493940733 0 0 0 0 0.10603091291341116 -21.846842674427535 0 -21.846842674427535 27.930565627412079 0 0 0 0 -1.3346609746749891 -30.517614636017015 0 -30.517614636017015 2.8598530583716411 0 0 0 0 8.0089798479857564 -14.965935218160212 0 -14.965935218160212 6.027657844299938 0 0 0 0 -2.8850795978348742 -13.903048055650316 0 -13.903048055650316 5.9736336042974472 0 0 0 0 11.004211687128191 -10.615911401068161 0 -10.615911401068161 11.240610548630684 0 0 0 0 -1.0849464466279879 -10.36122421487809 0 -10.36122421487809 0.60947891463132109 0 0 0 0 16.605497383934562 -26.342104233799546 0 -26.342104233799546 -18.514356014529767 0 0 0 0 9.0316362688382696 -30.502595780311694 0 -30.502595780311694 24.274411780353603 0 0 0 0 6.1518979933216542 -9.6762677136875936 0 -9.6762677136875936 -16.551744810360105 0 0 0 0 0.16197247225964873 -5.6182002118244441 0 -5.6182002118244441 -0.80422609221092944 0 0 0 0 -5.4897976303655014 -11.014872427065711 0 -11.014872427065711 -2.8956681062863936 0 0 0 0 -3.3362190706029651 -14.512540804206765 0 -14.512540804206765 -3.9687421050821285 0 0 0 0 -5.5308070439373296 -9.5759928681668498 0 -9.5759928681668498 0.11324717686147778 0 0 0 0 -23.952644206339755 -15.331602076190393 0 -15.331602076190393 -1.6778466018276958 0 0 0 0 2.1206589889655278 -0.089142435212552051 0 -0.089142435212552051 -0.016633377654724057 0 0 0 0 1.7404471615691364 -35.840406753023558 0 -35.840406753023558 -32.500670983422424 0 0 0 0 -10.983774714319225 -29.904316244126903 0 -29.904316244126903 -35.257824222763702 0 0 0 0 -13.38877139681972 -9.7932186055018065 0 -9.7932186055018065 -7.9702694324732875 0 0 0 0 -22.276427534290633 -26.65349269542412 0 -26.65349269542412 2.7818212926927117 0 0 0 0 -4.2538000992817615 -37.804030135718222 0 -37.804030135718222 -42.150748253049414 0 0 0 0 -5.4553955842366122 -24.758319244300765 0 -24.758319244300765 42.934009494901375 0 0 0 0 -0.29222795908783183 -0.10635297892958395 0 -0.10635297892958395 -0.14080650406140149 0 0 0 0 8.8125308627759296 -0.80369828287427936 0 -0.80369828287427936 -78.191014988754091 0 0 0 0 14.17105565575639 -12.864643521106245 0 -12.864643521106245 -23.871718021953484 0 0 0 0 -11.977433600740369 -14.84325113670377 0 -14.84325113670377 -4.4422304922832154 0 0 0 0 1.898017502432765 -31.203565056930785 0 -31.203565056930785 -14.528465442176639 0 0 0 0 18.508364600080313 -17.604698285594168 0 -17.604698285594168 -28.310056367986135 0 0 0 0 20.17729447754823 -11.540943781852235 0 -11.540943781852235 -14.362094803791933 0 0 0 0 -2.6654958451464186 -2.8856440033443089 0 -2.8856440033443089 -2.4210921311199032 0 0 0 0 -2.2881473800782475 -9.8146523632212865 0 -9.8146523632212865 -0.74757187079453136 0 0 0 0 -18.315614870136415 -24.946701120060311 0 -24.946701120060311 -5.759527553414955 0 0 0 0 0.035957133742492431 -2.2615300443082531 0 -2.2615300443082531 -0.4836577478805868 0 0 0 0 4.6524013422986172 -7.7635139586111563 0 -7.7635139586111563 -13.822971290018813 0 0 0 0 -3.2592901226147841 -6.4958319962611402 0 -6.4958319962611402 -0.76020177371190467 0 0 0 0 3.2701481033300297 -16.216363941026771 0 -16.216363941026771 12.506974682173677 0 0 0 0 -1.8434080241531774 -11.715985219401318 0 -11.715985219401318 8.9219424924558552 0 0 0 0 2.8777028450500666 -15.566514620419355 0 -15.566514620419355 5.0678432298732332 0 0 0 0 7.0163785090999227 -17.964328623234451 0 -17.964328623234451 6.4570584700168183 0 0 0 0 2.1824768086437416 -13.070041280474754 0 -13.070041280474754 7.4610526309706984 0 0 0 0 6.5455345098885118 -11.65129883981183 0 -11.65129883981183 2.2414569909958573 0 0 0 0 -0.65045034484258224 -10.542769116483981 0 -10.542769116483981 -3.8386459760061169 0 0 0 0 9.9483730174451921 -13.726367187335313 0 -13.726367187335313 7.4265729066710264 0 0 0 0 2.4400386975485162 -12.907994678250361 0 -12.907994678250361 8.5446103266483533 0 0 0 0 8.3583508928027186 -6.531763902038918 0 -6.531763902038918 13.685659190774004 0 0 0 0 -4.4338700786938716 2.2808265072767426 0 2.2808265072767426 22.548226385411908 0 0 0 0 -0.75420625984747858 -13.585636748018146 0 -13.585636748018146 0.17844314574449527 0 0 0 0 -2.7482257607599756 -11.243270350347423 0 -11.243270350347423 -3.9338481514132373 0 0 0 0 -1.3869395135507148 -32.070311383565127 0 -32.070311383565127 7.1138165647539608 0 0 0 0 4.1369499422821718 -4.4362263685601846 0 -4.4362263685601846 -2.2654489206893231 0 0 0 0 -2.5431120788362023 -14.185314506465375 0 -14.185314506465375 12.144505374300479 0 0 0 0 -2.9369898369041607 -22.843866060450523 0 -22.843866060450523 -3.2290537569015214 0 0 0 0 -17.720515597628946 -10.386243052456848 0 -10.386243052456848 39.338806925648896 0 0 0 0 0.78454676419460156 -19.480852362717087 0 -19.480852362717087 -0.23484365945387253 0 0 0 0 -1.933117541553 -8.7266229038971019 0 -8.7266229038971019 -7.8553255602923153 0 0 0 0 -31.491965107936721 23.812720186077513 0 23.812720186077513 -1.054045674196459 0 0 0 0 -12.156168641660145 -51.543105405160702 0 -51.543105405160702 29.802064123175114 0 0 0 0 -67.612367328091977 -24.262246383921365 0 -24.262246383921365 9.4000934699815843 0 0 0 0 0.13880704280506961 -2.9630835861280502 0 -2.9630835861280502 16.031564579890983 0 0 0 0 -1.5266813655852047 -20.001771669004484 0 -20.001771669004484 8.6216843822439841 0 0 0 0 9.5859366404982325 -18.460883928693875 0 -18.460883928693875 4.0644325630094045 0 0 0 0 11.445240718693299 -32.204415560533107 0 -32.204415560533107 -11.966207607307751 0 0 0 0 -2.3466971423127196 -12.069821129297063 0 -12.069821129297063 -9.5779635489495973 0 0 0 0 1.8447423694378813 -16.173602910144837 0 -16.173602910144837 3.3899193376591938 0 0 0 0 -0.91811348710234597 -13.538346530421563 0 -13.538346530421563 7.0946907485081283 0 0 0 0 -0.6451544588063598 -14.471417329600399 0 -14.471417329600399 9.2115676393236754 0 0 0 0 -3.9239617402411371 -9.1291477344805081 0 -9.1291477344805081 -6.7680468043162012 0 0 0 0 -0.24210230756625606 -13.581366206258281 0 -13.581366206258281 11.089469618825433 0 0 0 0 5.6910808245556836 -9.091196165863721 0 -9.091196165863721 10.84076929131777 0 0 0 0 1.5040045393758419 -14.774381352167154 0 -14.774381352167154 -42.473745144454369 0 0 0 0 -0.35997521697416435 0.33142056902747186 0 0.33142056902747186 0.19496865071673075 0 0 0 0 -5.522877112068727 -14.289960899585594 0 -14.289960899585594 29.321064521895551 0 0 0 0 0.52552652912254416 -10.34304102139231 0 -10.34304102139231 -1.3465049237886433 0 0 0 0 1.3551612777118862 -14.743664056140005 0 -14.743664056140005 7.6989685028611348 0 0 0 0 -2.3601701628518663 -6.7545944799641582 0 -6.7545944799641582 -0.69551028604302623 0 0 0 0 0.94802273378026047 -2.8775699311449419 0 -2.8775699311449419 -0.48512935423976011 0 0 0 0 11.779571404341368 -10.398987738549977 0 -10.398987738549977 -10.361810950254039 0 0 0 0 -2.5972321043477815 -10.115394105044183 0 -10.115394105044183 1.2042861496070048 0 0 0 0 4.1592474229569234 -17.645200675970045 0 -17.645200675970045 -5.1205237700065709 0 0 0 0 3.3794600283506497 -17.120525120222737 0 -17.120525120222737 -2.6668168335897064 0 0 0 0 -15.875414334187099 -24.19428098273238 0 -24.19428098273238 -3.3946831775359101 0 0 0 0 1.539586303560327 -14.822958872421168 0 -14.822958872421168 -0.99462774735275161 0 0 0 0 -1.1515524913806985 -4.0018530266938797 0 -4.0018530266938797 8.7436281275865895 0 0 0 0 -4.9580422649912634 -7.1363254559552729 0 -7.1363254559552729 -9.4526224515047943 0 0 0 0 2.5047033174653279 -23.847566319064072 0 -23.847566319064072 -15.989650799288711 0 0 0 0 2.8544225454006664 -18.86835956553 0 -18.86835956553 -3.1959125275079092 0 0 0 0 -11.936010814489691 -27.18280006723603 0 -27.18280006723603 3.4069991007991121 0 0 0 0 5.6464069466319415 -15.530015630442449 0 -15.530015630442449 -2.2467491957122547 0 0 0 0 3.8039646981897022 -18.292679949342528 0 -18.292679949342528 -3.6579997109199667 0 0 0 0 1.8699668854987976 -19.642192074993091 0 -19.642192074993091 -2.7191712971516608 0 0 0 0 2.6487161234558698 -20.463324343871818 0 -20.463324343871818 -4.7323521333528333 0 0 0 0 4.0680410813356502 -19.037982281593486 0 -19.037982281593486 -3.3049638883258012 0 0 0 0 17.51607423789892 -13.51494835593121 0 -13.51494835593121 -13.600734686693613 0 0 0 0 2.6450924130633666 -18.708006125011138 0 -18.708006125011138 -2.608497729627743 0 0 0 0 4.7376434413633888 -17.694325194066835 0 -17.694325194066835 -2.27064919055465 0 0 0 0 3.6233354865016736 -18.726952049545162 0 -18.726952049545162 -2.7243603533383975 0 0 0 0 2.3718612528809899 -19.091270412024187 0 -19.091270412024187 -2.192526803124565 0 0 0 0 2.3143614680668634 -10.9791111103209 0 -10.9791111103209 3.3893709738764528 0 0 0 0 0.16262522491183518 -12.68111348711659 0 -12.68111348711659 7.3943100681524356 0 0 0 0 -2.9513649091388743 -9.9759192482840717 0 -9.9759192482840717 17.063689824412904 0 0 0 0 1.2270611166204155 -7.5870837094807264 0 -7.5870837094807264 -3.2469060155528706 0 0 0 0 0.23847883787171043 -1.7236263702309536 0 -1.7236263702309536 2.574084341774209 0 0 0 0 4.2525076345602884 -10.319757953036515 0 -10.319757953036515 8.3066312349774307 0 0 0 0 2.983268597645198 -5.1592286179096334 0 -5.1592286179096334 3.2622566644459421 0 0 0 0 1.6111926816722644 -9.5920959199900153 0 -9.5920959199900153 0.086091643689087505 0 0 0 0 9.8034655470059988 -6.90764913239218 0 -6.90764913239218 -9.2267262914865373 0 0 0 0 1.0086727565937963 -10.563206393807604 0 -10.563206393807604 1.9026008355599515 0 0 0 0 2.1915935872557384 -9.0899127400256816 0 -9.0899127400256816 -2.2229253164305192 0 0 0 0 0.57131407187580763 -9.3563855425507967 0 -9.3563855425507967 -3.2860258000084031 0 0 0 0 -6.8880800584647659 -20.368368689186013 0 -20.368368689186013 5.8698126818326273 0 0 0 0 2.0720630364216959 -11.561091555847042 0 -11.561091555847042 6.6691323798385156 0 0 0 0 -1.8801092582844454 -7.8710900395295296 0 -7.8710900395295296 -2.2203226383360457 0 0 0 0 -3.4106217184837533 -14.43496401086702 0 -14.43496401086702 -4.1059600643284284 0 0 0 0 9.090398313375033 -11.974110831648744 0 -11.974110831648744 -0.62912887958646024 0 0 0 0 -0.12881451032075786 -6.8852791823729058 0 -6.8852791823729058 -1.0018978980493278 0 0 0 0 8.5792869514020822 -14.219804816451756 0 -14.219804816451756 2.7138406396270511 0 0 0 0 3.1160820262339257 -9.5247526296343494 0 -9.5247526296343494 -0.66687648059905769 0 0 0 0 3.7402111857047657 -13.062400215409411 0 -13.062400215409411 -6.8748463712805687 0 0 0 0 -0.30347217354574241 -12.390586353629601 0 -12.390586353629601 -0.64758120294344224 0 0 0 0 5.249043615538918 -7.7546570538635438 0 -7.7546570538635438 3.6449321619098662 0 0 0 0 10.137835110586394 -20.423371258162433 0 -20.423371258162433 -1.2312470316931012 0 0 0 0 2.3336255650674502 -11.555493719737456 0 -11.555493719737456 8.6771118110817724 0 0 0 0 2.0848556338546729 -9.6070358154153404 0 -9.6070358154153404 5.2514568714471341 0 0 0 0 -1.5917616659966707 -8.9331691878593951 0 -8.9331691878593951 0.17203351722757887 0 0 0 0 -1.1811945343918069 -13.590213064523823 0 -13.590213064523823 -6.1034909951331429 0 0 0 0 5.6107302460654864 -6.0971989928389121 0 -6.0971989928389121 0.48018897526026194 0 0 0 0 0.53070916461378559 -16.190939761795789 0 -16.190939761795789 9.6453605126607727 0 0 0 0 43.717327524407295 -5.701667311084293 0 -5.701667311084293 -3.3436497632224018 0 0 0 0 0.14965769154199499 -0.15667751787749573 0 -0.15667751787749573 0.45035680408282275 0 0 0 0 9.8034655470057395 -6.9076491323912563 0 -6.9076491323912563 -9.2267262914883759 0 0 0 0 9.8034655470056578 -6.9076491323912705 0 -6.9076491323912705 -9.2267262914855124 0 0 0 0 8.7332204551221189 -2.3604516351323639 0 -2.3604516351323639 1.3612569310880644 0 0 0 0 -1.0089961908291514 -13.192544865075 0 -13.192544865075 -2.5617520271093781 0 0 0 0 -1.9952246187258424 -13.715271776128702 0 -13.715271776128702 -2.5916289933873031 0 0 0 0 -2.4082102732209023 -13.584612651542784 0 -13.584612651542784 -1.9425210503079597 0 0 0 0 -0.25295809062845365 -14.386894058201278 0 -14.386894058201278 -2.4096782862247892 0 0 0 0 -0.92717656467993947 -12.616550942404047 0 -12.616550942404047 -4.5924099341918918 0 0 0 0 0.30278400244878867 -14.130435044554361 0 -14.130435044554361 -3.4344992906767402 0 0 0 0 -0.99742822413281829 -13.401709480825389 0 -13.401709480825389 -1.6744738392260388 0 0 0 0 0.95147004696991644 -12.736940943489344 0 -12.736940943489344 -1.586070885096774 0 0 0 0 -0.14396164877871342 -14.066971932504202 0 -14.066971932504202 -1.8962164246440807 0 0 0 0 0.50191621595331526 -12.494722861050263 0 -12.494722861050263 -6.5017073483945751 0 0 0 0 1.8794654392850134 -14.486676273118746 0 -14.486676273118746 -12.414641764649673 0 0 0 0 2.1757040622317696 -12.020216673811518 0 -12.020216673811518 -4.2774205269077168 0 0 0 0 0.44958604765406562 -15.31336663342023 0 -15.31336663342023 0.0072692019739406533 0 0 0 0 2.461404394107376 -10.553966733522998 0 -10.553966733522998 3.765706714294538 0 0 0 0 0.94279405553606921 -13.507397456393221 0 -13.507397456393221 0.023714569165349531 0 0 0 0 1.0784162650666076 -18.04371763609015 0 -18.04371763609015 -4.2414300648201788 0 0 0 0 4.1537173451258447 -7.536850705266259 0 -7.536850705266259 5.364101382483069 0 0 0 0 0.55151895440303633 -11.599960609964455 0 -11.599960609964455 2.1752460502400481 0 0 0 0 0.73619681274487903 -12.655000712732786 0 -12.655000712732786 -1.1257205071074168 0 0 0 0 -0.14193285977216874 -13.983857033745323 0 -13.983857033745323 -1.2823499416131199 0 0 0 0 3.3515585697035064 -9.515196561871317 0 -9.515196561871317 3.5588772063225305 0 0 0 0 -1.4286652201626566 -13.646915740693998 0 -13.646915740693998 -1.1999956480984793 0 0 0 0 -1.4230500044001815 -13.560927275363703 0 -13.560927275363703 0.098166609468989918 0 0 0 0 3.0436355562451354 -25.594604566314501 0 -25.594604566314501 6.6777947523241892 0 0 0 0 3.0136185490628122 -26.754165594380538 0 -26.754165594380538 6.2237861413941573 0 0 0 0 -6.8546890262406741 -7.9925636600461374 0 -7.9925636600461374 -2.4706003597502759 0 0 0 0 4.8443828800459414 -16.210236122172773 0 -16.210236122172773 21.384989238711569 0 0 0 0 5.032127238860717 -10.010612860524098 0 -10.010612860524098 3.8601061428655097 0 0 0 0 2.3480619207672078 -17.051167108130667 0 -17.051167108130667 12.901821873186236 0 0 0 0 1.5303402580661611 -8.1050092595074403 0 -8.1050092595074403 -0.23577054512657636 0 0 0 0 9.2259514701217995 -20.355063577396322 0 -20.355063577396322 3.8257606023751123 0 0 0 0 -2.7335570061338927 -6.3527162171924658 0 -6.3527162171924658 -2.2097652747758225 0 0 0 0 2.4685606482003521 -11.742213322615321 0 -11.742213322615321 17.136187566413355 0 0 0 0 0.87265529966816757 -19.502571840786914 0 -19.502571840786914 8.4535405037038345 0 0 0 0 0.56764165678244538 -6.3110449279724961 0 -6.3110449279724961 -5.0354234494229964 0 0 0 0 2.8937471946119331 -16.732479140671785 0 -16.732479140671785 24.320777206903585 0 0 0 0 5.8605799884826411 -17.408855086156109 0 -17.408855086156109 19.733593158816802 0 0 0 0 4.0048297967241524 -16.820956703530101 0 -16.820956703530101 18.729175771655264 0 0 0 0 1.6658846201389679 -12.403735110354319 0 -12.403735110354319 23.247836945826748 0 0 0 0 5.4206676179260285 -8.0415077303703697 0 -8.0415077303703697 6.2881458272795498 0 0 0 0 5.065199573522932 -20.666134839226743 0 -20.666134839226743 15.825884812762069 0 0 0 0 -1.3609510090302379 -3.1021150766184906 0 -3.1021150766184906 -4.5671518426058455 0 0 0 0 0.25042656281768316 -6.2794588728981537 0 -6.2794588728981537 -4.5131002327669565 0 0 0 0 12.227282722498785 -6.661919833997672 0 -6.661919833997672 30.015386954200039 0 0 0 0 3.9149070889301854 -20.715473811840234 0 -20.715473811840234 27.378099316430962 0 0 0 0 -2.3362075178830217 -6.8969331194502423 0 -6.8969331194502423 -5.7002271328514844 0 0 0 0 2.8800590493549976 -19.269359342409302 0 -19.269359342409302 18.828855252677386 0 0 0 0 3.8350130600156263 -14.114997492102248 0 -14.114997492102248 16.048729997484315 0 0 0 0 -7.809444791561873 -35.932502882138124 0 -35.932502882138124 41.696513526925173 0 0 0 0 2.3078698560166231 -10.127585614401596 0 -10.127585614401596 9.0670274351159605 0 0 0 0 0.32229980139869241 -6.0237047191096416 0 -6.0237047191096416 -5.4902097379041432 0 0 0 0 4.6396972698976242 -13.123874311288091 0 -13.123874311288091 18.52922824076154 0 0 0 0 0.19401344784182584 -25.009749699396707 0 -25.009749699396707 44.534066229794007 0 0 0 0 2.8035412835060924 -8.4936612359697392 0 -8.4936612359697392 6.6502677871521882 0 0 0 0 -7.3484637162855506 -8.3586589892793199 0 -8.3586589892793199 32.747923551872191 0 0 0 0 -3.7684096722714457 -4.1717385286638091 0 -4.1717385286638091 20.877632651506701 0 0 0 0 5.6518512868663038 -10.472907555915299 0 -10.472907555915299 22.344459048867066 0 0 0 0 17.256863473247506 6.9381419053629543 0 6.9381419053629543 6.3606751724196329 0 0 0 0 29.034956675581583 -16.664406471694406 0 -16.664406471694406 -5.2897561778418094 0 0 0 0 -12.847445078340769 -2.3003079004389519 0 -2.3003079004389519 12.79481537114998 0 0 0 0 13.983525677784776 -25.991474165787167 0 -25.991474165787167 21.821830581407539 0 0 0 0 -5.370008297187411 -6.4524852947615727 0 -6.4524852947615727 6.5883424871575471 0 0 0 0 -2.6751706776547484 -5.6962751719364277 0 -5.6962751719364277 3.2378450942146202 0 0 0 0 2.0869186680552048 -12.781898586619036 0 -12.781898586619036 6.0013511609072339 0 0 0 0 10.138745028820495 -8.1615880768866873 0 -8.1615880768866873 8.6448422539483545 0 0 0 0 10.616243376789043 -20.719955429047104 0 -20.719955429047104 17.850623996530658 0 0 0 0 -6.9595626084584339 -3.7259760145755649 0 -3.7259760145755649 2.1749776602282509 0 0 0 0 -1.2693119220783209 -7.3655382464443795 0 -7.3655382464443795 7.8884893438202184 0 0 0 0 1.1850817877325106 -8.1823104211176787 0 -8.1823104211176787 -4.0232200820423216 0 0 0 0 3.1877608998490299 -4.3136348434057368 0 -4.3136348434057368 0.22769903736461927 0 0 0 0 11.413175439440238 -42.273733306776194 0 -42.273733306776194 46.364517520796653 0 0 0 0 3.1404315932095415 -18.2007840405563 0 -18.2007840405563 11.794335331093862 0 0 0 0 -2.4474073067275075 -10.566248199571767 0 -10.566248199571767 -4.897497451474031 0 0 0 0 -4.0036917701522254 -12.288286684150158 0 -12.288286684150158 10.523051920220436 0 0 0 0 4.7486946333820015 -20.537605126838116 0 -20.537605126838116 13.490187420532948 0 0 0 0 7.4936037706484058 -35.505618746015898 0 -35.505618746015898 18.208759092565742 0 0 0 0 10.3734551058653 -3.9704984925718119 0 -3.9704984925718119 -1.4739246346021311 0 0 0 0 4.4159489229751472 -3.7541472004552485 0 -3.7541472004552485 -0.56634443877312535 0 0 0 0 28.642201200963655 -13.281337283980974 0 -13.281337283980974 3.9007195203848823 0 0 0 0 9.531389403880894 -12.590116898691122 0 -12.590116898691122 17.931057812742438 0 0 0 0 33.449930427670097 -21.308307123340455 0 -21.308307123340455 7.8951632208490992 0 0 0 0 14.203705235225129 -4.7084950681419286 0 -4.7084950681419286 -1.1690734036619688 0 0 0 0 14.857924040611124 -9.9119014261996199 0 -9.9119014261996199 6.6136931652554267 0 0 0 0 6.8635047713150312 -8.2607011736455611 0 -8.2607011736455611 7.9545276308414188 0 0 0 0 3.5622105967920277 -16.32464830883282 0 -16.32464830883282 -4.5319462017132537 0 0 0 0 2.0516806052810352 -11.874413939927763 0 -11.874413939927763 10.964065199126708 0 0 0 0 6.457500391443773 -11.441840796073848 0 -11.441840796073848 13.615437410735467 0 0 0 0 17.271112822764735 -15.577323333665845 0 -15.577323333665845 8.7680956389649509 0 0 0 0 13.12126555370196 -7.4503851144781947 0 -7.4503851144781947 1.9356835887083434 0 0 0 0 9.5962172843345481 -6.3097351634874634 0 -6.3097351634874634 1.9907957948197073 0 0 0 0 1.3077560852379477 -1.9269626489846488 0 -1.9269626489846488 0.34370229933882257 0 0 0 0 -9.9543637931192279 -6.3036864961732135 0 -6.3036864961732135 -65.993694516713731 0 0 0 0 1.3125711669992981 -0.87079585508679358 0 -0.87079585508679358 -1.4919346495256534 0 0 0 0 20.673682353272852 -20.395278870052607 0 -20.395278870052607 13.731873292813674 0 0 0 0 28.862585886305169 -9.2929982373852908 0 -9.2929982373852908 5.4790841099543286 0 0 0 0 14.246354919306214 -8.1571187115860084 0 -8.1571187115860084 6.1329221162591239 0 0 0 0 20.768033297396869 -11.804587265738064 0 -11.804587265738064 3.711170200853303 0 0 0 0 0.5520305210643528 -4.7112788271133468 0 -4.7112788271133468 3.1747882878371456 0 0 0 0 14.067647984726591 -9.8060260185202424 0 -9.8060260185202424 -1.8764503640923067 0 0 0 0 2.4394492980949281 -7.3708397726950352 0 -7.3708397726950352 -0.9836341963691666 0 0 0 0 5.7290311446192845 -1.5309039406747615 0 -1.5309039406747615 1.3469753965273412 0 0 0 0 14.17726415340303 -6.8343719324120684 0 -6.8343719324120684 2.3215969291209149 0 0 0 0 12.142088156980662 -7.5445822090487127 0 -7.5445822090487127 5.3141115571324917 0 0 0 0 6.3812566468974445 -7.7243368391958525 0 -7.7243368391958525 7.0172197193540988 0 0 0 0 10.75305501379944 0.22155680675996337 0 0.22155680675996337 6.7832311866095552 0 0 0 0 -12.436992340313623 -22.56516569661926 0 -22.56516569661926 21.729085751253933 0 0 0 0 6.0703262567249112 -7.2816502252976534 0 -7.2816502252976534 7.9132400931539451 0 0 0 0 0.84676316066361323 -5.9766315464330546 0 -5.9766315464330546 11.306099142566381 0 0 0 0 -7.467911986078434 -11.428392700753193 0 -11.428392700753193 14.878104581758635 0 0 0 0 -5.5621912217193312 -10.229460430567087 0 -10.229460430567087 15.619838119164342 0 0 0 0 -3.5747547236057926 -2.8192177725090914 0 -2.8192177725090914 9.8987229493650375 0 0 0 0 3.5268090840111199 -4.4446533202467435 0 -4.4446533202467435 6.9643317297050089 0 0 0 0 -5.3835002940081722 -7.6769162590039741 0 -7.6769162590039741 10.369430883736641 0 0 0 0 -14.138426086451091 -8.2428734209388494 0 -8.2428734209388494 10.348992869616268 0 0 0 0 -10.031571897802905 -4.0901973434129104 0 -4.0901973434129104 -2.9159672015421165 0 0 0 0 -13.106236518458445 -4.273991553536689 0 -4.273991553536689 -1.569861737752035 0 0 0 0 -11.703468147568032 -14.312422647833841 0 -14.312422647833841 -16.174368895248335 0 0 0 0 -6.9345722756697796 -1.3906070092534719 0 -1.3906070092534719 6.2418485981424965 0 0 0 0 -4.3491467358198861 -6.4460950519005564 0 -6.4460950519005564 -1.1175600719179783 0 0 0 0 -9.2826087586163339 -3.3036147956163404 0 -3.3036147956163404 -1.0224351474153082 0 0 0 0 -5.2509119777701017 -15.880349119004677 0 -15.880349119004677 -11.003671835840578 0 0 0 0 -10.108045715740474 -13.067202903784391 0 -13.067202903784391 -14.933370874348839 0 0 0 0 -14.319867715077635 -24.944547775754472 0 -24.944547775754472 -34.281373029747556 0 0 0 0 -13.563225146969216 -13.739142879830069 0 -13.739142879830069 -8.3057125556242681 0 0 0 0 -9.0034068102991114 -17.394351147228917 0 -17.394351147228917 -45.349066711803061 0 0 0 0 -17.705925481821851 -23.422209968302013 0 -23.422209968302013 -30.310370693820005 0 0 0 0 -18.22926822026875 -15.017734179073159 0 -15.017734179073159 -15.413172809456228 0 0 0 0 -18.337740233203021 -11.281866960812295 0 -11.281866960812295 -14.889903123293152 0 0 0 0 -13.852456704660426 -33.674332565662553 0 -33.674332565662553 -50.880653444743984 0 0 0 0 -11.529227972964009 -13.863346586755142 0 -13.863346586755142 -32.530975618501543 0 0 0 0 1.6935691636250949 -0.20755931172751474 0 -0.20755931172751474 -0.42784614792143572 0 0 0 0 1.090740695583122 -3.9798509154941257 0 -3.9798509154941257 -32.272723022311766 0 0 0 0 -23.03543915521243 -22.886559758767362 0 -22.886559758767362 -6.2347405757573142 0 0 0 0 -15.721547049660558 -17.262716948241632 0 -17.262716948241632 4.0088094965449272 0 0 0 0 0.48894235260161739 -0.36817487476620236 0 -0.36817487476620236 -0.47778984833965765 0 0 0 0 7.7263200171441895 -10.271590454000034 0 -10.271590454000034 -23.764662960078113 0 0 0 0 5.7121150890631611 18.053997999458261 0 18.053997999458261 -7.0971184587829157 0 0 0 0 0.819765659529061 0.017810848447014749 0 0.017810848447014749 -0.34414464690632052 0 0 0 0 4.4324400880107646 -57.616843596983472 0 -57.616843596983472 -24.582760551007595 0 0 0 0 14.133338127451907 -38.366789149885335 0 -38.366789149885335 -9.8161191029612382 0 0 0 0 3.938950288821303 -18.216095826953278 0 -18.216095826953278 -2.9695011391013395 0 0 0 0 -39.660387013208961 -80.957347266795523 0 -80.957347266795523 12.117757080693991 0 0 0 0 15.993226926737925 -25.70382823781614 0 -25.70382823781614 -1.6238012004178017 0 0 0 0 -7.0406443966236223 -16.284140097126524 0 -16.284140097126524 -2.1067594971227663 0 0 0 0 -2.226718966118824 -22.033100866317909 0 -22.033100866317909 3.3326326629608047 0 0 0 0 17.803106786278818 -56.76223724033207 0 -56.76223724033207 14.715629456078204 0 0 0 0 -6.2279085901021922 -32.698499141760053 0 -32.698499141760053 33.319674728949394 0 0 0 0 -17.015721017867634 -9.1163763616668803 0 -9.1163763616668803 19.56790387820547 0 0 0 0 47.732284620783048 -11.031338280118689 0 -11.031338280118689 4.2042424540413776 0 0 0 0 0.55478385867038238 -0.29616865747488674 0 -0.29616865747488674 -0.081966166844914312 0 0 0 0 1.1975336471613218 7.4483169335726416 0 7.4483169335726416 -1.380822023706969 0 0 0 0 -5.906937280264259 -11.657657230618952 0 -11.657657230618952 -1.8373222020836693 0 0 0 0 -0.79994809185882332 -9.6569755484533744 0 -9.6569755484533744 -13.465573466299247 0 0 0 0 2.6952379074155033 -9.5139390751446626 0 -9.5139390751446626 7.2680961649602978 0 0 0 0 37.942838717529867 -20.453860996769436 0 -20.453860996769436 -6.1549277758274457 0 0 0 0 -0.40721363805243982 -18.296769458757353 0 -18.296769458757353 45.491926556977887 0 0 0 0 50.800484940211817 -38.644309876137697 0 -38.644309876137697 14.771252944876323 0 0 0 0 25.70760797356138 -24.62850821979282 0 -24.62850821979282 8.5328578290154837 0 0 0 0 13.29170627596352 -18.213364120191727 0 -18.213364120191727 14.157627067251269 0 0 0 0 -0.40104688751489448 -19.490710867701637 0 -19.490710867701637 23.153491447517808 0 0 0 0 -11.37131161531795 -9.9170282310080893 0 -9.9170282310080893 22.314242191615449 0 0 0 0 6.2708142837072955 -19.61879774986528 0 -19.61879774986528 14.37638884439184 0 0 0 0 4.2388048956347575 -14.89407189780195 0 -14.89407189780195 5.6320450399334732 0 0 0 0 24.381024249259099 -20.321899463127011 0 -20.321899463127011 0.012427328500962176 0 0 0 0 16.616091627336999 1.5550538981407271 0 1.5550538981407271 -8.5263378855925112 0 0 0 0 11.429739299743801 -7.4098932563090329 0 -7.4098932563090329 -11.416089497357007 0 0 0 0 6.9613741201657149 -6.6378425139573665 0 -6.6378425139573665 -6.0011386794274131 0 0 0 0 4.7452597620348911 -14.470166538067929 0 -14.470166538067929 5.9271589403997496 0 0 0 0 -3.8507404521621602 -9.0821091011172257 0 -9.0821091011172257 -15.351333842860186 0 0 0 0 -5.4877485603552145 -14.272711063884344 0 -14.272711063884344 -13.14964898442787 0 0 0 0 1.0007590469826164 -0.79356231690480428 0 -0.79356231690480428 0.066577169028199989 0 0 0 0 0.34014961296699098 0.14696050084532786 0 0.14696050084532786 -0.12964700482153191 0 0 0 0 0.65678554724667038 -4.0798904931807556 0 -4.0798904931807556 -4.2227851717470912 0 0 0 0 -1.1138288927274971 -1.9914729344818625 0 -1.9914729344818625 -5.209420137291545 0 0 0 0 -3.7501095575544241 -1.9531368910347737 0 -1.9531368910347737 1.4201011734767235 0 0 0 0 32.617562444180692 -19.311078355112386 0 -19.311078355112386 9.2971130239193371 0 0 0 0 0.32126787375325572 0.3708568952031257 0 0.3708568952031257 -0.23039223587182711 0 0 0 0 -2.5447967846255324 -1.3502420098238872 0 -1.3502420098238872 -4.2712562833133347 0 0 0 0 0.37369400400456243 -0.50439055777110298 0 -0.50439055777110298 -9.5355394732414425 0 0 0 0 1.2425030243017885 -5.580688724847537 0 -5.580688724847537 -1.0700508025472941 0 0 0 0 0.29761009663002369 -2.9572818764672775 0 -2.9572818764672775 -7.8854458249134041 0 0 0 0 1.240318718100385 -0.81745589226845716 0 -0.81745589226845716 -2.499998069446832 0 0 0 0 3.2987322425968273 -8.0275826058764324 0 -8.0275826058764324 9.9174745706500289 0 0 0 0 1.4171730653586678 -7.0084050998107159 0 -7.0084050998107159 12.865542559020923 0 0 0 0 0.87119510995793803 -10.280067968198409 0 -10.280067968198409 17.971754812728705 0 0 0 0 -3.1517487277114355 -7.4176255733190715 0 -7.4176255733190715 29.194925432180753 0 0 0 0 1.9417156526390897 -11.002459760257125 0 -11.002459760257125 12.789878438705045 0 0 0 0 0.29260911909874288 -4.7015519704575999 0 -4.7015519704575999 -2.8534726650357571 0 0 0 0 2.3294728067509425 -9.0943277559324827 0 -9.0943277559324827 12.456321756346199 0 0 0 0 -1.1036078566568988 -2.9739004896910766 0 -2.9739004896910766 -0.52909645012692452 0 0 0 0 4.4127832608987596 -10.379538171614342 0 -10.379538171614342 7.3423094760401 0 0 0 0 1.8904600719489508 -9.8313416940937373 0 -9.8313416940937373 11.219622426910064 0 0 0 0 2.0481495957594262 -13.033186790635341 0 -13.033186790635341 12.753464178597824 0 0 0 0 -1.5363044550742628 -1.4280058097210411 0 -1.4280058097210411 0.5976488096908259 0 0 0 0 1.636899968767854 -4.9075317447944382 0 -4.9075317447944382 -3.5591971479763469 0 0 0 0 0.43236575544511879 -8.4875653631220302 0 -8.4875653631220302 8.8546120778469231 0 0 0 0 -3.623139918174104 -3.9128428543383507 0 -3.9128428543383507 21.781894079491394 0 0 0 0 -0.47783978099391788 -1.6133844729728253 0 -1.6133844729728253 4.3683392859747983 0 0 0 0 16.938413590092523 -14.744164244711101 0 -14.744164244711101 4.0228221847485202 0 0 0 0 2.5576432076213904 -4.985390978607068 0 -4.985390978607068 -2.2566059283765707 0 0 0 0 0.24813849132794247 0.08336032905835733 0 0.08336032905835733 -1.2211355037966287 0 0 0 0 3.071220360917593 -3.5892772121337657 0 -3.5892772121337657 -15.72916555618832 0 0 0 0 16.400421916748371 -18.706084094378639 0 -18.706084094378639 1.2895622897485737 0 0 0 0 10.801635573989302 -13.360734439788757 0 -13.360734439788757 0.20954142578148094 0 0 0 0 6.953996621138856 -20.419239561525046 0 -20.419239561525046 14.751382663937875 0 0 0 0 3.4890640329274447 -12.478560287658752 0 -12.478560287658752 4.433877603521978 0 0 0 0 5.1373650926348091 -15.80821306500502 0 -15.80821306500502 6.1002516574517358 0 0 0 0 2.5621264633830378 -14.36338921950437 0 -14.36338921950437 7.1320186565317272 0 0 0 0 0.85139928047055946 -18.842553574677822 0 -18.842553574677822 -23.760527155593991 0 0 0 0 0.86167396124744755 -7.7709652870832997 0 -7.7709652870832997 1.5450065885397635 0 0 0 0 5.7695430808828405 -13.894435003916442 0 -13.894435003916442 5.2456566949294938 0 0 0 0 5.103641546585493 -11.064057915208593 0 -11.064057915208593 1.4247524925722246 0 0 0 0 3.3174523406897838 -6.6120524601923005 0 -6.6120524601923005 4.9566896313788575 0 0 0 0 4.9935208716822217 -5.2079143044264988 0 -5.2079143044264988 -0.56755489403802617 0 0 0 0 -1.253885644529809 -0.37442717330056619 0 -0.37442717330056619 1.3380856218449146 0 0 0 0 1.1120340098800625 -7.2277735071802454 0 -7.2277735071802454 2.5124500191526522 0 0 0 0 1.6985407299534927 -10.044198917975336 0 -10.044198917975336 8.7707690492279653 0 0 0 0 5.6562767968434855 -12.385095751850713 0 -12.385095751850713 2.9778378220660215 0 0 0 0 3.8919026978701314 -5.663876951809339 0 -5.663876951809339 -0.63947235046853823 0 0 0 0 2.884236460768193 -3.7304373395411403 0 -3.7304373395411403 -2.3759915134255607 0 0 0 0 5.0735507536002906 -7.2042404070829349 0 -7.2042404070829349 5.1289639060228112 0 0 0 0 7.6037398957389541 -9.7923477094213922 0 -9.7923477094213922 5.6060467948082078 0 0 0 0 11.431942542761362 -14.838817967122395 0 -14.838817967122395 12.346176552253382 0 0 0 0 3.5408052663527085 -5.480853588577058 0 -5.480853588577058 3.6905288593222592 0 0 0 0 7.0972517899325851 3.0094623340308999 0 3.0094623340308999 7.7470795227518465 0 0 0 0 28.528166200690862 -18.313274153436623 0 -18.313274153436623 -24.337006801166581 0 0 0 0 4.010102717278869 -9.351944679215876 0 -9.351944679215876 -5.1101352198379573 0 0 0 0 -2.5531498158371875 -10.080110426830487 0 -10.080110426830487 4.0061823239120713 0 0 0 0 4.9761270834377287 -6.7983623286145551 0 -6.7983623286145551 2.0038805689492332 0 0 0 0 17.016894117393804 -20.078222173989161 0 -20.078222173989161 -8.8738132407602279 0 0 0 0 28.695928704523453 -14.033484444301166 0 -14.033484444301166 -7.1511156646790823 0 0 0 0 -2.4668725616988922 -8.075813699370201 0 -8.075813699370201 11.022649466396842 0 0 0 0 0.82952193216448356 -1.8721613103915713 0 -1.8721613103915713 -1.0365361818610426 0 0 0 0 -1.9912308233826934 -2.7438672143046006 0 -2.7438672143046006 -6.0970561265048673 0 0 0 0 2.4955602933143468 -8.0761429231070991 0 -8.0761429231070991 5.2381444032991435 0 0 0 0 1.4500305345000015 -4.2648107590362088 0 -4.2648107590362088 -0.080814770287361171 0 0 0 0 2.6336640175470922 -4.7992030191050539 0 -4.7992030191050539 -1.8731814702872702 0 0 0 0 4.4903496438510047 -10.944452028764317 0 -10.944452028764317 3.4159696840639526 0 0 0 0 6.4095204236704717 -13.196747383853108 0 -13.196747383853108 8.1346429543236809 0 0 0 0 4.8152027063260903 -11.710184314383696 0 -11.710184314383696 1.7030152969218761 0 0 0 0 1.3328019965651263 -8.1397367769779834 0 -8.1397367769779834 5.2331590761803923 0 0 0 0 4.6870554022388831 -9.386839805751233 0 -9.386839805751233 -5.1474606405129677 0 0 0 0 -0.4950207417384529 -15.49095618509752 0 -15.49095618509752 4.922116211122102 0 0 0 0 5.6715351793018325 -7.085337207914284 0 -7.085337207914284 -1.1004017508912223 0 0 0 0 9.405980871137217 -9.440732916307752 0 -9.440732916307752 3.3585366307306685 0 0 0 0 2.3235723403040538 -7.3406385927355586 0 -7.3406385927355586 -5.9758663819011417 0 0 0 0 -1.4378370976044057 -3.9904223133776293 0 -3.9904223133776293 -0.053896635462290732 0 0 0 0 7.5511112657805723 -8.4468312758629054 0 -8.4468312758629054 4.4562072070857539 0 0 0 0 1.5328948641062041 -10.539772705614723 0 -10.539772705614723 5.6527906499509299 0 0 0 0 1.7779487195989145 -5.9918105615424375 0 -5.9918105615424375 1.811520031611773 0 0 0 0 5.3181812362860512 -14.394704758273974 0 -14.394704758273974 6.2776979579803083 0 0 0 0 6.4981540765506551 -13.270346747108078 0 -13.270346747108078 4.3292353727429145 0 0 0 0 -0.072872388983510894 -3.7970475193062505 0 -3.7970475193062505 -0.065911764776521053 0 0 0 0 3.8435908344260454 -6.0696637145960182 0 -6.0696637145960182 6.9646806363478255 0 0 0 0 -5.8747816436279265 -11.864281441642333 0 -11.864281441642333 6.113488008447348 0 0 0 0 3.4773346015236939 -8.8519501583546116 0 -8.8519501583546116 -2.6653876253812996 0 0 0 0 0.68012153642888928 -1.8295102342512912 0 -1.8295102342512912 0.34472789391052672 0 0 0 0 -0.66743052464312314 -1.5176396528427176 0 -1.5176396528427176 -1.2332224662641238 0 0 0 0 8.8972966206974888 -8.1026526960804404 0 -8.1026526960804404 11.791848970163528 0 0 0 0 5.6155971157007443 -7.2783825677103451 0 -7.2783825677103451 5.9461607738829514 0 0 0 0 -1.5218425616895104 -5.2862689279864981 0 -5.2862689279864981 4.2051529649188524 0 0 0 0 -4.5777565427606532 -9.6284995281603187 0 -9.6284995281603187 10.213487004451963 0 0 0 0 -3.9081115502608554 -5.2437512922138012 0 -5.2437512922138012 7.0770523655155557 0 0 0 0 1.4925627602315288 -1.618362809877298 0 -1.618362809877298 1.6119664922506907 0 0 0 0 4.1118934505286688 -15.346097320672925 0 -15.346097320672925 8.3688076603802983 0 0 0 0 -1.5824867685660138 -13.787103786143234 0 -13.787103786143234 15.65794444621497 0 0 0 0 3.2129670881176935 -13.276510503821555 0 -13.276510503821555 6.0501105977918996 0 0 0 0 4.7502626521711591 -14.111677291925389 0 -14.111677291925389 4.6580980611470295 0 0 0 0 3.3545415895039241 -12.365446220732338 0 -12.365446220732338 8.1530079953863606 0 0 0 0 1.1668765296190031 -10.002601464889267 0 -10.002601464889267 5.60099093918177 0 0 0 0 2.5621672494910399 -7.8718006173958202 0 -7.8718006173958202 7.8150948039856303 0 0 0 0 3.2097988129498845 -11.863304898013894 0 -11.863304898013894 30.240953469563465 0 0 0 0 -0.73666261924336141 -7.3775801475417211 0 -7.3775801475417211 40.177503803503896 0 0 0 0 2.9345770601394179 -8.0001725775086925 0 -8.0001725775086925 24.403625140753434 0 0 0 0 0.083680276053200942 -6.7094785054073327 0 -6.7094785054073327 32.220936647702047 0 0 0 0 0.93003777099693252 -6.4565261929910776 0 -6.4565261929910776 17.010889352720824 0 0 0 0 0.00044053719284420367 -11.81658614652747 0 -11.81658614652747 25.574645063541993 0 0 0 0 2.612950392559469 -9.9182108713082471 0 -9.9182108713082471 11.918197299794429 0 0 0 0 -1.9502315704339708 -9.9075314008707664 0 -9.9075314008707664 23.890361756445714 0 0 0 0 -0.082639684786045109 -9.2393095581596754 0 -9.2393095581596754 14.48419802298622 0 0 0 0 -8.7218079434387619 -10.571109273404545 0 -10.571109273404545 25.888338160695895 0 0 0 0 -7.5299541593831236 -10.902177830973415 0 -10.902177830973415 20.508716410578472 0 0 0 0 -17.761966901245614 -12.904301383710845 0 -12.904301383710845 30.7424940258677 0 0 0 0 -2.908007665657351 -16.392382139320944 0 -16.392382139320944 35.414889342448987 0 0 0 0 -9.0365537537727505 -13.279726340125421 0 -13.279726340125421 34.000636551789739 0 0 0 0 -5.4114016610656108 -16.679372268463112 0 -16.679372268463112 31.304555757977141 0 0 0 0 -2.1033175057473272 -14.446277472361089 0 -14.446277472361089 32.037974542620759 0 0 0 0 -1.6874518934055232 -12.837913785945602 0 -12.837913785945602 26.051588280438693 0 0 0 0 -1.8975066675229755 -10.98672860644956 0 -10.98672860644956 34.316725272655958 0 0 0 0 -2.3688459166660323 -7.5636213270626058 0 -7.5636213270626058 36.018554260963583 0 0 0 0 7.1443137377427774 -18.68522980225589 0 -18.68522980225589 40.798176056443026 0 0 0 0 0.2669794983003495 -1.93843673021059 0 -1.93843673021059 -0.68268929175672355 0 0 0 0 -4.9404585988631879 -0.4706257336310955 0 -0.4706257336310955 60.664420061195187 0 0 0 0 -2.3509413044594112 -10.748155556694201 0 -10.748155556694201 40.531592471255408 0 0 0 0 9.7199586547485524 -5.3026976491201481 0 -5.3026976491201481 -11.043087462496258 0 0 0 0 2.651204110034314 12.698524085664619 0 12.698524085664619 -12.442631236907374 0 0 0 0 -1.1654111653401742 -20.415221883953024 0 -20.415221883953024 -4.5044825186122353 0 0 0 0 -0.49494398188292621 -4.2425646158988917 0 -4.2425646158988917 -2.2333237666030845 0 0 0 0 -7.1752847507013939 -5.4826148921108597 0 -5.4826148921108597 -9.2037177955125458 0 0 0 0 7.8209724744883715 -13.218121714374774 0 -13.218121714374774 20.996632362641776 0 0 0 0 -0.36240590818591301 0.25373727362989129 0 0.25373727362989129 -1.4132432751731159 0 0 0 0 -3.6709111096115521 -6.0039118850800151 0 -6.0039118850800151 -15.661513137586553 0 0 0 0 0.43408306295168586 -4.4185145539636324 0 -4.4185145539636324 55.731653670639616 0 0 0 0 12.416330488457788 -31.338597793956069 0 -31.338597793956069 42.310349021545335 0 0 0 0 -1.1226739296962478 -12.259434743166594 0 -12.259434743166594 41.151098092598204 0 0 0 0 -1.0988708711156505 -9.7411877170214325 0 -9.7411877170214325 38.551512336727228 0 0 0 0 10.559814174094754 -3.2813339263337866 0 -3.2813339263337866 40.027732818605728 0 0 0 0 -0.0012875133270426886 -11.759619464951697 0 -11.759619464951697 39.522059151551275 0 0 0 0 3.1132052415450744 -20.067950512265043 0 -20.067950512265043 -61.210395957544279 0 0 0 0 -0.24751899065364569 0.34955532480418938 0 0.34955532480418938 0.12656713660962171 0 0 0 0 -1.4521812304774357 -11.546337939534027 0 -11.546337939534027 42.347208323819586 0 0 0 0 -5.0387646931703785 -15.024720558835497 0 -15.024720558835497 -40.414878635004243 0 0 0 0 0.014632463908128557 -45.246502593674677 0 -45.246502593674677 -16.346475502092289 0 0 0 0 -3.5630374837310228 -31.680216982787329 0 -31.680216982787329 -39.723589219014229 0 0 0 0 -18.034598417722009 -26.038831918206483 0 -26.038831918206483 -13.824504896606982 0 0 0 0 -10.075516013577726 -30.880618169293029 0 -30.880618169293029 -18.889047884236334 0 0 0 0 -13.554150366584508 -6.0427785437096304 0 -6.0427785437096304 -7.9177277246205904 0 0 0 0 -21.589399456570391 -18.895316853970144 0 -18.895316853970144 -19.872067566513749 0 0 0 0 -28.158635043880167 -14.56151288447785 0 -14.56151288447785 -6.9435806071195429 0 0 0 0 -25.822078845962096 -15.420492871225633 0 -15.420492871225633 -11.005848171668731 0 0 0 0 15.666605352465922 -12.827574022977046 0 -12.827574022977046 -4.2182777786806582 0 0 0 0 -43.820392411269495 -26.682867009010749 0 -26.682867009010749 -7.8075732398839932 0 0 0 0 0.17818256833065149 -0.49616002169311813 0 -0.49616002169311813 -0.14689945737702281 0 0 0 0 0.04109397649699531 1.471610747974978 0 1.471610747974978 2.3749581938950541 0 0 0 0 -13.66805747874605 -12.205099056971093 0 -12.205099056971093 -10.192518578620124 0 0 0 0 -1.3956369996849389 -0.21889195794046046 0 -0.21889195794046046 0.40708846393510356 0 0 0 0 -25.420856278637075 -11.815411773612936 0 -11.815411773612936 -5.7471394105754428 0 0 0 0 -23.872430588346106 -18.377867521701745 0 -18.377867521701745 -6.4439804335743531 0 0 0 0 -20.477665751961467 -3.4597270410540375 0 -3.4597270410540375 -2.980832177609301 0 0 0 0 0.28631595237571617 -0.70382353645176465 0 -0.70382353645176465 -0.087354990764101581 0 0 0 0 -0.028253265038781037 -7.3851211027651438 0 -7.3851211027651438 -7.419490933369957 0 0 0 0 0.41914595355535766 -0.12102288007560347 0 -0.12102288007560347 -0.51585915039990382 0 0 0 0 58.148542806480691 -2.8920673807297028 0 -2.8920673807297028 -12.645774918861932 0 0 0 0 -28.014800584063778 44.807485747555376 0 44.807485747555376 60.669050081060448 0 0 0 0 -53.258365011497517 -28.479182608969978 0 -28.479182608969978 -10.101057116157278 0 0 0 0 -34.206994747950375 -9.9107628414557496 0 -9.9107628414557496 -6.7804744681649254 0 0 0 0 -51.210813543440963 -22.601203264501692 0 -22.601203264501692 -8.8055619088870714 0 0 0 0 0.015235294072400762 -0.024089317843813518 0 -0.024089317843813518 -1.4033605857299511 0 0 0 0 -29.852640481181879 -8.8232063281595359 0 -8.8232063281595359 -11.35635306276896 0 0 0 0 -26.299516896378009 -14.159770083176525 0 -14.159770083176525 -9.3398238402512561 0 0 0 0 10.41277345819617 2.7853755394520086 0 2.7853755394520086 -12.577258582438816 0 0 0 0 11.542140803503571 3.8321110897651067 0 3.8321110897651067 -11.645759816100352 0 0 0 0 -25.50783914440035 -14.5291793055992 0 -14.5291793055992 -9.1738765202560444 0 0 0 0 -0.072089636002028001 0.49818710348707995 0 0.49818710348707995 -4.0951091759942617 0 0 0 0 -4.1942316919576115 -4.7614611432383072 0 -4.7614611432383072 -15.660156428720938 0 0 0 0 2.6026554827908512 -3.741852349902107 0 -3.741852349902107 -7.2379444354141924 0 0 0 0 0.1587631891420429 0.53417433154805494 0 0.53417433154805494 -7.0399901722500307 0 0 0 0 10.890934037248371 -0.35408060179489098 0 -0.35408060179489098 -6.2366799794448298 0 0 0 0 13.069764640908488 -3.9845577533059782 0 -3.9845577533059782 -8.3818134011178245 0 0 0 0 11.148076143800608 -2.541929206243811 0 -2.541929206243811 -9.1555281845240302 0 0 0 0 0.0029643881376628656 -0.08234192260020734 0 -0.08234192260020734 0.17434006512303801 0 0 0 0 -9.6489251486236753 -14.692858806849415 0 -14.692858806849415 -11.261659658137624 0 0 0 0 -8.716630128756151 -4.7603784940009604 0 -4.7603784940009604 -6.6748104952971872 0 0 0 0 -15.051267989867483 -15.699259711154305 0 -15.699259711154305 -3.0807979874872302 0 0 0 0 0.11133120344010194 -0.24993435061507441 0 -0.24993435061507441 0.34182497560765512 0 0 0 0 24.817958278508286 -15.146650752230876 0 -15.146650752230876 -16.024872688932788 0 0 0 0 -29.907549710781154 -15.448840348884966 0 -15.448840348884966 20.655973515075921 0 0 0 0 29.043265751330182 -36.009761689431116 0 -36.009761689431116 24.293093953627675 0 0 0 0 -5.6170838859452488 -2.3637810407287274 0 -2.3637810407287274 -4.9326979956246548 0 0 0 0 -1.2153029379976488 -20.422304259607351 0 -20.422304259607351 21.964580012056999 0 0 0 0 -2.8368206091445245 -7.0385828787207636 0 -7.0385828787207636 -0.15042736481819929 0 0 0 0 16.12784504089359 -20.640302607323992 0 -20.640302607323992 -3.4019993628820977 0 0 0 0 -29.128410245479586 -25.232927787003963 0 -25.232927787003963 17.464311982260618 0 0 0 0 0.011262353503838085 -0.13490137805843361 0 -0.13490137805843361 0.25315329083551041 0 0 0 0 12.100122530911904 -12.480356696423954 0 -12.480356696423954 -9.1829128999015914 0 0 0 0 11.971729663277074 -13.010308741318656 0 -13.010308741318656 3.392506506930566 0 0 0 0 20.470587557110775 -3.7988588612614329 0 -3.7988588612614329 7.988527935872952 0 0 0 0 -10.256770271365895 -6.3397509008871111 0 -6.3397509008871111 1.9362508726083547 0 0 0 0 -8.3810690785940096 -6.7101620897238945 0 -6.7101620897238945 4.218363958329661 0 0 0 0 4.6919339702835714 -4.3141389130629335 0 -4.3141389130629335 -4.0102792703357011 0 0 0 0 11.055299258392552 -15.370550783504328 0 -15.370550783504328 4.5687901433260265 0 0 0 0 3.1291629099105194 1.9548840447703526 0 1.9548840447703526 5.9753496119468306 0 0 0 0 12.710130899014075 -11.113770973346831 0 -11.113770973346831 -9.2581621310121136 0 0 0 0 -7.7673251394627698 -6.549900346886707 0 -6.549900346886707 -1.0211972215122342 0 0 0 0 -10.010104421235155 -7.7585000422077428 0 -7.7585000422077428 5.3835355469809656 0 0 0 0 -2.378147075736706 -6.085062341935668 0 -6.085062341935668 -9.3403295428581714 0 0 0 0 -14.180232459340914 -18.933398712708708 0 -18.933398712708708 -16.0856218013123 0 0 0 0 2.1394341866234754 -3.3100076394430715 0 -3.3100076394430715 -6.9518049432208215 0 0 0 0 -7.2602769932582305 -4.6481057140894677 0 -4.6481057140894677 -7.1203953537592213 0 0 0 0 -4.2100516642240109 -3.4866371389182405 0 -3.4866371389182405 -5.9763337426732974 0 0 0 0 -15.770108512910156 -7.4996865197968248 0 -7.4996865197968248 -4.898261395852785 0 0 0 0 -15.195883405089262 -12.877354397706938 0 -12.877354397706938 -6.9620042804986042 0 0 0 0 -2.899996580696488 -5.1216119499492461 0 -5.1216119499492461 -1.6644313308748395 0 0 0 0 -9.5831558143399889 -9.9669035149902356 0 -9.9669035149902356 -13.5361134868443 0 0 0 0 -4.3599353358590633 -16.531038504236449 0 -16.531038504236449 34.780679619559805 0 0 0 0 -5.4907677032380562 -5.5856388072949539 0 -5.5856388072949539 -1.9473831247114022 0 0 0 0 -6.0558286641244194 -15.928082053611888 0 -15.928082053611888 23.167570096603754 0 0 0 0 -4.6080043309702887 -2.6967666947168283 0 -2.6967666947168283 -7.3761426203026872 0 0 0 0 -0.14044576643937035 -17.778848242161985 0 -17.778848242161985 11.035145166019902 0 0 0 0 4.7927532688881911 -38.187421733791325 0 -38.187421733791325 25.893601371631121 0 0 0 0 -0.70020045078126714 -16.846069184103499 0 -16.846069184103499 33.641694350772696 0 0 0 0 -9.8803593734519382 -21.344704623049893 0 -21.344704623049893 31.728947495638749 0 0 0 0 -14.333325897327995 -20.101248961776264 0 -20.101248961776264 38.358175881938678 0 0 0 0 -10.854385383205226 -22.32541945668504 0 -22.32541945668504 33.691581900928668 0 0 0 0 -13.589363046823564 -30.063963601800879 0 -30.063963601800879 47.077152646943887 0 0 0 0 5.9358819809858687 -41.285874779701771 0 -41.285874779701771 49.563156821762277 0 0 0 0 -0.072539089458587114 -50.014383455426014 0 -50.014383455426014 48.566114275672589 0 0 0 0 18.375939515412028 -25.613757772210192 0 -25.613757772210192 65.465893572168852 0 0 0 0 36.455886941179415 -81.148219668567322 0 -81.148219668567322 75.022962680508499 0 0 0 0 -21.879076890805663 -19.486389317367639 0 -19.486389317367639 48.993527560418443 0 0 0 0 50.441988725258852 -51.082037733327525 0 -51.082037733327525 25.075215438566374 0 0 0 0 0.30830833339748764 -0.73073691194390733 0 -0.73073691194390733 2.8562358426991157 0 0 0 0 5.1803859261999605 7.3788791418364781 0 7.3788791418364781 -7.609201632147915 0 0 0 0 -12.360025574242172 -2.442771825446016 0 -2.442771825446016 67.132835727126803 0 0 0 0 -0.81380420533088227 -1.2662360053120416 0 -1.2662360053120416 -0.1572815938800991 0 0 0 0 -15.353740665434998 -22.256988629822672 0 -22.256988629822672 -2.2901110841398804 0 0 0 0 -22.549290317188934 -3.1489434853062903 0 -3.1489434853062903 6.9724818848508221 0 0 0 0 0.33665692926789603 -4.8258904672388674 0 -4.8258904672388674 5.7639709573462596 0 0 0 0 -0.6035617268862552 1.9034357949219611 0 1.9034357949219611 -7.3509657436629823 0 0 0 0 5.7424992612991446 -37.500195533873381 0 -37.500195533873381 -34.993737859445901 0 0 0 0 0.54592607634447177 0.31544088494768641 0 0.31544088494768641 -0.35386813709953646 0 0 0 0 0.35632343281758949 -49.821900509457009 0 -49.821900509457009 10.124299852623153 0 0 0 0 -2.4724569755029862 -7.0060328559100373 0 -7.0060328559100373 0.67631121688137075 0 0 0 0 -82.677379085691427 -82.852640801897905 0 -82.852640801897905 180.63431389775178 0 0 0 0 13.568564518496714 0.44037749688777694 0 0.44037749688777694 -12.162242149206122 0 0 0 0 -12.581849659050931 4.0146404204206192 0 4.0146404204206192 38.835890280804961 0 0 0 0 -17.662733982026111 -32.09762378034975 0 -32.09762378034975 -19.236729169355385 0 0 0 0 -14.296199545977288 -12.360709097879408 0 -12.360709097879408 68.281451743776415 0 0 0 0 -12.390175408683717 13.314624889882907 0 13.314624889882907 97.288246107325904 0 0 0 0 17.835303142721386 36.466733816794658 0 36.466733816794658 88.25521606175289 0 0 0 0 -1.0834337123160367 -0.93596466099825193 0 -0.93596466099825193 61.365746276750542 0 0 0 0 14.213104869082599 14.86780624191988 0 14.86780624191988 73.723230099889633 0 0 0 0 -37.583067753932482 61.763041217133832 0 61.763041217133832 195.00879769414678 0 0 0 0 6.2359949354504352 -66.75167262762443 0 -66.75167262762443 -48.185843997159282 0 0 0 0 0.40305703016632322 -1.0988637100046335 0 -1.0988637100046335 1.3321114679466124 0 0 0 0 -29.440216017871066 -50.414574465531452 0 -50.414574465531452 51.577927886160978 0 0 0 0 5.8191023547296936 -67.748629045865528 0 -67.748629045865528 -0.77874634598265402 0 0 0 0 -1.0542312700789958 -2.3946920461393724 0 -2.3946920461393724 1.7794965514943328 0 0 0 0 -7.4137399009359797 -13.080883311379694 0 -13.080883311379694 -3.8388504715517229 0 0 0 0 -22.061631214743528 -22.818005304666702 0 -22.818005304666702 1.1965892804337273 0 0 0 0 -18.292581809693729 -22.127309804401875 0 -22.127309804401875 2.5601083445354789 0 0 0 0 -9.4323932732622779 -14.373994728229263 0 -14.373994728229263 3.7517176483886487 0 0 0 0 -6.2558416827770031 -10.870964856185235 0 -10.870964856185235 -3.6140223111297947 0 0 0 0 -3.6760297998662281 -7.2153336780702375 0 -7.2153336780702375 7.2284043003884335 0 0 0 0 98.314726094431535 51.991317216644347 0 51.991317216644347 -44.128056443271817 0 0 0 0 -0.068748804131359975 -6.7118184834736097 0 -6.7118184834736097 -3.0666828554529513 0 0 0 0 -0.45591684315149905 -8.9306636201724814 0 -8.9306636201724814 -1.1400380577024407 0 0 0 0 1.2676309248436155 -8.1515813698204056 0 -8.1515813698204056 -7.512726094734262 0 0 0 0 9.0241017387588727 -9.7379644731136068 0 -9.7379644731136068 -14.968205345069919 0 0 0 0 0.12050804168336049 -5.6864656771186866 0 -5.6864656771186866 -3.6735904356017501 0 0 0 0 -4.258642181801406 -14.111331222729518 0 -14.111331222729518 -0.28596780331713489 0 0 0 0 3.4023544281044451 -4.1213869200479394 0 -4.1213869200479394 -18.937953080979696 0 0 0 0 5.5156691499781516 -8.2071484681285209 0 -8.2071484681285209 -5.7263558534207633 0 0 0 0 5.6485622762247019 -6.0263575463624717 0 -6.0263575463624717 1.3663101579925176 0 0 0 0 -24.51057179273306 -29.882553293424387 0 -29.882553293424387 -17.252023664371904 0 0 0 0 0.67219174096435375 -2.3277917277745814 0 -2.3277917277745814 -0.077081081786720462 0 0 0 0 -1.3316479489076585 -4.3346372823132295 0 -4.3346372823132295 3.7973076900060025 0 0 0 0 -0.95642818948726926 -20.039954750677083 0 -20.039954750677083 -16.824594710470073 0 0 0 0 -1.7572615335302544 -12.480710041159639 0 -12.480710041159639 -12.322667385798631 0 0 0 0 10.573848498832376 2.9441501562957573 0 2.9441501562957573 -5.5026156723956827 0 0 0 0 0.19272207558815424 -0.23976501630354363 0 -0.23976501630354363 0.95423485565079713 0 0 0 0 10.837439114009612 -6.158967489777555 0 -6.158967489777555 -8.647164163453315 0 0 0 0 -4.60622808502103 1.6922699443365481 0 1.6922699443365481 1.1856278918519081 0 0 0 0 -11.588355960902845 -8.0063571021883746 0 -8.0063571021883746 -5.2851998454565887 0 0 0 0 1.4227009123533207 -10.645981634427841 0 -10.645981634427841 -8.3088736649814265 0 0 0 0 -1.5585343878818563 -4.9058624851440111 0 -4.9058624851440111 1.9791928548068125 0 0 0 0 -2.3619647399609818 -11.624434065566945 0 -11.624434065566945 0.029493653387362428 0 0 0 0 1.2129282598871214 -11.751934070212748 0 -11.751934070212748 -22.168540180559518 0 0 0 0 -2.480353053437284 -2.3303471941285352 0 -2.3303471941285352 -0.32817812605162544 0 0 0 0 -8.6643049848644296 -8.5870702156808889 0 -8.5870702156808889 -11.73741374925941 0 0 0 0 -4.4471615218899387 -14.128775674487585 0 -14.128775674487585 -10.764977270176217 0 0 0 0 -1.1880127038483685 -3.0159039688711857 0 -3.0159039688711857 -0.88839450712261581 0 0 0 0 -14.094370469442651 -25.311383205030339 0 -25.311383205030339 -20.345939015587305 0 0 0 0 -1.3236014417998376 -6.0107977308771297 0 -6.0107977308771297 -4.8474240595205629 0 0 0 0 -2.6502001422428876 -9.1751457655925783 0 -9.1751457655925783 1.3759543091119157 0 0 0 0 -1.7733804715440442 -9.8775044671445791 0 -9.8775044671445791 -8.183703340398182 0 0 0 0 -4.2792120107560763 -9.3428785241925745 0 -9.3428785241925745 7.152007524010088 0 0 0 0 -5.4426891793395953 -21.19250927902376 0 -21.19250927902376 -30.223651733025235 0 0 0 0 -7.9767115422146162 -10.96993942344352 0 -10.96993942344352 -8.2821265194847342 0 0 0 0 -57.476512983573684 -44.944037011668691 0 -44.944037011668691 15.723825672090186 0 0 0 0 -32.428673236689065 7.5679797815554366 0 7.5679797815554366 -13.965207685431807 0 0 0 0 -8.2917684451476816 -25.698238078265462 0 -25.698238078265462 24.449419013123361 0 0 0 0 -97.629061847186676 -17.984860602301538 0 -17.984860602301538 0.091760213812418279 0 0 0 0 66.23950583063197 -28.035237652584222 0 -28.035237652584222 -1.4134935704156106 0 0 0 0 -0.035232463188711982 -0.046670366787381568 0 -0.046670366787381568 0.22553395437534646 0 0 0 0 41.719420687531965 4.0762418494204438 0 4.0762418494204438 -2.4616161364935989 0 0 0 0 0.034614533288799265 -0.13055672462771639 0 -0.13055672462771639 0.24376127598569594 0 0 0 0 -41.649590361336777 -4.2144660594704035 0 -4.2144660594704035 -11.582305555100739 0 0 0 0 -45.517512911807444 -10.886687123328032 0 -10.886687123328032 16.362424872241945 0 0 0 0 0.094847654780420676 -0.057679591111735817 0 -0.057679591111735817 0.66483583027806126 0 0 0 0 -54.183875824473944 -7.8295479675613251 0 -7.8295479675613251 17.247196239812865 0 0 0 0 30.396928986852799 -15.551603260614861 0 -15.551603260614861 -2.3239642074894817 0 0 0 0 -15.054111857120006 -15.692109862562518 0 -15.692109862562518 2.1219260706227203 0 0 0 0 -34.194577193835357 -8.2691983745954758 0 -8.2691983745954758 1.2068738162934949 0 0 0 0 2.3017633223389566 -30.973462441748964 0 -30.973462441748964 5.3316621541040234 0 0 0 0 -7.4094891448381013 -6.204733437967084 0 -6.204733437967084 -4.2997173350809614 0 0 0 0 -2.8362395034469046 -11.391461545538334 0 -11.391461545538334 2.0224193130873118 0 0 0 0 4.6354507122941868 -13.52030293798942 0 -13.52030293798942 5.4696523898528078 0 0 0 0 -2.2958638402976819 -1.0858583275102447 0 -1.0858583275102447 1.271493638311225 0 0 0 0 -2.2586256078211591 -6.1224675032697178 0 -6.1224675032697178 7.7663907703699806 0 0 0 0 -3.5713182657255516 -6.636265516219547 0 -6.636265516219547 -4.5732883901547439 0 0 0 0 -6.0431419501865591 -5.8983218408476423 0 -5.8983218408476423 -3.9190735717224818 0 0 0 0 -2.3212008356133538 -9.0923653018190578 0 -9.0923653018190578 -0.54933261597943783 0 0 0 0 -4.7385430239482957 -9.7071906580631548 0 -9.7071906580631548 1.5836105797311575 0 0 0 0 -1.7945715973219194 -13.788336153930572 0 -13.788336153930572 0.67386601078786157 0 0 0 0 -2.303894520573067 -7.5251116104989819 0 -7.5251116104989819 -5.5375689476597927 0 0 0 0 -3.1812828750952349 -8.0451578675724704 0 -8.0451578675724704 1.898893263427226 0 0 0 0 -7.5080584552414003 -5.3981346083928052 0 -5.3981346083928052 -4.1022183148456186 0 0 0 0 18.953368817947194 -3.184904062165117 0 -3.184904062165117 21.065928134529941 0 0 0 0 19.852434762804478 -26.017576808714644 0 -26.017576808714644 6.8122537245713461 0 0 0 0 -3.1256804341028328 -14.737261761335864 0 -14.737261761335864 5.1858209029401081 0 0 0 0 2.9152584170678892 -21.888242917361453 0 -21.888242917361453 3.0804081947838746 0 0 0 0 5.3346502753884124 -5.6707271058469928 0 -5.6707271058469928 0.94645350978662757 0 0 0 0 12.880236721568508 -12.872026435188772 0 -12.872026435188772 -17.282204457887545 0 0 0 0 -5.5907986916006394 -22.969109695494204 0 -22.969109695494204 -1.5889863960131265 0 0 0 0 -6.1766508298611562 -5.8086043377863845 0 -5.8086043377863845 -2.9857318221094977 0 0 0 0 -2.7918661494798584 -20.154634090759505 0 -20.154634090759505 -0.1214861041153199 0 0 0 0 -6.995507258856378 -11.76166362863262 0 -11.76166362863262 -7.2073423424924545 0 0 0 0 -3.1768596572690839 -5.8183466824242558 0 -5.8183466824242558 0.35321214170119397 0 0 0 0 -1.2142639016965404 -11.060183766384171 0 -11.060183766384171 2.9120640844131458 0 0 0 0 -1.4600078779603791 -9.2476552409599435 0 -9.2476552409599435 1.9925153685337591 0 0 0 0 -0.28646469699194199 -8.4438357554463987 0 -8.4438357554463987 -2.6360655597667164 0 0 0 0 9.7523536591797892 -8.8307887856381058 0 -8.8307887856381058 -5.7473581343326714 0 0 0 0 -2.0921656647744307 -2.1731810323980376 0 -2.1731810323980376 0.50892209956162526 0 0 0 0 1.7495741961447493 -14.332878200853884 0 -14.332878200853884 5.52499669685551 0 0 0 0 9.7184659670349447 -16.616513906462473 0 -16.616513906462473 7.0540157759214708 0 0 0 0 8.1320201219596129 -10.615017754258815 0 -10.615017754258815 2.612862983596699 0 0 0 0 -2.7212728829731532 -7.8670964829940999 0 -7.8670964829940999 6.926967589722608 0 0 0 0 5.7577169161013444 -10.749926348315057 0 -10.749926348315057 5.4353096590457426 0 0 0 0 -7.5909744113050692 -11.453237653046358 0 -11.453237653046358 -0.56131661502172392 0 0 0 0 -4.1176928235436865 -7.4398165025293572 0 -7.4398165025293572 2.3843934471288959 0 0 0 0 6.1711121628277397 -16.311649093296296 0 -16.311649093296296 13.336600222757397 0 0 0 0 5.2886319506568817 -8.4209275672919528 0 -8.4209275672919528 -7.6782690385260652 0 0 0 0 -46.553072393144248 -11.498706716391098 0 -11.498706716391098 28.713828900629778 0 0 0 0 56.057526371758172 -24.277158616781605 0 -24.277158616781605 -25.862533251289278 0 0 0 0 -43.783292859716312 -52.567996112670698 0 -52.567996112670698 148.90418171078636 0 0 0 0 15.026056434868224 -14.423357009907704 0 -14.423357009907704 -17.705335845481386 0 0 0 0 56.900031321813003 -44.639210255138096 0 -44.639210255138096 3.7064032583475637 0 0 0 0 -24.901690401620726 0.48015047580952341 0 0.48015047580952341 26.773170795888291 0 0 0 0 9.1519502809060214 -25.553142774622756 0 -25.553142774622756 5.175511201898189 0 0 0 0 -33.011537748894625 12.543745479789322 0 12.543745479789322 -27.540423890779493 0 0 0 0 10.385777106098431 -24.748590028798844 0 -24.748590028798844 -50.112537872906614 0 0 0 0 47.360895148711279 -9.5529628901067554 0 -9.5529628901067554 -24.925776257992766 0 0 0 0 7.0093031878350303 -16.051919807636295 0 -16.051919807636295 -13.784833937902476 0 0 0 0 54.129899718987872 13.486801937829114 0 13.486801937829114 1.8648033949957608 0 0 0 0 -4.6428310432374928 -33.597844111363429 0 -33.597844111363429 22.510217829078101 0 0 0 0 -49.994280056838761 -54.639886228563455 0 -54.639886228563455 -6.1947870111853263 0 0 0 0 -0.15103199443175086 -0.31900962601619298 0 -0.31900962601619298 -0.59385316728936388 0 0 0 0 -0.74481443815093051 -3.8494111428863746 0 -3.8494111428863746 -3.9559437831468038 0 0 0 0 69.960663044375906 -33.614146069808612 0 -33.614146069808612 -22.230531715931647 0 0 0 0 -72.071760521397664 -3.253216023922505 0 -3.253216023922505 27.602162176033971 0 0 0 0 0.70766341616887374 -1.9861601730064251 0 -1.9861601730064251 0.18805872559489956 0 0 0 0 -16.097306477280654 -3.5227162327537371 0 -3.5227162327537371 6.7947027329901175 0 0 0 0 -15.136995517306786 -17.548907580259765 0 -17.548907580259765 -8.0364374261316698 0 0 0 0 -0.53366191730310675 -5.4488158413296333 0 -5.4488158413296333 -2.6108830280736584 0 0 0 0 -0.96677125712193046 -1.2189876134021098 0 -1.2189876134021098 -0.99233208644080406 0 0 0 0 -31.351888850840623 -15.240801347095385 0 -15.240801347095385 8.4696612218540395 0 0 0 0 5.3573098243283539 -3.7030450258365022 0 -3.7030450258365022 -9.936433536646291 0 0 0 0 42.507600068762258 -34.066650199787546 0 -34.066650199787546 -2.5662509446883632 0 0 0 0 75.982080009767742 -19.019177839957592 0 -19.019177839957592 -29.42385576201923 0 0 0 0 51.861030528660194 -16.505043611179644 0 -16.505043611179644 -29.664670512886914 0 0 0 0 53.568879379897226 -22.619388522475447 0 -22.619388522475447 -26.480627429475135 0 0 0 0 51.748152304393443 -16.084911407102936 0 -16.084911407102936 -28.802688256822876 0 0 0 0 -3.7876523619815998 1.8712740517185011 0 1.8712740517185011 -17.905712440860952 0 0 0 0 22.886082402808825 -7.0569502987327724 0 -7.0569502987327724 -31.221789850720143 0 0 0 0 7.9894248979835538 -14.785610517137684 0 -14.785610517137684 -13.121542510329164 0 0 0 0 4.2638351142138937 -7.5194447321508777 0 -7.5194447321508777 -6.9207542084850839 0 0 0 0 15.74212898820042 -11.671931453229263 0 -11.671931453229263 8.1797254034242997 0 0 0 0 -2.0161580158528523 -5.8570924418991126 0 -5.8570924418991126 32.631597560993214 0 0 0 0 0.57376968461749556 -0.38329107465396106 0 -0.38329107465396106 0.33895036677122192 0 0 0 0 45.967407856322097 -16.356283207975139 0 -16.356283207975139 -29.85508391384792 0 0 0 0 108.13710814119622 -73.207114471668774 0 -73.207114471668774 21.261128261434351 0 0 0 0 4.0830017016360216 -18.124234914300359 0 -18.124234914300359 17.637687227863296 0 0 0 0 1.7666348739476234 -4.2738482345675948 0 -4.2738482345675948 -2.3165970021480007 0 0 0 0 -2.6326510596891239 -0.32801155046627173 0 -0.32801155046627173 16.057810862445876 0 0 0 0 -0.41133052123404923 -2.3905759029448745 0 -2.3905759029448745 0.57707534129349369 0 0 0 0 4.3581338143521862 -18.703979343751826 0 -18.703979343751826 13.721940523653075 0 0 0 0 -0.21178165456876741 -11.288969252288553 0 -11.288969252288553 6.912231024493849 0 0 0 0 4.590017103228206 -8.7344902705238265 0 -8.7344902705238265 -7.7593828275789871 0 0 0 0 8.6424401166374309 -15.088211387444574 0 -15.088211387444574 6.722117332074049 0 0 0 0 8.8209551067284337 -16.795600008985616 0 -16.795600008985616 10.562125152165663 0 0 0 0 6.5545588578861498 -17.416898826742226 0 -17.416898826742226 14.639663401838447 0 0 0 0 6.7789228971469129 -12.208390904193266 0 -12.208390904193266 9.1683147061482941 0 0 0 0 7.9959492185789713 -13.501984784178319 0 -13.501984784178319 5.8075994068767613 0 0 0 0 6.9827107960745707 -11.962290129429277 0 -11.962290129429277 3.9631637013289946 0 0 0 0 6.2303084444047272 -9.8998462517829466 0 -9.8998462517829466 4.1263478829233691 0 0 0 0 9.148722499869109 -12.661463394914335 0 -12.661463394914335 -1.7142024539232352 0 0 0 0 3.5211903394374531 -10.567256708419563 0 -10.567256708419563 19.420707673258676 0 0 0 0 2.8966481401039346 -11.989426863601011 0 -11.989426863601011 7.0878712324470143 0 0 0 0 0.75687452396232402 -14.57303847425942 0 -14.57303847425942 15.563275498034727 0 0 0 0 1.1952597642357432 -11.822021875580731 0 -11.822021875580731 9.9419718207184076 0 0 0 0 2.5582682516469504 -11.177586958486017 0 -11.177586958486017 0.28429885622927031 0 0 0 0 2.6236445425220154 -7.4685830054404505 0 -7.4685830054404505 0.55463779730462193 0 0 0 0 0.67409209641300549 -15.114424232788451 0 -15.114424232788451 -0.80048515669932385 0 0 0 0 -0.18813795056303206 -9.2219171824453952 0 -9.2219171824453952 6.7362530501610536 0 0 0 0 -6.6603202284368308 -8.8163818561711196 0 -8.8163818561711196 -0.13316988858741752 0 0 0 0 -5.8285191440154449 -17.037657630691228 0 -17.037657630691228 -1.0319250858634632 0 0 0 0 1.2083653237896215 -6.8975015892772262 0 -6.8975015892772262 -5.998638476074575 0 0 0 0 -0.94591455252157175 -12.116222043610833 0 -12.116222043610833 -7.7322975483643859 0 0 0 0 -25.948222957331382 -40.598208119876517 0 -40.598208119876517 -21.744766507942359 0 0 0 0 -18.516285619493829 -16.607998036129402 0 -16.607998036129402 15.15038719089614 0 0 0 0 -8.7216707009656602 -16.583932424096247 0 -16.583932424096247 4.4424772446282077 0 0 0 0 -16.284840115071347 -8.6711198828074885 0 -8.6711198828074885 14.224117231633954 0 0 0 0 -0.42378918267453614 -0.31002999871497483 0 -0.31002999871497483 -0.27728077509009719 0 0 0 0 14.575576864184768 -5.0342927613139636 0 -5.0342927613139636 -6.8564565769900128 0 0 0 0 1.3706695332263905 -1.4972356556850617 0 -1.4972356556850617 -3.1303446215893986 0 0 0 0 14.071270958194276 -14.347209596713704 0 -14.347209596713704 -3.2904259536517202 0 0 0 0 1.8010827470207005 -7.3075182407274042 0 -7.3075182407274042 -4.2135040089092399 0 0 0 0 8.5070952540063445 -6.0478512406464233 0 -6.0478512406464233 -4.6953652605457137 0 0 0 0 2.9783196815078554 -9.8637054474816068 0 -9.8637054474816068 -1.1578536538936532 0 0 0 0 10.206732686205214 -9.1958368573206712 0 -9.1958368573206712 -2.9800821212647861 0 0 0 0 1.5985417827196216 -8.1034003253142259 0 -8.1034003253142259 -0.41740638769414318 0 0 0 0 -2.637601753946587 -5.1542597539110915 0 -5.1542597539110915 -2.6269513045914388 0 0 0 0 2.6583607918655616 -7.5960098753098464 0 -7.5960098753098464 -2.6594727595529548 0 0 0 0 7.5456812605088999 -11.034504533211702 0 -11.034504533211702 -3.7280546768058684 0 0 0 0 -0.60199511865125999 -6.6939678163594607 0 -6.6939678163594607 -5.9829052536245628 0 0 0 0 2.5809422197035019 -18.607457128551687 0 -18.607457128551687 -5.0171744540728014 0 0 0 0 -0.24455781806136656 -8.3494493512879444 0 -8.3494493512879444 2.2494835711727319 0 0 0 0 -2.3580612103951353 -25.223934263167592 0 -25.223934263167592 -20.839576498000724 0 0 0 0 -16.026653064440325 -6.8028652378548031 0 -6.8028652378548031 -4.7619352279541545 0 0 0 0 28.643473558227925 3.9649659484382482 0 3.9649659484382482 -22.491438280846069 0 0 0 0 -4.0153739811521394 -6.8284492442062259 0 -6.8284492442062259 -9.4226909482622325 0 0 0 0 8.7408729571707227 -20.420511012991597 0 -20.420511012991597 -8.6824044965983376 0 0 0 0 4.8637549654795293 -14.973258507818514 0 -14.973258507818514 -7.1665003104730545 0 0 0 0 6.6528390781186317 -10.289473394343872 0 -10.289473394343872 -6.7267554029248799 0 0 0 0 14.804323928085068 -9.5486182935658803 0 -9.5486182935658803 -11.682636972888986 0 0 0 0 5.7313065197249884 -7.0001508707598834 0 -7.0001508707598834 -4.7122831924144659 0 0 0 0 -1.4830497912424789 -2.9435509012450538 0 -2.9435509012450538 3.0041798408761768 0 0 0 0 1.9759493810342974 -2.3041506189870233 0 -2.3041506189870233 -19.990721774738486 0 0 0 0 -4.4703848127286392 -7.7652837582193719 0 -7.7652837582193719 -5.0116889109056082 0 0 0 0 5.4641345415211617 -25.068062475092347 0 -25.068062475092347 -1.3533181897391842 0 0 0 0 -8.0844718557291344 -18.304336697443887 0 -18.304336697443887 4.4695284570502736 0 0 0 0 6.3213397650233674 -11.915978695543799 0 -11.915978695543799 -2.2856978162144514 0 0 0 0 10.676030750304562 -12.196610620244655 0 -12.196610620244655 -5.2794365063991791 0 0 0 0 -12.849891032940377 -19.591106655641852 0 -19.591106655641852 7.5680232953350242 0 0 0 0 4.6058167638966552 -9.6453942401958557 0 -9.6453942401958557 -5.2864418834478784 0 0 0 0 -0.94078031210116109 -3.4026890407703938 0 -3.4026890407703938 2.2814942632033777 0 0 0 0 -4.3915057820565799 -12.173906447406504 0 -12.173906447406504 -4.7507898515608602 0 0 0 0 -1.2239964565578703 -11.401940402669652 0 -11.401940402669652 -2.3369203391255269 0 0 0 0 -52.428508005439653 -46.708449565931005 0 -46.708449565931005 25.667874395057481 0 0 0 0 6.3432767259100729 8.4836077635125093 0 8.4836077635125093 -30.300459525391489 0 0 0 0 -7.0552385753344424 -48.276780072765519 0 -48.276780072765519 -49.050407084870585 0 0 0 0 31.393395728717223 -8.0112786117481392 0 -8.0112786117481392 -62.958883674008575 0 0 0 0 -3.0878865651739034 29.916382889277429 0 29.916382889277429 -57.748813290372254 0 0 0 0 -2.8815925674109639 -8.8412563516629046 0 -8.8412563516629046 -8.8092934079624214 0 0 0 0 48.823969707151264 -36.680458684142195 0 -36.680458684142195 -43.771568645794559 0 0 0 0 -5.2099215995685881 -13.786638457189781 0 -13.786638457189781 -3.5680179680093715 0 0 0 0 -6.4700377435274277 -12.785115146023259 0 -12.785115146023259 -1.5984031830038248 0 0 0 0 -5.7122351052797793 -6.9408063229530441 0 -6.9408063229530441 -7.2897124105288302 0 0 0 0 -4.5997256156288131 -12.740132648734516 0 -12.740132648734516 -2.0678846812220399 0 0 0 0 -5.7591470966672205 -11.976289582059962 0 -11.976289582059962 -1.7239655901287279 0 0 0 0 -1.862708140853556 -12.928302440072457 0 -12.928302440072457 -2.26700320693908 0 0 0 0 -6.1893061917990053 -12.904542446244477 0 -12.904542446244477 -1.5808928072460731 0 0 0 0 4.7662788627549162 -17.463794220342606 0 -17.463794220342606 -9.5019441496908712 0 0 0 0 20.930066109292056 -29.067339545557161 0 -29.067339545557161 -5.0562453531310894 0 0 0 0 4.5417906019383736 -16.13586302021281 0 -16.13586302021281 -1.9125682140053186 0 0 0 0 -4.0820449472090878 -6.0938164091016596 0 -6.0938164091016596 -7.7521007932902339 0 0 0 0 18.85459418703249 -23.037213383349354 0 -23.037213383349354 0.31908258655312238 0 0 0 0 -13.878169121963538 -33.597998669309447 0 -33.597998669309447 20.18418439150355 0 0 0 0 14.394059544341872 -16.994513304313841 0 -16.994513304313841 22.253590969649508 0 0 0 0 1.6419803139215219 -40.515214151095734 0 -40.515214151095734 -18.834558790069423 0 0 0 0 32.325406067687027 -70.419156461034731 0 -70.419156461034731 35.712372066681837 0 0 0 0 1.7348000285185492 -0.75009758725232345 0 -0.75009758725232345 -1.6214912323842263 0 0 0 0 20.477234626021527 0.64139705436878103 0 0.64139705436878103 -29.628537505533131 0 0 0 0 5.5798362502337113 -12.762821006665263 0 -12.762821006665263 29.759611255150048 0 0 0 0 56.831230043315372 -18.253910363839623 0 -18.253910363839623 -4.13988518173187 0 0 0 0 -18.529476704794433 0.61825412359075926 0 0.61825412359075926 -8.2148492500573411 0 0 0 0 10.390475662656172 -35.972879395918881 0 -35.972879395918881 -20.561380371197629 0 0 0 0 -59.295304442130146 -38.348756172439153 0 -38.348756172439153 87.221968505563382 0 0 0 0 -2.3744213921106692 -2.4575058535392031 0 -2.4575058535392031 -1.8330488598681454 0 0 0 0 14.194838239503952 17.3594827054701 0 17.3594827054701 -60.850454851841278 0 0 0 0 -22.443642970483779 -0.45056082724931912 0 -0.45056082724931912 11.185700274839292 0 0 0 0 4.4709853036947607 -55.694956449315214 0 -55.694956449315214 25.275359700867739 0 0 0 0 37.624007360504038 -9.8744172987412639 0 -9.8744172987412639 -23.634007010686219 0 0 0 0 -0.84296948160756813 0.030887197835276936 0 0.030887197835276936 0.52489919415053699 0 0 0 0 -7.608141610504525 -7.2946491201802797 0 -7.2946491201802797 -6.4410604056903535 0 0 0 0 70.327784425211576 -67.597463642484854 0 -67.597463642484854 0.47562503544304491 0 0 0 0 -26.949158983070447 -12.175025986702394 0 -12.175025986702394 20.066990747208365 0 0 0 0 -3.3944652506352213 -11.859985639809565 0 -11.859985639809565 -5.2141198923405341 0 0 0 0 -3.673405114785055 -11.521023376732842 0 -11.521023376732842 -1.5726843979281284 0 0 0 0 4.9010460607642017 -17.804401508265073 0 -17.804401508265073 14.949463139073487 0 0 0 0 -3.9231461350245809 -26.237767688084659 0 -26.237767688084659 12.691970799075307 0 0 0 0 4.3622163255686246 -25.146001310015663 0 -25.146001310015663 1.423229082245598 0 0 0 0 -23.617188328076736 -26.871300739707294 0 -26.871300739707294 1.3490628052125544 0 0 0 0 2.7175606931642342 -2.2522016782191479 0 -2.2522016782191479 -4.9562560162806886 0 0 0 0 4.3016717170612537 -20.794278504032263 0 -20.794278504032263 38.324691648510225 0 0 0 0 7.0323452825651565 -14.195836399428332 0 -14.195836399428332 9.3195507235293746 0 0 0 0 12.17248474184089 -0.35326871368215507 0 -0.35326871368215507 -21.682303122156554 0 0 0 0 9.945365820582083 -38.86239653249504 0 -38.86239653249504 40.825872071204685 0 0 0 0 -2.706644357837682 -4.8656173598353227 0 -4.8656173598353227 0.48266541338973123 0 0 0 0 -2.5454305891216791 -47.237633511555032 0 -47.237633511555032 35.76782853536497 0 0 0 0 5.3494977310048171 -10.658350084918059 0 -10.658350084918059 3.1122436757045051 0 0 0 0 33.335074033730052 -20.368096467586838 0 -20.368096467586838 -1.8538291943946206 0 0 0 0 1.1743094932543556 0.12955615731720993 0 0.12955615731720993 -2.4483241717499737 0 0 0 0 10.048223254270397 -8.8114436166106316 0 -8.8114436166106316 16.703642623733685 0 0 0 0 6.8250061638829465 -9.2320749474621735 0 -9.2320749474621735 9.345693638040192 0 0 0 0 2.0638737816771027 -12.758878199723767 0 -12.758878199723767 4.9824651554358752 0 0 0 0 7.2772046508725907 -16.538164862728991 0 -16.538164862728991 18.033779744650019 0 0 0 0 7.5024555280706409 -15.742457592875326 0 -15.742457592875326 28.422041047299899 0 0 0 0 3.6715707440508289 -6.3563991470875862 0 -6.3563991470875862 -2.1151408696008343 0 0 0 0 1.3737341698270029 -7.9361611460972199 0 -7.9361611460972199 24.362362940219555 0 0 0 0 5.9403340301378194 -3.469897982805378 0 -3.469897982805378 16.011815379523114 0 0 0 0 10.258399178543186 1.4313456485538154 0 1.4313456485538154 13.297732226272274 0 0 0 0 -2.0333389086536044 -1.5679175060254238 0 -1.5679175060254238 14.237267902595249 0 0 0 0 7.4645264556038455 -4.9069315651481702 0 -4.9069315651481702 15.34606233359591 0 0 0 0 6.031967223772881 -9.0301544610083511 0 -9.0301544610083511 4.1057949045552959 0 0 0 0 5.5486628425469604 -6.9349986384395113 0 -6.9349986384395113 9.0377210491662829 0 0 0 0 -1.9286746030975337 -11.267000186062887 0 -11.267000186062887 7.5041736098428373 0 0 0 0 4.198494153770298 -9.6847792681446663 0 -9.6847792681446663 6.1123786472317079 0 0 0 0 3.1040775966785077 -8.7621615987848145 0 -8.7621615987848145 9.6004352363142971 0 0 0 0 6.8861516345932614 -18.615021588124364 0 -18.615021588124364 -14.015870827598064 0 0 0 0 5.0282536809075751 -8.80599039071015 0 -8.80599039071015 7.9963148210758064 0 0 0 0 13.858300450301613 -27.621576607523366 0 -27.621576607523366 -14.474208567692585 0 0 0 0 4.6274922471525102 -7.6912981537659899 0 -7.6912981537659899 6.4407528413677664 0 0 0 0 1.5656722807839287 -10.359535479971612 0 -10.359535479971612 6.1050298831123655 0 0 0 0 55.147346251756971 5.1713851009708378 0 5.1713851009708378 -7.8502271956340337 0 0 0 0 0.34343808846144697 -1.3161179792889985 0 -1.3161179792889985 1.6763631712845131 0 0 0 0 -14.313732743015862 -14.56033540622775 0 -14.56033540622775 6.4770014572009131 0 0 0 0 -6.7365914757369865 -27.747741575797363 0 -27.747741575797363 11.059115125943208 0 0 0 0 25.653845304264905 -32.856146698436078 0 -32.856146698436078 11.536433082716485 0 0 0 0 -13.446196163351487 -22.638478797426842 0 -22.638478797426842 12.732842968782506 0 0 0 0 17.020129015818384 -9.6076800264991107 0 -9.6076800264991107 17.75698210291921 0 0 0 0 -5.7616219281735539 -1.8036604399708267 0 -1.8036604399708267 21.692815242599863 0 0 0 0 0.41497592837276898 -3.4525786582331648 0 -3.4525786582331648 -4.6560799388917076 0 0 0 0 -0.39484365675798472 -12.675370315353462 0 -12.675370315353462 -3.0121413671104165 0 0 0 0 -5.2099168545100838 -23.944777978822458 0 -23.944777978822458 -23.324214951153408 0 0 0 0 12.256832854334789 -21.535154914493887 0 -21.535154914493887 -21.008397919268646 0 0 0 0 0.12757479062290855 -2.9211763998481182 0 -2.9211763998481182 2.0443734576764001 0 0 0 0 1.7352231828044751 -11.09218944113718 0 -11.09218944113718 -21.590576668078086 0 0 0 0 -28.586571158326478 -21.858924196036014 0 -21.858924196036014 2.0129532326254775 0 0 0 0 -12.50006494533045 -14.072413998076172 0 -14.072413998076172 5.2787393759863335 0 0 0 0 -5.9774533214404073 -19.896606602984889 0 -19.896606602984889 -6.8311813401551262 0 0 0 0 -2.1096426837430045 -12.934649680304574 0 -12.934649680304574 -0.10393853151163057 0 0 0 0 -1.8568307926109497 -6.0617177940081675 0 -6.0617177940081675 8.2386578114086575 0 0 0 0 -5.2079493569690385 -8.2102084056632521 0 -8.2102084056632521 3.2317932184300844 0 0 0 0 -3.5814810512238182 -12.280815473805433 0 -12.280815473805433 4.8720985354520963 0 0 0 0 -2.5223176461992693 -6.1158965392799516 0 -6.1158965392799516 2.3164193912966375 0 0 0 0 9.5902569957434025 -12.785065087769908 0 -12.785065087769908 7.5316650726942953 0 0 0 0 -1.8826140945893712 -14.914355132972105 0 -14.914355132972105 -6.4015905351179754 0 0 0 0 -1.209242295983131 -14.165458070289333 0 -14.165458070289333 -5.9314912836157418 0 0 0 0 0.42110242355192895 -11.991119953627276 0 -11.991119953627276 -7.9242255003064201 0 0 0 0 -3.3213384574737574 -11.644679617150359 0 -11.644679617150359 -7.9562852785318228 0 0 0 0 -4.9692423564047203 -14.087611750331234 0 -14.087611750331234 -6.5151304931409868 0 0 0 0 -1.1341836965146044 -6.3703803305746174 0 -6.3703803305746174 6.3669229219401799 0 0 0 0 -1.5472584212002403 -15.920386577105091 0 -15.920386577105091 -6.9988153975525904 0 0 0 0 -2.9391601010829618 -16.278191801637604 0 -16.278191801637604 -7.0237274206905056 0 0 0 0 -3.2966351949471573 -14.460985580264946 0 -14.460985580264946 -3.6543311091481883 0 0 0 0 2.1750248162807111 -16.599146301839028 0 -16.599146301839028 -4.1860171407438429 0 0 0 0 -2.3484845712810056 -16.246473018021561 0 -16.246473018021561 -1.3590202257064448 0 0 0 0 1.4133193770576327 -14.734933475378512 0 -14.734933475378512 -1.4127164567915571 0 0 0 0 -2.5930050443184882 -12.11699312876658 0 -12.11699312876658 0.6037770151310724 0 0 0 0 -2.2756076383229811 -10.700229673755757 0 -10.700229673755757 6.8589690989078917 0 0 0 0 -6.6716268051131919 -17.297873623982923 0 -17.297873623982923 25.143651635821698 0 0 0 0 -3.0371956500857777 -16.457258945124522 0 -16.457258945124522 15.846400560611528 0 0 0 0 -11.242595997186072 -20.334166474167205 0 -20.334166474167205 14.729638073334172 0 0 0 0 -31.755503700998815 -58.302527979639535 0 -58.302527979639535 11.616809767976974 0 0 0 0 7.9300444541222532 -42.819827089600494 0 -42.819827089600494 -46.264576843984742 0 0 0 0 -20.015572808426441 -30.890375876181452 0 -30.890375876181452 73.438765845241505 0 0 0 0 -0.26965592954621087 -0.66282127909056854 0 -0.66282127909056854 -0.4842796797659954 0 0 0 0 8.8172569911803294 2.4272294846059594 0 2.4272294846059594 -152.3132298236776 0 0 0 0 -8.7052061839767703 -14.250466032614895 0 -14.250466032614895 26.390700104181633 0 0 0 0 9.8788559839176742 -31.187423734747199 0 -31.187423734747199 47.870977981604028 0 0 0 0 6.26444885762794 -1.8422348163985589 0 -1.8422348163985589 43.275740696411958 0 0 0 0 7.9451160206190252 -5.6407596371226418 0 -5.6407596371226418 53.008738045577957 0 0 0 0 -0.74759612901107175 -28.841930996495648 0 -28.841930996495648 75.560499757097432 0 0 0 0 -1.1725962093124878 -1.7023205030937323 0 -1.7023205030937323 -1.0168478206541778 0 0 0 0 25.917005534431155 -35.735374282280418 0 -35.735374282280418 -39.513773299915556 0 0 0 0 13.078660869278792 16.85027519107598 0 16.85027519107598 -98.869672360200639 0 0 0 0 -2.3921841725746162 26.163419259318971 0 26.163419259318971 -28.919025616291037 0 0 0 0 -2.4790826399703292 -40.811073169699853 0 -40.811073169699853 26.018564476444226 0 0 0 0 0.056012862251332451 0.72401107143086918 0 0.72401107143086918 0.65787705060297341 0 0 0 0 -65.562115272537994 -17.05810719296187 0 -17.05810719296187 22.888461395857121 0 0 0 0 -13.326066943644491 -37.179094828574023 0 -37.179094828574023 29.390114639297281 0 0 0 0 -19.454912630304534 -66.894901299390312 0 -66.894901299390312 28.917312702705203 0 0 0 0 100.72354222490712 -54.758772249972729 0 -54.758772249972729 -18.927002760085088 0 0 0 0 -18.024643799943078 -21.323650454603921 0 -21.323650454603921 -24.39523641606138 0 0 0 0 -34.034724902534435 -21.983110457509156 0 -21.983110457509156 -15.746698924614975 0 0 0 0 -33.97726319745496 -25.590270186601547 0 -25.590270186601547 -34.25331539686249 0 0 0 0 2.248693736184606 -2.8795198027547393 0 -2.8795198027547393 2.7134926353221731 0 0 0 0 -40.981195648752873 -9.2014162639650294 0 -9.2014162639650294 -30.01428313728502 0 0 0 0 -8.5326346232322976 -10.718909571670793 0 -10.718909571670793 -44.951701603270976 0 0 0 0 -52.765762418427585 -25.306058925325488 0 -25.306058925325488 -23.371295312965231 0 0 0 0 -3.7236430315706457 -41.663381496390002 0 -41.663381496390002 -1.2937954271610579 0 0 0 0 3.011537443692454 -2.8686811869134967 0 -2.8686811869134967 2.2155750364903302 0 0 0 0 21.623728311937157 -73.440218189328334 0 -73.440218189328334 -3.6710058271009984 0 0 0 0 19.782056557786746 -103.66701242103284 0 -103.66701242103284 -60.731982337648333 0 0 0 0 8.8525588517513825 -50.055915195021953 0 -50.055915195021953 -43.246076287049618 0 0 0 0 13.852017835055449 -40.079463416570889 0 -40.079463416570889 -23.94918239392814 0 0 0 0 -10.598060283944505 -15.365724392753691 0 -15.365724392753691 -30.494733992698912 0 0 0 0 -15.845265019459475 -20.070057424113202 0 -20.070057424113202 -30.754857652676037 0 0 0 0 -97.154495798571588 248.29115899097656 0 248.29115899097656 243.32812521794767 0 0 0 0 515.3555765351266 41.231284881298507 0 41.231284881298507 -150.79607675514399 0 0 0 0 81.941802884706703 -117.16457823599012 0 -117.16457823599012 -106.04412663970709 0 0 0 0 -34.786703531528474 -33.787912294783837 0 -33.787912294783837 144.61297641625742 0 0 0 0 -21.215073591381952 -17.798807191548235 0 -17.798807191548235 44.75010956935148 0 0 0 0 -36.652491867211211 -18.886201529125628 0 -18.886201529125628 67.948389411878907 0 0 0 0 -18.929643588402541 -15.47844214323095 0 -15.47844214323095 37.359530130284838 0 0 0 0 -54.0747332705796 13.44659915235934 0 13.44659915235934 31.393297037114621 0 0 0 0 -33.021484623714059 -17.064255035978931 0 -17.064255035978931 48.311667182639212 0 0 0 0 -27.565042091155192 -2.5107579437267304 0 -2.5107579437267304 32.338446916621251 0 0 0 0 -13.686522689942649 -9.7879574695039082 0 -9.7879574695039082 13.582876738184495 0 0 0 0 -20.141597019071924 4.8793970425076623 0 4.8793970425076623 8.8890719931840749 0 0 0 0 -7.3782465285912622 -4.9461166401038099 0 -4.9461166401038099 -15.15429585987431 0 0 0 0 -12.545188662390501 -13.160818266959041 0 -13.160818266959041 -14.234841929525373 0 0 0 0 -24.597238951744657 30.753720773259829 0 30.753720773259829 -42.538492315137319 0 0 0 0 1.7447689701412017 -1.4324870704465633 0 -1.4324870704465633 1.0590269272861637 0 0 0 0 -8.3450973534636432 -13.205458805332 0 -13.205458805332 -51.658622191052643 0 0 0 0 -80.349435267937224 24.995599482700072 0 24.995599482700072 27.577839931644576 0 0 0 0 -20.013368387020705 1.5585591807967916 0 1.5585591807967916 -4.1120327176231513 0 0 0 0 -172.7759100236708 -97.018988123730878 0 -97.018988123730878 21.74874071825252 0 0 0 0 -255.65577548434339 -47.71053474559676 0 -47.71053474559676 59.097609046988509 0 0 0 0 -0.13294635670603761 -0.41398041254365481 0 -0.41398041254365481 -1.2626690716280571 0 0 0 0 -71.112069905157568 82.388075383964178 0 82.388075383964178 -40.091922893152514 0 0 0 0 -3.2501408313267461 11.328148473342026 0 11.328148473342026 14.768745196777672 0 0 0 0 1.2491648190080014 -70.479165624380357 0 -70.479165624380357 -39.783011055913448 0 0 0 0 -112.41493261785945 11.382942869293174 0 11.382942869293174 -24.48590090247626 0 0 0 0 25.987606596547266 -17.04435876638604 0 -17.04435876638604 2.3675848205684815 0 0 0 0 26.339433294157061 -20.898036153629391 0 -20.898036153629391 14.558071160926829 0 0 0 0 96.695088847060902 -9.2899124255937693 0 -9.2899124255937693 -38.650529317485962 0 0 0 0 51.674960217895205 -34.554396886188442 0 -34.554396886188442 -39.667561778353047 0 0 0 0 47.41049641218342 -51.37028484852226 0 -51.37028484852226 -74.433241212941539 0 0 0 0 7.9250237250307691 -22.4640950982307 0 -22.4640950982307 -7.4281831978826105 0 0 0 0 6.2423273542990501 -32.661798867381094 0 -32.661798867381094 -7.5241072474083275 0 0 0 0 9.2651225573936244 -25.736969036930759 0 -25.736969036930759 5.9305558673313499 0 0 0 0 2.0345434256068984 -16.864814092857614 0 -16.864814092857614 6.550771776754118 0 0 0 0 51.627818982482495 -20.650226067876702 0 -20.650226067876702 -4.411394233422925 0 0 0 0 26.794350041416692 -9.0629968284813458 0 -9.0629968284813458 -2.4064722495468232 0 0 0 0 17.377022353442953 -12.485919993645439 0 -12.485919993645439 -3.6024948369176855 0 0 0 0 0.78316514171160634 -12.830318624158906 0 -12.830318624158906 4.3144621674923656 0 0 0 0 7.0332883903665788 -16.662923394848576 0 -16.662923394848576 -2.0425914173499677 0 0 0 0 2.4991179235394156 -12.058911835229864 0 -12.058911835229864 -6.701715408351447 0 0 0 0 8.422215437675959 -6.5642764625243331 0 -6.5642764625243331 -7.0727330802114921 0 0 0 0 2.7447338110832789 -5.7405758338265969 0 -5.7405758338265969 -14.258738997600631 0 0 0 0 3.7107918805031659 -9.8067416308040265 0 -9.8067416308040265 -8.9175552111903471 0 0 0 0 1.632006626961811 -12.392908020120558 0 -12.392908020120558 -8.5811418789662639 0 0 0 0 0.1102098286492037 -11.995727168512758 0 -11.995727168512758 -6.691391084938914 0 0 0 0 -20.227042950420582 -40.013541120316404 0 -40.013541120316404 -33.340603218568504 0 0 0 0 -72.800341483540251 -76.173810698015586 0 -76.173810698015586 99.299184748882908 0 0 0 0 -11.185994301495157 -16.07852060645655 0 -16.07852060645655 -30.987008371727825 0 0 0 0 -5.6534979497173481 -25.761997476444321 0 -25.761997476444321 -52.81924871827232 0 0 0 0 0.26497168388216163 -2.8322166015251575 0 -2.8322166015251575 -9.6912902217984147 0 0 0 0 0.77153091302201204 -0.21799804470964013 0 -0.21799804470964013 -0.93539209973170978 0 0 0 0 -23.055141563703728 -27.075185144102306 0 -27.075185144102306 -4.30523982199702 0 0 0 0 -41.868267648449546 -21.231567414999063 0 -21.231567414999063 -4.522772265209511 0 0 0 0 -44.671952890582816 -22.47466090105695 0 -22.47466090105695 -0.75370030265821697 0 0 0 0 -31.848241420076192 -42.632908507031857 0 -42.632908507031857 4.4347335515940358 0 0 0 0 -0.17299250100132557 -1.4428263866402382 0 -1.4428263866402382 -6.8099951173745197 0 0 0 0 -63.297080512842513 -31.512351983863937 0 -31.512351983863937 -3.6186849369769334 0 0 0 0 -0.1579611061147288 -1.259466233272466 0 -1.259466233272466 -3.9000602158056044 0 0 0 0 -42.312077131300612 -17.671698074980668 0 -17.671698074980668 -12.321470057023362 0 0 0 0 -117.8106931591276 -32.54907081338709 0 -32.54907081338709 6.4773281002690055 0 0 0 0 -21.177803202179348 -45.148200083995107 0 -45.148200083995107 10.356608724023317 0 0 0 0 2.5030431453888013 8.060832277112695 0 8.060832277112695 60.803348291922248 0 0 0 0 10.75586811759058 -40.665598578421168 0 -40.665598578421168 33.648134033736824 0 0 0 0 5.8040705640123633 -26.512421086635186 0 -26.512421086635186 0.039062261457729619 0 0 0 0 -10.543473906094732 -33.820344784020563 0 -33.820344784020563 -6.2420177753338066 0 0 0 0 -6.126450810355891 -44.194856288154824 0 -44.194856288154824 2.4090838444406586 0 0 0 0 5.6481099710872513 -38.806869307249144 0 -38.806869307249144 -0.13688884643943311 0 0 0 0 -9.5553370801098936 -45.116988277172823 0 -45.116988277172823 4.4289064567160494 0 0 0 0 -6.6339188777456002 -36.105187559528531 0 -36.105187559528531 13.367833580749902 0 0 0 0 -2.4874557181974524 -32.175533846191684 0 -32.175533846191684 2.9940704596001524 0 0 0 0 -15.051970252814499 -53.496193894865883 0 -53.496193894865883 0.51411044141968887 0 0 0 0 -10.573800285452307 -42.088453647373171 0 -42.088453647373171 23.285360319005122 0 0 0 0 -7.1283169013513543 -24.70176532667756 0 -24.70176532667756 29.606651198018199 0 0 0 0 -0.00075157484207011294 -30.618011068952001 0 -30.618011068952001 1.0731296896524327 0 0 0 0 3.2628805600106716 -26.065096167601041 0 -26.065096167601041 5.9873783204725441 0 0 0 0 0.35496232164587127 -34.479207136109835 0 -34.479207136109835 3.8296536223651856 0 0 0 0 4.6442613668469903 -30.867658400310262 0 -30.867658400310262 6.7875730001205739 0 0 0 0 0.010182929963775678 -28.559247941891272 0 -28.559247941891272 9.5329921711393126 0 0 0 0 9.3808315462611063 -18.33407448744174 0 -18.33407448744174 20.476035716978004 0 0 0 0 8.3739911867796764 -31.7874989472366 0 -31.7874989472366 6.4175855343455623 0 0 0 0 26.327625985402847 -22.570463307849423 0 -22.570463307849423 11.076696792728399 0 0 0 0 -0.010778977013615076 -23.697215478480757 0 -23.697215478480757 21.645721662919584 0 0 0 0 6.4043489089326613 -15.599156270597291 0 -15.599156270597291 31.690667695077082 0 0 0 0 0.020034330309499637 -16.777950875631859 0 -16.777950875631859 0.88351697209509439 0 0 0 0 5.7770428513194929 -11.923556007427351 0 -11.923556007427351 -9.7758704317498086 0 0 0 0 8.0669517230398924 -34.359439854315951 0 -34.359439854315951 16.463074966933391 0 0 0 0 12.46624735041155 -25.452714334088796 0 -25.452714334088796 -26.407411890279036 0 0 0 0 0.56621299606736386 -0.069282555787491873 0 -0.069282555787491873 -0.1383746641518826 0 0 0 0 9.0174854956858326 -6.6417626092056707 0 -6.6417626092056707 -11.817968528117717 0 0 0 0 -14.4063426893008 -19.005861397028866 0 -19.005861397028866 -13.151221522783089 0 0 0 0 -7.5341425337792316 -13.841937494148624 0 -13.841937494148624 -21.414125924052314 0 0 0 0 0.93525349001619418 -0.51999542542894783 0 -0.51999542542894783 0.26029216699918578 0 0 0 0 -10.221686097138445 -23.070513893625503 0 -23.070513893625503 -23.22828108990052 0 0 0 0 -6.3154924796217529 -7.6947843697112148 0 -7.6947843697112148 -10.726681908938644 0 0 0 0 -4.6058189452735405 -5.9576226496626816 0 -5.9576226496626816 1.4392990602318605 0 0 0 0 -3.243823916916881 -10.956270937430418 0 -10.956270937430418 -6.614419995031767 0 0 0 0 -11.334680646442393 -4.2085094197403805 0 -4.2085094197403805 4.8938815632309343 0 0 0 0 -9.9220204759185435 -8.7241123227227035 0 -8.7241123227227035 -6.9704504466981234 0 0 0 0 -5.0062445476396533 -8.730773783560835 0 -8.730773783560835 6.5753111350959443 0 0 0 0 -14.631927266735147 -3.6644482579487772 0 -3.6644482579487772 18.952891293951325 0 0 0 0 -6.7883232381873313 -6.1361206020714576 0 -6.1361206020714576 13.980118369342108 0 0 0 0 2.0433629274884879 -8.341429368955005 0 -8.341429368955005 2.286363952949614 0 0 0 0 1.2561175927421573 -8.2141405814131758 0 -8.2141405814131758 10.754909813184213 0 0 0 0 -1.2319986126385629e-05 -12.473700842725748 0 -12.473700842725748 9.4285303183492033 0 0 0 0 3.4257461077686457 -11.096717337670043 0 -11.096717337670043 0.78589221854008429 0 0 0 0 5.9427086314899498 -14.060661221067448 0 -14.060661221067448 1.93301117219562 0 0 0 0 -5.4712941174821026 -16.115701841419195 0 -16.115701841419195 -29.59073224951203 0 0 0 0 -4.5663251143996604 -19.173046406418507 0 -19.173046406418507 -19.311200282456412 0 0 0 0 0.00020533020686419828 -18.893437296298281 0 -18.893437296298281 -23.879472939965126 0 0 0 0 -4.0430848027972388 -21.593304284166152 0 -21.593304284166152 -20.679915796281421 0 0 0 0 -12.529381610102064 -27.007278544683686 0 -27.007278544683686 -23.789995334833293 0 0 0 0 0.3827933442811613 -0.67348532568304975 0 -0.67348532568304975 -0.36676674118633201 0 0 0 0 8.3074070923594263 0.6764066209543671 0 0.6764066209543671 -8.2640689744466727 0 0 0 0 9.4876129266858698 -7.1813949901325032 0 -7.1813949901325032 -25.391980710510325 0 0 0 0 -2.9435271142174315 -25.480737797373877 0 -25.480737797373877 -23.61859103991776 0 0 0 0 -20.945034711089647 -19.033328569758396 0 -19.033328569758396 -10.942905025448454 0 0 0 0 -8.0882813295247615 -22.744477670511287 0 -22.744477670511287 -11.852337569991505 0 0 0 0 -7.7128589446538172 -20.609593408345745 0 -20.609593408345745 -6.172645814020143 0 0 0 0 -11.38753088608064 -25.566339414851882 0 -25.566339414851882 -3.7654883659618008 0 0 0 0 -10.793527916634048 -26.097502417384476 0 -26.097502417384476 -7.9451227470894992 0 0 0 0 -8.5352434238939168 -25.084392558543186 0 -25.084392558543186 -7.5024559301054978 0 0 0 0 -9.0374637715686958 -21.283658580406524 0 -21.283658580406524 -11.667916792531287 0 0 0 0 -0.0041355110406584572 -21.875099855635199 0 -21.875099855635199 -18.253644154897074 0 0 0 0 -0.0060590147259063087 -28.043897471283799 0 -28.043897471283799 -8.7175966959393918 0 0 0 0 -4.6988323250152462 -24.400058212889689 0 -24.400058212889689 -11.228222393397459 0 0 0 0 -3.9760480429024483 -30.147688663227996 0 -30.147688663227996 -6.1418874879882424 0 0 0 0 -3.0842834065606439 -26.239909710278425 0 -26.239909710278425 -8.0659745869172639 0 0 0 0 0.00045067067367199343 -29.367029839660972 0 -29.367029839660972 -5.2020519632151263 0 0 0 0 -1.6879682336159476 -30.153938546218001 0 -30.153938546218001 -3.3929894671509828 0 0 0 0 -2.3832046869961232 -27.112850995342285 0 -27.112850995342285 -1.5395878466597424 0 0 0 0 -9.9881001213325362 -29.403703407630928 0 -29.403703407630928 6.2460812284861049 0 0 0 0 -8.9113646006026102 -31.760252887426304 0 -31.760252887426304 5.8012541313401016 0 0 0 0 -5.8563864044699585 -30.136745820682336 0 -30.136745820682336 4.1135739125425062 0 0 0 0 -5.6747481381908074 -28.77199024640754 0 -28.77199024640754 -4.1739992435432214 0 0 0 0 -5.4162171368698182 -28.185203804070625 0 -28.185203804070625 -4.3090733619778803 0 0 0 0 -8.2104770661208022 -31.883941330595917 0 -31.883941330595917 -4.3151060190511146 0 0 0 0 -10.2038842834354 -29.641570893644257 0 -29.641570893644257 -6.1105655513638339 0 0 0 0 -5.8110408468419337 -30.582370031790106 0 -30.582370031790106 -8.160921677330407 0 0 0 0 -20.895021820215334 -39.901608046828642 0 -39.901608046828642 -7.8787622030886268 0 0 0 0 -17.368227931492584 -26.520927110772845 0 -26.520927110772845 -0.67040592547346023 0 0 0 0 -11.539563642740177 -32.707665655956589 0 -32.707665655956589 -5.8913122603858028 0 0 0 0 -8.7815473025239044 -29.225112949814047 0 -29.225112949814047 -5.830839728158935 0 0 0 0 -7.1194984459493753 -28.956119437520215 0 -28.956119437520215 -5.8386978466196524 0 0 0 0 -8.8623671576697234 -22.155956705123117 0 -22.155956705123117 0.44909836155238736 0 0 0 0 -17.513490906789229 -26.306810964319993 0 -26.306810964319993 -0.87119279038961395 0 0 0 0 10.160837914958393 -13.537456662675595 0 -13.537456662675595 -2.2988493950260818 0 0 0 0 -15.35683567668093 -7.5839332859541173 0 -7.5839332859541173 4.5226718022622663 0 0 0 0 -29.575191305964836 -14.644585397089941 0 -14.644585397089941 1.054563992025578 0 0 0 0 44.364530211110832 24.500100137180652 0 24.500100137180652 74.564951087999361 0 0 0 0 -0.8709639390786208 -1.4939324274123713 0 -1.4939324274123713 -1.4822891229127784 0 0 0 0 -11.983215989601376 -21.520136610357326 0 -21.520136610357326 -0.80686147075357439 0 0 0 0 -27.621246996499394 -20.256484754248959 0 -20.256484754248959 -0.54573710490194571 0 0 0 0 -22.043178888568946 -28.945449966279739 0 -28.945449966279739 -1.1691539960575028 0 0 0 0 -37.959211295526984 -25.309220526770787 0 -25.309220526770787 -1.9268586985908769 0 0 0 0 -70.934419550168968 -5.4718094301688325 0 -5.4718094301688325 -5.2105228255554721 0 0 0 0 -27.267306534165982 -17.820398598234988 0 -17.820398598234988 -10.029566126329883 0 0 0 0 -25.005958561068837 -21.381039960483577 0 -21.381039960483577 -6.2888854082084436 0 0 0 0 136.36692999192019 -117.56801466370098 0 -117.56801466370098 -42.816941228087671 0 0 0 0 -0.47918386255013345 -0.66492352049574066 0 -0.66492352049574066 -0.021272342310364678 0 0 0 0 109.79797315353062 -46.775203659793988 0 -46.775203659793988 101.33686629033485 0 0 0 0 93.196988343928751 -68.031123430410389 0 -68.031123430410389 74.687502614877303 0 0 0 0 167.03234773686381 -72.438062910774079 0 -72.438062910774079 19.844823192344847 0 0 0 0 -177.95368135006902 -23.471445166931517 0 -23.471445166931517 48.938223951314285 0 0 0 0 29.207304400060821 -37.083646797257188 0 -37.083646797257188 0.0084106528265692759 0 0 0 0 -48.833746349584544 -126.45776130830291 0 -126.45776130830291 73.186359824800093 0 0 0 0 -36.226497755069431 -50.521017378624038 0 -50.521017378624038 -2.5496925159568491 0 0 0 0 5.0938432465036385 -4.8811300744532673 0 -4.8811300744532673 -10.816012970138217 0 0 0 0 -7.8254257843054802 -7.029344582594149 0 -7.029344582594149 19.868971442583643 0 0 0 0 -0.73558736330404173 -7.4108178385000656 0 -7.4108178385000656 -2.9073486873400136 0 0 0 0 -0.12751518672125739 -1.2384840294578829 0 -1.2384840294578829 1.1998000061922696 0 0 0 0 2.4454519952741975 -7.5248689720383481 0 -7.5248689720383481 -5.6195804698559186 0 0 0 0 -12.148074936440025 -3.2291731959539902 0 -3.2291731959539902 23.944172840496321 0 0 0 0 -4.3778408720718289 -26.02571604885361 0 -26.02571604885361 57.659767596097481 0 0 0 0 -0.69489588219221332 -10.75813280130933 0 -10.75813280130933 27.85567223291946 0 0 0 0 -1.4523915339614177 -9.0446261643346588 0 -9.0446261643346588 24.685833640709461 0 0 0 0 2.089576050893811 -10.319039044929013 0 -10.319039044929013 20.391671403204782 0 0 0 0 3.0075120233195776 -12.236611629249637 0 -12.236611629249637 23.49808371225663 0 0 0 0 7.7120571756240679 -26.56550359576795 0 -26.56550359576795 32.9015265760695 0 0 0 0 33.751611336441783 -29.436238959472576 0 -29.436238959472576 9.5755753202911364 0 0 0 0 33.802541466002367 -29.215588148850202 0 -29.215588148850202 -5.1358904442176936 0 0 0 0 72.030289727596028 -64.531830046346613 0 -64.531830046346613 27.458419962384141 0 0 0 0 -1.1579134175426304 -2.4908038776207029 0 -2.4908038776207029 -3.9706769142559075 0 0 0 0 47.49089220778842 -24.982368160261558 0 -24.982368160261558 -3.884049757670482 0 0 0 0 36.002833378017385 -14.067449394822233 0 -14.067449394822233 0.44402863140021509 0 0 0 0 14.225479911634466 -20.18733521591048 0 -20.18733521591048 5.2540839946700544 0 0 0 0 14.799520023737841 -18.630178813347015 0 -18.630178813347015 5.4226080821017604 0 0 0 0 14.438268435162172 -11.817862515052184 0 -11.817862515052184 -2.743689037311924 0 0 0 0 43.888413291238976 -22.984538454328685 0 -22.984538454328685 -6.4155967674469139 0 0 0 0 -1.9257426246720861 -3.273520045466249 0 -3.273520045466249 -6.5076190455813929 0 0 0 0 20.367538807089659 -14.228006258660571 0 -14.228006258660571 -13.302693294481287 0 0 0 0 -1.1864667828449456 -13.033427543743983 0 -13.033427543743983 0.38199637339721448 0 0 0 0 -1.5493349290227343 -21.204525906040089 0 -21.204525906040089 -4.922230923936695 0 0 0 0 -7.0813083108637329 -22.414222179040394 0 -22.414222179040394 -4.518515324449254 0 0 0 0 4.9103811380973639 -19.985786710241882 0 -19.985786710241882 -10.96821940803693 0 0 0 0 5.3051138894679752 -14.755548304008698 0 -14.755548304008698 -8.1808709211154564 0 0 0 0 15.873420079682546 -9.9737549665233018 0 -9.9737549665233018 -6.6559853849030333 0 0 0 0 15.002822072225172 -19.167990372064196 0 -19.167990372064196 -6.4708455880709153 0 0 0 0 5.5083669076489059 -11.572714120531373 0 -11.572714120531373 4.807820984553473 0 0 0 0 3.1591770666937009 -14.906748358065897 0 -14.906748358065897 -7.485787060983057 0 0 0 0 5.681598718110763 -10.687928933886724 0 -10.687928933886724 -13.559509368106774 0 0 0 0 4.4670431705508236 -5.3687136212311088 0 -5.3687136212311088 -4.1373126241815044 0 0 0 0 3.6456555536351516 -4.259474913991653 0 -4.259474913991653 -2.0988672052753827 0 0 0 0 -5.5438467143449088 9.5429073391119346 0 9.5429073391119346 -2.6096108548590564 0 0 0 0 4.278653851699346 -8.6338967984984265 0 -8.6338967984984265 25.242784241788286 0 0 0 0 2.2596478086865019 -0.53977095433402633 0 -0.53977095433402633 0.0049342853371214801 0 0 0 0 60.915584410282463 -60.499018517343757 0 -60.499018517343757 -21.139919936778369 0 0 0 0 9.342350777197808 -11.05328218771557 0 -11.05328218771557 3.6344512021984485 0 0 0 0 212.87847038137988 -190.41912476197194 0 -190.41912476197194 -57.951490335035281 0 0 0 0 0.48519220123427687 -8.4760140661284673 0 -8.4760140661284673 -10.460555682333549 0 0 0 0 9.7542715449260555 -10.887074308254316 0 -10.887074308254316 4.3733794685771059 0 0 0 0 17.643743284565062 -28.431432709794308 0 -28.431432709794308 -6.6714437190585159 0 0 0 0 1.6841473858244242 -5.9498934736803122 0 -5.9498934736803122 -8.0420880264096262 0 0 0 0 95.739275403235297 157.25352439610015 0 157.25352439610015 -60.483058403500763 0 0 0 0 18.969959825628393 -30.711913930298124 0 -30.711913930298124 8.4719011071192654 0 0 0 0 15.274064995261142 -18.753262588256803 0 -18.753262588256803 -13.995932730146819 0 0 0 0 -23.934301987970684 -75.164586909906575 0 -75.164586909906575 -43.854125020927313 0 0 0 0 0.12879095693186215 -0.22604216134076971 0 -0.22604216134076971 -0.38382977420211972 0 0 0 0 -136.22253354154418 -75.760279925418217 0 -75.760279925418217 2.809170360204007 0 0 0 0 7.1428425734793564 -35.467257934862573 0 -35.467257934862573 -16.133295466868731 0 0 0 0 92.350888549224692 62.521344443257476 0 62.521344443257476 -112.73902605642434 0 0 0 0 -0.65379065785600687 -38.295263376748153 0 -38.295263376748153 -16.923794290253227 0 0 0 0 57.390786500436661 39.641636076016766 0 39.641636076016766 -9.9394862253684551 0 0 0 0 54.571845938915715 -22.461798707272692 0 -22.461798707272692 -47.190923116904742 0 0 0 0 -49.792142368107307 -45.576978497856544 0 -45.576978497856544 -19.143195340016973 0 0 0 0 -1.1717435140053567 -2.1001514025592769 0 -2.1001514025592769 22.367548201445061 0 0 0 0 12.67394112065449 -9.660749310319261 0 -9.660749310319261 -20.605502471342334 0 0 0 0 -67.422220618183928 -18.744676529629942 0 -18.744676529629942 1.2575991621870344 0 0 0 0 -60.970781670825318 -52.022769198286255 0 -52.022769198286255 -20.259344487803901 0 0 0 0 -35.674836577010865 -44.456449121275909 0 -44.456449121275909 -51.715935925245503 0 0 0 0 34.329927166234484 -9.3931668310297027 0 -9.3931668310297027 -0.81892511120713607 0 0 0 0 0.53086244614467759 -0.74591236004600603 0 -0.74591236004600603 -0.92504423387362067 0 0 0 0 -15.116426443652017 -36.830768681014888 0 -36.830768681014888 45.7284065981612 0 0 0 0 -68.469589536736748 -27.172266930856495 0 -27.172266930856495 -17.181366768829321 0 0 0 0 7.0875326974492054 -2.4517987457265917 0 -2.4517987457265917 -10.539061271603714 0 0 0 0 -21.043042066759881 5.3283164988915814 0 5.3283164988915814 14.203103647674652 0 0 0 0 -0.43069160472766299 -0.29176490559658319 0 -0.29176490559658319 -0.94987300398807761 0 0 0 0 7.280062292114053 -1.29039427465068 0 -1.29039427465068 -28.574869469820555 0 0 0 0 10.646023637356848 -13.991722090253461 0 -13.991722090253461 -23.634236489991963 0 0 0 0 6.9525377176059919 -4.6530637826640486 0 -4.6530637826640486 0.35414059275171894 0 0 0 0 9.6908637813812675 -7.9286424822407753 0 -7.9286424822407753 -10.584104709756502 0 0 0 0 7.4593398447468644 -19.419202285052052 0 -19.419202285052052 2.9545121921382815 0 0 0 0 7.5804779006648459 -22.326503095426233 0 -22.326503095426233 -3.5004871616307582 0 0 0 0 10.689755193034216 -12.983131634236088 0 -12.983131634236088 -2.6653313276838162 0 0 0 0 6.5338735561490466 -21.205623268229829 0 -21.205623268229829 -2.5654309546553122 0 0 0 0 -1.0027251331302978 -32.62711129454965 0 -32.62711129454965 0.15987982976662352 0 0 0 0 6.3863237211926389 -25.446568146285244 0 -25.446568146285244 -16.592144066216861 0 0 0 0 7.3222665935318219 -30.909126917118556 0 -30.909126917118556 -32.632014526747298 0 0 0 0 6.1454853990653646 -24.55418902713518 0 -24.55418902713518 -8.8696143524975923 0 0 0 0 -0.79907343289596611 -37.3010165416772 0 -37.3010165416772 -6.9498763089250133 0 0 0 0 -6.917751491024319 -33.532411240916645 0 -33.532411240916645 13.137514920490503 0 0 0 0 -0.64509534503486066 -33.549183022769284 0 -33.549183022769284 2.5356199966736312 0 0 0 0 2.0927011697112903 -42.258092582235804 0 -42.258092582235804 6.2044162478327962 0 0 0 0 -15.122546914455597 -34.970914892791825 0 -34.970914892791825 15.659046386203045 0 0 0 0 0.054679621442119242 -26.824833812661382 0 -26.824833812661382 18.548608215471177 0 0 0 0 -3.2207522598291689 -44.677380154254024 0 -44.677380154254024 22.992017220261914 0 0 0 0 -31.122405595913733 -56.4322064794178 0 -56.4322064794178 18.747005776970582 0 0 0 0 -22.586717895748507 -33.550129398500872 0 -33.550129398500872 33.461285835727722 0 0 0 0 36.463539460793527 -59.111282638402372 0 -59.111282638402372 -62.920045871880575 0 0 0 0 61.992219499687053 6.8508211079761168 0 6.8508211079761168 11.355489410072039 0 0 0 0 9.7103047292534796 -8.4535200494793479 0 -8.4535200494793479 5.2932033139788075 0 0 0 0 -13.328666115939996 -40.30024240748935 0 -40.30024240748935 6.0704556029859305 0 0 0 0 4.4593981749694649 28.196689583282478 0 28.196689583282478 20.091909206757464 0 0 0 0 10.304952018867205 -8.6355946675727395 0 -8.6355946675727395 5.6397350740488328 0 0 0 0 -12.981821731840682 -31.322220852496457 0 -31.322220852496457 -2.0287677358046494 0 0 0 0 15.086676667902339 -20.374775342090629 0 -20.374775342090629 -7.9887610213881999 0 0 0 0 -4.7758981219922134 -14.80367823523784 0 -14.80367823523784 3.2867197123769074 0 0 0 0 14.129141589744222 -21.705384682516282 0 -21.705384682516282 3.872795154555206 0 0 0 0 -13.288096244791632 -28.891915260545375 0 -28.891915260545375 -1.3562828315943989 0 0 0 0 -4.511276614961389 -18.410398561798047 0 -18.410398561798047 11.754767377246026 0 0 0 0 -5.7884372010894367 -14.400538744847609 0 -14.400538744847609 3.3659479743646443 0 0 0 0 -3.6893101519890479 -11.991000418175645 0 -11.991000418175645 11.092981591409739 0 0 0 0 -1.6433185346104437 -14.439941548516799 0 -14.439941548516799 12.63536510699123 0 0 0 0 6.8836911429309566 -17.033169238945561 0 -17.033169238945561 12.967607689297438 0 0 0 0 -2.9708033646747936 -14.800697320903055 0 -14.800697320903055 20.823735015776037 0 0 0 0 -3.1650990737871325 -11.077542632036057 0 -11.077542632036057 18.445591877515653 0 0 0 0 3.4504340262694768 -9.9570202836338808 0 -9.9570202836338808 17.188255585288061 0 0 0 0 -8.283590143602396 -12.220237958870939 0 -12.220237958870939 9.4423477626551175 0 0 0 0 -8.1274552905742894 -11.190308769339936 0 -11.190308769339936 15.495906485011801 0 0 0 0 -4.1779770209432172 -8.0964835153263266 0 -8.0964835153263266 11.121670300266487 0 0 0 0 -6.9306496452027204 -7.3779513073327507 0 -7.3779513073327507 11.968487558322522 0 0 0 0 -5.1977187847660389 -9.0124665389284928 0 -9.0124665389284928 3.711958134193992 0 0 0 0 -6.1389485134486677 -7.6448441934526272 0 -7.6448441934526272 5.8486926499099354 0 0 0 0 -6.2260232695389277 -9.5705091921336134 0 -9.5705091921336134 10.31135471338348 0 0 0 0 -5.3355430063602398 -9.9396149522544874 0 -9.9396149522544874 5.7224144793854066 0 0 0 0 -0.043367199989006622 -11.198467018147767 0 -11.198467018147767 -9.4226656882478892 0 0 0 0 -0.95224808336869415 -7.325695133729365 0 -7.325695133729365 0.17592637661455379 0 0 0 0 -1.8660491801601893 -2.4059595189610263 0 -2.4059595189610263 18.48481470257866 0 0 0 0 -0.023098949924779788 -0.045805184087893025 0 -0.045805184087893025 1.9382538381087073 0 0 0 0 0.020642510490105792 -0.59930252545027152 0 -0.59930252545027152 -1.7190835720402688 0 0 0 0 -2.9650435658586503 -7.1677879782828313 0 -7.1677879782828313 -1.3926006053477522 0 0 0 0 6.1521785456407088 -13.751202961564104 0 -13.751202961564104 6.025885313721119 0 0 0 0 -1.3980236248171423 -8.1911148630260868 0 -8.1911148630260868 4.6493524071789807 0 0 0 0 -2.7674153629950524 -11.137496716378791 0 -11.137496716378791 6.2975054997696134 0 0 0 0 -6.0213462259271182 -9.6391367080968848 0 -9.6391367080968848 7.3348441299408478 0 0 0 0 -4.9547535877591145 -12.730893877813287 0 -12.730893877813287 5.3296261933774076 0 0 0 0 -2.1117429452515353 -10.681459786829691 0 -10.681459786829691 6.7517289995753345 0 0 0 0 -2.2626171076638002 -11.269119072287936 0 -11.269119072287936 6.8155528006263921 0 0 0 0 8.5326429471424028 -8.8907193354722907 0 -8.8907193354722907 6.3825153658751645 0 0 0 0 28.965717657290043 18.581320255634637 0 18.581320255634637 13.905481050913295 0 0 0 0 9.5992842961008336 -8.3383946498519119 0 -8.3383946498519119 5.5503676276430731 0 0 0 0 -12.699086074926527 -18.741091590974975 0 -18.741091590974975 6.1713996920191221 0 0 0 0 26.313733688231878 -38.469641404487447 0 -38.469641404487447 -93.898123819853936 0 0 0 0 -107.32507237404934 5.0808766798718352 0 5.0808766798718352 29.573365292794733 0 0 0 0 11.532908700705775 -29.111413589383119 0 -29.111413589383119 6.987831729622485 0 0 0 0 7.9014367862582731 8.360484168631956 0 8.360484168631956 -4.0853565195957344 0 0 0 0 34.149338263739992 -14.95715323437048 0 -14.95715323437048 -3.2522088276055001 0 0 0 0 0.15413716269535627 0.30719527796189183 0 0.30719527796189183 -0.58185237523740341 0 0 0 0 -26.390073460672284 -14.157024633969741 0 -14.157024633969741 24.056157291335694 0 0 0 0 61.236961658014479 -37.035258194006929 0 -37.035258194006929 -8.4066157164684228 0 0 0 0 14.42812863893414 -13.531877050168077 0 -13.531877050168077 23.998476489030736 0 0 0 0 2.6658160175790204 -0.903570098313768 0 -0.903570098313768 1.1250084976867321 0 0 0 0 6.7484500227319586 2.2243136268225498 0 2.2243136268225498 2.88385671679589 0 0 0 0 20.751353165642286 -5.1668983852355268 0 -5.1668983852355268 4.4386960550082222 0 0 0 0 13.929655968072439 2.2734081091593907 0 2.2734081091593907 5.9423380504249508 0 0 0 0 3.8788363915246009 -10.958701328898314 0 -10.958701328898314 4.478848690343284 0 0 0 0 4.0094922638321115 -5.7254904803995661 0 -5.7254904803995661 7.2453388022433174 0 0 0 0 0.17234133373010074 -5.2877107147372655 0 -5.2877107147372655 1.9678011003786828 0 0 0 0 6.2522894585563336 -1.114423303572039 0 -1.114423303572039 3.6938876344165692 0 0 0 0 5.59381009325989 -2.1397982959715591 0 -2.1397982959715591 13.265470852515861 0 0 0 0 7.4663042443726226 -5.2377273464217069 0 -5.2377273464217069 -2.8093522222015963 0 0 0 0 -8.2981686365819769 -5.8097746978810392 0 -5.8097746978810392 5.1473945304833251 0 0 0 0 -3.7445514673408979 -5.4106171592811734 0 -5.4106171592811734 -3.7607270068310754 0 0 0 0 -27.094861795745601 -16.731363979261914 0 -16.731363979261914 -10.914596714604158 0 0 0 0 -8.3455108162047509 -16.734417321305727 0 -16.734417321305727 -13.366017283144174 0 0 0 0 -11.675461275994166 -0.36786611586376239 0 -0.36786611586376239 0.45889144068132737 0 0 0 0 -13.474209971484015 -18.281867683582277 0 -18.281867683582277 -7.3598629227421952 0 0 0 0 -9.1363966643575623 -13.769228805831517 0 -13.769228805831517 -28.290785530818539 0 0 0 0 -41.88785527422624 -53.897696363716932 0 -53.897696363716932 -25.53570273282503 0 0 0 0 -34.252440672957164 -17.626380718897963 0 -17.626380718897963 13.002513124210509 0 0 0 0 -5.3280083186436968 -41.755508378860213 0 -41.755508378860213 -101.6084598723146 0 0 0 0 -0.69098871183323496 -0.58748766264848484 0 -0.58748766264848484 0.15077546613115267 0 0 0 0 -2.5599130717182561 -4.0722246024088236 0 -4.0722246024088236 27.724195751092338 0 0 0 0 17.142236433710423 -15.123799201222027 0 -15.123799201222027 -16.715572272405552 0 0 0 0 3.7017400506319973 6.0870638545202382 0 6.0870638545202382 8.8846188253942273 0 0 0 0 -21.741731676800555 -53.922992343979558 0 -53.922992343979558 -35.74679433791971 0 0 0 0 -8.572250482688105 -19.461412462230328 0 -19.461412462230328 5.7966710354314728 0 0 0 0 0.28945001924742897 0.14470906802610628 0 0.14470906802610628 -0.53829722073276898 0 0 0 0 48.787134545723347 -5.7293999290391184 0 -5.7293999290391184 -27.701884447293196 0 0 0 0 -9.8467757305334089 -53.516346391154912 0 -53.516346391154912 -47.018030685666417 0 0 0 0 -0.61761032711488539 -0.84112503026342011 0 -0.84112503026342011 -0.90869309411709054 0 0 0 0 18.217369322055674 39.603654338130127 0 39.603654338130127 -31.484318959138363 0 0 0 0 33.013927854042777 40.480170949279454 0 40.480170949279454 -97.236309220562219 0 0 0 0 21.177172774343489 -14.940469714640585 0 -14.940469714640585 14.145526850838905 0 0 0 0 -1.1842445283582492 -17.561112674117794 0 -17.561112674117794 34.434937714767557 0 0 0 0 18.256406408726889 -29.527976923679375 0 -29.527976923679375 23.875351440303348 0 0 0 0 -19.273921137506477 -52.560762942764086 0 -52.560762942764086 -27.74544121736394 0 0 0 0 -2.1877009897355499 -2.3079021303632636 0 -2.3079021303632636 -1.9952197005192502 0 0 0 0 10.290224942312307 -16.513935207760596 0 -16.513935207760596 20.907974465503685 0 0 0 0 15.534472274870495 -15.318454735412161 0 -15.318454735412161 3.9425623512834136 0 0 0 0 12.347355367641285 -10.336476324360774 0 -10.336476324360774 2.1630458166937387 0 0 0 0 7.3897693353274008 -19.651853272432618 0 -19.651853272432618 12.799518547721163 0 0 0 0 10.492821481963347 -11.374380140933454 0 -11.374380140933454 1.9061777940914908 0 0 0 0 12.220476056165353 -13.892106003735989 0 -13.892106003735989 2.1575772917767608 0 0 0 0 10.051583278092949 -10.921150207876963 0 -10.921150207876963 1.6537835051499314 0 0 0 0 11.182567343389564 -19.064423156553403 0 -19.064423156553403 -19.239426327687397 0 0 0 0 7.2142872042259114 -18.121511619593093 0 -18.121511619593093 5.1524234306829158 0 0 0 0 11.23677708244486 -12.330960986129867 0 -12.330960986129867 -5.5294981354436459 0 0 0 0 -3.1904403584712782 -13.841845843885039 0 -13.841845843885039 14.929192847356717 0 0 0 0 0.64560073041502619 -5.371864608423266 0 -5.371864608423266 27.851228669691864 0 0 0 0 -3.7374620522352942 -3.1955338379713787 0 -3.1955338379713787 -2.8620127632229284 0 0 0 0 9.0718657836822558 -26.164088609890428 0 -26.164088609890428 17.749190037137851 0 0 0 0 12.600710712851651 -11.630505542435458 0 -11.630505542435458 6.3639035420289929 0 0 0 0 1.1854597581541384 -21.087241074154917 0 -21.087241074154917 40.438152868968473 0 0 0 0 10.382551705882179 -9.5256929779015991 0 -9.5256929779015991 -0.86802109155723883 0 0 0 0 8.1263416384363154 -13.239621922442893 0 -13.239621922442893 8.7950576794437438 0 0 0 0 -21.003782867603149 -18.483347784650505 0 -18.483347784650505 9.8171868227473169 0 0 0 0 6.3798242270058836 3.4783633532210843 0 3.4783633532210843 -39.561411098171448 0 0 0 0 0.02396195920783839 -0.031576781129622589 0 -0.031576781129622589 -0.17994606863872775 0 0 0 0 6.9639404605622985 -12.219993271663043 0 -12.219993271663043 4.0300681745775364 0 0 0 0 8.2559922242198809 -6.9848041044615456 0 -6.9848041044615456 -2.1428805978066521 0 0 0 0 9.9648658091437028 -10.972516806643398 0 -10.972516806643398 1.659660672683458 0 0 0 0 8.0758106629018584 -8.2616837882742402 0 -8.2616837882742402 -0.68841400457495183 0 0 0 0 5.5827018179735433 -6.1260570393496891 0 -6.1260570393496891 -0.25802330345322844 0 0 0 0 7.3623191014066833 -6.7573499307586644 0 -6.7573499307586644 -7.9707940664957277 0 0 0 0 5.8165780253239063 -8.7214794482152342 0 -8.7214794482152342 -0.48091780438153364 0 0 0 0 3.824911436659022 -5.0312175426115573 0 -5.0312175426115573 -2.2256091189374274 0 0 0 0 6.6086634650189353 -11.389225991933472 0 -11.389225991933472 -1.6335587670164387 0 0 0 0 3.2688076693243602 -8.5855400315181214 0 -8.5855400315181214 7.5931198224170657 0 0 0 0 3.9361398261437017 -6.5098180446591449 0 -6.5098180446591449 -0.24224046748346365 0 0 0 0 5.213614839247839 -8.2361358199950701 0 -8.2361358199950701 9.9239170777091203 0 0 0 0 5.0162036700110804 -7.0258788136448835 0 -7.0258788136448835 -0.23574840916190803 0 0 0 0 4.7723075578942371 -6.4954904459418685 0 -6.4954904459418685 5.4688616825296776 0 0 0 0 5.0792817119317988 -9.485650278243611 0 -9.485650278243611 4.7715787621054915 0 0 0 0 8.7071585709036299 -7.4610152899167588 0 -7.4610152899167588 3.9929851634078659 0 0 0 0 0.81316550742856464 -1.1761148561904236 0 -1.1761148561904236 -2.3390030562265594 0 0 0 0 -2.5156143981803023 -1.4671229399555514 0 -1.4671229399555514 1.0297256441214628 0 0 0 0 2.8858127709663677 -7.356579143343879 0 -7.356579143343879 3.7429775338259788 0 0 0 0 1.6103564232435019 -9.5921883226692444 0 -9.5921883226692444 4.156304157573004 0 0 0 0 3.5857718691089069 -5.2568859194211033 0 -5.2568859194211033 6.5801543203656578 0 0 0 0 3.1864771887503593 -7.0611480985207891 0 -7.0611480985207891 3.7184484120625712 0 0 0 0 2.7477030713711272 -7.7410442676593298 0 -7.7410442676593298 2.9086829465639092 0 0 0 0 5.3687955979777158 -7.0675644982467096 0 -7.0675644982467096 6.4296280837094812 0 0 0 0 1.0173908838028183 -10.30823031779596 0 -10.30823031779596 3.3463736161484121 0 0 0 0 1.3158810799723142 -13.173023150647168 0 -13.173023150647168 3.3922206283796186 0 0 0 0 -1.7229045019324474 -8.5517802176214559 0 -8.5517802176214559 6.1706690922346752 0 0 0 0 -5.2509697139721538 -31.17543210432359 0 -31.17543210432359 -70.656473108931095 0 0 0 0 -22.375075003608799 -9.2454246490506193 0 -9.2454246490506193 24.876770322374796 0 0 0 0 -0.30651535176414768 -0.28532996344883088 0 -0.28532996344883088 -0.011306106238063274 0 0 0 0 -1.6713550731165583 -9.6780599542022969 0 -9.6780599542022969 7.6440019937326724 0 0 0 0 -0.84277584238570569 -1.4104588105949709 0 -1.4104588105949709 1.4701997646837266 0 0 0 0 -4.844528463109782 -15.129694711703451 0 -15.129694711703451 -22.446311677162157 0 0 0 0 -5.752749463094915 -15.419312878752862 0 -15.419312878752862 -18.082997504745435 0 0 0 0 -28.767766368922821 -36.183184159141092 0 -36.183184159141092 -18.017565050552548 0 0 0 0 -15.671439231781733 -28.065592542847298 0 -28.065592542847298 -14.069019624721477 0 0 0 0 -12.174177595544734 -11.116322535679956 0 -11.116322535679956 -2.3707629237105721 0 0 0 0 -10.371337251130171 -16.18738346353166 0 -16.18738346353166 -2.1272294377340586 0 0 0 0 -11.469632968288352 -18.710423764138113 0 -18.710423764138113 -4.9934626839767589 0 0 0 0 -11.758719094677417 -14.122318852349963 0 -14.122318852349963 -3.9348609931766987 0 0 0 0 -4.3740964791795705 -17.187068012276541 0 -17.187068012276541 -3.8374905429272985 0 0 0 0 -9.7613975065564773 -17.297390079712386 0 -17.297390079712386 0.0020165276564512169 0 0 0 0 -15.679333711562322 -12.226677433418445 0 -12.226677433418445 -6.9614125375519507 0 0 0 0 -15.0441078974427 -15.069981656376513 0 -15.069981656376513 -0.0017768219404388219 0 0 0 0 -12.10155261901491 -15.504463618862246 0 -15.504463618862246 -11.905074416612479 0 0 0 0 10.887924789012686 0.95258070763247815 0 0.95258070763247815 -1.2190505083781318 0 0 0 0 -14.225465026362144 -16.603029222154873 0 -16.603029222154873 -6.7930643597276799 0 0 0 0 0.34524333618467296 -0.67017419001336087 0 -0.67017419001336087 1.1537900562470895 0 0 0 0 2.7311631617176317 -3.0100668209634023 0 -3.0100668209634023 -0.11098702434719598 0 0 0 0 3.2791148993219394 -5.2367648144409031 0 -5.2367648144409031 -4.7319598085250618 0 0 0 0 1.603557972026465 -0.13569521014142083 0 -0.13569521014142083 -2.2242342700228619 0 0 0 0 1.0880124265549291 -1.4840625725923733 0 -1.4840625725923733 0.97271369303142308 0 0 0 0 -5.4058940497834556 -13.664579819547725 0 -13.664579819547725 -11.990542254850766 0 0 0 0 3.2707779536085582 -7.6124405578025289 0 -7.6124405578025289 2.9858055718777905 0 0 0 0 1.1632244746205949 -4.050877004081304 0 -4.050877004081304 1.4061567484863318 0 0 0 0 0.22225117874040734 -5.5153555014730955 0 -5.5153555014730955 1.1380933283307968 0 0 0 0 -0.20813365794122518 -1.116119680579871 0 -1.116119680579871 1.3198414940171475 0 0 0 0 5.2856183428984878 -3.5939598294253301 0 -3.5939598294253301 -6.8990631779743126 0 0 0 0 2.7608199232908319 -2.767955466652964 0 -2.767955466652964 -0.38444266711614938 0 0 0 0 4.0235087577734703 -4.2417936165034007 0 -4.2417936165034007 -0.93998491821548669 0 0 0 0 -0.63085148025129456 -0.91369728388963267 0 -0.91369728388963267 -7.2219963393799844 0 0 0 0 -0.61824162656193593 -2.8520782978943231 0 -2.8520782978943231 -0.20086378503351199 0 0 0 0 1.4951247013054356 -2.8440660843254051 0 -2.8440660843254051 -0.77912931384965445 0 0 0 0 2.3046173012426152 -3.9874242540681735 0 -3.9874242540681735 -4.5302838336104969 0 0 0 0 2.4027554925739878 -6.8285240552515916 0 -6.8285240552515916 -4.1764856908775982 0 0 0 0 -2.3116520854782721 -4.6594973505557391 0 -4.6594973505557391 -0.81668787657145003 0 0 0 0 5.5830228318827722 -1.9944573395550833 0 -1.9944573395550833 -5.3636119158136353 0 0 0 0 5.2113976538257702 -3.6528592243662388 0 -3.6528592243662388 3.2792390365302708 0 0 0 0 5.8474575253535477 -1.8305406930298886 0 -1.8305406930298886 -6.2250757838464779 0 0 0 0 0.11072594404025971 0.13377349663993243 0 0.13377349663993243 -0.764122656138845 0 0 0 0 -47.165804793681218 -3.9600636910595313 0 -3.9600636910595313 17.783834166204542 0 0 0 0 31.836251860910124 -88.676285858597112 0 -88.676285858597112 -0.13448940551228339 0 0 0 0 -0.076727772407245709 -0.18100515789449467 0 -0.18100515789449467 0.5863707827572 0 0 0 0 -16.234441818951382 -10.658990432220889 0 -10.658990432220889 -0.014505774346616818 0 0 0 0 50.946465378447101 16.448491679376275 0 16.448491679376275 -2.8120443849547883 0 0 0 0 0.91024532026222005 -2.3181729740317678 0 -2.3181729740317678 2.3187071261709207 0 0 0 0 0.91417336937132632 -2.3472092125541053 0 -2.3472092125541053 -2.1785116206920065 0 0 0 0 8.7858554370432103 -7.1364553774910746 0 -7.1364553774910746 -0.0050709856625131789 0 0 0 0 0.09833254047740958 -0.82973875044725531 0 -0.82973875044725531 -1.4107236652506714 0 0 0 0 4.3463728236220049 -6.864373388988497 0 -6.864373388988497 -0.4897065355853556 0 0 0 0 2.7651570099314995 -3.4651102276811798 0 -3.4651102276811798 -2.5769784379572229 0 0 0 0 0.78411294715878199 -2.4720086935756171 0 -2.4720086935756171 -0.64583257746606448 0 0 0 0 0.99123385817119924 -3.351136208945718 0 -3.351136208945718 -0.58640378435484308 0 0 0 0 1.3503723338575817 -2.0561976731837746 0 -2.0561976731837746 -2.07262292324112 0 0 0 0 -1.3483095201518154 -1.8363857177018872 0 -1.8363857177018872 -1.5111061356307118 0 0 0 0 0.17576774814497931 -1.6622200287670097 0 -1.6622200287670097 -1.9948721015495963 0 0 0 0 3.3821590302559343 -5.3608925442185864 0 -5.3608925442185864 -1.7380643120118862 0 0 0 0 3.4916998096459793 -5.2928333679756179 0 -5.2928333679756179 -1.1363688647434174 0 0 0 0 0.14861300090069562 -10.639125871286524 0 -10.639125871286524 -2.8420088610218954 0 0 0 0 0.61519411462800555 -2.619506645080504 0 -2.619506645080504 -3.3164910032727803 0 0 0 0 4.0255648638003549 -4.2677981574224759 0 -4.2677981574224759 -0.10718628722679568 0 0 0 0 -0.9037691256580267 -7.518052795045012 0 -7.518052795045012 -1.1924848837080049 0 0 0 0 -0.58086146149742035 -8.9093196652112887 0 -8.9093196652112887 -9.9978534189873809 0 0 0 0 2.6602344657840149 -5.9669538557845954 0 -5.9669538557845954 -2.0667606184288161 0 0 0 0 -8.6845233585063397 -1.5630194931036385 0 -1.5630194931036385 -8.7625966029918345 0 0 0 0 3.1150904125173859 -6.5452511068221106 0 -6.5452511068221106 -4.817632773414914 0 0 0 0 1.0953888222356909 -4.4084193254166166 0 -4.4084193254166166 -0.61722021460445831 0 0 0 0 2.7023552495484182 -5.1034085234423401 0 -5.1034085234423401 -0.48413174026125771 0 0 0 0 0.5543365276724046 -4.0998453561804844 0 -4.0998453561804844 -0.050709668360889706 0 0 0 0 1.3261013417904906 -4.225808248355861 0 -4.225808248355861 -0.63773024370311759 0 0 0 0 0.39183130954370426 -4.1198328022578607 0 -4.1198328022578607 -1.3949274375863752 0 0 0 0 2.7775535017881339 -4.2294525131278533 0 -4.2294525131278533 -1.4196510404708533 0 0 0 0 -0.40746193822148058 -2.5910218447974138 0 -2.5910218447974138 -2.5699859671017506 0 0 0 0 2.7480496467833291 -4.8038819334378786 0 -4.8038819334378786 -1.0409305430744098 0 0 0 0 1.1571039091122657 -2.7932677221215272 0 -2.7932677221215272 -0.39533489755740447 0 0 0 0 4.4911313799511845 -6.2238539360223513 0 -6.2238539360223513 0.4467545697980313 0 0 0 0 2.5011817412123492 -5.1748820215034357 0 -5.1748820215034357 0.68838297967886319 0 0 0 0 3.1298419426548207 -3.8073189804458707 0 -3.8073189804458707 0.86026514696641243 0 0 0 0 5.3734570954111405 -7.8058816152970394 0 -7.8058816152970394 5.0173132318050193 0 0 0 0 -1.4313179598887142 -2.7679515563106349 0 -2.7679515563106349 3.0737199959112473 0 0 0 0 2.8679596759920969 -6.4651710025173088 0 -6.4651710025173088 0.8810267068709976 0 0 0 0 5.3207831449808509 -8.1829011088660764 0 -8.1829011088660764 2.5421305537784065 0 0 0 0 4.181417784982159 -4.3819114084140089 0 -4.3819114084140089 -2.3859455095904134 0 0 0 0 0.13092528247749513 -2.8751752927846219 0 -2.8751752927846219 -1.5010758124457055 0 0 0 0 2.119202614589085 -4.5731328586989548 0 -4.5731328586989548 -2.367150689355185 0 0 0 0 2.5068960820554693 -3.2554144401588765 0 -3.2554144401588765 -1.5283569917179223 0 0 0 0 1.0739655670227535 -4.8088357259742338 0 -4.8088357259742338 0.06038223672658205 0 0 0 0 3.0149396807792073 -5.6592894058776437 0 -5.6592894058776437 -1.1600705327218748 0 0 0 0 0.13568942798135453 -2.9524573413921757 0 -2.9524573413921757 -1.8912230246973571 0 0 0 0 3.919260408867558 -7.0919865474888866 0 -7.0919865474888866 -0.88164489071434637 0 0 0 0 5.5942068970289256 -13.319431810317496 0 -13.319431810317496 6.6573920464361436 0 0 0 0 0.86585354741953324 -12.584234007302655 0 -12.584234007302655 7.6821629841979302 0 0 0 0 1.3090311797113827 -7.6428158516046096 0 -7.6428158516046096 6.5414046091573255 0 0 0 0 5.1397807197349721 -7.1413562545358218 0 -7.1413562545358218 -0.087018497668395867 0 0 0 0 0.026212193558251329 -2.8223041344721693 0 -2.8223041344721693 -1.1402243817214028 0 0 0 0 5.5757340879699768 -8.3305735981966791 0 -8.3305735981966791 -3.7599109577276977 0 0 0 0 6.5577321139280684 -7.3265441966777871 0 -7.3265441966777871 4.2061459530257945 0 0 0 0 5.9574438626950155 -5.1412582853189548 0 -5.1412582853189548 1.2289266284096811 0 0 0 0 5.8939303952138289 -6.8325148444691877 0 -6.8325148444691877 0.3725680905754416 0 0 0 0 10.561707233231573 -7.8711769757655929 0 -7.8711769757655929 -6.5345630140564026 0 0 0 0 9.5919445510317018 -10.770523236430563 0 -10.770523236430563 2.5752129624420377 0 0 0 0 0.077817748290819111 -1.914746476758534 0 -1.914746476758534 -2.4924828801887209 0 0 0 0 -64.151227109774482 0.2436885792612884 0 0.2436885792612884 2.8126344735064777 0 0 0 0 43.892744392689565 -17.715963266241488 0 -17.715963266241488 -73.847828564028532 0 0 0 0 0.16094406272582162 -0.3194571830984323 0 -0.3194571830984323 -0.023007219865156969 0 0 0 0 -16.132681300505283 -30.900222183974847 0 -30.900222183974847 17.716372306274934 0 0 0 0 -3.0367266222303115 -7.869605718463319 0 -7.869605718463319 -12.722636775746452 0 0 0 0 0.23878067992689189 -3.2624906611900517 0 -3.2624906611900517 2.3235561863544589 0 0 0 0 7.9165978893797728 -11.548268538655066 0 -11.548268538655066 -13.381935608651087 0 0 0 0 61.828538089786889 -52.278845263062067 0 -52.278845263062067 -71.620436710300055 0 0 0 0 2.0531450748385396 -3.2703268252098496 0 -3.2703268252098496 -4.7438192802543631 0 0 0 0 -0.53279083688448736 -6.607961670677696 0 -6.607961670677696 0.5618803884681256 0 0 0 0 88.705540520990326 9.1726628247652116 0 9.1726628247652116 -188.33793092376527 0 0 0 0 -0.7053230657891234 -1.3342643484135337 0 -1.3342643484135337 1.2482386295457975 0 0 0 0 3.6094190804269601 -17.174552339328784 0 -17.174552339328784 18.83463785058666 0 0 0 0 -89.605887573820382 57.05993589048262 0 57.05993589048262 -41.157196959335124 0 0 0 0 -91.339121082783095 -19.783932665523025 0 -19.783932665523025 26.125372828091713 0 0 0 0 19.533588458170925 -7.092556558745855 0 -7.092556558745855 14.428463095846382 0 0 0 0 20.678314958940064 -32.536115172836617 0 -32.536115172836617 0.065414832302849391 0 0 0 0 6.0766912789767957 -8.599691917463133 0 -8.599691917463133 16.577746887965986 0 0 0 0 -11.798310219580344 -18.281171876888038 0 -18.281171876888038 20.835050317398782 0 0 0 0 12.440023569717596 -3.3589787698047076 0 -3.3589787698047076 -6.84751813091043 0 0 0 0 11.046547899571681 -8.8375560531126034 0 -8.8375560531126034 4.429325022906923 0 0 0 0 9.7522909514791536 -9.3127759643966783 0 -9.3127759643966783 0.42308462106120714 0 0 0 0 5.6959415231413786 -2.4958696895043921 0 -2.4958696895043921 0.18026188972019241 0 0 0 0 7.7783324002321024 -3.5083421099498082 0 -3.5083421099498082 -5.601937045431896 0 0 0 0 5.9106581585201639 -1.7382426929366375 0 -1.7382426929366375 0.20649491503900208 0 0 0 0 4.5027636110728224 -5.1239941313832276 0 -5.1239941313832276 3.3073382624224905 0 0 0 0 3.9872395883830904 -2.9767869456563147 0 -2.9767869456563147 1.5366873304890785 0 0 0 0 1.8040137773004972 -5.2886320422430799 0 -5.2886320422430799 3.8448916914830988 0 0 0 0 -4.4705112212600397 -140.06696599651104 0 -140.06696599651104 76.913958299141086 0 0 0 0 4.4501283535358667 -4.2876787665225597 0 -4.2876787665225597 3.725702410900297 0 0 0 0 49.811467650812688 -106.44127733435522 0 -106.44127733435522 17.381207175971213 0 0 0 0 48.080481782397158 -67.816052059917638 0 -67.816052059917638 -63.95929853027701 0 0 0 0 3.9402989645041089 -3.4622394483749304 0 -3.4622394483749304 4.0532270817329845 0 0 0 0 -82.844701177843689 -9.2821678102481826 0 -9.2821678102481826 4.7626155871657829 0 0 0 0 3.6221928272590205 -4.4772679113444838 0 -4.4772679113444838 4.2098234971929074 0 0 0 0 -83.123246276110052 -19.920526695904499 0 -19.920526695904499 -4.767663692797214 0 0 0 0 29.634346775780614 -58.072652789938729 0 -58.072652789938729 -20.906869796461251 0 0 0 0 -1.6361352300882572 -6.0253309784311568 0 -6.0253309784311568 -58.955620421264143 0 0 0 0 -11.831864571764527 -40.102902552529486 0 -40.102902552529486 -8.0459633022819617 0 0 0 0 -13.590025317647815 -42.793766440889158 0 -42.793766440889158 -3.9943021473955014 0 0 0 0 60.399005540661165 -54.756932584652532 0 -54.756932584652532 -27.506378672682331 0 0 0 0 139.30625892307216 -52.655232221939514 0 -52.655232221939514 -31.192017187143392 0 0 0 0 61.082910129029415 -47.056452003984816 0 -47.056452003984816 -28.895796829048777 0 0 0 0 52.781385470985697 -41.402561692349991 0 -41.402561692349991 -18.28841753467168 0 0 0 0 1.0637772432644255 0.32272464867391193 0 0.32272464867391193 0.22855157241953569 0 0 0 0 14.491714263751419 -69.935146698218887 0 -69.935146698218887 100.33973968837745 0 0 0 0 56.16880475821381 -51.54811821536714 0 -51.54811821536714 -22.253105912028332 0 0 0 0 57.698655243355688 -61.946053976228086 0 -61.946053976228086 0.70786912185940309 0 0 0 0 21.029945123125799 -27.758798016080618 0 -27.758798016080618 29.040164398535126 0 0 0 0 2.579468676372926 -6.7045908365112155 0 -6.7045908365112155 1.0671090170144453 0 0 0 0 3.7141414044898724 -1.1237875463448646 0 -1.1237875463448646 -3.1409712373130763 0 0 0 0 8.3434018856205512 -7.856589875440477 0 -7.856589875440477 -9.6481570125233702 0 0 0 0 22.06928573516052 -1.5299366613289749 0 -1.5299366613289749 -6.964267841538458 0 0 0 0 11.149196865515478 -7.6598552318628208 0 -7.6598552318628208 -2.8920092852104062 0 0 0 0 56.785641140946609 -4.8978790982837381 0 -4.8978790982837381 -9.8798816766484379 0 0 0 0 0.60737800204488224 -0.8898266748533068 0 -0.8898266748533068 -0.023850122411882335 0 0 0 0 88.858100118834045 35.566735396965669 0 35.566735396965669 1.2115520003244455 0 0 0 0 59.140365815477708 -73.166765196921915 0 -73.166765196921915 3.2937586331481725 0 0 0 0 31.748543495579725 3.5031682156241004 0 3.5031682156241004 12.848622558185525 0 0 0 0 119.40255098325542 -12.213709968422336 0 -12.213709968422336 -38.133059764701102 0 0 0 0 -2.7011472314925413 -6.5403780541714696 0 -6.5403780541714696 0.32137280525785172 0 0 0 0 0.37203783567983884 -0.96794474460117463 0 -0.96794474460117463 1.3198788170121318 0 0 0 0 110.9015383516271 -26.451439328224296 0 -26.451439328224296 6.0373093147306349 0 0 0 0 43.5225184904466 9.2437288488326885 0 9.2437288488326885 7.3752339954799027 0 0 0 0 195.52143465762811 25.060993522095714 0 25.060993522095714 -23.74462321784813 0 0 0 0 61.930761389601685 -47.835618472572605 0 -47.835618472572605 0.11007592022868855 0 0 0 0 0.1435337258168623 0.03873320975614547 0 0.03873320975614547 0.52965518735845762 0 0 0 0 -7.7591147971079408 -7.1945935685730547 0 -7.1945935685730547 0.0059217423113295808 0 0 0 0 -46.080208792067424 -48.254660378101107 0 -48.254660378101107 16.641912126502575 0 0 0 0 -18.708249561740558 -51.631122204205894 0 -51.631122204205894 -0.012181333966509555 0 0 0 0 28.964272293104841 -12.253231978646454 0 -12.253231978646454 6.5533834754569398 0 0 0 0 -38.918053122919446 -26.673505441448469 0 -26.673505441448469 21.661081062554331 0 0 0 0 45.862835864207227 -22.072172348672211 0 -22.072172348672211 -16.418976811090033 0 0 0 0 -32.221113370783542 -55.419338964746657 0 -55.419338964746657 -1.4147945486183744 0 0 0 0 -91.206234640237653 -86.145473088016161 0 -86.145473088016161 -16.787714960235462 0 0 0 0 -49.917566165764583 -56.460634015830692 0 -56.460634015830692 4.062287792119605 0 0 0 0 -83.609197615720404 19.974432364618224 0 19.974432364618224 -21.97136230648357 0 0 0 0 21.528538691482936 -38.778809258053116 0 -38.778809258053116 -92.890635503685189 0 0 0 0 -108.28119996659552 -59.59616702565836 0 -59.59616702565836 -7.3524140180406903 0 0 0 0 -11.372549343534047 -39.686453834006898 0 -39.686453834006898 -89.472926368149274 0 0 0 0 -0.063634448666263665 -1.4127104856704946 0 -1.4127104856704946 0.32891224884032155 0 0 0 0 -108.51070703815458 -2.0594271868256673 0 -2.0594271868256673 2.7434086475041113 0 0 0 0 -2.6413643539253826 -10.825568896338154 0 -10.825568896338154 -13.76387527969564 0 0 0 0 13.524222195657785 -5.3146917755793766 0 -5.3146917755793766 -0.91184961018734612 0 0 0 0 0.74957731984219222 -1.1805123772202464 0 -1.1805123772202464 0.57121879816195076 0 0 0 0 96.84447263761831 -59.261262419109698 0 -59.261262419109698 35.019893100331501 0 0 0 0 0.63764656585361656 -4.0882178229042907 0 -4.0882178229042907 7.9507429163360541 0 0 0 0 -2.3216934330866934 -26.865221935826412 0 -26.865221935826412 -9.2590257972607333 0 0 0 0 -19.707475148585218 -38.519367370007785 0 -38.519367370007785 133.81606002271292 0 0 0 0 0.61056788773103232 -2.8912557533077567 0 -2.8912557533077567 5.1216547411832281 0 0 0 0 349.40873825276321 -127.7546488490604 0 -127.7546488490604 35.621929959717818 0 0 0 0 -5.9495826053373548 58.778557565159076 0 58.778557565159076 2.4777906980634725 0 0 0 0 -16.619347682119042 -12.243457254683562 0 -12.243457254683562 41.873549631800415 0 0 0 0 -0.099096335000314895 -0.16416723149117551 0 -0.16416723149117551 0.63011251205902852 0 0 0 0 -50.278021235553751 -64.675152102166976 0 -64.675152102166976 18.678860913709286 0 0 0 0 -25.805348995534587 -39.350611865505925 0 -39.350611865505925 -32.264424021595914 0 0 0 0 -43.808245812711903 -70.717257096868707 0 -70.717257096868707 3.3339082707043417 0 0 0 0 8.0574513505816867 -78.048448119452587 0 -78.048448119452587 -59.222995774085575 0 0 0 0 -45.503464863191766 -68.204112777930277 0 -68.204112777930277 43.619816995583392 0 0 0 0 0.78421407008852473 -1.194588026424352 0 -1.194588026424352 1.6913644367546183 0 0 0 0 -118.1470484101792 -15.623580096545084 0 -15.623580096545084 -9.3258959854451859 0 0 0 0 -47.063652175438619 -41.879853218354583 0 -41.879853218354583 -17.103163763400971 0 0 0 0 -64.895238080129275 -54.295787568928063 0 -54.295787568928063 -0.017197047391164233 0 0 0 0 0.20123477880679275 -328.03599187847931 0 -328.03599187847931 178.44921650525612 0 0 0 0 370.39741036071428 -401.93033734332585 0 -401.93033734332585 -0.19776319063590236 0 0 0 0 842.65194381873187 -193.16699800401642 0 -193.16699800401642 -34.001071808208508 0 0 0 0 225.89686496405375 -188.62778918577715 0 -188.62778918577715 44.216089898009159 0 0 0 0 129.50964918105456 -180.36039642019387 0 -180.36039642019387 94.343857453925466 0 0 0 0 226.98530258575192 -195.37450122082282 0 -195.37450122082282 83.598064524658184 0 0 0 0 153.68690089318079 -50.655364361331522 0 -50.655364361331522 11.206826607598487 0 0 0 0 12.203975447617267 -121.65343656600635 0 -121.65343656600635 81.431400396379104 0 0 0 0 56.097480650132638 -80.274383345055867 0 -80.274383345055867 87.470344588171429 0 0 0 0 0.14581058888234111 -61.867936948172883 0 -61.867936948172883 90.75875692187401 0 0 0 0 -0.16376807151738149 0.23744709114796336 0 0.23744709114796336 0.33433660051462155 0 0 0 0 -0.27735567823221174 0.12860494273978063 0 0.12860494273978063 0.5819170208408373 0 0 0 0 35.346440920460736 -29.921190398627004 0 -29.921190398627004 10.316567847764418 0 0 0 0 3.4537246395193506 6.357008903660244 0 6.357008903660244 24.387496677092713 0 0 0 0 14.294634623518505 -21.16219719859464 0 -21.16219719859464 32.549713785134827 0 0 0 0 -1.3503065062286623 -7.9015512939422479 0 -7.9015512939422479 34.051105817357893 0 0 0 0 11.594235933175241 -24.328145626531523 0 -24.328145626531523 4.7940886965116078 0 0 0 0 0.0018801145068749747 0.026495675685952236 0 0.026495675685952236 0.24165957115795678 0 0 0 0 7.4333502003282774 -6.856806378953479 0 -6.856806378953479 1.8540967254091356 0 0 0 0 1.1204007494706261 -1.1556401963204408 0 -1.1556401963204408 1.824924592247033 0 0 0 0 51.846594389639904 -47.939938405924181 0 -47.939938405924181 34.968949714879273 0 0 0 0 2.8048453239644004 -3.6441998734953813 0 -3.6441998734953813 2.8130350729279598 0 0 0 0 0.55211753049034229 -0.82731920988344498 0 -0.82731920988344498 1.1303172247439051 0 0 0 0 4.2740836192097049 -5.7986704655095309 0 -5.7986704655095309 9.7516289569757646 0 0 0 0 0.41300765117497651 -3.5263566100856778 0 -3.5263566100856778 5.0460353774025606 0 0 0 0 2.9651472479472432 -7.0520074643236512 0 -7.0520074643236512 4.9399133857023116 0 0 0 0 4.0089323726897419 -4.8828446561401506 0 -4.8828446561401506 3.4602069530646986 0 0 0 0 2.8085278181916848 -3.1062103330154756 0 -3.1062103330154756 -0.38976333260608698 0 0 0 0 4.6094792709843659 -6.2939434839964292 0 -6.2939434839964292 7.6963618064601178 0 0 0 0 4.489559396468394 -4.9443851086834911 0 -4.9443851086834911 3.1178604608030582 0 0 0 0 3.4761134400432638 -3.9252911018957093 0 -3.9252911018957093 5.8098602292775468 0 0 0 0 1.4739405427681049 -10.195461248591528 0 -10.195461248591528 11.805963261605939 0 0 0 0 -0.91234342256818479 -0.97850230820561279 0 -0.97850230820561279 2.9092153821093909 0 0 0 0 0.94828205905999052 -2.2341813878553971 0 -2.2341813878553971 3.7833705762086964 0 0 0 0 1.4716561229084206 -2.0136045667308702 0 -2.0136045667308702 2.2968541396157178 0 0 0 0 0.72574472326959949 -2.1476108492797721 0 -2.1476108492797721 2.4604053835655577 0 0 0 0 6.414486565743573 -3.7286520912821288 0 -3.7286520912821288 -0.19305427893050364 0 0 0 0 3.6576767945553001 -7.1643500611453419 0 -7.1643500611453419 -3.1906179595825961 0 0 0 0 1.3210597635692274 -2.6968597845694262 0 -2.6968597845694262 2.6676607970200834 0 0 0 0 2.7169693408759485 -3.5184752769582701 0 -3.5184752769582701 1.0140475671178137 0 0 0 0 2.318944873531116 -3.1956685094487343 0 -3.1956685094487343 3.3186466445779601 0 0 0 0 2.4228230893822911 -3.1024023338932238 0 -3.1024023338932238 2.1012658420140724 0 0 0 0 4.1031543035387585 -3.0520484243561441 0 -3.0520484243561441 3.5156185798241495 0 0 0 0 3.9564049050604808 -3.6840966558065702 0 -3.6840966558065702 5.9292446123745322 0 0 0 0 4.6220144099838194 -2.7480793841189666 0 -2.7480793841189666 3.6900015009014169 0 0 0 0 4.1958110772224799 -2.8167771446304259 0 -2.8167771446304259 0.92486155398879077 0 0 0 0 3.4451295985034847 -1.9607751233583457 0 -1.9607751233583457 0.58807903273029982 0 0 0 0 2.8984308765202513 -4.5991191438288297 0 -4.5991191438288297 4.0360147542469349 0 0 0 0 -28.049527817376202 -16.64764792513688 0 -16.64764792513688 -8.2207208428626473 0 0 0 0 -2.8267927859269548 -5.2228677854473062 0 -5.2228677854473062 11.432826768615996 0 0 0 0 0.0024038984702485777 -0.045516953671349114 0 -0.045516953671349114 0.36135010719461658 0 0 0 0 -6.206406719129518 -17.772805414217601 0 -17.772805414217601 -11.334199766039092 0 0 0 0 -2.8812483604924637 -14.976942564669116 0 -14.976942564669116 -11.921929591706203 0 0 0 0 -0.00066428388163330965 -16.110998936002943 0 -16.110998936002943 -14.006196023057782 0 0 0 0 -3.9592158168270544 -15.291357065530974 0 -15.291357065530974 -11.057400754541959 0 0 0 0 1.3071649957018963 -0.13747221013272792 0 -0.13747221013272792 4.7622753905661739 0 0 0 0 -0.10225500369779184 -5.6113299741700757 0 -5.6113299741700757 -13.513894283061745 0 0 0 0 -7.3449113817750913 -11.977422148098867 0 -11.977422148098867 3.0409500461246353 0 0 0 0 38.562673267556633 -38.458923098027526 0 -38.458923098027526 20.300142122601756 0 0 0 0 37.838817516761765 -23.065775956483776 0 -23.065775956483776 11.863560674036307 0 0 0 0 120.92218357816887 -56.84949223681906 0 -56.84949223681906 20.897929352612664 0 0 0 0 -0.019306006031085874 -0.74638327431564155 0 -0.74638327431564155 0.1075129019152925 0 0 0 0 44.990615640541819 -24.248647998501838 0 -24.248647998501838 8.8483752725524027 0 0 0 0 -0.020475225631320079 -1.2592212550990012 0 -1.2592212550990012 0.10569820391583562 0 0 0 0 19.144115890067496 -29.839321530209418 0 -29.839321530209418 16.510083946606755 0 0 0 0 16.452391292801622 -37.564635418025318 0 -37.564635418025318 20.550103579262213 0 0 0 0 12.472316755409338 -35.982071822501894 0 -35.982071822501894 20.586729133667177 0 0 0 0 11.720388130667743 -36.212307101755869 0 -36.212307101755869 20.553145118361499 0 0 0 0 13.340141656271044 -36.52170221193046 0 -36.52170221193046 20.021497127387192 0 0 0 0 12.091574292832775 -35.441795441309296 0 -35.441795441309296 25.29288866654133 0 0 0 0 12.163053251797464 -33.282876860517717 0 -33.282876860517717 20.756682668320536 0 0 0 0 11.822745762961972 -34.083315792107669 0 -34.083315792107669 19.696135634323582 0 0 0 0 2.9303183299007287 -24.658589683065657 0 -24.658589683065657 18.45976917245207 0 0 0 0 5.3036320113415059 -19.571874138433486 0 -19.571874138433486 25.855687468841325 0 0 0 0 9.2704098896729192 -32.010099557955982 0 -32.010099557955982 26.585617590635593 0 0 0 0 16.966043562008508 -38.95240145662865 0 -38.95240145662865 38.512290566190131 0 0 0 0 13.29521627672284 -30.971064514364116 0 -30.971064514364116 22.812099473928356 0 0 0 0 10.759969727039561 -26.433413707153704 0 -26.433413707153704 33.945427523021863 0 0 0 0 10.563394105504358 -25.149772294279501 0 -25.149772294279501 38.330911988026429 0 0 0 0 -0.97192611884838698 -10.82180352805517 0 -10.82180352805517 43.37908076003896 0 0 0 0 -0.17447729861875061 -0.3395768106430701 0 -0.3395768106430701 0.24255421088850504 0 0 0 0 -8.0302905889657268 -4.6695478612018633 0 -4.6695478612018633 22.999869142419811 0 0 0 0 3.7989272732111203 -22.814393950097838 0 -22.814393950097838 18.951222063136811 0 0 0 0 -2.2790916381472925 1.8747390978314797 0 1.8747390978314797 15.656490353670961 0 0 0 0 -1.6764632198319305 0.93805424427409889 0 0.93805424427409889 -4.2331180256196603 0 0 0 0 5.451972889204626 -11.26949784822682 0 -11.26949784822682 -8.3944929360095557 0 0 0 0 -2.8072355489703114 -3.2831919688010203 0 -3.2831919688010203 2.192788656177072 0 0 0 0 -5.9923318945902935 -1.3546995710100092 0 -1.3546995710100092 1.5260558179247212 0 0 0 0 -2.7296072083922649 -2.0300696659250619 0 -2.0300696659250619 0.42666041554362977 0 0 0 0 -2.0453727617491495 -7.7758181805875211 0 -7.7758181805875211 -2.4140068013043674 0 0 0 0 2.523459519199605 -23.711760101856271 0 -23.711760101856271 12.12009550160019 0 0 0 0 -0.65009453913404158 -0.27824903118178312 0 -0.27824903118178312 -0.18806833978662318 0 0 0 0 -2.0024449909119539 -6.5809117261815118 0 -6.5809117261815118 25.232259545913621 0 0 0 0 -3.9684245771995847 -16.316165493652079 0 -16.316165493652079 40.171372869077459 0 0 0 0 18.131206521226659 -50.310140303746266 0 -50.310140303746266 66.177338757266625 0 0 0 0 29.127490709975973 -40.512165492744771 0 -40.512165492744771 33.338325987258941 0 0 0 0 -39.329455978663646 -42.30991833322696 0 -42.30991833322696 75.814895532664195 0 0 0 0 -47.856573705483243 -61.5750465460751 0 -61.5750465460751 -43.041716923336935 0 0 0 0 -0.13952886543178789 0.22478203288099152 0 0.22478203288099152 -0.022889475783612667 0 0 0 0 -6.4078392592165017 -8.9738837287311526 0 -8.9738837287311526 99.90921155943397 0 0 0 0 -43.665321303160908 -27.177502380314763 0 -27.177502380314763 55.900149992943625 0 0 0 0 -35.96323970342246 -53.661582073218597 0 -53.661582073218597 47.660377574837185 0 0 0 0 -7.6716316429985341 -20.725769880088592 0 -20.725769880088592 81.820940481578873 0 0 0 0 -47.943804958933697 -56.008553468237551 0 -56.008553468237551 89.197353528574013 0 0 0 0 -45.339221061372427 -71.959531763347513 0 -71.959531763347513 51.5820422924794 0 0 0 0 -48.910601352711524 -54.838881562549432 0 -54.838881562549432 61.172133814472545 0 0 0 0 40.596690472631394 -71.271275287056596 0 -71.271275287056596 55.675680586406088 0 0 0 0 8.4377977676308547 -41.340867960760988 0 -41.340867960760988 125.63216229130376 0 0 0 0 35.844875974511069 -91.584951300635112 0 -91.584951300635112 127.9527873867919 0 0 0 0 67.532728806928844 -52.709711112443074 0 -52.709711112443074 49.8114548652552 0 0 0 0 11.790581529029566 -2.014266702050918 0 -2.014266702050918 -52.873349240146808 0 0 0 0 1.1279721906476472 -0.043848366502583502 0 -0.043848366502583502 0.064826528001360906 0 0 0 0 -0.86790347482212837 -60.659782292235832 0 -60.659782292235832 180.77415868871503 0 0 0 0 -13.785204136069751 -19.848111640803836 0 -19.848111640803836 -24.014227531830556 0 0 0 0 44.78802823972444 -35.553041179014144 0 -35.553041179014144 -21.978873843563633 0 0 0 0 11.692084658264548 -39.131102199920861 0 -39.131102199920861 -36.941077820139071 0 0 0 0 -7.7008803476505392 -10.711161832493872 0 -10.711161832493872 -10.301084700440697 0 0 0 0 -146.13013060434892 -30.836368014327142 0 -30.836368014327142 35.530966076990808 0 0 0 0 -26.201087130855285 -49.839010969833907 0 -49.839010969833907 -2.477275374779083 0 0 0 0 31.476193800782198 -85.278026631477246 0 -85.278026631477246 11.312080263132884 0 0 0 0 -26.769007295756865 -46.996910551403289 0 -46.996910551403289 -9.0890592188284245 0 0 0 0 -63.221631242358626 -35.127388227937445 0 -35.127388227937445 -11.182611068766164 0 0 0 0 10.986220159248319 -24.881933107048326 0 -24.881933107048326 -12.381087220952395 0 0 0 0 0.52888124365429756 -0.38921750778659181 0 -0.38921750778659181 -0.66512902523028572 0 0 0 0 30.65722948914231 4.013134983272721 0 4.013134983272721 -7.4260079089526698 0 0 0 0 3.9829358344311458 -10.392089584375753 0 -10.392089584375753 -8.4639890838527663 0 0 0 0 -36.659970791333876 -57.615135900056885 0 -57.615135900056885 -24.590184388846865 0 0 0 0 -35.514551545940662 -29.585783195671866 0 -29.585783195671866 7.7426279026803968 0 0 0 0 -18.03659779162183 -58.92524778159077 0 -58.92524778159077 -43.944124086819102 0 0 0 0 -64.222292990987341 -63.052175221926063 0 -63.052175221926063 -35.323351234810616 0 0 0 0 -18.046048166290234 -57.473981722123426 0 -57.473981722123426 -50.477605090987709 0 0 0 0 -15.105473488754228 -24.204831592467599 0 -24.204831592467599 -48.651058549899204 0 0 0 0 -46.274740218510686 -43.787630674739376 0 -43.787630674739376 -34.204864126310895 0 0 0 0 -30.052847633581166 -18.299326308155287 0 -18.299326308155287 -13.550641544255086 0 0 0 0 0.73987413818816283 -0.489584396462039 0 -0.489584396462039 -0.97631986707092722 0 0 0 0 5.8063933621781416 -8.7059791042543111 0 -8.7059791042543111 -9.7118410645452968 0 0 0 0 -14.228784064489219 -17.275175025557928 0 -17.275175025557928 -13.991167385390327 0 0 0 0 -9.7439172917237329 -18.48755807447651 0 -18.48755807447651 -7.5739567971531869 0 0 0 0 0.75186545375131519 -0.51234668398539007 0 -0.51234668398539007 -0.85090416365269306 0 0 0 0 8.6873674046625666 -3.4298527289752201 0 -3.4298527289752201 -17.114949591925324 0 0 0 0 1.6263678098914625 -9.0646111424840683 0 -9.0646111424840683 -8.4471020440487337 0 0 0 0 0.86875453258750213 -12.194215525700656 0 -12.194215525700656 -4.0540062557047349 0 0 0 0 4.0989672802334098 -8.8433365433284052 0 -8.8433365433284052 -8.6714343814010135 0 0 0 0 3.9874604801934765 -8.3095292470334243 0 -8.3095292470334243 -9.7607174194031359 0 0 0 0 5.1577019356152221 -0.061443404164037929 0 -0.061443404164037929 -6.2707807149054133 0 0 0 0 1.1437941714600584 -6.4741363463117523 0 -6.4741363463117523 -10.479978800276513 0 0 0 0 1.4593476177064417 -4.9187157691766288 0 -4.9187157691766288 -4.273908319983093 0 0 0 0 2.018228933668567 -0.5151716947489362 0 -0.5151716947489362 -0.72961539952644117 0 0 0 0 -19.158202440568402 -43.568924031998904 0 -43.568924031998904 -58.225178548280383 0 0 0 0 -15.466844629268962 -37.165168141917547 0 -37.165168141917547 -68.951410505385866 0 0 0 0 0.34226798653346879 -0.42505709430337646 0 -0.42505709430337646 0.011200055854210689 0 0 0 0 -24.321666836256554 -31.87764684501326 0 -31.87764684501326 -27.90830031067253 0 0 0 0 0.095880970576217806 -57.670727864197033 0 -57.670727864197033 -76.717400072982855 0 0 0 0 -16.218401305322914 -34.244072826179035 0 -34.244072826179035 -23.150140704811747 0 0 0 0 -17.063566983337523 -25.661493956556569 0 -25.661493956556569 -41.087706440095644 0 0 0 0 -52.821995077052634 -29.09410433929952 0 -29.09410433929952 -89.161241082572815 0 0 0 0 0.47940402346221589 0.0047938260230857566 0 0.0047938260230857566 -0.28271016219704137 0 0 0 0 1.6921226991557887 -5.7229676161923635 0 -5.7229676161923635 20.653469207274611 0 0 0 0 -0.31569146300043371 0.81051988888657434 0 0.81051988888657434 5.3295201659748273 0 0 0 0 9.2696893205056767 -11.494601766309643 0 -11.494601766309643 12.150291444162576 0 0 0 0 -7.0485302843576392 -8.4011135831879074 0 -8.4011135831879074 -5.1475753837921729 0 0 0 0 -2.173185745821911 -1.3320332440671336 0 -1.3320332440671336 5.7834647120871523 0 0 0 0 0.22573301435070017 -1.4803941696555216 0 -1.4803941696555216 -0.63211333951599613 0 0 0 0 -0.36022617300568527 0.053969394541127258 0 0.053969394541127258 -5.1587990605148661 0 0 0 0 -0.042368407426762379 -1.4323673206558776 0 -1.4323673206558776 -0.18990591343510488 0 0 0 0 -33.239267938902231 -15.28117250289506 0 -15.28117250289506 0.37250165956265846 0 0 0 0 11.984461525030838 -11.640974432296389 0 -11.640974432296389 4.4642772709339624 0 0 0 0 3.6549713837889612 -2.5427863317081574 0 -2.5427863317081574 -1.5887495276001573 0 0 0 0 6.2247323041774507 -18.324060042901692 0 -18.324060042901692 5.6569381165263621 0 0 0 0 8.6723251340862362 -14.416450672229985 0 -14.416450672229985 10.313246790276025 0 0 0 0 29.447432917784624 -15.056818385178076 0 -15.056818385178076 3.9597253595929942 0 0 0 0 13.164758693036902 -11.169269500231394 0 -11.169269500231394 4.2006195470530656 0 0 0 0 19.497257234886092 -23.596624817380416 0 -23.596624817380416 7.7843045127028745 0 0 0 0 11.604720737017487 -34.151580910507619 0 -34.151580910507619 13.611196002406359 0 0 0 0 13.814982986373252 -34.257681880344535 0 -34.257681880344535 18.91241118857215 0 0 0 0 10.937273524973534 -36.667803791653569 0 -36.667803791653569 17.022348375990987 0 0 0 0 15.927580175562298 -35.28587912659998 0 -35.28587912659998 10.99416399992333 0 0 0 0 15.985040448080326 -35.795248323644046 0 -35.795248323644046 18.254052695012433 0 0 0 0 12.345770446510869 -36.852066929791363 0 -36.852066929791363 19.94157827993331 0 0 0 0 13.380780535987014 -34.606672725044973 0 -34.606672725044973 17.709936611925514 0 0 0 0 8.5007047864623928 -33.893303855077647 0 -33.893303855077647 18.445676531271602 0 0 0 0 23.745153968075613 -31.574898923045566 0 -31.574898923045566 13.815962056820354 0 0 0 0 9.986318647293956 -23.869177243923332 0 -23.869177243923332 9.8257743000594928 0 0 0 0 14.260735167182247 -30.588306541534621 0 -30.588306541534621 12.666870725450281 0 0 0 0 2.5976375066338733 -28.770846485273069 0 -28.770846485273069 12.801611829920034 0 0 0 0 11.251519588411156 -25.759264441283449 0 -25.759264441283449 7.4093241714617761 0 0 0 0 7.7130243077453997 -18.073266998881081 0 -18.073266998881081 5.6735224142066727 0 0 0 0 5.5562572703556725 -18.13373333902382 0 -18.13373333902382 6.5282193085695326 0 0 0 0 2.5717526842104235 -29.691658846518294 0 -29.691658846518294 1.7603452851508337 0 0 0 0 -3.4383852841956468 -22.219154319971494 0 -22.219154319971494 7.3290244846175483 0 0 0 0 -13.59781998233484 -27.544286435264439 0 -27.544286435264439 2.4661578544137228 0 0 0 0 -8.6183012727224195 -41.424761704978664 0 -41.424761704978664 -4.8195618214758724 0 0 0 0 5.1255889246885999 -31.959496186960678 0 -31.959496186960678 0.49512176441930933 0 0 0 0 -2.8820826949681759 -31.586584166459943 0 -31.586584166459943 9.4181193125223217 0 0 0 0 8.2652658439264997 -30.915064229964628 0 -30.915064229964628 9.4374425427886308 0 0 0 0 4.0771836882986463 -34.269402501455261 0 -34.269402501455261 14.212842423203256 0 0 0 0 12.485466753239962 -34.22009729533238 0 -34.22009729533238 11.56767489376216 0 0 0 0 11.840162503765896 -36.028436648372008 0 -36.028436648372008 6.7806844668084523 0 0 0 0 13.866877557276894 -36.04629281738562 0 -36.04629281738562 -5.5123718915456266 0 0 0 0 13.578366098634888 -36.567692150034873 0 -36.567692150034873 4.2134924675192451 0 0 0 0 3.6047678867380455 -36.471730109003147 0 -36.471730109003147 6.8892624359104957 0 0 0 0 17.884057466701961 -32.269124959521832 0 -32.269124959521832 -24.863444776197866 0 0 0 0 -8.1011182714726147 -16.755388972042056 0 -16.755388972042056 -9.2765846924594371 0 0 0 0 -10.031408655453561 -4.029079202747198 0 -4.029079202747198 -27.284462932160636 0 0 0 0 6.3993255774375939 -33.890733273856313 0 -33.890733273856313 -3.9162584703062748 0 0 0 0 6.6598768187943733 -35.204717962985569 0 -35.204717962985569 -33.507785218433128 0 0 0 0 13.896384122555901 5.8228862745759216 0 5.8228862745759216 -128.33047093276082 0 0 0 0 -5.8012804152604076 -28.038039531065806 0 -28.038039531065806 9.2991761984785626 0 0 0 0 0.46598172336052812 -18.826169038020453 0 -18.826169038020453 20.082760109959054 0 0 0 0 -3.0337556125518859 -25.953037567100182 0 -25.953037567100182 -14.243825622026634 0 0 0 0 8.1534091087396519 -93.000411726749007 0 -93.000411726749007 -32.617395036927064 0 0 0 0 -5.9859358222063292 -53.076937999093388 0 -53.076937999093388 34.439140573398618 0 0 0 0 -0.64649407266538716 -0.033903055055409581 0 -0.033903055055409581 0.041618867925183878 0 0 0 0 -6.6506378484780271 -64.972911544794897 0 -64.972911544794897 -21.189996879837054 0 0 0 0 8.583929754566725 -7.1855477252165656 0 -7.1855477252165656 30.069078183676538 0 0 0 0 -9.7658929192111827 -19.816686706297332 0 -19.816686706297332 0.16041038603361812 0 0 0 0 0.47655987645885034 -23.973464781312941 0 -23.973464781312941 -2.3381856859987238 0 0 0 0 5.8434808412212078 -27.345292596382933 0 -27.345292596382933 -12.846456016073716 0 0 0 0 17.835842296891315 -14.52889562690325 0 -14.52889562690325 -29.573147897221133 0 0 0 0 -0.59516843510532524 -1.1486413936813982 0 -1.1486413936813982 0.065423107069712216 0 0 0 0 3.2965070370246394 24.95684419517238 0 24.95684419517238 -20.400295696308604 0 0 0 0 -11.426401390478532 30.305151941885015 0 30.305151941885015 33.022313382556604 0 0 0 0 15.100115069708863 -10.679384601320635 0 -10.679384601320635 -4.3132731354562566 0 0 0 0 39.78915209772822 -53.451983878020656 0 -53.451983878020656 60.661548517506162 0 0 0 0 15.296063945419974 -18.057861589520144 0 -18.057861589520144 -11.693921038611734 0 0 0 0 51.913685846868248 -27.358116781423632 0 -27.358116781423632 -6.8695802165093482 0 0 0 0 29.891132320261931 -38.963411502878444 0 -38.963411502878444 8.1617351063987371 0 0 0 0 45.456432166303784 -37.3962091372141 0 -37.3962091372141 -5.5518152973559154 0 0 0 0 35.018618822142571 -31.087027061352273 0 -31.087027061352273 -3.9089991147520777 0 0 0 0 29.574033553288245 -39.680207720726685 0 -39.680207720726685 -3.5223110516790257 0 0 0 0 18.015480041337469 -29.968520867255847 0 -29.968520867255847 -4.5089926514374383 0 0 0 0 68.188317131883196 -21.733186091886637 0 -21.733186091886637 -5.8434737120860518 0 0 0 0 46.188212178743015 -32.514168495519698 0 -32.514168495519698 3.8757226177470443 0 0 0 0 48.90500676118063 -24.376561183298691 0 -24.376561183298691 4.038599297109613 0 0 0 0 84.225015329690677 -88.056416523084636 0 -88.056416523084636 16.129834674185986 0 0 0 0 -4.9606704961417716 -14.418199206038942 0 -14.418199206038942 0.19135316330269347 0 0 0 0 51.66920621825443 -8.2042406709542774 0 -8.2042406709542774 -3.1806943514930026 0 0 0 0 4.7687834960829871 -4.8626804362735943 0 -4.8626804362735943 -0.23988125322756382 0 0 0 0 5.8928544377404251 -23.700198455697091 0 -23.700198455697091 2.6446611916762777 0 0 0 0 12.420614408115398 -37.57539723256923 0 -37.57539723256923 -1.5517032090574503 0 0 0 0 11.948061050191427 -23.08199673711988 0 -23.08199673711988 -3.1731292183550295 0 0 0 0 16.542405861129737 -8.6137611650383406 0 -8.6137611650383406 -17.88631977742034 0 0 0 0 8.9124269078965881 -34.190217034551097 0 -34.190217034551097 -26.966408090986079 0 0 0 0 11.69253188797029 -12.886135783199279 0 -12.886135783199279 -2.3616738486955171 0 0 0 0 12.484239817507842 -24.139251119821893 0 -24.139251119821893 -2.0657169667911148 0 0 0 0 8.9055979560558853 -12.628698035171283 0 -12.628698035171283 5.8159796282234311 0 0 0 0 7.3535816563580738 -7.9044990954980676 0 -7.9044990954980676 -3.4235414681097609 0 0 0 0 11.695754098749603 -12.512043699700371 0 -12.512043699700371 -1.5630925846653554 0 0 0 0 11.284965753553251 -10.262878405541187 0 -10.262878405541187 -13.654837218829925 0 0 0 0 12.053309886229727 -2.7177469924399702 0 -2.7177469924399702 -4.101137601274786 0 0 0 0 4.756610622855078 -7.6051684014546481 0 -7.6051684014546481 5.0276248224727169 0 0 0 0 5.7922223987768042 -5.6269290225773005 0 -5.6269290225773005 1.4534163376484956 0 0 0 0 5.5401919823652861 -8.1545595706265885 0 -8.1545595706265885 4.4730489001949536 0 0 0 0 7.5825860264303628 -7.1113867675389884 0 -7.1113867675389884 -2.1675879929007351 0 0 0 0 4.6668737048685216 -6.3486493072105077 0 -6.3486493072105077 5.9470289900220905 0 0 0 0 5.4282195408723055 -5.1808359888964333 0 -5.1808359888964333 -1.6212616353550402 0 0 0 0 6.266516774272743 -7.8020534660216505 0 -7.8020534660216505 1.7952225714778116 0 0 0 0 2.7366324640670427 -10.635410314502224 0 -10.635410314502224 -0.77362552647537086 0 0 0 0 4.7691641002177221 -7.4737627195077039 0 -7.4737627195077039 3.7528577181401488 0 0 0 0 3.5767815247572798 -9.5974899746361189 0 -9.5974899746361189 0.0020393114391481504 0 0 0 0 0.40584561653963647 -10.22754043932764 0 -10.22754043932764 1.6544874583960336 0 0 0 0 1.5808022797564263 -8.9141185783173569 0 -8.9141185783173569 2.8172877759407129 0 0 0 0 38.542066145724675 -29.718109250607085 0 -29.718109250607085 12.524911504777265 0 0 0 0 37.608085485504489 -29.179814358862131 0 -29.179814358862131 12.871711666914052 0 0 0 0 37.495032177739631 -29.306078662750224 0 -29.306078662750224 12.770295677459217 0 0 0 0 37.041281100687229 -30.063877141616103 0 -30.063877141616103 12.469002715552051 0 0 0 0 74.695301727291735 -44.832874873158289 0 -44.832874873158289 13.561153928189015 0 0 0 0 18.958581126796162 -33.706296909691446 0 -33.706296909691446 27.202550066922413 0 0 0 0 28.34232550442357 -52.894766789325331 0 -52.894766789325331 34.81553295716003 0 0 0 0 1.5736613684861496 -10.972646874384628 0 -10.972646874384628 2.0110935951790054 0 0 0 0 -5.658893643842652 -0.59027329137479967 0 -0.59027329137479967 2.7209438906008216 0 0 0 0 25.72714956744403 -33.569593548062585 0 -33.569593548062585 20.448972016194602 0 0 0 0 50.969555807149845 -26.455526665378784 0 -26.455526665378784 15.927235480849049 0 0 0 0 29.856878239415892 -24.577141655609012 0 -24.577141655609012 35.558486322406679 0 0 0 0 21.559498024103959 -32.119906214320508 0 -32.119906214320508 22.47336592062311 0 0 0 0 15.999993519368218 -35.986261555590318 0 -35.986261555590318 20.645221664904966 0 0 0 0 17.099784736934453 -36.283558047625775 0 -36.283558047625775 16.271371338050812 0 0 0 0 21.976115668147031 -31.896974095310725 0 -31.896974095310725 20.005440221329991 0 0 0 0 23.895732881779622 -35.0886504210157 0 -35.0886504210157 12.020516684904578 0 0 0 0 20.583172210099292 -33.212394998514355 0 -33.212394998514355 15.484196642934876 0 0 0 0 15.825074012254618 -36.377347251902165 0 -36.377347251902165 13.412559135511401 0 0 0 0 36.080587531168931 -30.341125967468543 0 -30.341125967468543 15.073879216502974 0 0 0 0 36.466811859264453 -30.461267012493408 0 -30.461267012493408 12.935859971839818 0 0 0 0 24.41904930313467 -33.580492947652601 0 -33.580492947652601 15.755188963063119 0 0 0 0 29.242291068287159 -27.866651755131898 0 -27.866651755131898 21.818054501141887 0 0 0 0 32.203364760398472 -32.861163294059224 0 -32.861163294059224 10.227978534734575 0 0 0 0 28.788397902473662 -30.457281385381066 0 -30.457281385381066 15.832132185641626 0 0 0 0 34.51693848710056 -30.136359437245119 0 -30.136359437245119 12.99971795818692 0 0 0 0 36.814263909287547 -31.637322620372288 0 -31.637322620372288 10.577347977181489 0 0 0 0 40.187410110014753 -29.040210923518316 0 -29.040210923518316 9.2882944386565214 0 0 0 0 36.470880338899406 -32.411596495046979 0 -32.411596495046979 6.4542643529566703 0 0 0 0 30.818465100913727 -34.901259756056788 0 -34.901259756056788 6.4805559150518093 0 0 0 0 33.264771271868085 -30.721468789077335 0 -30.721468789077335 10.394820271879553 0 0 0 0 36.093960679431802 -35.99039091616396 0 -35.99039091616396 1.1160520221455954 0 0 0 0 39.646189678778683 -29.673938481299956 0 -29.673938481299956 5.7171299215151521 0 0 0 0 22.863478551651497 -34.5362813136162 0 -34.5362813136162 9.5152325801100233 0 0 0 0 23.111030908883549 -33.570334411575459 0 -33.570334411575459 12.067240366467786 0 0 0 0 29.114696264745362 -32.762786443512596 0 -32.762786443512596 6.5460436883596458 0 0 0 0 24.663628323432931 -38.200478705772184 0 -38.200478705772184 1.4345843086048262 0 0 0 0 16.142662906654095 -38.049730775993339 0 -38.049730775993339 7.6999671128214686 0 0 0 0 21.890580470555506 -34.377323167878785 0 -34.377323167878785 4.076190954694539 0 0 0 0 23.564558234966171 -39.773666108703765 0 -39.773666108703765 -4.3261420017552155 0 0 0 0 30.103073492804469 -33.539086489967303 0 -33.539086489967303 0.69712077039594078 0 0 0 0 39.770928137606461 -36.824949547139113 0 -36.824949547139113 -2.6413921895073145 0 0 0 0 47.827801548562093 -32.231130330847009 0 -32.231130330847009 -2.4580128123707254 0 0 0 0 30.341215603427145 -34.550855304246852 0 -34.550855304246852 1.2455961503874278 0 0 0 0 14.179464965372972 -15.241915863747636 0 -15.241915863747636 -0.26717647164150549 0 0 0 0 55.90972834268382 -33.626163585692893 0 -33.626163585692893 -3.3891959993161436 0 0 0 0 -6.8846526152484966 -12.696757268085154 0 -12.696757268085154 5.5088547230899039 0 0 0 0 46.986155842926564 -25.408782150636398 0 -25.408782150636398 4.7044459194876254 0 0 0 0 39.633649032721223 -27.052945761046431 0 -27.052945761046431 12.536946321452433 0 0 0 0 -2.2511774383219745 -17.281405023983325 0 -17.281405023983325 -19.882355021860349 0 0 0 0 -9.8086559873599981 -16.573074213065411 0 -16.573074213065411 -7.0926526461612411 0 0 0 0 -0.38386163199038492 -8.8159792715791809 0 -8.8159792715791809 7.3853727525638533 0 0 0 0 -2.211496663010621 -2.8531152954628851 0 -2.8531152954628851 -0.81664155049293186 0 0 0 0 -4.6576228425183217 -4.9554861555097887 0 -4.9554861555097887 -14.77726791596433 0 0 0 0 -6.9530958703221586 -12.02140173702719 0 -12.02140173702719 6.5271131194040208 0 0 0 0 -6.9676926737447502 -23.344077274116898 0 -23.344077274116898 -22.489506777632414 0 0 0 0 -28.094203245610515 3.2418628118475681 0 3.2418628118475681 -26.287390072880953 0 0 0 0 -8.5993626730833057 -31.888035560518802 0 -31.888035560518802 -51.798445762161009 0 0 0 0 -13.555243274110126 -20.185805190329802 0 -20.185805190329802 4.1994242512027995 0 0 0 0 -10.19214584632573 -25.252301776534296 0 -25.252301776534296 1.6740245684786714 0 0 0 0 8.6772897855673818 -21.543119525267798 0 -21.543119525267798 2.3204889310618455 0 0 0 0 -35.620167026080708 -51.584680159886034 0 -51.584680159886034 -25.576399044879508 0 0 0 0 12.843091406046369 -21.034319586464335 0 -21.034319586464335 -58.67883044782775 0 0 0 0 -38.830001119763438 -9.713885457039396 0 -9.713885457039396 -5.4423654748425179 0 0 0 0 -3.7065616649706499 9.220907463551157 0 9.220907463551157 -24.163689236996106 0 0 0 0 0.64964404462867442 -0.22793001497466037 0 -0.22793001497466037 -0.88231283613881217 0 0 0 0 -8.7330412597384566 2.8013727978068346 0 2.8013727978068346 -0.24945200979345827 0 0 0 0 0.04271998071740235 0.10835498833077573 0 0.10835498833077573 0.094269383008075636 0 0 0 0 2.5138170214005466 -2.3709076015876267 0 -2.3709076015876267 -1.1574728071866645 0 0 0 0 -0.35707343794271829 -1.3392736394495568 0 -1.3392736394495568 1.6133984138954105 0 0 0 0 7.0483456897150063 4.0425534881342173 0 4.0425534881342173 9.2958054182381602 0 0 0 0 2.8081834027416335 -2.9102873311585427 0 -2.9102873311585427 -0.38536544400994899 0 0 0 0 3.6112502277082967 0.68846628377104935 0 0.68846628377104935 3.9748467380395596 0 0 0 0 -0.66558598492758669 0.1170365978330139 0 0.1170365978330139 0.15702626007859521 0 0 0 0 -3.9410716354177566 -3.0090505393891362 0 -3.0090505393891362 10.980844652513042 0 0 0 0 -6.7354804430378863 -7.2647992415186309 0 -7.2647992415186309 8.5732810298723052 0 0 0 0 0.083889946503756363 -0.37196334573144085 0 -0.37196334573144085 0.85119246514929969 0 0 0 0 1.2414087716730755 -3.2897847092950183 0 -3.2897847092950183 2.2203391292536523 0 0 0 0 10.603535800652026 6.7918353944096452 0 6.7918353944096452 -1.8993550261338896 0 0 0 0 -11.071609220690334 -13.248651168830293 0 -13.248651168830293 2.4748048209166882 0 0 0 0 -14.28761904512794 -9.7961413051307318 0 -9.7961413051307318 -0.11159976070712219 0 0 0 0 -3.0494903722912134 -1.0170455953373274 0 -1.0170455953373274 1.0357536477769518 0 0 0 0 -9.1034647925689569 -10.472058423884846 0 -10.472058423884846 -2.9753991948255134 0 0 0 0 -16.959539765831323 -21.04590906316389 0 -21.04590906316389 -17.205991383447326 0 0 0 0 -31.333158548381107 -12.517827123378083 0 -12.517827123378083 6.774111138895023 0 0 0 0 -37.132480728689188 -35.46970400970531 0 -35.46970400970531 -16.774623360865007 0 0 0 0 -7.6515903383964314 -23.07963327425631 0 -23.07963327425631 -22.282576512685409 0 0 0 0 -7.4357411390265042 -26.411922912644968 0 -26.411922912644968 -26.849986386742785 0 0 0 0 -1.7814597332944118 -0.58549813860529554 0 -0.58549813860529554 0.11684276774346269 0 0 0 0 -7.492396358451515 -25.329828030989574 0 -25.329828030989574 -37.615451850401769 0 0 0 0 -7.6216620067102667 -20.813230397286645 0 -20.813230397286645 -31.189386761752758 0 0 0 0 -15.642048736002835 -18.458050852479573 0 -18.458050852479573 -35.56553455290009 0 0 0 0 -12.454721217110091 -22.651991486709903 0 -22.651991486709903 -18.668585787883785 0 0 0 0 -9.9508788394632575 -27.340916696908607 0 -27.340916696908607 -32.692498695876793 0 0 0 0 -0.68500275152655377 -1.2803003870305929 0 -1.2803003870305929 13.461667780306925 0 0 0 0 -2.533343387432069 -2.9306624345567798 0 -2.9306624345567798 12.897131452364874 0 0 0 0 -2.3124688663365305 -1.6569479916247474 0 -1.6569479916247474 3.4345703302296897 0 0 0 0 -8.2577753205969202 -4.1302339734620546 0 -4.1302339734620546 7.8561230890288698 0 0 0 0 0.043886450476027683 -1.7691333309518873 0 -1.7691333309518873 2.7199329248926176 0 0 0 0 1.1175233432424219 -2.0875262978544269 0 -2.0875262978544269 1.9778867528013393 0 0 0 0 -9.205788228640813 -3.6252290188072038 0 -3.6252290188072038 2.5316866956854938 0 0 0 0 4.0879473161357964 -3.8479551281789099 0 -3.8479551281789099 1.7926113762114255 0 0 0 0 0.84377824098191923 -2.2687173252625144 0 -2.2687173252625144 2.521893064789765 0 0 0 0 0.99332020471465743 -2.5533364005817898 0 -2.5533364005817898 2.4149887698105772 0 0 0 0 -6.3028402610425474 -4.8807712614125194 0 -4.8807712614125194 1.3748328054462036 0 0 0 0 -1.5849135383191424 -4.4258567395431783 0 -4.4258567395431783 0.62912271906407113 0 0 0 0 0.98101921786022395 -2.622150948188076 0 -2.622150948188076 3.4633142254876255 0 0 0 0 -1.283057352065498 -8.6744510576299945 0 -8.6744510576299945 -0.51465404022565053 0 0 0 0 -13.593080951191951 -12.801120017697031 0 -12.801120017697031 -0.59598669316255837 0 0 0 0 1.4905697078182225 -4.2181288019637453 0 -4.2181288019637453 4.2092716781084647 0 0 0 0 18.421244649861023 -16.064608305251539 0 -16.064608305251539 -17.497273386848974 0 0 0 0 -23.217710380552489 -26.173863545647237 0 -26.173863545647237 -2.0887146930799645 0 0 0 0 -0.19318434271408158 -0.46502841923602833 0 -0.46502841923602833 -0.0036390762059639314 0 0 0 0 67.604243840733034 14.021966138947391 0 14.021966138947391 -19.223394325362392 0 0 0 0 0.91827017912373776 -30.271655026641383 0 -30.271655026641383 -21.587421908983742 0 0 0 0 -1.3839490975424269 -1.4057497859885189 0 -1.4057497859885189 -0.59157120305007993 0 0 0 0 0.87588458076507081 -4.9144555140018067 0 -4.9144555140018067 6.2764801900179954 0 0 0 0 21.742179566070263 -21.966688529471867 0 -21.966688529471867 -11.794759416170564 0 0 0 0 0.55009826363748182 -0.83800286618541175 0 -0.83800286618541175 -0.37350717810488732 0 0 0 0 -13.429083186676507 -3.7540757497172308 0 -3.7540757497172308 6.0120474719951744 0 0 0 0 1.4664078472277176 -2.8632732092282378 0 -2.8632732092282378 4.2226147296010197 0 0 0 0 -6.9395648361060012 -9.0333413329994983 0 -9.0333413329994983 6.883590052632826 0 0 0 0 -6.5837025281514343 -5.7831642859755448 0 -5.7831642859755448 4.1924366416333214 0 0 0 0 -2.251271351233882 -0.71875591246846238 0 -0.71875591246846238 3.9003446119659557 0 0 0 0 -1.7751084574529159 -6.6575910244391707 0 -6.6575910244391707 5.4681904945364295 0 0 0 0 -1.7951379084652217 -10.699683217781967 0 -10.699683217781967 9.3984203151395604 0 0 0 0 -1.6213461724237277 -11.181134495507649 0 -11.181134495507649 4.3974710793700069 0 0 0 0 -4.1562878496645332 -4.833762176925557 0 -4.833762176925557 -2.3163937520966353 0 0 0 0 -1.7761839315870116 -6.9297714617463209 0 -6.9297714617463209 8.8613885961958658 0 0 0 0 0.46941622459235077 -8.2716964276637555 0 -8.2716964276637555 9.0825242816108585 0 0 0 0 0.22667675058087866 -8.237854603174128 0 -8.237854603174128 3.7473241244116196 0 0 0 0 -1.866865118358028 -3.9690102719150246 0 -3.9690102719150246 0.13508799815559414 0 0 0 0 -4.3484179852663898 -5.1179005070792662 0 -5.1179005070792662 4.1486022845614485 0 0 0 0 8.3122228422744229 -17.476045133720618 0 -17.476045133720618 7.829684636570164 0 0 0 0 -8.6628053105123399 -11.079506384721753 0 -11.079506384721753 16.435800206632848 0 0 0 0 11.843233012942619 -23.856180142482117 0 -23.856180142482117 8.8745489022949187 0 0 0 0 19.817342848342378 -29.333371108061328 0 -29.333371108061328 12.635996021783285 0 0 0 0 12.550581532391789 -19.636766748812533 0 -19.636766748812533 9.686996897431527 0 0 0 0 16.35095067834709 -30.762068774333784 0 -30.762068774333784 12.059294432077877 0 0 0 0 27.624469431060788 -40.293359845140003 0 -40.293359845140003 20.058891500828395 0 0 0 0 37.05171800765379 -23.310866955682286 0 -23.310866955682286 3.048346942756325 0 0 0 0 1.5315761279066464 -10.766172312508388 0 -10.766172312508388 3.2882186007398104 0 0 0 0 -0.79344948063507825 -6.5045851819065259 0 -6.5045851819065259 1.6086827342709711 0 0 0 0 -5.038608954463907 -6.8166831868695681 0 -6.8166831868695681 3.697792665572706 0 0 0 0 1.0463834455619787 -5.8153081500145394 0 -5.8153081500145394 4.6122762259964105 0 0 0 0 1.5166633167227701 -10.56354441917847 0 -10.56354441917847 4.7574633297981563 0 0 0 0 4.1605417064974972 -9.2814144057483645 0 -9.2814144057483645 2.3567167469063861 0 0 0 0 4.4750954953176461 -7.9850329356067959 0 -7.9850329356067959 5.9351993778327596 0 0 0 0 1.3235370518474259 -3.552618516883717 0 -3.552618516883717 -1.4963195831730047 0 0 0 0 2.8954950564125284 -9.5076852360925841 0 -9.5076852360925841 4.1398714607184957 0 0 0 0 -1.1095438405538616 -1.7196815301639461 0 -1.7196815301639461 2.4362383985704241 0 0 0 0 3.9158380977241904 -8.2245435945696954 0 -8.2245435945696954 6.7888869043090381 0 0 0 0 3.0658940096641345 -5.0275967369125283 0 -5.0275967369125283 2.4352175010371866 0 0 0 0 0.66909966870807125 -5.7101962575041796 0 -5.7101962575041796 2.2576635283567157 0 0 0 0 1.180888295810492 -1.8351921768098549 0 -1.8351921768098549 0.65844789019629246 0 0 0 0 9.4173281703151588 -11.360491471634305 0 -11.360491471634305 4.5747981876356789 0 0 0 0 -0.68101373811452692 -0.04419662329102092 0 -0.04419662329102092 0.016426150931160066 0 0 0 0 1.5094706606788328 -3.0122339537280922 0 -3.0122339537280922 2.1754204452650399 0 0 0 0 -0.89448089216512017 -5.4562529074246413 0 -5.4562529074246413 -0.37976574174263078 0 0 0 0 -0.86772635762508799 -5.6897698450375174 0 -5.6897698450375174 -0.78124461435663761 0 0 0 0 -1.1200358748601502 -5.9988987893211743 0 -5.9988987893211743 -0.70350473325379426 0 0 0 0 -1.147155292803177 -5.8174630122489361 0 -5.8174630122489361 -0.60163050143455621 0 0 0 0 3.1038080550422364 -6.9705822640826227 0 -6.9705822640826227 3.6093251514012081 0 0 0 0 5.257009978960923 -7.3064784784182848 0 -7.3064784784182848 3.6086697789287427 0 0 0 0 -0.36445136445296011 -3.1244887029524193 0 -3.1244887029524193 -0.35879664588687632 0 0 0 0 -1.1534643930329231 -6.5235134726985322 0 -6.5235134726985322 1.3615961373758978 0 0 0 0 -1.0203847528808865 -4.0607123519868082 0 -4.0607123519868082 1.0895813425267988 0 0 0 0 -1.0278946776437863 -3.9402053863366291 0 -3.9402053863366291 -0.53991475901057129 0 0 0 0 -1.1931259778990455 -2.8680516888317644 0 -2.8680516888317644 0.028726920607624606 0 0 0 0 1.010261599950363 -2.1477107391967989 0 -2.1477107391967989 0.82261978214887677 0 0 0 0 -1.7337031644947274 -1.9586538052753895 0 -1.9586538052753895 -0.031082473753940576 0 0 0 0 -1.6217391990860506 -6.5736541421201764 0 -6.5736541421201764 -1.5945800668632728 0 0 0 0 27.702335827158095 2.3792135719122598 0 2.3792135719122598 32.454894556446106 0 0 0 0 -1.1896163033332776 -1.2293453564023054 0 -1.2293453564023054 0.44734869868171057 0 0 0 0 18.080840310937617 1.4211915266709241 0 1.4211915266709241 -5.5409871322572144 0 0 0 0 -1.4745442936423387 -2.288039473115532 0 -2.288039473115532 -1.6431128395488486 0 0 0 0 1.3136285746345635 -0.53338075044123023 0 -0.53338075044123023 -0.52095101626928653 0 0 0 0 -20.078151280405109 -1.0237817946272116 0 -1.0237817946272116 32.662984751803492 0 0 0 0 -1.0457521900341362 -3.2526141588980408 0 -3.2526141588980408 1.3473315453738905 0 0 0 0 -2.118704140114005 -1.9819541828220366 0 -1.9819541828220366 0.65546468280309611 0 0 0 0 -10.848095091818323 -4.2211985136864314 0 -4.2211985136864314 14.365759216565493 0 0 0 0 -11.873794265257857 -8.9704770595799346 0 -8.9704770595799346 8.566620141016756 0 0 0 0 -13.691722609798489 -19.839702873050555 0 -19.839702873050555 54.05401782372337 0 0 0 0 -2.5727732998393549 -4.2839493251085514 0 -4.2839493251085514 6.5267567536429851 0 0 0 0 -2.5124325757225416 -3.9424729866482231 0 -3.9424729866482231 1.6427336503476369 0 0 0 0 -1.6247894171056032 -8.9326814402929813 0 -8.9326814402929813 2.7819855313791777 0 0 0 0 -1.3093164844691119 -4.7851611783698029 0 -4.7851611783698029 1.7271415530015872 0 0 0 0 2.3730992293624809 -8.2505859969362518 0 -8.2505859969362518 4.1226306583557744 0 0 0 0 -3.1100080043257772 -2.2786702306842734 0 -2.2786702306842734 0.24605056887649823 0 0 0 0 1.0754920042718368 -3.8947221246071422 0 -3.8947221246071422 0.33090986648494436 0 0 0 0 -1.6019332160999511 -6.9955517046087152 0 -6.9955517046087152 4.3145597881048161 0 0 0 0 -7.131867978990158 -12.225110187100654 0 -12.225110187100654 11.403047373732988 0 0 0 0 -3.7751150903460395 -5.0339049700974332 0 -5.0339049700974332 3.7954472402555801 0 0 0 0 -2.1239596543853168 -3.4140306726385461 0 -3.4140306726385461 2.0248769067693502 0 0 0 0 -4.3868014904086845 -3.0460671386687141 0 -3.0460671386687141 3.1478052863511721 0 0 0 0 -0.78020689839922852 -7.0704898884214344 0 -7.0704898884214344 3.3565804292084067 0 0 0 0 -2.7642125296524682 -2.8850206119604991 0 -2.8850206119604991 2.7207720022342983 0 0 0 0 -11.457293528659648 0.94109122137524537 0 0.94109122137524537 3.7222129103502084 0 0 0 0 -9.4151755716138723 -8.4628270268658525 0 -8.4628270268658525 13.159836597296817 0 0 0 0 -6.232434267246191 -2.8591217961740618 0 -2.8591217961740618 2.0421125352845806 0 0 0 0 -2.6105226063871871 0.11028642587942805 0 0.11028642587942805 0.41249925941223609 0 0 0 0 -1.0531774973187567 0.73344900725714979 0 0.73344900725714979 -4.2171996164142911 0 0 0 0 -2.232681485473984 -2.5881649119380263 0 -2.5881649119380263 1.2250384778987602 0 0 0 0 -5.3446112640208412 -4.2270030667350511 0 -4.2270030667350511 1.5865122462600993 0 0 0 0 -2.2723300689549433 -3.3284051488772093 0 -3.3284051488772093 1.027844750416989 0 0 0 0 -3.2396921002437011 -3.2590959684275731 0 -3.2590959684275731 2.7714924580359366 0 0 0 0 -5.651490752067275 -4.2655426419805735 0 -4.2655426419805735 3.5328818103262165 0 0 0 0 -3.8596784783485552 -4.0430832561524426 0 -4.0430832561524426 2.7210993723495296 0 0 0 0 -5.1328942117766019 -4.350978909582409 0 -4.350978909582409 1.9424042332539102 0 0 0 0 -4.032841197111793 -4.6125241648078372 0 -4.6125241648078372 2.9246254592189871 0 0 0 0 -4.9258219970332675 -3.3887555331966723 0 -3.3887555331966723 1.4171376869971937 0 0 0 0 -3.6720983927746751 -4.9331886963153622 0 -4.9331886963153622 3.6102871953752302 0 0 0 0 -4.6318686177764903 -2.7328592251653943 0 -2.7328592251653943 2.4217696383757641 0 0 0 0 -0.30450947306021076 -3.7272878507311988 0 -3.7272878507311988 0.61391827633929097 0 0 0 0 -3.8710056945260112 -2.5657411279560431 0 -2.5657411279560431 2.0975615641146419 0 0 0 0 -0.064400684760933302 -3.9528855754171008 0 -3.9528855754171008 0.58471949830781256 0 0 0 0 -1.9189335494736497 -5.5168125701111421 0 -5.5168125701111421 2.3013231226350399 0 0 0 0 -6.8572185164812822 -3.621939570172799 0 -3.621939570172799 1.9350555236160289 0 0 0 0 -2.7955491429299468 -2.1436053740168042 0 -2.1436053740168042 2.1729129046938738 0 0 0 0 -6.5390114724887098 -3.8415854887698515 0 -3.8415854887698515 1.7936948099631991 0 0 0 0 -6.0192425543573336 -4.7126598612612725 0 -4.7126598612612725 1.7129924011355797 0 0 0 0 0.62156811994365102 -3.2420439479972076 0 -3.2420439479972076 0.19605544891859239 0 0 0 0 1.2074029125693269 -5.7128139478922275 0 -5.7128139478922275 3.3114359695813675 0 0 0 0 -5.2080139455496548 -4.2049696694905414 0 -4.2049696694905414 1.8720018980612352 0 0 0 0 -5.9003183984168572 -3.3627670686764759 0 -3.3627670686764759 1.8385332171346818 0 0 0 0 -2.9178669560159705 -5.4971114122981817 0 -5.4971114122981817 1.8777690598362824 0 0 0 0 -0.19469890307908655 -5.7368515452552522 0 -5.7368515452552522 3.9221036517012493 0 0 0 0 -9.748335845577957 -2.8108835385081239 0 -2.8108835385081239 6.2882463437549205 0 0 0 0 -4.2515612652636214 -3.5841136374126172 0 -3.5841136374126172 3.9705391722305876 0 0 0 0 -5.7066283687802297 -2.6495860833983897 0 -2.6495860833983897 3.8870536036993144 0 0 0 0 -5.5349485793412896 -1.9149184378293285 0 -1.9149184378293285 3.0449242335598683 0 0 0 0 -4.0170641904177007 -3.510195267820805 0 -3.510195267820805 4.7365816112179147 0 0 0 0 -6.2859587153880057 -8.6978520264492545 0 -8.6978520264492545 1.1302821106510237 0 0 0 0 -4.016032501558584 -7.7015009733368061 0 -7.7015009733368061 0.7407113006011059 0 0 0 0 -2.8330245215632299 -3.4830069472564453 0 -3.4830069472564453 3.3921952118225605 0 0 0 0 0.3562271738804248 -3.2290482345373301 0 -3.2290482345373301 1.408752174670667 0 0 0 0 -5.2639540186519298 -5.2380281815421768 0 -5.2380281815421768 -1.0676476594453561 0 0 0 0 -1.5597111317012566 -4.4002130250629641 0 -4.4002130250629641 0.73459185942834893 0 0 0 0 2.1333373371612652 -5.0508100435417873 0 -5.0508100435417873 2.8394177889667844 0 0 0 0 -4.1705823575179641 -3.1617666905129433 0 -3.1617666905129433 3.7251394621619482 0 0 0 0 -3.3008523672479413 -2.8066207711796709 0 -2.8066207711796709 1.4536073912809258 0 0 0 0 -1.5299597755920331 -6.1378894196359397 0 -6.1378894196359397 -1.0788664739629894 0 0 0 0 -1.7585970869626522 -4.8700402508998195 0 -4.8700402508998195 2.0083720589900622 0 0 0 0 -5.3513224464741143 -5.9980529170079535 0 -5.9980529170079535 3.1348126353168482 0 0 0 0 -7.0070073093611427 -5.7740034851740347 0 -5.7740034851740347 2.5187478085572366 0 0 0 0 0.71683735106224233 -4.0485317130665912 0 -4.0485317130665912 0.50166135776304799 0 0 0 0 -0.26003428849282706 -3.0832731627376742 0 -3.0832731627376742 3.6365141154807574 0 0 0 0 -3.3447448142269423 -11.876501419674241 0 -11.876501419674241 8.8857337483786978 0 0 0 0 -5.6979918039987751 -6.8268140936233976 0 -6.8268140936233976 1.1736818499557558 0 0 0 0 -6.2281574030620277 -8.3407374803566654 0 -8.3407374803566654 0.49230250340406201 0 0 0 0 -1.7478096598638988 -3.7107460212477434 0 -3.7107460212477434 4.0669051991566505 0 0 0 0 0.3326887436924153 -12.520273050517062 0 -12.520273050517062 8.654886054500821 0 0 0 0 -0.57708256363098798 -1.2684410277566656 0 -1.2684410277566656 1.2723912298126034 0 0 0 0 -5.4237492903137081 0.97300109685920688 0 0.97300109685920688 8.930760619807188 0 0 0 0 -2.810006052510289 -10.778103435611229 0 -10.778103435611229 -4.5933974827639759 0 0 0 0 0.39465493986108413 -3.7826435699416834 0 -3.7826435699416834 3.7573039763628913 0 0 0 0 -11.533371268674273 -10.109956293663345 0 -10.109956293663345 4.0739162050367668 0 0 0 0 14.62044763949234 -19.870404135967874 0 -19.870404135967874 -31.77455258936061 0 0 0 0 -14.384074545298063 0.24398057228972903 0 0.24398057228972903 51.54405382618188 0 0 0 0 -0.041161508383250833 -0.050830310381066113 0 -0.050830310381066113 0.025727787042534089 0 0 0 0 -10.88868525352791 -5.302814053991824 0 -5.302814053991824 6.0149063371354714 0 0 0 0 4.2651988984205218 6.0983977640594276 0 6.0983977640594276 21.694147569753113 0 0 0 0 -19.17199111918535 -0.52941842246536908 0 -0.52941842246536908 30.276060668598802 0 0 0 0 31.452671372967416 -7.0797572129022228 0 -7.0797572129022228 -9.2044304663140792 0 0 0 0 -0.43732162802886237 0.0032393328787128084 0 0.0032393328787128084 0.27312268485802349 0 0 0 0 22.634962031849682 -36.517512148408059 0 -36.517512148408059 2.3147356619992934 0 0 0 0 -1.4917785390371137 -12.289488803062341 0 -12.289488803062341 -31.347469099810041 0 0 0 0 -2.2014397979131424 -3.315580798956443 0 -3.315580798956443 -0.70060305894510577 0 0 0 0 -0.33205814751784146 -5.6091529741870829 0 -5.6091529741870829 3.1663896558220586 0 0 0 0 -0.68481641501348278 -3.3931548676002485 0 -3.3931548676002485 -1.6131920773009316 0 0 0 0 -1.532086536872157 -4.4775442163027037 0 -4.4775442163027037 3.5400635340938607 0 0 0 0 -2.4807982137686224 -1.551849854016087 0 -1.551849854016087 -0.34824343809887637 0 0 0 0 -1.5945872192478419 -4.4807979302713647 0 -4.4807979302713647 3.6676773667950329 0 0 0 0 -1.1413950343227481 -2.6789914185049906 0 -2.6789914185049906 -1.1606328525605178 0 0 0 0 -1.4709664636593516 -4.4230763342056889 0 -4.4230763342056889 3.5873896904377034 0 0 0 0 -0.38557387702769574 -4.1963861593956153 0 -4.1963861593956153 -4.7935322820922011 0 0 0 0 0.14911949547630421 -0.67824739961352876 0 -0.67824739961352876 -0.2320331652906571 0 0 0 0 21.259808422079004 -6.6967607167098322 0 -6.6967607167098322 38.669321154804493 0 0 0 0 -4.4350045466089796 -5.0404906689745985 0 -5.0404906689745985 -15.539243215363967 0 0 0 0 -20.672562517431288 -7.6200377122895588 0 -7.6200377122895588 20.750624859107802 0 0 0 0 -4.8928579862076731 2.1768207339036962 0 2.1768207339036962 6.4415800835304253 0 0 0 0 6.8381065522880817 -22.329224604884075 0 -22.329224604884075 29.915865217724786 0 0 0 0 -6.1905995702654764 -1.1300100375447073 0 -1.1300100375447073 23.024855194109477 0 0 0 0 0.097844307932064112 -7.1654266987934534 0 -7.1654266987934534 -5.157638834847603 0 0 0 0 -0.39750091651876573 -8.7022051093626942 0 -8.7022051093626942 15.906338521832367 0 0 0 0 5.2068772477141465 -11.008918571823415 0 -11.008918571823415 0.12180963837454328 0 0 0 0 -1.9141923078350374 -5.6220828054720187 0 -5.6220828054720187 0.1802157696820359 0 0 0 0 0.054275447045256442 -9.0877728033628955 0 -9.0877728033628955 -0.59200603746648994 0 0 0 0 -2.9115919284726175 -4.5507770619184882 0 -4.5507770619184882 0.83967581399760149 0 0 0 0 -0.48299433467582276 -3.5440718552690669 0 -3.5440718552690669 3.9724915042279463 0 0 0 0 -9.9150322559798951 -15.498504233130006 0 -15.498504233130006 -3.1708716873072262 0 0 0 0 -9.8711837127212974 -1.3735794054324231 0 -1.3735794054324231 9.802135070633085 0 0 0 0 -1.2908077666064699 -0.63894023814038547 0 -0.63894023814038547 2.4991802772283016 0 0 0 0 -2.3499002303587684 -5.3604624012977133 0 -5.3604624012977133 2.0475507289610704 0 0 0 0 -8.8813030747951416 -3.6262909656798001 0 -3.6262909656798001 7.239933968281548 0 0 0 0 0.072637521010135764 -0.079555993910869205 0 -0.079555993910869205 -0.0017524846359364687 0 0 0 0 -10.258385552561776 -6.9630736453909776 0 -6.9630736453909776 0.13590221223421395 0 0 0 0 -1.5738795185934578 -9.1318396574642975 0 -9.1318396574642975 1.191762426119567 0 0 0 0 -4.2103914191784497 -11.755887977384191 0 -11.755887977384191 3.8779469802684616 0 0 0 0 -4.2167949372233124 -5.6165180528332712 0 -5.6165180528332712 -1.4361845349194482 0 0 0 0 -0.76522197027087202 -3.1296401193096877 0 -3.1296401193096877 1.3537925505986692 0 0 0 0 -4.3267942683742149 -7.3863010103013949 0 -7.3863010103013949 2.0631403623265214 0 0 0 0 -2.4982749807750224 -7.2114849121498992 0 -7.2114849121498992 0.91573903819153202 0 0 0 0 -2.9651887510262895 -2.6705113456191611 0 -2.6705113456191611 3.9854714514985972 0 0 0 0 -0.049084814826688472 -0.56833945812812736 0 -0.56833945812812736 -0.64000481291017053 0 0 0 0 -2.9403572815954249 -5.358397040865384 0 -5.358397040865384 4.7647393353836378 0 0 0 0 1.6731113493185248 -2.4234393444399913 0 -2.4234393444399913 -3.7345556479386204 0 0 0 0 0.07163268666863587 -5.6140028116533358 0 -5.6140028116533358 -1.6018289294861461 0 0 0 0 -0.45749774939940835 -6.4035891791118047 0 -6.4035891791118047 0.26612835208652541 0 0 0 0 -0.73633107010937238 -6.1391145037723618 0 -6.1391145037723618 0.31029436784228892 0 0 0 0 -2.3420080138475896 -5.0696704248784954 0 -5.0696704248784954 1.7641322804884112 0 0 0 0 -3.2059094551775829 -4.0493869484270011 0 -4.0493869484270011 2.3120014282811709 0 0 0 0 -1.0160205179392392 -2.3549992821515353 0 -2.3549992821515353 0.1596228683031633 0 0 0 0 -2.8594554216078905 -2.8989679965106916 0 -2.8989679965106916 1.8026893019487034 0 0 0 0 -3.0092586854798355 -4.8741119563173925 0 -4.8741119563173925 1.8142144102748716 0 0 0 0 -2.2343684817851113 -4.930558218238275 0 -4.930558218238275 -0.57620379936997779 0 0 0 0 -0.50574946493725292 -2.6362551646125212 0 -2.6362551646125212 -0.22327112645871239 0 0 0 0 -0.38101750037734905 -3.0417722692167413 0 -3.0417722692167413 -0.20716008541871389 0 0 0 0 -0.56578557675857155 -2.5121338555090915 0 -2.5121338555090915 0.2499026020304882 0 0 0 0 -5.0498453859618166 -4.6885518533599679 0 -4.6885518533599679 -2.1138609195186291 0 0 0 0 0.073673419912385185 -2.5208668785946191 0 -2.5208668785946191 -0.56360750608088495 0 0 0 0 -1.5448197039414406 -1.7507992488780015 0 -1.7507992488780015 0.061652366737867226 0 0 0 0 -4.0232991677880818 -2.5195305549359546 0 -2.5195305549359546 -3.0486794465596176 0 0 0 0 -1.4495092609031417 -4.6329571961996407 0 -4.6329571961996407 -2.0201514851241882 0 0 0 0 0.11480046456607695 -0.95994795923752463 0 -0.95994795923752463 1.1671820994023037 0 0 0 0 0.64065276438947727 -1.5085003554346077 0 -1.5085003554346077 0.83832750039250925 0 0 0 0 -3.7204548747111801 -3.7890898113054732 0 -3.7890898113054732 -0.95557614716199168 0 0 0 0 -2.6180498333987998 -3.8057156451177434 0 -3.8057156451177434 -1.8014034158695722 0 0 0 0 2.6747349238502549 -4.0202639857627673 0 -4.0202639857627673 -1.2162530757336185 0 0 0 0 -0.8939481995287224 -7.5587829304145089 0 -7.5587829304145089 -0.69455453575574211 0 0 0 0 -7.8625073582970799 -1.807754381331506 0 -1.807754381331506 2.2161099735312746 0 0 0 0 -6.0138053179234703 -4.5526300458441256 0 -4.5526300458441256 -1.2379518651023318 0 0 0 0 -3.2087202277317788 -3.3834411233293977 0 -3.3834411233293977 -3.7030231297118661 0 0 0 0 -0.94817086059859612 -3.8282552971553088 0 -3.8282552971553088 -1.1316032657456914 0 0 0 0 -3.0494356242511458 -7.8986156210362424 0 -7.8986156210362424 -2.5675462250692362 0 0 0 0 2.5978108416057921 -9.9885331240220694 0 -9.9885331240220694 1.8020255126957636 0 0 0 0 -2.7370794470089095 -7.7002798540124786 0 -7.7002798540124786 -3.7837008192218491 0 0 0 0 -0.27384103260487791 -3.8207449499136601 0 -3.8207449499136601 2.0309993191440299 0 0 0 0 0.35510958814790339 -2.6753991880164918 0 -2.6753991880164918 -1.8020508021619577 0 0 0 0 -10.872522597614989 -14.600047367811385 0 -14.600047367811385 4.8368682172704212 0 0 0 0 -1.383522322580613 -2.3954445803259929 0 -2.3954445803259929 3.8712117596608238 0 0 0 0 -1.9065574401847698 -7.0636337636397002 0 -7.0636337636397002 0.74823452604323393 0 0 0 0 -2.3913452301616189 -3.5852619409636901 0 -3.5852619409636901 1.7499778533775459 0 0 0 0 -4.4069758015893967 -3.2713919503839861 0 -3.2713919503839861 -4.1578291310506756 0 0 0 0 0.011103989551472182 -8.3755590083286791 0 -8.3755590083286791 2.1693786439753211 0 0 0 0 -6.2471473367877479 -2.9789658162480919 0 -2.9789658162480919 -2.4259209275332978 0 0 0 0 -3.7290188672994891 -4.2447645579808118 0 -4.2447645579808118 -1.9702300883316752 0 0 0 0 4.1885623650778143 -15.126837570094722 0 -15.126837570094722 20.217410070945562 0 0 0 0 4.8636070446509621 -7.9647836559497591 0 -7.9647836559497591 1.1915322995919269 0 0 0 0 4.5332794013053999 -7.7789963345721125 0 -7.7789963345721125 6.6632816765780234 0 0 0 0 0.35262207763716447 -1.0780803377791166 0 -1.0780803377791166 1.2156939019580912 0 0 0 0 2.0919578189295862 -14.111282598478283 0 -14.111282598478283 7.1273706907813903 0 0 0 0 -3.9316956596485397 -3.0643103214188159 0 -3.0643103214188159 13.328523874455641 0 0 0 0 0.30074568367063392 -1.2919417534483593 0 -1.2919417534483593 1.8398269805982048 0 0 0 0 27.07590319506744 -17.484095800789873 0 -17.484095800789873 -4.0105947438860312 0 0 0 0 11.199060281013431 -12.093917767917674 0 -12.093917767917674 -6.8537576573216938 0 0 0 0 0.8529506236036184 -4.6233755402984826 0 -4.6233755402984826 1.1068913466621897 0 0 0 0 1.1487329337755909 -6.7685182375776094 0 -6.7685182375776094 7.8668134751824255 0 0 0 0 2.4390364706436927 -4.809003049483044 0 -4.809003049483044 3.479286667906706 0 0 0 0 1.2450373951063867 -5.1285304039965105 0 -5.1285304039965105 2.121727942805574 0 0 0 0 1.4786510176613774 -6.0240453557348701 0 -6.0240453557348701 10.095926197463086 0 0 0 0 2.9198491664556059 -9.1436549098725663 0 -9.1436549098725663 6.1986179733635254 0 0 0 0 1.6088136424337982 -5.752392566635109 0 -5.752392566635109 1.1961886329817641 0 0 0 0 0.91548187195803621 -7.2087254404268606 0 -7.2087254404268606 9.2126940631333127 0 0 0 0 2.2892550325871071 -8.1826888608920854 0 -8.1826888608920854 5.4241062482542475 0 0 0 0 -0.040017923758582263 -5.9495245317816812 0 -5.9495245317816812 4.1478111985172035 0 0 0 0 0.71724216624807013 -9.206644103049257 0 -9.206644103049257 5.0741688225170947 0 0 0 0 -1.2774941508967932 -4.9404532779839778 0 -4.9404532779839778 3.635996883213501 0 0 0 0 -18.398930581529385 -6.0072219052090077 0 -6.0072219052090077 20.469912656551969 0 0 0 0 0.12939381032326347 -4.2118287941986976 0 -4.2118287941986976 5.3798829912757711 0 0 0 0 26.855091305700626 7.8013862873995095 0 7.8013862873995095 13.724496479408117 0 0 0 0 0.013459211508219937 -3.5516640419271148 0 -3.5516640419271148 1.6813386459312092 0 0 0 0 -61.718354673286058 4.9580000800667676 0 4.9580000800667676 79.218520798418467 0 0 0 0 26.30194045494909 8.8587701593633028 0 8.8587701593633028 -41.535800688032396 0 0 0 0 -3.022538234012659 -2.8837621307176668 0 -2.8837621307176668 1.2992877566159553 0 0 0 0 -12.354103154316817 17.057990698277536 0 17.057990698277536 74.471682429066277 0 0 0 0 -2.1036738633883942 -29.750664824796331 0 -29.750664824796331 42.439558021744233 0 0 0 0 -1.6725882784594432 -4.5525807885514951 0 -4.5525807885514951 3.6043322980967787 0 0 0 0 -1.2343597219660296 -6.3676710070612899 0 -6.3676710070612899 10.396096679084167 0 0 0 0 0.75585178455457935 -5.5594117139330592 0 -5.5594117139330592 4.8978680603304383 0 0 0 0 -1.4058160486332518 -2.3888928750306704 0 -2.3888928750306704 2.4744917451209254 0 0 0 0 0.92401314260206746 -3.8912487690169577 0 -3.8912487690169577 -0.57356954581145025 0 0 0 0 2.3642882288622786 -7.7673424886143039 0 -7.7673424886143039 1.9886672887332679 0 0 0 0 -0.054599037943262374 -6.6658763134214496 0 -6.6658763134214496 1.5908632361715718 0 0 0 0 -0.2315804519375888 -6.1289025801979733 0 -6.1289025801979733 0.2525281562411692 0 0 0 0 0.42270254184040823 -6.7749599056369334 0 -6.7749599056369334 -0.16088667279291258 0 0 0 0 2.2762348835640296 -8.6718843105736596 0 -8.6718843105736596 0.6808587039631675 0 0 0 0 0.50330702123210358 -6.6378676939602883 0 -6.6378676939602883 -0.91983458286267705 0 0 0 0 0.16516008882354072 -4.649033129469899 0 -4.649033129469899 -3.0831509151712453 0 0 0 0 3.2372510578893525 -6.8123436591704376 0 -6.8123436591704376 -2.0206477548199473 0 0 0 0 -0.11930337076501019 -5.8947115996934372 0 -5.8947115996934372 -1.3625406835926697 0 0 0 0 0.52162322392177884 -5.93715482859443 0 -5.93715482859443 -1.3991181064975535 0 0 0 0 0.051785800049401587 -2.5212750351547584 0 -2.5212750351547584 -2.5524915735950344 0 0 0 0 -7.4256296481962636 -6.0931199369260867 0 -6.0931199369260867 7.6561001036097878 0 0 0 0 0.42778740547782945 -1.6445104723425175 0 -1.6445104723425175 -4.4053237111079397 0 0 0 0 44.936146257360633 -6.3506870803967104 0 -6.3506870803967104 -6.9147787757574406 0 0 0 0 -0.32066034030570112 -0.36763963676618427 0 -0.36763963676618427 0.07571427911506845 0 0 0 0 2.5538172459164343 -4.0479430974046409 0 -4.0479430974046409 -5.2176866834888642 0 0 0 0 0.17300004912956402 -0.95141337090577593 0 -0.95141337090577593 -4.1201941209723429 0 0 0 0 23.740121847597038 -0.35724140829734097 0 -0.35724140829734097 1.6220497538797645 0 0 0 0 12.943358687167347 -13.350563449181209 0 -13.350563449181209 -0.64148099646808987 0 0 0 0 0.43978226391660868 0.58850659590406629 0 0.58850659590406629 -0.18768021943768787 0 0 0 0 2.5390646506311896 -4.8895188871110804 0 -4.8895188871110804 -4.209330887244505 0 0 0 0 2.8533548732375493 -1.51161368421117 0 -1.51161368421117 -7.932916470694181 0 0 0 0 5.6712878156463375 -7.8513966600371532 0 -7.8513966600371532 -8.5507014370341494 0 0 0 0 18.67617610648449 -4.2642501889731648 0 -4.2642501889731648 -8.849091396710719 0 0 0 0 1.2772113957203493 -2.1235907138688779 0 -2.1235907138688779 -6.3595123842407872 0 0 0 0 2.334927302179949 -4.8312973436218272 0 -4.8312973436218272 -3.4945942716985883 0 0 0 0 8.6125343008388882 -6.6338561990523885 0 -6.6338561990523885 -7.1514181905658916 0 0 0 0 0.0092747719576493637 -1.7707216621068795 0 -1.7707216621068795 -0.27004487623122242 0 0 0 0 11.973514575041918 -8.2103508831914951 0 -8.2103508831914951 -11.694241481864163 0 0 0 0 2.8826463284176 -7.2630373434937923 0 -7.2630373434937923 -0.02761853934653747 0 0 0 0 15.44025463296839 -17.468504675279291 0 -17.468504675279291 -2.8178433896719071 0 0 0 0 2.1841637612324121 -11.625476241918477 0 -11.625476241918477 -4.8359313526598271 0 0 0 0 10.818632961126241 -12.15852427140635 0 -12.15852427140635 -4.0821833696682006 0 0 0 0 30.602551248219243 -11.162768886644699 0 -11.162768886644699 -4.56992049085693 0 0 0 0 19.709099104554298 -20.841443959727258 0 -20.841443959727258 -3.6707266629600781 0 0 0 0 33.944113175013626 -16.238158105870752 0 -16.238158105870752 -3.1678131449700686 0 0 0 0 9.8488259927216859 -17.596062541759238 0 -17.596062541759238 -1.3181373836669081 0 0 0 0 8.3203480773572664 -23.957005816173478 0 -23.957005816173478 2.7924498240535556 0 0 0 0 2.5410474532127409 -23.835376174738485 0 -23.835376174738485 2.7929973273347812 0 0 0 0 1.2521521637554542 -20.395440407056412 0 -20.395440407056412 2.3458608950404596 0 0 0 0 4.3264789661000975 -8.2036095192545808 0 -8.2036095192545808 2.7660109519174685 0 0 0 0 6.1443420994460212 -17.667315605116983 0 -17.667315605116983 3.2173107620346855 0 0 0 0 -9.2888547556594858 -0.0079698835206727381 0 -0.0079698835206727381 -8.4821247609215789 0 0 0 0 33.506877233374325 -15.963299510939578 0 -15.963299510939578 -13.574684010403871 0 0 0 0 17.417796872997314 -27.259120648757744 0 -27.259120648757744 -33.657904031986618 0 0 0 0 -18.376328255843077 -39.106339088578238 0 -39.106339088578238 -5.8730769766043522 0 0 0 0 25.295374790654023 -12.663128308433443 0 -12.663128308433443 -9.2869049059701325 0 0 0 0 36.694246269139057 -24.417422960420481 0 -24.417422960420481 -7.3316862642313936 0 0 0 0 15.775217133538717 -33.206745574998422 0 -33.206745574998422 -9.4129695131305198 0 0 0 0 35.419789533000767 -17.452430282316527 0 -17.452430282316527 -2.7717774131488113 0 0 0 0 55.278136343301412 6.8034239402577441 0 6.8034239402577441 10.327833248629759 0 0 0 0 81.525691995510897 -9.5007573894799862 0 -9.5007573894799862 -16.40607471335943 0 0 0 0 93.260483815713542 8.40338911904837 0 8.40338911904837 -17.174220921653614 0 0 0 0 32.60926368436958 -18.888135579056325 0 -18.888135579056325 4.0998319967184216 0 0 0 0 22.445106871203279 -17.805038089689333 0 -17.805038089689333 -12.429400324946982 0 0 0 0 -22.576122635439788 -8.3216953108003509 0 -8.3216953108003509 19.288613446922682 0 0 0 0 -0.0098287981035172223 0.2742466864288895 0 0.2742466864288895 0.15029472030339974 0 0 0 0 -0.25181325283485467 -0.38522620972125665 0 -0.38522620972125665 -0.60133326331863657 0 0 0 0 -20.904027225602476 -9.1840079520698055 0 -9.1840079520698055 15.770769758717506 0 0 0 0 4.9579595094228353 6.697336616794928 0 6.697336616794928 -31.808996598741942 0 0 0 0 11.76219363733253 -15.914417661744665 0 -15.914417661744665 -2.4738514999644394 0 0 0 0 -0.11358293992641944 -1.0176731633689347 0 -1.0176731633689347 -1.9113407690777962 0 0 0 0 0.32739711998480914 -0.34369704205721519 0 -0.34369704205721519 -0.1047214279749582 0 0 0 0 -0.98216420202129484 -1.3729980678112952 0 -1.3729980678112952 -2.7185681587379804 0 0 0 0 -2.1777464581000459 -2.024763863062617 0 -2.024763863062617 0.10635918822299573 0 0 0 0 -12.442865278719864 -2.4410355286054255 0 -2.4410355286054255 4.2363207186062937 0 0 0 0 -10.80792792321057 -17.282609130607284 0 -17.282609130607284 0.73991066476446576 0 0 0 0 -0.20443775701600053 -0.016757987830222199 0 -0.016757987830222199 0.32674464225612354 0 0 0 0 -1.2979908594998051 -0.57363745551992906 0 -0.57363745551992906 -0.98999909426675003 0 0 0 0 0.51831230295874775 0.80163690191602655 0 0.80163690191602655 18.987070527819014 0 0 0 0 0.9256903242030603 2.6042105490239464 0 2.6042105490239464 -17.032772731858131 0 0 0 0 38.52913898979773 6.7665959992586977 0 6.7665959992586977 -15.867743640257686 0 0 0 0 -43.182291334807815 -1.0382644767487363 0 -1.0382644767487363 14.874605162201988 0 0 0 0 0.071135493226123891 0.31361532627913569 0 0.31361532627913569 -0.41973501481480469 0 0 0 0 6.3841259754690327 -48.998640651343067 0 -48.998640651343067 -0.015289423889043974 0 0 0 0 55.200326692997805 -4.4905207097854145 0 -4.4905207097854145 -0.031746093749461579 0 0 0 0 8.9136860519765833 -12.153699643684376 0 -12.153699643684376 14.123984690355428 0 0 0 0 46.034514392572419 -1.1508570467249228 0 -1.1508570467249228 -1.4179572342309257 0 0 0 0 73.468881379747472 -0.65413994181017188 0 -0.65413994181017188 -4.2768957034058985 0 0 0 0 -0.43124033223290326 0.010012972019372235 0 0.010012972019372235 0.42418856614304445 0 0 0 0 28.196511924699735 -16.335787445122151 0 -16.335787445122151 3.3670479018619517 0 0 0 0 48.818819404859823 -5.8387989782604564 0 -5.8387989782604564 -1.3220246492173828 0 0 0 0 35.733757109552698 -1.587650395794526 0 -1.587650395794526 1.5513918145225034 0 0 0 0 38.004344925658188 -10.413911760486371 0 -10.413911760486371 20.599065069123753 0 0 0 0 16.519636563637505 -16.33380206613856 0 -16.33380206613856 0.019560237431505811 0 0 0 0 0.016390679005553466 -5.5225407808256932 0 -5.5225407808256932 6.5324157264803944 0 0 0 0 1.3027882585984116 -17.402223579741985 0 -17.402223579741985 -2.1253553503720468 0 0 0 0 11.773484412460675 -1.9446174627155415 0 -1.9446174627155415 0.79118679070870712 0 0 0 0 -7.9213677997568084 -12.885287596714079 0 -12.885287596714079 -1.6938960449733713 0 0 0 0 -7.9614503856082592 -9.0369353712812881 0 -9.0369353712812881 0.24598354719000781 0 0 0 0 9.9257502752620894 -17.814968353658514 0 -17.814968353658514 3.0820057730979897 0 0 0 0 1.6854671175876774 -14.435205891044006 0 -14.435205891044006 -0.15188911366385582 0 0 0 0 8.3567957931672936 -10.762672247388764 0 -10.762672247388764 -3.7201484776696816 0 0 0 0 -21.91245131972164 -14.217735852676924 0 -14.217735852676924 0.6977743460520287 0 0 0 0 0.086010367343861915 -0.26967786268541971 0 -0.26967786268541971 2.4033428251026621 0 0 0 0 -5.0383990726541015 -6.5483703814334149 0 -6.5483703814334149 -1.8598606131890847 0 0 0 0 -3.0693253447675488 3.0219870464798078 0 3.0219870464798078 0.32247844640164658 0 0 0 0 -0.3543981020850735 -0.32075175771888942 0 -0.32075175771888942 -0.0705560977500852 0 0 0 0 0.41645688174358048 -1.2629282616163433 0 -1.2629282616163433 -1.4734368847420782 0 0 0 0 1.3821648659700259 -9.096331613237453 0 -9.096331613237453 -4.7398887099152489 0 0 0 0 -0.45293070435322846 -0.18695792573827408 0 -0.18695792573827408 0.82870837982818557 0 0 0 0 -2.5737616876326683 -6.7180113094664193 0 -6.7180113094664193 -1.3343652970143012 0 0 0 0 15.900566943294507 4.0806835261037122 0 4.0806835261037122 -6.7122579438928369 0 0 0 0 -0.078400922238946402 -0.53729970657446735 0 -0.53729970657446735 -0.11306521096914679 0 0 0 0 -2.0441675650945399 9.2118250988078216 0 9.2118250988078216 0.20775592551854061 0 0 0 0 8.7822570314874611 -12.581838733965014 0 -12.581838733965014 -3.4206837807578268 0 0 0 0 -0.56046638514458369 0.4954219298858229 0 0.4954219298858229 0.20026103085116631 0 0 0 0 -20.927611179868109 -4.8985631026262126 0 -4.8985631026262126 -2.8362022391488608 0 0 0 0 -5.929515033851203 3.5789956330036148 0 3.5789956330036148 3.3533314158635221 0 0 0 0 -30.059598923591238 -12.754105150087071 0 -12.754105150087071 3.0796399809332797 0 0 0 0 -23.574653151845837 -7.3383114474429476 0 -7.3383114474429476 -5.587947759864619 0 0 0 0 -41.637163019593572 -10.028539630089654 0 -10.028539630089654 -1.0060618233237619 0 0 0 0 -5.1758969564543804 7.0372525444390703 0 7.0372525444390703 -0.74464120512260479 0 0 0 0 -0.19506137157970904 0.47848885401571017 0 0.47848885401571017 -0.06919887187924445 0 0 0 0 -12.800927805148547 -10.144231819817378 0 -10.144231819817378 -10.278562349565618 0 0 0 0 -7.0695625503599331 -13.781843071952608 0 -13.781843071952608 4.0358833561622305 0 0 0 0 -0.10083535896658535 0.22872219605909017 0 0.22872219605909017 0.41698208837659223 0 0 0 0 -3.0152581517395447 -11.155065184182604 0 -11.155065184182604 -0.026631695737255486 0 0 0 0 -0.50277491354132753 0.33868769312386249 0 0.33868769312386249 0.40776936148312615 0 0 0 0 -25.675881284390243 -11.129255953743268 0 -11.129255953743268 6.5171921198671043 0 0 0 0 -24.415797925121296 -3.3609013750919985 0 -3.3609013750919985 -6.9027030964016376 0 0 0 0 -21.530008916127599 -7.8291271077764577 0 -7.8291271077764577 0.013625958981720032 0 0 0 0 -7.3862884163168019 -4.8131898702149556 0 -4.8131898702149556 -6.5199074783522519 0 0 0 0 -23.918735016653159 -6.9162703895046889 0 -6.9162703895046889 3.8636699147973559 0 0 0 0 -7.3511991317412413 -0.85301615332173597 0 -0.85301615332173597 7.9027902104007808 0 0 0 0 10.488704378098646 -7.9411461853869696 0 -7.9411461853869696 -0.013185095745894515 0 0 0 0 9.070936748148597 -10.230371930125784 0 -10.230371930125784 2.4766235783754382 0 0 0 0 3.84814800883305 -6.3873938438664482 0 -6.3873938438664482 0.0066456998483772622 0 0 0 0 -0.56517365797708408 -1.6922048565484147 0 -1.6922048565484147 1.1026478515959752 0 0 0 0 -1.281465124757915 -6.8010109634815308 0 -6.8010109634815308 9.0093615881578444 0 0 0 0 2.2444744301728861 -3.243335804497292 0 -3.243335804497292 0.0040306977352884132 0 0 0 0 -76.455267337703845 49.779018711211393 0 49.779018711211393 64.965031585423276 0 0 0 0 0.12703032906089451 -0.16224938953200763 0 -0.16224938953200763 -0.5422977993305409 0 0 0 0 3.0178850929146392 -5.1631235891600227 0 -5.1631235891600227 3.2752656890830281 0 0 0 0 0.11832424380008888 -2.9688217936309229 0 -2.9688217936309229 3.1795465473160789 0 0 0 0 -5.2115769723227459 24.723736429627024 0 24.723736429627024 -2.7182986142142909 0 0 0 0 -0.31956640971408312 -0.57041145491083967 0 -0.57041145491083967 -0.87715997913927168 0 0 0 0 -33.357932406516284 20.078555516953202 0 20.078555516953202 -16.829245782237194 0 0 0 0 -11.965555915210984 6.4119114060990796 0 6.4119114060990796 -35.992752022932109 0 0 0 0 0.57965011552947487 0.24691773276909501 0 0.24691773276909501 -0.24508722455129117 0 0 0 0 -66.49341841663022 35.000354401239747 0 35.000354401239747 2.7273996561880267 0 0 0 0 -24.114339273310634 1.1480562349461252 0 1.1480562349461252 -1.645766445449226 0 0 0 0 -1.2042649141479433 0.60386527549110625 0 0.60386527549110625 0.77515689254307318 0 0 0 0 -9.8466129127280055 -6.337293042202873 0 -6.337293042202873 -0.65899759377924738 0 0 0 0 -28.18860477730891 7.0051914495152232 0 7.0051914495152232 4.5401479836818908 0 0 0 0 -16.41527517097029 3.6670499599676987 0 3.6670499599676987 3.1046694979850145 0 0 0 0 -10.640063101870691 2.2025779097273279 0 2.2025779097273279 4.1335155969475323 0 0 0 0 -21.440492467591412 -1.3251072834586921 0 -1.3251072834586921 5.910675978531799 0 0 0 0 -0.90774324730917932 -0.60080703975864402 0 -0.60080703975864402 0.11200226951675774 0 0 0 0 14.75818200693044 -2.5386645553551261 0 -2.5386645553551261 -3.2177426347498113 0 0 0 0 -6.7597086557636885 1.7465299970644992 0 1.7465299970644992 -0.5694670045741077 0 0 0 0 -1.0946840542982095 -1.0967207969196728 0 -1.0967207969196728 -0.95079352074561285 0 0 0 0 -7.9815200464181544 -7.2648354769189609 0 -7.2648354769189609 3.4043408181787527 0 0 0 0 -4.6343024814723321 -8.4301223495751856 0 -8.4301223495751856 2.8518099810426065 0 0 0 0 -4.4848308423440102 -1.477184452157811 0 -1.477184452157811 1.4847614209549036 0 0 0 0 -3.8387570908948874 -4.5687122705494403 0 -4.5687122705494403 1.5296195052615076 0 0 0 0 -7.9061671451170863 -5.2969209828016712 0 -5.2969209828016712 -1.2141961827200873 0 0 0 0 -8.8313359805738401 -3.5182825523388601 0 -3.5182825523388601 2.2539363595778923 0 0 0 0 3.9022302715352453 -5.0260809255232743 0 -5.0260809255232743 -2.8566877304583613 0 0 0 0 -3.4448865135483864 -3.2447611141248203 0 -3.2447611141248203 -2.9088029848966102 0 0 0 0 -0.38118136262528424 -13.140811817378562 0 -13.140811817378562 1.8219003343801887 0 0 0 0 -8.9613447844571965 -3.1566490328905275 0 -3.1566490328905275 -0.80111990758268803 0 0 0 0 1.1825036327190048 -5.1871737319218028 0 -5.1871737319218028 -2.9900046686434507 0 0 0 0 -0.8434107298348863 -6.1428662718035412 0 -6.1428662718035412 -8.4048888503748458 0 0 0 0 -3.3091557668434683 -4.1162343322726045 0 -4.1162343322726045 0.018361319636543527 0 0 0 0 0.61378021768064173 -8.0467440900847578 0 -8.0467440900847578 2.9219682563465312 0 0 0 0 -3.8525858642451567 -20.514213602312338 0 -20.514213602312338 3.7745369581235764 0 0 0 0 -11.046160108720755 -8.3010366375710873 0 -8.3010366375710873 5.6964213124992966 0 0 0 0 -18.4018460300274 -7.1014061637861232 0 -7.1014061637861232 5.5339678812233615 0 0 0 0 -5.8906351250232802 -5.8588825267385225 0 -5.8588825267385225 -2.6742043048329691 0 0 0 0 -23.73642832996984 -5.9690428903304564 0 -5.9690428903304564 8.423821280392076 0 0 0 0 -18.496431885401989 -6.7491850632950445 0 -6.7491850632950445 7.536584186120308 0 0 0 0 -12.947093530243819 -8.6801825299389748 0 -8.6801825299389748 4.2160777179806246 0 0 0 0 -9.5560542499799794 1.772121979838964 0 1.772121979838964 4.2739154419226537 0 0 0 0 -0.20971452408684854 8.2377162381690141 0 8.2377162381690141 6.3289026789170748 0 0 0 0 -25.299458114417121 33.255340125946532 0 33.255340125946532 54.198129684162268 0 0 0 0 -124.40036101941678 -28.057327861090016 0 -28.057327861090016 69.810142918518522 0 0 0 0 -31.024196623381613 30.914142262128735 0 30.914142262128735 108.49426325895183 0 0 0 0 -30.127731146545443 47.272218784477104 0 47.272218784477104 59.051396616217971 0 0 0 0 -3.116489303722612 0.64620778100149678 0 0.64620778100149678 2.1712301412281647 0 0 0 0 -8.1395935712844221 -17.522035512731236 0 -17.522035512731236 92.297458116714552 0 0 0 0 -6.6044410387703465 -2.7214081494246329 0 -2.7214081494246329 54.20764212198992 0 0 0 0 -34.156062592031503 -12.051116034101142 0 -12.051116034101142 15.464205926116847 0 0 0 0 -20.236359657516459 -14.936489901085224 0 -14.936489901085224 11.083383236655209 0 0 0 0 -22.13410093833545 -19.154659800449735 0 -19.154659800449735 10.51416464116005 0 0 0 0 -22.760532766820688 -21.174352012689269 0 -21.174352012689269 22.082720716212862 0 0 0 0 -84.992057148041624 -10.803461683879959 0 -10.803461683879959 3.3006208135066117 0 0 0 0 -65.440909377011394 -76.443115850266622 0 -76.443115850266622 -43.072139823167163 0 0 0 0 -0.70662254944490499 -0.54213495230694164 0 -0.54213495230694164 -0.46587178336174162 0 0 0 0 -2.2346976922967769 -14.884200495000186 0 -14.884200495000186 -57.190255574138519 0 0 0 0 37.84628308971287 55.11478503127546 0 55.11478503127546 -45.939986015477189 0 0 0 0 -76.375874803661191 -54.044846779372165 0 -54.044846779372165 -10.10594908846906 0 0 0 0 -28.123697572140827 -46.022483604003355 0 -46.022483604003355 -76.702650868390265 0 0 0 0 -11.146738306272027 -5.779085597824178 0 -5.779085597824178 -11.31523424383704 0 0 0 0 -47.811334715612247 -31.144553473850465 0 -31.144553473850465 -15.497485687923472 0 0 0 0 -58.717898723941971 -39.529959533349029 0 -39.529959533349029 -1.0240854070725618 0 0 0 0 -57.538654124335608 -41.552961202698498 0 -41.552961202698498 -2.3953517280278902 0 0 0 0 -9.3714867054850401 4.2306751654737127 0 4.2306751654737127 -4.1385297444558091 0 0 0 0 -1.3832258727175031 -4.4055869691947009 0 -4.4055869691947009 3.3579197710660083 0 0 0 0 -2.31102696108817 -1.5656202493283509 0 -1.5656202493283509 -0.62928021419637403 0 0 0 0 -1.3523499667044234 -4.1373051553377991 0 -4.1373051553377991 -2.6787663767609047 0 0 0 0 -0.53228012312424866 -3.3282781047118704 0 -3.3282781047118704 1.1295926300847299 0 0 0 0 2.2440097489548805 -5.2450465971394351 0 -5.2450465971394351 3.0256644578930718 0 0 0 0 -1.436343513933025 -4.7459808518779028 0 -4.7459808518779028 3.8238040648648166 0 0 0 0 5.2894932610722663 -12.674658883678603 0 -12.674658883678603 -1.1626874725370726 0 0 0 0 -4.2194640984043374 -3.5125219042644087 0 -3.5125219042644087 0.82744128016214802 0 0 0 0 -1.8623276394604318 -3.236078279591311 0 -3.236078279591311 1.1635985486536811 0 0 0 0 -5.5205092071958006 -20.694013252865261 0 -20.694013252865261 -21.403448763838242 0 0 0 0 0.95789810516600937 2.3034826266086839 0 2.3034826266086839 -5.8661944382256479 0 0 0 0 7.7079336643457736 -49.341111480418476 0 -49.341111480418476 45.447602668554282 0 0 0 0 -19.435109300872227 -28.884013788264383 0 -28.884013788264383 41.079222298089007 0 0 0 0 -29.108988834784213 -35.122834997202517 0 -35.122834997202517 52.289612616959857 0 0 0 0 -15.622530788276663 -58.685683707968565 0 -58.685683707968565 63.82712337725502 0 0 0 0 13.446768155954715 -76.102849882170631 0 -76.102849882170631 61.233568488375568 0 0 0 0 15.928316176645069 -76.12768391584541 0 -76.12768391584541 52.484278399457253 0 0 0 0 -1.7284714396580512 -57.411995955589191 0 -57.411995955589191 49.968377238015819 0 0 0 0 29.361489707110195 -68.88117497440544 0 -68.88117497440544 51.351492056222924 0 0 0 0 22.881926964844524 -70.727122423598303 0 -70.727122423598303 55.864328935653703 0 0 0 0 30.626844331481607 -78.472634967233262 0 -78.472634967233262 52.242272775471065 0 0 0 0 -0.25972110415409588 -33.994739447623942 0 -33.994739447623942 59.195801760100039 0 0 0 0 29.579020598462129 -40.92244615794111 0 -40.92244615794111 42.107538601154374 0 0 0 0 -7.5979713882093165 -43.493082096021681 0 -43.493082096021681 49.732882749165583 0 0 0 0 -8.1616043675725152 -23.001074640336491 0 -23.001074640336491 24.943226299939852 0 0 0 0 -8.310127038469318 -42.2809727172762 0 -42.2809727172762 50.893787703455018 0 0 0 0 -32.447590776198922 -19.216853136089412 0 -19.216853136089412 38.911301640302554 0 0 0 0 -4.9474603110349449 -24.425595877134015 0 -24.425595877134015 35.38685038623953 0 0 0 0 -62.326151985811862 -53.608695892689866 0 -53.608695892689866 18.575533485141932 0 0 0 0 -31.52015593599458 -19.51127429875487 0 -19.51127429875487 10.13786210028411 0 0 0 0 -41.701851051918766 -18.023296346147617 0 -18.023296346147617 21.549182351734999 0 0 0 0 -30.2708124218384 7.4470048261691772 0 7.4470048261691772 16.172686065812741 0 0 0 0 -36.857897418349239 0.40528751615238434 0 0.40528751615238434 22.928452858542187 0 0 0 0 -34.482365284110301 -1.7293864454277355 0 -1.7293864454277355 24.320837687770108 0 0 0 0 -47.327947537722594 6.4869634650567605 0 6.4869634650567605 28.460034630148584 0 0 0 0 -47.478808049018426 18.836327633942346 0 18.836327633942346 14.493593639769642 0 0 0 0 -24.133695175191406 -26.856063764193095 0 -26.856063764193095 42.575770981566166 0 0 0 0 -21.903329159707027 -10.421897465819711 0 -10.421897465819711 26.710880537952107 0 0 0 0 -39.057029591870105 -6.7290150766184524 0 -6.7290150766184524 33.357182888963507 0 0 0 0 -30.551407261441227 -6.5502286069768161 0 -6.5502286069768161 27.884054169617229 0 0 0 0 -37.512999695527924 -13.448383525565077 0 -13.448383525565077 40.311519747987631 0 0 0 0 -46.093834475769427 8.1105348904275161 0 8.1105348904275161 17.063085297542784 0 0 0 0 -47.361043046421401 -5.4810979430767475 0 -5.4810979430767475 32.949064945963983 0 0 0 0 -56.103504461802231 -11.06086527313073 0 -11.06086527313073 0.89898973133131221 0 0 0 0 -41.744422980613763 10.453030587376816 0 10.453030587376816 22.677262431301642 0 0 0 0 -2.2684084152229156 -1.1259148268858041 0 -1.1259148268858041 -0.03490115593844223 0 0 0 0 -51.432832619080727 9.6877221916802227 0 9.6877221916802227 26.188369117917318 0 0 0 0 -47.364117255124711 12.48924422998607 0 12.48924422998607 22.129973395282832 0 0 0 0 -13.456738011101464 -10.848944646614996 0 -10.848944646614996 7.1859484763117507 0 0 0 0 -7.4573836583556243 -5.5255447607857811 0 -5.5255447607857811 -3.1059151143878267 0 0 0 0 -58.827517872394083 24.779224122352389 0 24.779224122352389 0.52601920801964752 0 0 0 0 -59.015841079493519 4.3554129686616321 0 4.3554129686616321 16.993406838577357 0 0 0 0 -59.338284692002503 14.841965841656929 0 14.841965841656929 16.180930192756932 0 0 0 0 -41.043947870625971 -24.421634385714242 0 -24.421634385714242 41.146036763697339 0 0 0 0 -57.809725404849644 -9.298803074362695 0 -9.298803074362695 43.452264261533855 0 0 0 0 -5.5172107899071534 -62.319921014566262 0 -62.319921014566262 62.890592878207826 0 0 0 0 -45.558171120939733 -24.338695480097158 0 -24.338695480097158 55.308700374628643 0 0 0 0 -11.185394923954846 -48.769225269488743 0 -48.769225269488743 56.567871351770009 0 0 0 0 -34.847194803556931 -48.398871131137639 0 -48.398871131137639 78.49247564329653 0 0 0 0 -35.868680755793321 -29.07479987003353 0 -29.07479987003353 54.414677169010247 0 0 0 0 -62.295490527047946 -17.944636642670048 0 -17.944636642670048 70.126786348203495 0 0 0 0 -39.201087683596484 -22.611130803622473 0 -22.611130803622473 47.592619848957838 0 0 0 0 -92.481074711090798 18.218202881781053 0 18.218202881781053 45.981130300766381 0 0 0 0 -64.179027692675334 28.790944225180283 0 28.790944225180283 -37.15024791135329 0 0 0 0 -81.511972775707363 12.087304121213492 0 12.087304121213492 22.632612928791787 0 0 0 0 18.646607961198555 -36.709879713665259 0 -36.709879713665259 17.784442987951479 0 0 0 0 -3.2524016916002951 -2.1415206481103013 0 -2.1415206481103013 -1.0700584245531886 0 0 0 0 -147.59078283910583 93.702735613260302 0 93.702735613260302 -41.196993195863058 0 0 0 0 -93.71479243538181 12.708174932277416 0 12.708174932277416 -35.66161217066292 0 0 0 0 -14.72053102733463 -9.1453460760544658 0 -9.1453460760544658 9.8739464493392006 0 0 0 0 -8.4010981021913267 -3.5061388343774524 0 -3.5061388343774524 10.214792599855627 0 0 0 0 -5.0419027644527628 -3.7444865424009066 0 -3.7444865424009066 -2.2606853305269539 0 0 0 0 -81.818900920581768 55.828637556099238 0 55.828637556099238 -32.068119889617265 0 0 0 0 0.60638212375260991 -27.212443937964963 0 -27.212443937964963 15.777688509806467 0 0 0 0 -16.871335341236978 -19.938438831937219 0 -19.938438831937219 15.625925647684198 0 0 0 0 2.0090878515014765 -7.479041543357198 0 -7.479041543357198 18.750019364096033 0 0 0 0 -31.650008602927073 -1.1479922801290741 0 -1.1479922801290741 15.118973520662621 0 0 0 0 -18.841430413755688 2.0754015876136691 0 2.0754015876136691 3.1143466201137926 0 0 0 0 -42.964624926206398 13.486368807987674 0 13.486368807987674 0.93392877065343782 0 0 0 0 -38.007604928905266 0.81204203654215235 0 0.81204203654215235 11.759245353281585 0 0 0 0 -33.790511696590784 -2.015632522238775 0 -2.015632522238775 8.3887101341897505 0 0 0 0 -34.726132855831793 -3.0639537535807904 0 -3.0639537535807904 18.0920488146146 0 0 0 0 2.4475543382725391 -11.767329619806787 0 -11.767329619806787 -3.4135511576514546 0 0 0 0 -38.255129299877694 -22.561533520712146 0 -22.561533520712146 -0.07952763751927705 0 0 0 0 -67.799078106961815 9.7671553769441743 0 9.7671553769441743 20.58586143120192 0 0 0 0 -59.194433900409194 2.0511743870265491 0 2.0511743870265491 19.74256807191523 0 0 0 0 -107.67837762393719 6.2209072575024038 0 6.2209072575024038 30.3027909614284 0 0 0 0 2.7809322322659682 -8.0743991539920899 0 -8.0743991539920899 23.514741381214094 0 0 0 0 -1.0324851494094154 -0.61047771222406055 0 -0.61047771222406055 -0.53460785710004899 0 0 0 0 -92.587472458572194 -105.04021846314572 0 -105.04021846314572 56.569963426100003 0 0 0 0 22.487510418559072 -14.536840423239937 0 -14.536840423239937 0.037728511351815541 0 0 0 0 -277.16357904194365 25.724389312403218 0 25.724389312403218 -0.035552259339965531 0 0 0 0 -319.30435435904053 -26.980486362971192 0 -26.980486362971192 -20.337412143991969 0 0 0 0 -236.01000453465997 109.46189128858896 0 109.46189128858896 -71.041711932671205 0 0 0 0 -348.48751720751784 146.87372450809198 0 146.87372450809198 -32.357115373317356 0 0 0 0 -82.656974236106407 -43.709732448261548 0 -43.709732448261548 -61.649505917246643 0 0 0 0 13.728474849360509 -50.85551521195066 0 -50.85551521195066 -20.672758816389432 0 0 0 0 -98.74398753962231 -46.486192005123485 0 -46.486192005123485 -1.1901895974442596 0 0 0 0 -15.445019998831526 -31.829676261827444 0 -31.829676261827444 -79.519839309605231 0 0 0 0 -100.88809848017831 -68.732261707053112 0 -68.732261707053112 -42.122155373150235 0 0 0 0 -14.535452395007042 -49.097026579799603 0 -49.097026579799603 10.101053757118279 0 0 0 0 78.067013548371051 -97.548496019815502 0 -97.548496019815502 -0.079058994308977448 0 0 0 0 107.80852719038216 -68.145043282457664 0 -68.145043282457664 -3.7925752996507072 0 0 0 0 7.5417573289607844 -120.9779519791573 0 -120.9779519791573 5.7165474813357946 0 0 0 0 84.452986777914447 -73.377313365007922 0 -73.377313365007922 25.029312349512111 0 0 0 0 95.715065799819627 -113.09753264421101 0 -113.09753264421101 36.920518701906985 0 0 0 0 97.679282983916096 -125.62812104073578 0 -125.62812104073578 55.355759833630145 0 0 0 0 95.654456484423974 -133.20087759528815 0 -133.20087759528815 44.681438300078298 0 0 0 0 75.705873677085492 -139.04835132647167 0 -139.04835132647167 46.330387393982164 0 0 0 0 17.102358854551767 -89.163561941551961 0 -89.163561941551961 62.510674225009097 0 0 0 0 110.63382065914686 -151.81541786653361 0 -151.81541786653361 60.128752857133804 0 0 0 0 130.14420252599325 -74.96490451507816 0 -74.96490451507816 51.349336900746493 0 0 0 0 40.283413624970763 -55.265785364236763 0 -55.265785364236763 20.828264995840073 0 0 0 0 -8.5963833752754226 -70.918400163093793 0 -70.918400163093793 83.008468356030789 0 0 0 0 -21.293064230587902 -6.3799862614496305 0 -6.3799862614496305 51.342943908837697 0 0 0 0 -54.120829614528702 -29.965242832291551 0 -29.965242832291551 36.630427361369584 0 0 0 0 -84.325444092567693 34.702014031391627 0 34.702014031391627 -5.1800897605044156 0 0 0 0 -78.195572491221839 -73.218299219796194 0 -73.218299219796194 39.694873393269518 0 0 0 0 -4.4933828165767409 -5.646919283153693 0 -5.646919283153693 -0.31435657758265734 0 0 0 0 -3.4635541235833198 -2.4886350153009609 0 -2.4886350153009609 -0.97941770307869191 0 0 0 0 -2.8523343293741164 -3.9953563334531736 0 -3.9953563334531736 0.62215587045648135 0 0 0 0 -0.66626773327611311 -0.9627992684395501 0 -0.9627992684395501 0.96428563563977576 0 0 0 0 -7.3236717623749428 -4.7557188139981008 0 -4.7557188139981008 1.3718403439997928 0 0 0 0 4.3894600233841174 -4.7661022709626195 0 -4.7661022709626195 -1.2563878220807965 0 0 0 0 -12.341116876782053 -8.8943376486440684 0 -8.8943376486440684 19.391261771600512 0 0 0 0 -0.0052043062475144453 -0.070687295550968088 0 -0.070687295550968088 0.61177840378061887 0 0 0 0 161.24808559374833 -43.665863285918022 0 -43.665863285918022 0.064041705752970302 0 0 0 0 157.15324680158642 -98.483024351384302 0 -98.483024351384302 48.872398634997808 0 0 0 0 229.15012205262337 -35.394718925297639 0 -35.394718925297639 -1.2181769466333208 0 0 0 0 51.742278210641416 -1.003745193591385 0 -1.003745193591385 -7.6411099796659983 0 0 0 0 30.478956258908738 -26.065302190808779 0 -26.065302190808779 12.599009845282126 0 0 0 0 120.2173135728026 -62.225113772393343 0 -62.225113772393343 11.799850422423333 0 0 0 0 125.15926777280174 -111.75334634244973 0 -111.75334634244973 24.437405438855421 0 0 0 0 133.94269884941059 -94.809250588015857 0 -94.809250588015857 14.137940895068823 0 0 0 0 102.63202573774993 -99.407878245040138 0 -99.407878245040138 19.139012233728863 0 0 0 0 154.21586202149456 -86.728692600045633 0 -86.728692600045633 4.1945522982168768 0 0 0 0 132.27045330308101 -98.200924818753265 0 -98.200924818753265 3.8176727001427935 0 0 0 0 139.67446414345295 -96.579691438853843 0 -96.579691438853843 0.036326939112768741 0 0 0 0 158.08614558940099 -78.934142474401597 0 -78.934142474401597 -12.433031401311382 0 0 0 0 134.57698301510663 -104.04199996768716 0 -104.04199996768716 -2.9307859969703713 0 0 0 0 156.94507197550911 -117.9423480855894 0 -117.9423480855894 5.0137587294448167 0 0 0 0 123.80182385372791 -118.28899908295898 0 -118.28899908295898 15.63433462024841 0 0 0 0 173.91959538944388 -42.561324050750954 0 -42.561324050750954 100.48323550739042 0 0 0 0 225.67235847887048 -154.94222153752617 0 -154.94222153752617 28.759075675181521 0 0 0 0 74.968425000937714 -176.1326286960666 0 -176.1326286960666 145.8977532724771 0 0 0 0 130.68360589112058 -165.84299515647581 0 -165.84299515647581 103.03613122908814 0 0 0 0 224.76596070425376 -48.413080273766354 0 -48.413080273766354 -6.5711280364394042 0 0 0 0 50.596272143596252 -3.6282193569040828 0 -3.6282193569040828 -7.5854604491864279 0 0 0 0 0.10956389641741904 -0.89951969009592148 0 -0.89951969009592148 1.0855582788860829 0 0 0 0 3.2259364472502057 -64.741183871898102 0 -64.741183871898102 146.56724792537352 0 0 0 0 -16.040751338768132 0.98814045829203678 0 0.98814045829203678 -55.722952201416774 0 0 0 0 11.9688671877866 16.013090686297801 0 16.013090686297801 27.232647480981541 0 0 0 0 0.083503443222394225 -0.52211674344768033 0 -0.52211674344768033 0.046952015763572774 0 0 0 0 -12.146319327604942 -7.3369697777725378 0 -7.3369697777725378 -2.8050173618285044 0 0 0 0 -7.2463681417203816 -14.328543189990341 0 -14.328543189990341 -13.291693448794831 0 0 0 0 -0.69803872514194154 -6.0325184364655797 0 -6.0325184364655797 -29.990205982561747 0 0 0 0 -34.146173355766223 -5.2672143043564574 0 -5.2672143043564574 -13.237065586836252 0 0 0 0 0.069410270688400999 -0.40726288477805284 0 -0.40726288477805284 -0.44595071345115045 0 0 0 0 4.6587612208161318 -8.8712571652276893 0 -8.8712571652276893 18.961086495557538 0 0 0 0 -22.536913907093776 -72.349665516517234 0 -72.349665516517234 134.89525614014565 0 0 0 0 53.656882229751773 -93.37616617781714 0 -93.37616617781714 56.638397594335402 0 0 0 0 62.006265166391131 -62.178759580482165 0 -62.178759580482165 30.24649851131835 0 0 0 0 35.64618387771884 -91.18736896431983 0 -91.18736896431983 62.439772620891745 0 0 0 0 11.592914216482313 -24.697660977602936 0 -24.697660977602936 14.241223010420526 0 0 0 0 0.0012768375395761922 -1.3317389632367913 0 -1.3317389632367913 -0.82374519379330735 0 0 0 0 26.955618166393833 1.3647892906810739 0 1.3647892906810739 -5.2115703341696644 0 0 0 0 1.5326519464906596 -2.5132839232428523 0 -2.5132839232428523 -4.1089206876840763 0 0 0 0 1.1832974312164879 -2.5940106154703244 0 -2.5940106154703244 -4.0677414318415686 0 0 0 0 0.75484370292815584 -0.67668374942331866 0 -0.67668374942331866 -18.821493827286758 0 0 0 0 0.3116759140737031 -0.69067838538194337 0 -0.69067838538194337 -8.221841950842645 0 0 0 0 -1.9343261127714868 -13.508546906021365 0 -13.508546906021365 -16.252479008329829 0 0 0 0 3.2908347719103404 -7.9260723127154051 0 -7.9260723127154051 -6.8257166642924858 0 0 0 0 -1.0832922537792911 -10.613620836726113 0 -10.613620836726113 -8.2840558922252967 0 0 0 0 -0.82390498812893753 -3.7931033146877802 0 -3.7931033146877802 -3.7602364238588493 0 0 0 0 2.689429689264216 -11.053639585245037 0 -11.053639585245037 -6.1472808881408127 0 0 0 0 2.3007411240732836 -2.6758013457929337 0 -2.6758013457929337 -6.2459777135172772 0 0 0 0 2.4577459008814913 -5.9419852869168608 0 -5.9419852869168608 -3.7131669249429251 0 0 0 0 3.0560005537699908 -6.7572263717120222 0 -6.7572263717120222 -15.050673473451752 0 0 0 0 -2.6459242755990999 -2.7026131869733945 0 -2.7026131869733945 -3.9793282917107717 0 0 0 0 -2.3005028965262682 -4.3198766107943811 0 -4.3198766107943811 -4.8877993979276653 0 0 0 0 1.2131778851879087 -0.051750033072279322 0 -0.051750033072279322 -1.2542777456147221 0 0 0 0 -2.1545049815708808 -5.8159592467161474 0 -5.8159592467161474 0.29523694066665485 0 0 0 0 3.5198126740359612 -7.4714629519778555 0 -7.4714629519778555 1.9526522872438363 0 0 0 0 -4.5899883049841801 -3.9437594548118864 0 -3.9437594548118864 1.3386932351961391 0 0 0 0 -5.0537103257869997 -4.2583089316454554 0 -4.2583089316454554 -1.5693135407780616 0 0 0 0 -8.6894344028460182 -4.4736596679231297 0 -4.4736596679231297 -2.7283450053510023 0 0 0 0 -6.6141293343243888 -6.5257814336946467 0 -6.5257814336946467 0.21707914363560121 0 0 0 0 2.5007286134109563 -3.2006550465794135 0 -3.2006550465794135 -4.8830917882878566 0 0 0 0 -0.91886434366607084 -2.4508888319665694 0 -2.4508888319665694 -3.015557473163561 0 0 0 0 -1.9914271112004585 -2.2623356148813478 0 -2.2623356148813478 -0.99127120998348062 0 0 0 0 -5.4914014168480207 -4.1885444849103806 0 -4.1885444849103806 -1.3516654936101986 0 0 0 0 1.4180827001746366 -1.5393957706219226 0 -1.5393957706219226 0.053304874469176866 0 0 0 0 -3.138976920921535 -2.6027723772436886 0 -2.6027723772436886 -0.44781639470203061 0 0 0 0 -2.6569376473562443 -1.9101295392756583 0 -1.9101295392756583 -3.8688928273622878 0 0 0 0 -1.3392949905607874 -2.0608873087498436 0 -2.0608873087498436 -1.5257237377031316 0 0 0 0 -0.041429960070672678 -1.0234801139704359 0 -1.0234801139704359 -0.44622028041339945 0 0 0 0 0.43458378876263737 -2.9392574376933602 0 -2.9392574376933602 -1.6707715664619762 0 0 0 0 -0.70519603387671115 -0.83396229151481549 0 -0.83396229151481549 0.25167072262568979 0 0 0 0 -4.2218840574907972 -3.2663743757489101 0 -3.2663743757489101 -1.7740830045077018 0 0 0 0 -5.097338705416405 -3.5719055291183395 0 -3.5719055291183395 -1.0767908460311446 0 0 0 0 -7.7509893682508846 -11.63311311401776 0 -11.63311311401776 -8.361030486137679 0 0 0 0 -19.221368352787749 -10.779974942775766 0 -10.779974942775766 -4.738543648407358 0 0 0 0 0.77851633782889995 -0.065645410344904676 0 -0.065645410344904676 -0.026032976924966533 0 0 0 0 6.3184778738577734 -1.4396312308454071 0 -1.4396312308454071 -3.7296379591445969 0 0 0 0 0.26375166113991 -3.9154715783680558 0 -3.9154715783680558 -1.5503629354568282 0 0 0 0 -10.810749525175652 -11.872405603461175 0 -11.872405603461175 -3.8099244899822224 0 0 0 0 -8.23762851579977 -7.2012927897490044 0 -7.2012927897490044 -4.6647620263465797 0 0 0 0 -8.3572871050810136 -6.1884431390699319 0 -6.1884431390699319 -0.86100611576330266 0 0 0 0 -5.9186921351724777 -8.5099906835621368 0 -8.5099906835621368 -2.2573989108277601 0 0 0 0 -1.0476145837727981 -5.2875651534255281 0 -5.2875651534255281 -2.7478744627553127 0 0 0 0 0.22597560884651102 -6.9504927266007144 0 -6.9504927266007144 -4.5860142514447944 0 0 0 0 -3.7324413915880541 -3.9345865541699823 0 -3.9345865541699823 -0.14565461710299132 0 0 0 0 1.9555256479955858 -2.7069321853307393 0 -2.7069321853307393 -4.2253641197833396 0 0 0 0 -0.31382698957713728 -3.9811362068030576 0 -3.9811362068030576 1.9226515820373606 0 0 0 0 -0.038196903030693008 -3.5715571832332245 0 -3.5715571832332245 -2.7679083383743759 0 0 0 0 -4.7003629185828686 -10.830294831514038 0 -10.830294831514038 3.1490876391944767 0 0 0 0 1.4396809121499246 -2.8342671794307535 0 -2.8342671794307535 1.1485265177470865 0 0 0 0 -1.904341584757276 -17.262456455133361 0 -17.262456455133361 -5.880200394167332 0 0 0 0 -1.3611003488444844 -3.7417850149096701 0 -3.7417850149096701 -1.083235453207287 0 0 0 0 -1.0231918554444732 -5.4239990265797609 0 -5.4239990265797609 -4.2983690961500329 0 0 0 0 0.85791441453195993 -4.3751111070009969 0 -4.3751111070009969 -3.435410266125956 0 0 0 0 6.2004803511154023 0.44918870327819604 0 0.44918870327819604 -3.9134532741300063 0 0 0 0 1.3668947304604391 -0.2733343811618294 0 -0.2733343811618294 -0.59681954636668166 0 0 0 0 1.8091350526233327 -4.8968975717616559 0 -4.8968975717616559 -0.83781627853022655 0 0 0 0 -0.06055351553261179 -3.4091612000528286 0 -3.4091612000528286 0.2877301829416723 0 0 0 0 1.9538751459085688 -3.7139835491425401 0 -3.7139835491425401 -2.1220252373423136 0 0 0 0 -0.44185995874401307 -2.0789559331187988 0 -2.0789559331187988 -1.9461681174904726 0 0 0 0 2.893473002819519 -4.4263088703246467 0 -4.4263088703246467 0.21869109775980178 0 0 0 0 -1.3411063866710713 -2.5009245012240688 0 -2.5009245012240688 -0.59840954202106644 0 0 0 0 -0.92493768222580885 -2.2357214712083753 0 -2.2357214712083753 1.4236394424914778 0 0 0 0 2.6492393857100751 -5.3001013934181174 0 -5.3001013934181174 1.9901748749034596 0 0 0 0 0.42335557983400918 -1.8329760943165994 0 -1.8329760943165994 -1.5962319235844191 0 0 0 0 0.63842143106445981 -2.2264627759316049 0 -2.2264627759316049 -1.1251484426810094 0 0 0 0 0.64003296638315987 -3.042649334669477 0 -3.042649334669477 -1.0430642502578849 0 0 0 0 2.0575451231420629 -3.4689119282274987 0 -3.4689119282274987 0.84130299898606609 0 0 0 0 2.6978148926625636 -4.0908944358184272 0 -4.0908944358184272 0.69932589402742451 0 0 0 0 0.27738032862127515 -1.9705086922264228 0 -1.9705086922264228 -0.87902989773215978 0 0 0 0 -9.9105795595215227 -12.958206096814365 0 -12.958206096814365 28.101213693134923 0 0 0 0 -0.59863995940109227 -2.6269511362837186 0 -2.6269511362837186 1.6337518379928753 0 0 0 0 -3.9528628342222873 -7.0926298614940606 0 -7.0926298614940606 -3.1573579188961958 0 0 0 0 2.1313203163908838 -4.1802654814036941 0 -4.1802654814036941 0.33915034184246906 0 0 0 0 35.207517995554554 -41.256180004159432 0 -41.256180004159432 20.174295074488327 0 0 0 0 109.18280440020499 -37.792105271324544 0 -37.792105271324544 -8.6866933299679658 0 0 0 0 21.320465429296746 0.99860828395321732 0 0.99860828395321732 1.755329185141818 0 0 0 0 0.37812776897138267 -2.2793493225780779 0 -2.2793493225780779 -2.2096596621183515 0 0 0 0 1.3231361376949735 -5.0072255614104506 0 -5.0072255614104506 4.7332037014675734 0 0 0 0 0.61174641648039429 -0.6487957510320701 0 -0.6487957510320701 -0.5386630376556738 0 0 0 0 1.3614779160834587 -2.0542590393997671 0 -2.0542590393997671 2.4973526574249263 0 0 0 0 4.7907831765633091 0.13706547895344556 0 0.13706547895344556 -5.1521006506845879 0 0 0 0 0.71255666942261087 -2.3401100031405804 0 -2.3401100031405804 4.8280792682503488 0 0 0 0 3.976732505997461 -3.8787235639547362 0 -3.8787235639547362 1.8050599730158865 0 0 0 0 5.6202574791934694 -4.1001375610512696 0 -4.1001375610512696 -2.5319402617496962 0 0 0 0 0.048201677295647283 -0.10186267434671237 0 -0.10186267434671237 -0.20321940645414571 0 0 0 0 7.2803826540731649 -11.356976508099564 0 -11.356976508099564 -4.8012708802707493 0 0 0 0 0.76696453283115007 -1.4983228367484198 0 -1.4983228367484198 -2.967070398892993 0 0 0 0 6.8959687605824538 17.028676191682464 0 17.028676191682464 -14.15015022622174 0 0 0 0 0.6772915445961214 -2.1162996518458606 0 -2.1162996518458606 -2.9562033291434275 0 0 0 0 2.908068303619757 -1.8348963842672674 0 -1.8348963842672674 -3.0237392442104465 0 0 0 0 8.4605181858901233 -27.446352841843691 0 -27.446352841843691 -5.5191969488746508 0 0 0 0 3.63194328091231 -4.9267972473226109 0 -4.9267972473226109 -2.6632610054142845 0 0 0 0 2.5437390877486905 -4.3647170344902406 0 -4.3647170344902406 -2.6603088311410374 0 0 0 0 2.3422442827331906 -5.3424717252710252 0 -5.3424717252710252 -2.4920131759936339 0 0 0 0 -1.0034102878206157 -3.1262462568212683 0 -3.1262462568212683 -1.9817816292168189 0 0 0 0 0.032285385111663345 -4.7000992987314021 0 -4.7000992987314021 -1.5807966908669187 0 0 0 0 4.4911922015430719 -5.191438374144127 0 -5.191438374144127 -2.0907306821400198 0 0 0 0 0.23954273810453408 -3.9533960037998304 0 -3.9533960037998304 -1.3356888386660302 0 0 0 0 2.7437670199617514 -4.5789689524572168 0 -4.5789689524572168 -1.2450507203175221 0 0 0 0 3.4313061666316571 -6.0073874748650269 0 -6.0073874748650269 -1.848936952314034 0 0 0 0 3.6837237802001255 -5.9852388346444059 0 -5.9852388346444059 -2.2322728540057142 0 0 0 0 2.655768223387895 -5.6150384035258867 0 -5.6150384035258867 -1.9994727149678511 0 0 0 0 -1.3005600018413208 -4.210016081280421 0 -4.210016081280421 -1.6327960345699069 0 0 0 0 -0.39524367138665184 -3.868496905307893 0 -3.868496905307893 -1.1433122799389821 0 0 0 0 3.5547038962822626 -5.7709675659989443 0 -5.7709675659989443 -2.2376631768038351 0 0 0 0 3.6468769778903152 -5.4868275371227355 0 -5.4868275371227355 -2.3674854007367685 0 0 0 0 4.6114223958556977 -7.003770870873268 0 -7.003770870873268 -1.9431852895068005 0 0 0 0 -0.94098939484485022 -0.7539025160125874 0 -0.7539025160125874 0.29923651908952564 0 0 0 0 -1.2730188449268098 -4.3588698029634543 0 -4.3588698029634543 -1.2643763638679957 0 0 0 0 -0.069560980091076807 -3.4750678715929846 0 -3.4750678715929846 -1.2648732680368795 0 0 0 0 -6.8944456207173062 -5.3450205494036709 0 -5.3450205494036709 -0.1079591412044465 0 0 0 0 -0.59049840375450913 -5.5276871054683738 0 -5.5276871054683738 -2.5556245392726851 0 0 0 0 0.3561348721277362 -3.173937145537681 0 -3.173937145537681 -1.0206877280850364 0 0 0 0 -0.5792558630100757 -3.6268327253792449 0 -3.6268327253792449 -0.80417778588889632 0 0 0 0 0.39776425759464473 -3.7245662675795757 0 -3.7245662675795757 -1.8954289187950053 0 0 0 0 -3.205529079687949 -3.0573855935817846 0 -3.0573855935817846 1.2534102567897207 0 0 0 0 -0.49326694756872769 -0.40339143259952337 0 -0.40339143259952337 -0.32947803793774 0 0 0 0 -10.480671530623113 -10.124329868320274 0 -10.124329868320274 -4.9983490699269169 0 0 0 0 74.512860405427091 -99.417004512856693 0 -99.417004512856693 104.77376255063427 0 0 0 0 71.747275574088121 -109.6090020147567 0 -109.6090020147567 90.462193590301467 0 0 0 0 152.59248325392832 -202.35608421115285 0 -202.35608421115285 235.58868690169811 0 0 0 0 -2.293276293453431 -81.179007435524454 0 -81.179007435524454 91.50459161159597 0 0 0 0 -27.468534499129248 -57.985097727980474 0 -57.985097727980474 109.44670799294181 0 0 0 0 3.463419600312136 -67.316343489899737 0 -67.316343489899737 80.548998302625478 0 0 0 0 14.517343760935319 -100.27489251439511 0 -100.27489251439511 147.1147964877091 0 0 0 0 -40.330022748379974 -17.112602923049053 0 -17.112602923049053 74.659237710258822 0 0 0 0 -13.72188631403975 -55.767873081029393 0 -55.767873081029393 98.080377456193673 0 0 0 0 78.001236532574623 -43.778216611135349 0 -43.778216611135349 74.144234172890719 0 0 0 0 69.868219978645499 -89.585480807926501 0 -89.585480807926501 99.508631610122393 0 0 0 0 8.2388024299546032 -25.184497437932805 0 -25.184497437932805 140.43626388119378 0 0 0 0 70.984400373933795 -137.89732654381078 0 -137.89732654381078 87.408527438981764 0 0 0 0 173.55986332105033 -194.74474705936882 0 -194.74474705936882 117.55124222878476 0 0 0 0 217.61543735851978 8.9079704942359967 0 8.9079704942359967 163.13148038011786 0 0 0 0 86.555271244400501 -120.66134164215146 0 -120.66134164215146 58.291199553439583 0 0 0 0 75.709338789223921 -114.71182090006641 0 -114.71182090006641 55.762362437699267 0 0 0 0 23.575830577337001 -9.6560128697028631 0 -9.6560128697028631 21.110072670477166 0 0 0 0 0.1586218724044417 -2.5583800426428205 0 -2.5583800426428205 -2.1045652772840278 0 0 0 0 -1.5302217058838323 -9.2769134820646286 0 -9.2769134820646286 7.3990402743584127 0 0 0 0 0.67773174414421078 -64.207788179561021 0 -64.207788179561021 98.184732912410254 0 0 0 0 -12.084072993388986 -49.129000143819212 0 -49.129000143819212 216.3018335613524 0 0 0 0 0.63235057169538922 -1.3515449883516411 0 -1.3515449883516411 0.59733702077198814 0 0 0 0 294.37508966717695 -48.552652411008239 0 -48.552652411008239 10.010952692140563 0 0 0 0 200.76899416092851 -73.49263408447041 0 -73.49263408447041 -8.7033568776387256 0 0 0 0 122.00659062388058 -11.938112255322267 0 -11.938112255322267 2.6957781764031097 0 0 0 0 0.60048842557730198 -0.53021953587619564 0 -0.53021953587619564 -0.17463989792292978 0 0 0 0 40.811279356793079 27.523884043057478 0 27.523884043057478 -23.700513918474826 0 0 0 0 2.9953212902609039 -7.3249334509837354 0 -7.3249334509837354 11.205804650046048 0 0 0 0 83.285289219785966 -35.271549307502028 0 -35.271549307502028 -1.9846425124305824 0 0 0 0 84.00506741121751 -35.407871446239369 0 -35.407871446239369 -4.1112386178901943 0 0 0 0 2.1226570262314826 -1.8455306697807075 0 -1.8455306697807075 -1.0275619727863514 0 0 0 0 4.7569397931680406 -12.029393018506653 0 -12.029393018506653 3.8107607361016562 0 0 0 0 2.2214939957168554 5.1931868110641517 0 5.1931868110641517 -14.718433095389628 0 0 0 0 -4.5691218473393747 0.10839797712105792 0 0.10839797712105792 1.9492961836458562 0 0 0 0 -5.2686568711478685 -6.2198975355095172 0 -6.2198975355095172 7.3314480037140015 0 0 0 0 13.121131962226571 -7.1668955939239822 0 -7.1668955939239822 -5.866938396331534 0 0 0 0 -4.8066231552678573 8.0657619914436509 0 8.0657619914436509 -2.6391238363025877 0 0 0 0 39.381843468351065 -17.17287503105581 0 -17.17287503105581 3.3706294249714119 0 0 0 0 35.335995165024997 -21.272495928922581 0 -21.272495928922581 4.2631476584174379 0 0 0 0 15.918861105696067 -0.23418871668582142 0 -0.23418871668582142 4.3981275989881397 0 0 0 0 15.676481601324781 -6.5674013127481885 0 -6.5674013127481885 2.4440928965852891 0 0 0 0 22.604542385665582 -32.934576280813417 0 -32.934576280813417 15.658081079765452 0 0 0 0 60.242715418499529 -52.629199096023513 0 -52.629199096023513 14.53134141785506 0 0 0 0 58.366895358764623 -55.518318256143175 0 -55.518318256143175 10.813176666029904 0 0 0 0 111.24034206845022 -84.738895893922745 0 -84.738895893922745 22.928709788926426 0 0 0 0 74.064295477966596 -89.987692102148344 0 -89.987692102148344 36.076190640073037 0 0 0 0 72.084337019662698 -107.10856727092505 0 -107.10856727092505 58.590053941512451 0 0 0 0 128.87254671930896 -138.45317885135228 0 -138.45317885135228 78.239782102920799 0 0 0 0 32.103296221131586 -88.048543659129791 0 -88.048543659129791 63.837587289121075 0 0 0 0 33.413915331586395 -95.350591389102192 0 -95.350591389102192 85.49815052408303 0 0 0 0 44.593876512260749 -84.806524076664573 0 -84.806524076664573 41.332642572308032 0 0 0 0 31.203929286697303 -92.730268964965944 0 -92.730268964965944 65.621621771007085 0 0 0 0 36.859465653216148 -74.315437429389931 0 -74.315437429389931 37.282349525412428 0 0 0 0 50.925755541658361 -82.793673375531171 0 -82.793673375531171 41.97210438305774 0 0 0 0 23.875715713173349 -49.842616156523036 0 -49.842616156523036 58.741262407176691 0 0 0 0 9.1647411559022558 -26.881527878719595 0 -26.881527878719595 34.215234392795537 0 0 0 0 34.659768002507036 -39.232274096499168 0 -39.232274096499168 8.8840199175938324 0 0 0 0 15.144753314850846 -11.518367952060316 0 -11.518367952060316 -18.100894760689698 0 0 0 0 12.11923458991231 -14.283499927985758 0 -14.283499927985758 24.581879902678793 0 0 0 0 2.9889830204907537 -0.66165626312343306 0 -0.66165626312343306 0.10155346873250259 0 0 0 0 19.941023698870879 -23.001849032592872 0 -23.001849032592872 33.543042395993325 0 0 0 0 6.2461919454902954 -1.3323511361268174 0 -1.3323511361268174 -51.321617888556375 0 0 0 0 -4.7955127177374237 -8.7511749459958992 0 -8.7511749459958992 -12.218295837905316 0 0 0 0 2.3997831761674888 -12.010359835030613 0 -12.010359835030613 -33.338190032493003 0 0 0 0 -4.8469512486081072 -4.5276138074414121 0 -4.5276138074414121 -3.841055832173879 0 0 0 0 -8.6086617109114059 -8.1949943471622646 0 -8.1949943471622646 -21.164665050899202 0 0 0 0 12.905891632459657 -12.930651616844443 0 -12.930651616844443 -20.129467258590012 0 0 0 0 16.271333099601705 -12.211201612523837 0 -12.211201612523837 -2.4605999520026671 0 0 0 0 2.6828321186575295 -11.51023784676363 0 -11.51023784676363 30.224070231335645 0 0 0 0 -6.6848598636326884 -12.034580616530093 0 -12.034580616530093 -9.8910244843737019 0 0 0 0 -6.6475391537146038 -3.9860990261840925 0 -3.9860990261840925 11.358028113987075 0 0 0 0 0.11103431567607913 -1.3966253910712112 0 -1.3966253910712112 -1.7598482457669888 0 0 0 0 9.4838760632023877 -23.062648539789734 0 -23.062648539789734 16.781757154378283 0 0 0 0 -1.2101678880415689 -0.84958908369852182 0 -0.84958908369852182 -0.44471633689202505 0 0 0 0 16.475616278824646 -17.265576136473101 0 -17.265576136473101 6.5816225837143065 0 0 0 0 18.410315686870717 0.047342177387690754 0 0.047342177387690754 -61.453545320386183 0 0 0 0 8.3668187777939806 -29.552289756833716 0 -29.552289756833716 8.3752525621748646 0 0 0 0 8.1133454036240664 -19.094248196227454 0 -19.094248196227454 -35.344584993010358 0 0 0 0 -1.430876819821151 -15.748687161079943 0 -15.748687161079943 7.6001999635091124 0 0 0 0 4.5112463106245286 -1.4266726973201003 0 -1.4266726973201003 -16.311622466357221 0 0 0 0 12.190580052593759 -16.992157363281876 0 -16.992157363281876 -26.168072889986433 0 0 0 0 39.935538088038584 -57.386926864045563 0 -57.386926864045563 10.261415100227168 0 0 0 0 -56.837013842741271 26.313228490147594 0 26.313228490147594 14.669215666758646 0 0 0 0 -0.55000812528558374 -0.97963152332938142 0 -0.97963152332938142 0.22541853082366003 0 0 0 0 -7.8894080214474798 -8.6179334674487791 0 -8.6179334674487791 -8.6260186493673245 0 0 0 0 5.2664379744293379 -2.0870299149956963 0 -2.0870299149956963 -0.52066840256426516 0 0 0 0 38.06011083844146 -17.05521086056433 0 -17.05521086056433 2.4717478968768773 0 0 0 0 4.5894233675733496 -7.0139531824297592 0 -7.0139531824297592 0.42788992628447886 0 0 0 0 9.7417291863919786 -10.474089981104044 0 -10.474089981104044 -3.0471788354243472 0 0 0 0 19.019578143155854 3.804166150594483 0 3.804166150594483 -12.196254959013459 0 0 0 0 4.5144094609438339 -0.93051949802074319 0 -0.93051949802074319 0.21574215496866156 0 0 0 0 -16.475108539623761 4.3076329179493769 0 4.3076329179493769 9.503543903827449 0 0 0 0 -21.515099076494835 0.95269346044733538 0 0.95269346044733538 8.4009275721837184 0 0 0 0 -1.6547263255714597 -9.2992548144320608 0 -9.2992548144320608 -19.542100190141355 0 0 0 0 -2.471299714855661 -16.588279126269299 0 -16.588279126269299 11.973320212371618 0 0 0 0 -0.040439272570552021 10.505626801674225 0 10.505626801674225 -19.859494478616028 0 0 0 0 -1.756703862307158 5.5725204676343765 0 5.5725204676343765 -4.8820404332836915 0 0 0 0 -0.40208759310997455 -0.15152910185483393 0 -0.15152910185483393 0.18054405862071121 0 0 0 0 8.2774953110290141 -11.392069182533305 0 -11.392069182533305 2.210830805455771 0 0 0 0 33.142425317260006 -24.577431258631805 0 -24.577431258631805 -0.39253204625856597 0 0 0 0 4.4674013899240812 -2.0243734041323478 0 -2.0243734041323478 -6.0035098192511214 0 0 0 0 5.3974613736594828 -1.8639352139866787 0 -1.8639352139866787 -6.3200490151011763 0 0 0 0 0.60205900190770989 -0.67944761322198843 0 -0.67944761322198843 -0.54098234890370378 0 0 0 0 0.9726507076306441 -2.7170762535557813 0 -2.7170762535557813 -3.1476025011725923 0 0 0 0 2.2905165780096013 -4.1736422076846793 0 -4.1736422076846793 -2.9092477971034327 0 0 0 0 2.1528485406270157 -2.5686351937894862 0 -2.5686351937894862 -2.2348846621847542 0 0 0 0 3.7273509100136835 -4.7352808232662937 0 -4.7352808232662937 -3.0168688864177966 0 0 0 0 3.2649778709077495 -3.5142620470507779 0 -3.5142620470507779 -2.1349614876098855 0 0 0 0 2.1750754055773882 -4.6414233848846607 0 -4.6414233848846607 -3.0618969215429388 0 0 0 0 4.0338052045441941 -5.501577773607778 0 -5.501577773607778 -4.2836399769894342 0 0 0 0 4.0586281021351169 -5.7134217198090482 0 -5.7134217198090482 -4.1345041027143452 0 0 0 0 3.7821201019023647 -5.5799809420987003 0 -5.5799809420987003 -4.7634554751348333 0 0 0 0 3.232930425215915 -2.9593510091643074 0 -2.9593510091643074 -3.8198004845930242 0 0 0 0 7.2995354814058384 -6.5490623694176975 0 -6.5490623694176975 -6.7933961172002455 0 0 0 0 3.0959019430474299 -4.2034820223725546 0 -4.2034820223725546 -2.9365035772952979 0 0 0 0 -0.67641758093985693 -3.8222184484226442 0 -3.8222184484226442 -2.7274443291731387 0 0 0 0 -0.62891620176721119 -2.9827583071287478 0 -2.9827583071287478 -0.55204630510603891 0 0 0 0 -0.60423771097634926 -5.0341030628036378 0 -5.0341030628036378 -3.0863817849494808 0 0 0 0 4.1305858265631059 -4.8656738148137038 0 -4.8656738148137038 -3.273709267101367 0 0 0 0 0.380424474406027 -5.0731568572837205 0 -5.0731568572837205 -2.8627336339004614 0 0 0 0 -0.40433952641433279 -5.0367323889367981 0 -5.0367323889367981 -2.0862249869423977 0 0 0 0 5.4452820046244597 -5.4498434324550544 0 -5.4498434324550544 -3.3186389902875817 0 0 0 0 -0.30616906667424781 -3.4362169839942176 0 -3.4362169839942176 -3.3881451391609687 0 0 0 0 -1.0036564548464355 -3.2617645035921257 0 -3.2617645035921257 -0.90646102841819953 0 0 0 0 6.4887483125535255 -5.2634742239179104 0 -5.2634742239179104 -3.5310280993171546 0 0 0 0 3.0089940913608189 -5.6730866527423132 0 -5.6730866527423132 -3.8524344746383576 0 0 0 0 -0.72770439486086325 -3.9465633088344036 0 -3.9465633088344036 -3.5144201260195516 0 0 0 0 4.3260842468853298 -5.7544548191681315 0 -5.7544548191681315 -5.6469041617183393 0 0 0 0 2.5624540467790524 -2.7139888113393553 0 -2.7139888113393553 -3.7567083233663112 0 0 0 0 -3.166667194326692 -8.6064639773021554 0 -8.6064639773021554 -1.9581636444672768 0 0 0 0 -2.6031357212102009 -4.1220669725424255 0 -4.1220669725424255 -2.7237259788036674 0 0 0 0 -0.66176535750487764 -4.6006302400464865 0 -4.6006302400464865 -3.427220700234237 0 0 0 0 -0.74051597879679321 -6.9352181470171672 0 -6.9352181470171672 -1.1939996709061234 0 0 0 0 0.46890980943067007 -8.8530322998335578 0 -8.8530322998335578 -3.4609664054842142 0 0 0 0 7.8006402721626955 -5.6068869681409979 0 -5.6068869681409979 -6.7566847922753368 0 0 0 0 -0.25018588292459754 -3.8342721158533095 0 -3.8342721158533095 -0.55168323516591045 0 0 0 0 3.4817507304715036 -6.3535689171512786 0 -6.3535689171512786 -2.1189079286486958 0 0 0 0 -0.394949542192359 -1.5403174166975511 0 -1.5403174166975511 -0.48319059518060836 0 0 0 0 4.0486230219139543 -4.7097956654761219 0 -4.7097956654761219 -7.875072983127211 0 0 0 0 0.51615964804443593 -3.214979970936084 0 -3.214979970936084 -2.7404117648694637 0 0 0 0 1.1972576402117738 -3.7988532308791036 0 -3.7988532308791036 -1.0906788175670954 0 0 0 0 1.1562594925730263 -3.7424562124450134 0 -3.7424562124450134 -2.2891864454665409 0 0 0 0 1.6685835703771179 -3.2277705121282239 0 -3.2277705121282239 -2.9314654507015234 0 0 0 0 1.3272520760523321 -3.8945879437794702 0 -3.8945879437794702 -2.4813637487641245 0 0 0 0 -1.1131734097034496 -5.3225093400151309 0 -5.3225093400151309 -2.9164409598806742 0 0 0 0 1.5293735288985189 -3.5620291668745194 0 -3.5620291668745194 -2.7239086848166991 0 0 0 0 1.7946224970899576 -3.3530588723544597 0 -3.3530588723544597 -3.4350828710485288 0 0 0 0 1.7838183402000141 -7.1489155716226378 0 -7.1489155716226378 -3.307603250324064 0 0 0 0 0.99588646098713873 -3.6579483761213041 0 -3.6579483761213041 -1.0339613537889747 0 0 0 0 -1.5403573430430697 -5.8982460699153307 0 -5.8982460699153307 -1.6562662003561854 0 0 0 0 -0.4926360155636833 -4.085759238307813 0 -4.085759238307813 -2.0578943449469946 0 0 0 0 7.8257655175075342 -3.7543985087118017 0 -3.7543985087118017 -8.5965669876768516 0 0 0 0 4.6125806398958957 -7.0384964341014893 0 -7.0384964341014893 -11.890172923905993 0 0 0 0 -7.7821267013096076 -6.3424456374577858 0 -6.3424456374577858 -1.4098417180084653 0 0 0 0 -0.35973063500630742 -4.6347819558279966 0 -4.6347819558279966 -2.0160787243422433 0 0 0 0 -4.1583209410046038 -2.4151566603632091 0 -2.4151566603632091 -9.1078033821540885 0 0 0 0 1.7397797302932361 -5.5418823103354953 0 -5.5418823103354953 -2.5762786409231921 0 0 0 0 4.0456131424111845 -5.4892304544764556 0 -5.4892304544764556 -1.6710007532219606 0 0 0 0 1.0565225434938701 -4.1086838027128536 0 -4.1086838027128536 -1.8559753686753337 0 0 0 0 3.8051756201043645 -5.795299748099751 0 -5.795299748099751 -2.8139161160070216 0 0 0 0 2.4341036602354507 -3.5401037987576274 0 -3.5401037987576274 -5.5742778949643252 0 0 0 0 3.5140961262917241 -3.5139612276512011 0 -3.5139612276512011 -3.169193363980054 0 0 0 0 4.1035508782034436 -2.0861028543093063 0 -2.0861028543093063 -3.8735958228714438 0 0 0 0 1.4399147506821741 -5.0207242513464116 0 -5.0207242513464116 -1.2201878294222475 0 0 0 0 1.6124016090053912 -3.9044341467728749 0 -3.9044341467728749 -0.74732665823566435 0 0 0 0 1.2418974632528261 -3.7476988554335549 0 -3.7476988554335549 -2.5638307157933014 0 0 0 0 2.3590722345233024 -3.3065727552729971 0 -3.3065727552729971 -2.8095835278497105 0 0 0 0 1.5550444143109416 -4.8141922635986703 0 -4.8141922635986703 -1.4204071583153564 0 0 0 0 4.3695020774379714 -4.9772327630107611 0 -4.9772327630107611 -3.2725770347333309 0 0 0 0 3.4510837528871434 -5.5308943271656972 0 -5.5308943271656972 -3.5059604196171676 0 0 0 0 4.4687898716870222 -7.3380105013438879 0 -7.3380105013438879 -8.1713756499120791 0 0 0 0 -3.9125739315229158 -3.8937823768505027 0 -3.8937823768505027 -2.2586599767632975 0 0 0 0 -0.84215711457946085 -0.75330468430966802 0 -0.75330468430966802 0.090087077667838855 0 0 0 0 5.3334335565551783 -4.0071808180182416 0 -4.0071808180182416 -5.2135528207618336 0 0 0 0 -8.3552862450039243 -7.991637333617291 0 -7.991637333617291 1.1220688473913469 0 0 0 0 0.7507185122839185 -3.0458120508750071 0 -3.0458120508750071 -1.0501514347004015 0 0 0 0 -4.2469168971333318 -2.67557604906915 0 -2.67557604906915 5.8827974777304917 0 0 0 0 1.9901245571147115 -10.601720398813995 0 -10.601720398813995 -5.4523217899550218 0 0 0 0 2.1702715749078134 -3.1715227996713899 0 -3.1715227996713899 -1.8668325751548949 0 0 0 0 2.5181497125538499 -8.9222947814851068 0 -8.9222947814851068 -1.6735002260229521 0 0 0 0 4.7191208909509328 -6.2900509296027849 0 -6.2900509296027849 -3.9186828703932406 0 0 0 0 -0.91774060457784212 -3.7120251258643489 0 -3.7120251258643489 -1.2697681985374487 0 0 0 0 2.8173345063983355 -4.427124729902971 0 -4.427124729902971 -0.49835114539519054 0 0 0 0 5.8447967707028567 -4.9540803515715197 0 -4.9540803515715197 -1.3437636208773256 0 0 0 0 2.2692258583305076 -3.0682225440677939 0 -3.0682225440677939 -1.0819438181188161 0 0 0 0 1.9024947628954294 -2.8592668873573075 0 -2.8592668873573075 -0.89757911438209703 0 0 0 0 2.3013404707625043 -3.3377354826627652 0 -3.3377354826627652 -3.0735847420673963 0 0 0 0 -0.33871159879890911 -10.383892152970475 0 -10.383892152970475 8.1254957389169249 0 0 0 0 0.90725567710342148 -10.09159135664504 0 -10.09159135664504 3.171555749162053 0 0 0 0 0.77092267931080372 -1.5251358751643274 0 -1.5251358751643274 -0.52444134018906574 0 0 0 0 -2.8825028994397144 -1.6359806294967711 0 -1.6359806294967711 4.3644502699053191 0 0 0 0 1.837757307089305 -5.4769328343409143 0 -5.4769328343409143 -2.0562579305951658 0 0 0 0 6.8392688457247459 -8.4274021824548981 0 -8.4274021824548981 -0.95425885354961792 0 0 0 0 6.9846061053954145 -7.1448533712737117 0 -7.1448533712737117 1.157274577915814 0 0 0 0 5.4592613966482997 -3.5482469885952401 0 -3.5482469885952401 -1.6900788022078856 0 0 0 0 -0.19149742397878455 -6.4771906284392351 0 -6.4771906284392351 0.59032883902861499 0 0 0 0 0.82772592314358917 -4.0586977350030793 0 -4.0586977350030793 -1.0905519656807883 0 0 0 0 1.987874828121921 -8.8750515504842724 0 -8.8750515504842724 -1.6213468360544852 0 0 0 0 3.0173770907769724 -4.7388221295751585 0 -4.7388221295751585 -1.8098513630885957 0 0 0 0 7.3046178260638044 -7.6568224819166062 0 -7.6568224819166062 -2.2903086070186873 0 0 0 0 3.4397050794914321 -6.871965364857715 0 -6.871965364857715 0.65978999182925691 0 0 0 0 7.9120986662971973 -8.4789409547101968 0 -8.4789409547101968 -1.2644754019056563 0 0 0 0 7.2807773996273681 -8.7758283603498057 0 -8.7758283603498057 -0.90842692390651791 0 0 0 0 2.0711845115250007 -4.6703201548816358 0 -4.6703201548816358 -1.3071408752069829 0 0 0 0 0.35781797900534684 -6.9039575207297617 0 -6.9039575207297617 -1.1921801138523733 0 0 0 0 5.63013962336845 -6.020121634651332 0 -6.020121634651332 -2.4684372590390922 0 0 0 0 1.4781690395796598 -4.5859339770023162 0 -4.5859339770023162 0.84188188066229941 0 0 0 0 5.1738011685677066 -8.1524721576056436 0 -8.1524721576056436 -1.5348275376163656 0 0 0 0 2.4306562751774123 -4.5180152021397229 0 -4.5180152021397229 -2.9609461581196044 0 0 0 0 4.3055831367837527 -10.122414343300761 0 -10.122414343300761 -0.090382274345756741 0 0 0 0 7.0190287829691442 -8.8396126086563527 0 -8.8396126086563527 -1.7985270529461559 0 0 0 0 13.542498305552499 -7.3910678515180734 0 -7.3910678515180734 -3.0178025964878543 0 0 0 0 4.3677072802009871 -3.8175249987106543 0 -3.8175249987106543 -3.1492111759585306 0 0 0 0 1.5076236310448006 -4.8866600637711564 0 -4.8866600637711564 -1.173782162352051 0 0 0 0 -0.71945763147214281 -5.0633435259839654 0 -5.0633435259839654 -1.5918065144230056 0 0 0 0 9.8977585633777387 -4.5844214738021023 0 -4.5844214738021023 -2.6723801171141046 0 0 0 0 4.1072154854101157 -7.4629730826566174 0 -7.4629730826566174 -2.8322800907972123 0 0 0 0 13.29429438500415 -1.4305675741252344 0 -1.4305675741252344 3.465351103719513 0 0 0 0 -0.07441387085521356 -6.6416247605613279 0 -6.6416247605613279 0.71549556307023643 0 0 0 0 3.5134719111174491 -10.154856461903364 0 -10.154856461903364 -1.9544562500504981 0 0 0 0 -3.8957425583157601 -11.521961223721519 0 -11.521961223721519 -8.5650716529553392 0 0 0 0 3.2430275450735309 -3.4650881943657623 0 -3.4650881943657623 -0.94659412165401591 0 0 0 0 2.2618560858848582 -3.4034273697825483 0 -3.4034273697825483 -0.55036521388501569 0 0 0 0 1.2326117683070674 -3.7342025264809848 0 -3.7342025264809848 -0.93855947315030619 0 0 0 0 5.3844688411174531 -4.5163690449408023 0 -4.5163690449408023 -1.1229790912057069 0 0 0 0 15.530861618482732 2.9820526265439184 0 2.9820526265439184 -14.70848564985863 0 0 0 0 -20.1833206542276 -42.859660377901491 0 -42.859660377901491 -35.913448521474493 0 0 0 0 -13.403450619689011 -3.2514476204132734 0 -3.2514476204132734 0.81581489081145264 0 0 0 0 2.2827946816607585 -0.83119127975600282 0 -0.83119127975600282 -0.32036347411937527 0 0 0 0 1.2147990547465324 -0.093320531627366421 0 -0.093320531627366421 -0.2693089335791079 0 0 0 0 -22.717921822717244 -46.948245001202849 0 -46.948245001202849 -42.469311835800909 0 0 0 0 -6.7756492850580798 -36.210050731573574 0 -36.210050731573574 -35.236513477633707 0 0 0 0 3.8628091334079615 -2.0114335939063572 0 -2.0114335939063572 0.15444687543098912 0 0 0 0 4.564300057151911 -8.8051210890462244 0 -8.8051210890462244 -27.469359472901488 0 0 0 0 -4.3829767144475227 -10.146622884159115 0 -10.146622884159115 -26.203360026771406 0 0 0 0 -6.0486643662418373 -32.089818130668391 0 -32.089818130668391 -41.869958281855361 0 0 0 0 -32.412146425413312 -24.197066854237164 0 -24.197066854237164 -38.885101019717695 0 0 0 0 -18.957626948194729 -45.991971212784847 0 -45.991971212784847 -51.91589448830382 0 0 0 0 -27.91687989895695 -29.691390222324571 0 -29.691390222324571 -54.247006148438231 0 0 0 0 -37.108393499303475 -49.687987870409415 0 -49.687987870409415 -94.965822028265393 0 0 0 0 29.599066995037447 -4.9549594838135818 0 -4.9549594838135818 -98.988943433814711 0 0 0 0 0.3358706031061271 -0.80906255843271246 0 -0.80906255843271246 -0.2525310092667965 0 0 0 0 3.6469888449147305 -4.0597987335266907 0 -4.0597987335266907 -2.0741004816627537 0 0 0 0 0.65363217178697464 -1.9824035651472089 0 -1.9824035651472089 0.50279757814316639 0 0 0 0 -9.4814488402009829 -1.3671946575213951 0 -1.3671946575213951 7.5140751352323605 0 0 0 0 -0.34930678842718565 0.062491997146388201 0 0.062491997146388201 0.15990554027167647 0 0 0 0 -31.66282220686503 -68.198510355925464 0 -68.198510355925464 -90.364417212121225 0 0 0 0 -19.447307765740788 -33.112844654084256 0 -33.112844654084256 -69.442522367627134 0 0 0 0 -35.244070173225055 -47.931629046451235 0 -47.931629046451235 -45.452304278922384 0 0 0 0 -13.387145820388241 -43.303396000750581 0 -43.303396000750581 -43.677043692201551 0 0 0 0 -30.962421344494828 -24.878509096905873 0 -24.878509096905873 -20.011177217038494 0 0 0 0 -15.446655519634604 -31.348224197770833 0 -31.348224197770833 -20.870558464139322 0 0 0 0 -4.3193026622287363 -30.976682058114875 0 -30.976682058114875 -38.504036223235744 0 0 0 0 -16.395955274272296 -41.821769419550037 0 -41.821769419550037 -57.368737014974613 0 0 0 0 -17.842231896145357 -51.76320746106046 0 -51.76320746106046 -46.515727615222204 0 0 0 0 -15.345516470740847 -43.287637371957317 0 -43.287637371957317 -56.962909012715102 0 0 0 0 -28.32311188361702 -29.295699046979053 0 -29.295699046979053 -55.804336357175998 0 0 0 0 -0.24013138074950124 0.39830155398848532 0 0.39830155398848532 0.13480115473743304 0 0 0 0 -9.6239950040752262 -46.917464572938798 0 -46.917464572938798 -78.040172407134378 0 0 0 0 -4.0074627104243064 -6.2443553565310594 0 -6.2443553565310594 7.7460215651990438 0 0 0 0 -4.7037254446149035 -25.306398450419692 0 -25.306398450419692 -117.91038177784094 0 0 0 0 -18.214587956860726 -64.640139860685395 0 -64.640139860685395 -94.701154945068993 0 0 0 0 -0.69199916634394432 -0.023209547366398908 0 -0.023209547366398908 0.13957630098435203 0 0 0 0 -28.552948365350943 -31.409984431845032 0 -31.409984431845032 55.865103226135034 0 0 0 0 27.391912790078891 -15.249264942098307 0 -15.249264942098307 6.7622112514059154 0 0 0 0 -1.209107734285197 -0.44757426222221142 0 -0.44757426222221142 -0.095804641727472273 0 0 0 0 4.7524724733903554 -34.806403762352147 0 -34.806403762352147 43.423066239120089 0 0 0 0 1.318348734022095 2.1022017931982191 0 2.1022017931982191 -1.6777686031336998 0 0 0 0 -1.0057473013191611 -3.2986724859656533 0 -3.2986724859656533 2.9779773587433738 0 0 0 0 0.72026328371617865 -3.7143632084425917 0 -3.7143632084425917 -0.13857893864633297 0 0 0 0 -0.4380853849739943 -2.0650312350624054 0 -2.0650312350624054 0.31220328640990402 0 0 0 0 2.6292447025030867 -3.5427957482279453 0 -3.5427957482279453 -4.2214840887281753 0 0 0 0 -1.0869544402006568 -1.8535121741460898 0 -1.8535121741460898 0.28309321527376596 0 0 0 0 -0.45848253435133302 -3.8551184161524361 0 -3.8551184161524361 -1.3165375041098741 0 0 0 0 0.58700622431757266 -2.1852283805877777 0 -2.1852283805877777 -1.5586152796213852 0 0 0 0 4.2948550994707801 0.033377173632743506 0 0.033377173632743506 -2.1885479689735803 0 0 0 0 0.08026657101433754 -0.22005089402484757 0 -0.22005089402484757 0.019074105535183072 0 0 0 0 -19.450781847522862 -8.3970275541947217 0 -8.3970275541947217 4.4168565390500589 0 0 0 0 -4.3414389239144384 -8.2533863084254335 0 -8.2533863084254335 -9.1200155790393183 0 0 0 0 6.6237689106114868 -7.837600654156585 0 -7.837600654156585 0.10473862568211345 0 0 0 0 2.3044896978249199 -12.16495608156356 0 -12.16495608156356 1.4699913181830198 0 0 0 0 -48.727629238193913 -41.206424789686935 0 -41.206424789686935 -9.8982804956542623 0 0 0 0 -6.3840150395499222 -17.406955863863914 0 -17.406955863863914 7.0545786249422235 0 0 0 0 -11.751261571638679 -20.387817033060855 0 -20.387817033060855 6.3946223494833703 0 0 0 0 -42.375487051947857 -20.930572917047812 0 -20.930572917047812 -7.5736711886631269 0 0 0 0 -27.398899833060568 -15.899683757696039 0 -15.899683757696039 4.7662537548092132 0 0 0 0 -32.32127557480635 -31.857694344705124 0 -31.857694344705124 -0.61955195685095532 0 0 0 0 -41.728584262236836 -28.088448175058147 0 -28.088448175058147 -0.86306652079656487 0 0 0 0 -29.197156986471555 -34.189064541497714 0 -34.189064541497714 -14.982859363472016 0 0 0 0 -31.091618203276084 -36.331893242323531 0 -36.331893242323531 -13.812952741868685 0 0 0 0 -25.614399248549489 -42.196276560829574 0 -42.196276560829574 -9.2767930629306647 0 0 0 0 -28.513285257846064 -31.085286153663219 0 -31.085286153663219 -8.0528850702103227 0 0 0 0 -27.550247128172487 -35.135732942540017 0 -35.135732942540017 -26.524131338048392 0 0 0 0 6.4027215989302331 -8.2149077592141104 0 -8.2149077592141104 -0.22097590218811547 0 0 0 0 7.8233286789145495 -14.50505742416135 0 -14.50505742416135 -1.733963952877275 0 0 0 0 -4.741354006876243 -3.1873380974511747 0 -3.1873380974511747 2.1608486446217654 0 0 0 0 26.30759422778101 9.2996052856051392 0 9.2996052856051392 19.840495280971481 0 0 0 0 -5.6342403716012086 -14.466505774681309 0 -14.466505774681309 -7.101521529940328 0 0 0 0 0.82142429222039937 -2.4258683363750606 0 -2.4258683363750606 4.922840428496329 0 0 0 0 -1.8778956439273315 -28.450389736250145 0 -28.450389736250145 -4.6578139408138668 0 0 0 0 -7.7467728768724555 -9.9134722320522997 0 -9.9134722320522997 1.0000911355894004 0 0 0 0 -8.5275860149911296 -15.455207721654062 0 -15.455207721654062 1.2638905447729485 0 0 0 0 -3.3853262710563286 -11.165959557240058 0 -11.165959557240058 -9.4246894216221335 0 0 0 0 -0.86268573788220237 -14.510339770958126 0 -14.510339770958126 -6.5382473834997654 0 0 0 0 -0.83965817053865521 -16.518841685174294 0 -16.518841685174294 -1.8527062932607805 0 0 0 0 -1.226450076472247 -12.916214912127543 0 -12.916214912127543 -3.9068514478149154 0 0 0 0 -1.1071054430467484 -12.638584204715698 0 -12.638584204715698 -4.0166782860396779 0 0 0 0 -6.1884228213521055 -13.281623892371499 0 -13.281623892371499 -3.7300791775087419 0 0 0 0 -2.9720391338087211 -14.942624082104885 0 -14.942624082104885 -1.5857109876569666 0 0 0 0 2.3102481927908229 -14.460342466500606 0 -14.460342466500606 -3.5056465622219548 0 0 0 0 0.2172256723524697 -12.320496747786365 0 -12.320496747786365 0.48821558277631993 0 0 0 0 -5.4377096022053593 -15.579578316540392 0 -15.579578316540392 -6.2636415839219808 0 0 0 0 -6.4034068674936861 -13.927985996842835 0 -13.927985996842835 2.2399569154745222 0 0 0 0 -4.852129671467992 -12.744502377045137 0 -12.744502377045137 1.3712489777517476 0 0 0 0 0.84676755443979346 -7.5028539514160002 0 -7.5028539514160002 -6.3038759016274071 0 0 0 0 2.9405718874841114 -10.574549819643835 0 -10.574549819643835 -2.7921862945509019 0 0 0 0 -3.8443824975643111 -32.039262076074692 0 -32.039262076074692 51.877268577329232 0 0 0 0 1.6570497401036484 -5.3473716331138288 0 -5.3473716331138288 2.0417365056166084 0 0 0 0 6.1525615431709753 -3.360743834118967 0 -3.360743834118967 -1.8016084694756103 0 0 0 0 0.28242196107703421 -6.3383991608302495 0 -6.3383991608302495 -1.502775648737952 0 0 0 0 15.398775969665621 -12.868673275052103 0 -12.868673275052103 -12.967148848683792 0 0 0 0 15.33187125677432 -21.715995581048446 0 -21.715995581048446 -4.627511749173209 0 0 0 0 43.486677037255504 49.728201598811211 0 49.728201598811211 -209.09968071384355 0 0 0 0 -0.8340492662986243 -2.3290274204346062 0 -2.3290274204346062 0.60386841462613727 0 0 0 0 3.344256976415636 -20.764896930824762 0 -20.764896930824762 6.2005203334074395 0 0 0 0 -4.0601565488759661 -10.261896681902726 0 -10.261896681902726 2.9026668619117117 0 0 0 0 6.1996473042286198 -15.013503195698604 0 -15.013503195698604 -9.4210506728632026 0 0 0 0 6.1666113399951428 -15.29553584110181 0 -15.29553584110181 -3.3625038567297452 0 0 0 0 5.4100117762100126 -11.374609267360029 0 -11.374609267360029 -0.74460499149063253 0 0 0 0 5.3786722768236359 -11.76579703349762 0 -11.76579703349762 -3.9705014742812637 0 0 0 0 8.0005358475464163 -11.643292428594577 0 -11.643292428594577 -4.7065845082688611 0 0 0 0 4.9011261737910488 -5.727587658130286 0 -5.727587658130286 0.60550525981256342 0 0 0 0 -6.9715715911097504 -10.186251792273652 0 -10.186251792273652 0.058711749653411971 0 0 0 0 4.6059323637846319 -5.2053636657715288 0 -5.2053636657715288 -12.690042531679865 0 0 0 0 1.5082996452337056 -6.3561472628211391 0 -6.3561472628211391 -0.27716584450718074 0 0 0 0 2.4658745420601917 -13.185660643123811 0 -13.185660643123811 0.96885172956854149 0 0 0 0 -3.2676603156581763 -4.4321100650860394 0 -4.4321100650860394 -2.0605243708982073 0 0 0 0 3.1302978029998485 -14.633477666691761 0 -14.633477666691761 11.276944775288939 0 0 0 0 1.9550514453685537 -8.1585884835913021 0 -8.1585884835913021 6.9892341465256322 0 0 0 0 4.1965187123223586 -7.7778353401654385 0 -7.7778353401654385 -0.0087470058097096626 0 0 0 0 0.96393619052832946 0.58065502589897733 0 0.58065502589897733 4.7572698861476965 0 0 0 0 6.1312691426137462 -16.560783185054788 0 -16.560783185054788 10.610334093240908 0 0 0 0 -2.7437783445237827 -1.9098441744643697 0 -1.9098441744643697 -1.5524214661631106 0 0 0 0 -4.3426417788796243 0.65805041095927663 0 0.65805041095927663 20.309082894065796 0 0 0 0 7.748986602824516 -11.153606188400772 0 -11.153606188400772 2.6730311135042939 0 0 0 0 -10.089947415192 -13.748121956622526 0 -13.748121956622526 6.7455823211057577 0 0 0 0 -7.8412781785164043 -10.256659993948233 0 -10.256659993948233 12.09381384920016 0 0 0 0 -7.6001623390748136 -12.282540603776397 0 -12.282540603776397 5.665920908228145 0 0 0 0 -5.348237271349717 -10.627118690927091 0 -10.627118690927091 5.6646717475769037 0 0 0 0 -3.3806278766078321 -10.615341117787921 0 -10.615341117787921 5.6147526915865456 0 0 0 0 1.6580294798222894 -12.420651054700102 0 -12.420651054700102 0.47989534568523595 0 0 0 0 1.2911619038950448 -12.904719208070674 0 -12.904719208070674 1.8018752950329144 0 0 0 0 10.6393015087815 -9.7690441707773061 0 -9.7690441707773061 7.1912440524286012 0 0 0 0 -0.46237131952148047 -7.016786408265034 0 -7.016786408265034 7.6332214341582585 0 0 0 0 -5.0902787937429821 -1.478837457404552 0 -1.478837457404552 12.293968284246148 0 0 0 0 -20.815171493463822 -12.322154871857492 0 -12.322154871857492 12.326786562061898 0 0 0 0 -11.79051022321255 -19.816126192421507 0 -19.816126192421507 15.642172021178339 0 0 0 0 28.853055217146903 -11.32694942854323 0 -11.32694942854323 -88.116240966354781 0 0 0 0 -33.835078942454857 -2.3965373384889972 0 -2.3965373384889972 12.533485057490452 0 0 0 0 -54.647739739153621 -28.115517494891719 0 -28.115517494891719 15.587524981350725 0 0 0 0 -0.76636246358314963 -0.6967747909564741 0 -0.6967747909564741 -0.62531386894659846 0 0 0 0 -0.63500211833161302 27.378229036277844 0 27.378229036277844 -67.872608656571174 0 0 0 0 3.7644589280535001 -30.392759964115612 0 -30.392759964115612 0.34757254026567352 0 0 0 0 12.045137554052872 -35.043379107570217 0 -35.043379107570217 -37.967137580873896 0 0 0 0 -3.8865468013809732 -10.73422776991265 0 -10.73422776991265 -26.977847679801926 0 0 0 0 41.305457502974605 -47.596202112128594 0 -47.596202112128594 -15.577984370250761 0 0 0 0 -8.793000905896406 -10.714360928894166 0 -10.714360928894166 65.352888928725406 0 0 0 0 -1.2087354655855052 26.232242057069243 0 26.232242057069243 17.498733264194016 0 0 0 0 -26.654681470920877 -24.068092029962827 0 -24.068092029962827 49.451850535380345 0 0 0 0 -119.85175267536306 50.530048050165988 0 50.530048050165988 24.445285739626343 0 0 0 0 -36.943154959222738 -51.007717611713815 0 -51.007717611713815 -37.953356738729781 0 0 0 0 22.684833640438683 8.0141049027365625 0 8.0141049027365625 9.2155529194860719 0 0 0 0 -3.0490274526473513 -10.517916895934832 0 -10.517916895934832 -5.8964280280661114 0 0 0 0 0.18556992905178049 -5.7162332849084123 0 -5.7162332849084123 -37.121482077596738 0 0 0 0 17.218171181993966 -13.27464040094128 0 -13.27464040094128 -57.739374514197152 0 0 0 0 -7.1828719714867475 -15.452299800043875 0 -15.452299800043875 29.710766227772183 0 0 0 0 0.11419244747661139 -0.20943484542476298 0 -0.20943484542476298 -0.12414428850915904 0 0 0 0 -5.2864998032746371 -13.137868658341176 0 -13.137868658341176 5.519513749411999 0 0 0 0 -0.88525943324202672 -8.4887593004777955 0 -8.4887593004777955 3.2493298960571337 0 0 0 0 -1.3951497414072946 -18.631005413485582 0 -18.631005413485582 4.4088434632394637 0 0 0 0 -5.9194878021662589 -5.7951935680493989 0 -5.7951935680493989 -8.6680939503257832 0 0 0 0 -2.7132443077462085 -13.97651029816825 0 -13.97651029816825 -4.8590263796331783 0 0 0 0 -3.4510637740895618 -8.3946447099888246 0 -8.3946447099888246 2.6440859488902788 0 0 0 0 -7.9122276156094813 -9.8932703114096512 0 -9.8932703114096512 -3.1426576470958025 0 0 0 0 0.20828320175544235 -1.9370586171437054 0 -1.9370586171437054 -0.6503028163580975 0 0 0 0 -5.7332002847997501 -6.6638447903023916 0 -6.6638447903023916 10.766815970264361 0 0 0 0 -7.2422796929610165 -5.5010510308409986 0 -5.5010510308409986 -2.7598500499471186 0 0 0 0 -7.317592886305647 -8.5389765136278584 0 -8.5389765136278584 -2.5500024932516681 0 0 0 0 -6.7833393479731967 -6.8555185041404911 0 -6.8555185041404911 -3.751954581359314 0 0 0 0 -5.5816018118566717 -6.0834795107621176 0 -6.0834795107621176 -2.0195168682994336 0 0 0 0 -5.903084666524137 -5.5133651655892209 0 -5.5133651655892209 -2.1133369083927391 0 0 0 0 14.300253598168638 -31.684959659627566 0 -31.684959659627566 4.9551952573619928 0 0 0 0 13.203843069812137 -16.695599930480967 0 -16.695599930480967 -16.105227771292448 0 0 0 0 0.24279541207518207 -0.32972826799905874 0 -0.32972826799905874 0.42619593819022228 0 0 0 0 -3.0862382879549841 -6.5605121375201634 0 -6.5605121375201634 -6.6874477126257261 0 0 0 0 2.5349999749087146 -10.798952548634134 0 -10.798952548634134 -4.7507553345003544 0 0 0 0 -2.3821928671708523 -2.7477061631226949 0 -2.7477061631226949 0.91547415095471507 0 0 0 0 3.5411503123746115 -9.3685942685988266 0 -9.3685942685988266 -2.886455298634246 0 0 0 0 4.7546197013462663 -8.6012853447422408 0 -8.6012853447422408 1.6968012730288109 0 0 0 0 -0.14407419117560494 -17.110753548152843 0 -17.110753548152843 -0.35141745144369452 0 0 0 0 -27.28731472609843 -14.961912651041757 0 -14.961912651041757 2.9723436239673902 0 0 0 0 -22.288453271552498 -7.6090736147016287 0 -7.6090736147016287 3.9831537054451474 0 0 0 0 -20.737146118219243 -6.8307290469965665 0 -6.8307290469965665 2.1173332691250835 0 0 0 0 -10.408479821666333 -2.9934322822305148 0 -2.9934322822305148 4.4589545686258134 0 0 0 0 -21.215330378716317 -4.4662573282639642 0 -4.4662573282639642 5.5399023141198995 0 0 0 0 -21.679688319811248 -8.3286716759412229 0 -8.3286716759412229 4.0319056450762218 0 0 0 0 -30.64956270563016 -3.4284490809286581 0 -3.4284490809286581 15.72621983371846 0 0 0 0 -26.506842497035905 -14.98528260650528 0 -14.98528260650528 -2.5529816613834555 0 0 0 0 6.3871445215696347 -7.4507202944188826 0 -7.4507202944188826 0.98449620250742242 0 0 0 0 -46.738479965848455 -23.152102626336728 0 -23.152102626336728 5.6019694555420756 0 0 0 0 -38.69384776113111 -15.748181800568091 0 -15.748181800568091 14.80531975481972 0 0 0 0 -33.822341981142927 -18.930616317242993 0 -18.930616317242993 -9.6681646508914127 0 0 0 0 -56.429664339426381 -35.995556317729097 0 -35.995556317729097 0.28032317905945092 0 0 0 0 49.271435085407575 -16.626508813450528 0 -16.626508813450528 -20.821787781057537 0 0 0 0 6.3749590592639578 -7.6613294750665375 0 -7.6613294750665375 0.16581024499168961 0 0 0 0 -12.284336389912369 -85.320514765510325 0 -85.320514765510325 -59.454118084575384 0 0 0 0 -17.375751972512944 -21.484574828540019 0 -21.484574828540019 7.4847525088935072 0 0 0 0 -29.198471465102557 -12.037169277884459 0 -12.037169277884459 2.5169239550590419 0 0 0 0 -37.893832804403246 -28.571214429808606 0 -28.571214429808606 5.1995243112505705 0 0 0 0 -29.310361694420862 -17.058556513272833 0 -17.058556513272833 22.057416340219788 0 0 0 0 -32.249530188455537 -5.3167139650395256 0 -5.3167139650395256 18.932222743473176 0 0 0 0 -22.8559243152813 -9.9247687979814145 0 -9.9247687979814145 16.424324144157254 0 0 0 0 -28.852617978745911 -16.335482083064562 0 -16.335482083064562 35.624166879320001 0 0 0 0 -0.91912027259968454 -19.303741823797282 0 -19.303741823797282 18.437594009831628 0 0 0 0 -21.694159390919594 9.737267616617828 0 9.737267616617828 10.636355731767253 0 0 0 0 7.0363344132106249 -14.860456803191028 0 -14.860456803191028 8.8578496400568838 0 0 0 0 0.11503997769694863 0.09528857831108084 0 0.09528857831108084 0.28906361792814295 0 0 0 0 -4.1244737367633206 17.667050477568409 0 17.667050477568409 16.511754787757127 0 0 0 0 -30.391203094591219 0.34274146954817297 0 0.34274146954817297 28.153093057680962 0 0 0 0 -47.370695668736317 -32.648022078426315 0 -32.648022078426315 -10.674946220678976 0 0 0 0 0.46309549896161784 0.34680646019856098 0 0.34680646019856098 0.116095610135865 0 0 0 0 -13.409032120487609 -5.633965045352852 0 -5.633965045352852 -12.986591723250967 0 0 0 0 -47.48204251295099 -6.7144346196885998 0 -6.7144346196885998 12.583856816347179 0 0 0 0 -2.8880328832368516 -1.6633389471606463 0 -1.6633389471606463 0.49574835025988051 0 0 0 0 -11.99595117822355 -5.4349737111849663 0 -5.4349737111849663 -0.27491642808490724 0 0 0 0 -23.29521057532736 -9.5461785844222504 0 -9.5461785844222504 -3.0264413020340726 0 0 0 0 -7.2290237651359348 -17.446552797811819 0 -17.446552797811819 2.6071177400608576 0 0 0 0 2.4745892533238916 -5.4101284436093309 0 -5.4101284436093309 0.80885698831297503 0 0 0 0 -6.4271898816707562 -10.344085905954898 0 -10.344085905954898 -14.879348855194621 0 0 0 0 -5.4799959028046814 -9.2960516326515901 0 -9.2960516326515901 -6.8285608875594903 0 0 0 0 -33.578001974326071 -10.087733463915356 0 -10.087733463915356 10.506433532358642 0 0 0 0 -16.196216420496057 -25.589269074727781 0 -25.589269074727781 -2.6780090697902779 0 0 0 0 2.4058517612257448 -11.874293667662482 0 -11.874293667662482 -0.22739674611367633 0 0 0 0 5.1681804758873113 -8.3655401361365875 0 -8.3655401361365875 -10.482042311588884 0 0 0 0 -6.5388068314632122 -1.7167135992752094 0 -1.7167135992752094 -0.6380439477889297 0 0 0 0 -28.483335347470529 -14.316548089184835 0 -14.316548089184835 11.101427270841668 0 0 0 0 -54.680492214023616 -46.653352335846648 0 -46.653352335846648 -1.7968449551826779 0 0 0 0 0.27855040456051938 -180.93148964022112 0 -180.93148964022112 -29.348630267944827 0 0 0 0 -16.909905845403046 22.39742708814083 0 22.39742708814083 8.9716299449864891 0 0 0 0 -0.70297566678602053 0.58970989648825523 0 0.58970989648825523 -0.62560526250300086 0 0 0 0 -10.595299263786728 -11.906612153018614 0 -11.906612153018614 1.9142729316499754 0 0 0 0 33.877029497551121 36.354988582448641 0 36.354988582448641 -90.946306953992462 0 0 0 0 -4.9804138182917086 -36.883851290254825 0 -36.883851290254825 -110.90290456431558 0 0 0 0 -27.300017345319247 -5.1411183871719004 0 -5.1411183871719004 11.923072364864311 0 0 0 0 -24.313063581512324 -1.4312039123060458 0 -1.4312039123060458 -10.475445875331062 0 0 0 0 -17.208869287914027 -4.0142415839406809 0 -4.0142415839406809 3.3146276798203154 0 0 0 0 -20.663445995380243 -4.2020995794318878 0 -4.2020995794318878 5.2997592180599895 0 0 0 0 -34.980329823320972 -21.987397930172619 0 -21.987397930172619 -3.6648605713508005 0 0 0 0 -4.3828856185173066 -1.9517370486417995 0 -1.9517370486417995 -1.3089847965004111 0 0 0 0 -12.508612753188615 -3.3867179765241255 0 -3.3867179765241255 -0.018991315568985812 0 0 0 0 -20.347132973955013 -3.5275975362628742 0 -3.5275975362628742 5.7978724761696867 0 0 0 0 -15.211958023157422 -3.8486769819419351 0 -3.8486769819419351 3.6753723148831341 0 0 0 0 -22.17667918665029 -15.760508487959669 0 -15.760508487959669 -1.3933892012082651 0 0 0 0 -7.713791249837417 -2.7277231101525352 0 -2.7277231101525352 1.2739431195133655 0 0 0 0 -8.2278098740644054 -5.788082609954472 0 -5.788082609954472 3.6220387003013457 0 0 0 0 -3.0414420069154904 -1.8038753361319522 0 -1.8038753361319522 -0.9528315657871147 0 0 0 0 -18.664142102918426 -2.6199498790327063 0 -2.6199498790327063 3.4836630798639465 0 0 0 0 -9.0527328079779181 -25.168755473459896 0 -25.168755473459896 -76.967689010552931 0 0 0 0 -47.21968963474319 21.755555085199376 0 21.755555085199376 20.87924337934237 0 0 0 0 -56.280697176916874 -32.104137283731689 0 -32.104137283731689 21.332352367243004 0 0 0 0 -3.693665943991391 3.4292267146350124 0 3.4292267146350124 4.5293373337987326 0 0 0 0 -247.51815268400605 -58.825436332706886 0 -58.825436332706886 213.23299982315802 0 0 0 0 -62.298335135593334 -0.9078782760152535 0 -0.9078782760152535 16.389057030944969 0 0 0 0 -41.400072623240703 -7.9992699417234689 0 -7.9992699417234689 15.672195277630408 0 0 0 0 -6.4825036991580873 15.543995536298496 0 15.543995536298496 -4.6333555740147858 0 0 0 0 1.8359448771980169 8.8129543346260562 0 8.8129543346260562 3.9297497876450507 0 0 0 0 -18.491429840383717 -20.375204544856388 0 -20.375204544856388 5.1758429219032678 0 0 0 0 -43.507381643313238 -3.3031205398492602 0 -3.3031205398492602 10.101297951352535 0 0 0 0 -31.899523249547201 -2.9277450092117761 0 -2.9277450092117761 5.8027174490744073 0 0 0 0 -47.640906235075818 -10.642132020537247 0 -10.642132020537247 7.1411015549197145 0 0 0 0 -46.368807421205474 -10.020182638174902 0 -10.020182638174902 -2.8359324687535263 0 0 0 0 -53.672219848323948 -11.592493067404575 0 -11.592493067404575 5.2622573504650063 0 0 0 0 2.6243846287422743 -12.062448529666934 0 -12.062448529666934 0.22509185336186732 0 0 0 0 -20.35000959084573 -14.99177788750012 0 -14.99177788750012 9.3544797132371968 0 0 0 0 8.469123599370505 -18.216425826315117 0 -18.216425826315117 -16.709273583890536 0 0 0 0 -37.056453057566614 7.9599173487113148 0 7.9599173487113148 11.828536598650317 0 0 0 0 -23.373948645304154 -3.2917004578494016 0 -3.2917004578494016 -2.5182961243044701 0 0 0 0 -51.592280495769046 11.434075262118313 0 11.434075262118313 5.7505312191678968 0 0 0 0 -35.97673252221648 4.2414012473282128 0 4.2414012473282128 7.2034053856732498 0 0 0 0 -44.098204144232568 -1.8111019974135161 0 -1.8111019974135161 2.8054341163078789 0 0 0 0 -38.092099322533613 -13.159173747082605 0 -13.159173747082605 -6.7500337662586389 0 0 0 0 -10.272917641648746 -9.2131795525492635 0 -9.2131795525492635 -3.5591420382643264 0 0 0 0 -6.5338467461390337 -8.4591472613913083 0 -8.4591472613913083 -6.3654836255118425 0 0 0 0 -6.3041768648818106 -7.2515957024133968 0 -7.2515957024133968 -4.623972378891267 0 0 0 0 -7.7122983569074037 -8.1904806438045235 0 -8.1904806438045235 -3.4107260470227629 0 0 0 0 -7.7070076607615192 -6.9858601271462248 0 -6.9858601271462248 -2.0720411436086579 0 0 0 0 -5.8903786574373953 -6.6350271538235575 0 -6.6350271538235575 -2.8516555189198698 0 0 0 0 -7.113393580992124 -7.5403792186971259 0 -7.5403792186971259 -2.5129264886254532 0 0 0 0 -7.5929005760044674 -7.2017419701041945 0 -7.2017419701041945 -2.6623873908265523 0 0 0 0 -7.7383699867004907 -7.8409435224039044 0 -7.8409435224039044 -3.3216887228809355 0 0 0 0 -8.3789720269696772 -7.7704024715621927 0 -7.7704024715621927 -2.7678534136020971 0 0 0 0 -8.2602407122240038 -7.7146367549903516 0 -7.7146367549903516 -3.3174131420673802 0 0 0 0 -7.7953125881522283 -7.4750624647458608 0 -7.4750624647458608 -4.3907003254953452 0 0 0 0 -9.8442996294998011 -7.0434785092493257 0 -7.0434785092493257 -3.8587148063998029 0 0 0 0 -7.8192166298710504 -7.7427078093747923 0 -7.7427078093747923 -3.704193212055543 0 0 0 0 -7.0250580023148359 -7.9548674872094125 0 -7.9548674872094125 -4.0258970145896456 0 0 0 0 -0.27777737299983407 -3.5246668040017965 0 -3.5246668040017965 -0.90652177922164157 0 0 0 0 -9.3152356470873201 -6.4707605108405915 0 -6.4707605108405915 -3.2727826398995603 0 0 0 0 -3.9632051622556901 -4.326460437759124 0 -4.326460437759124 -0.22065609615674475 0 0 0 0 -0.085383968634084262 -4.7775735611543926 0 -4.7775735611543926 -3.5055060461241823 0 0 0 0 -8.2739773207338771 -7.9773626535984761 0 -7.9773626535984761 -3.7564500409862376 0 0 0 0 -2.2435886593883456 -4.2383248496191861 0 -4.2383248496191861 0.037678179186940497 0 0 0 0 -8.454328682837513 -7.5963838470233895 0 -7.5963838470233895 -3.1653731960686855 0 0 0 0 -2.206581037341266 -6.109593285887513 0 -6.109593285887513 -2.2308854359253019 0 0 0 0 -1.349305235904863 -5.4606144710593849 0 -5.4606144710593849 -3.1147174686901025 0 0 0 0 1.3959751434016852 -5.2489669391479703 0 -5.2489669391479703 -3.2422759399601215 0 0 0 0 -14.120697437080139 -13.831651450172672 0 -13.831651450172672 0.73358541286506807 0 0 0 0 -10.307835106126475 -7.1404934512348843 0 -7.1404934512348843 -1.7303004301141094 0 0 0 0 -8.6438730616446264 -9.7257930298601423 0 -9.7257930298601423 3.3630518211821254 0 0 0 0 -7.6291976087941293 -8.8211759570813228 0 -8.8211759570813228 -1.931643606225407 0 0 0 0 -7.1327419732233466 -7.5128024799969353 0 -7.5128024799969353 -5.0662318551785575 0 0 0 0 -5.1644858506829117 -3.0894827434859273 0 -3.0894827434859273 1.396694543322738 0 0 0 0 -8.1366377641152212 -5.5725490457907654 0 -5.5725490457907654 -0.76194966103685147 0 0 0 0 -10.238036917618956 -2.9931882603918893 0 -2.9931882603918893 8.0206648965668137 0 0 0 0 -8.7479571449794093 0.0055689146911390708 0 0.0055689146911390708 -8.7081266545574181 0 0 0 0 -2.8579251247792854 -9.0739169836224391 0 -9.0739169836224391 -8.6264297664893093 0 0 0 0 0.61317386065394253 0.094805584682632116 0 0.094805584682632116 -0.10262247265852409 0 0 0 0 -18.898612667417183 -1.2435911049860806 0 -1.2435911049860806 10.612382751174664 0 0 0 0 -21.001313790770837 -19.755816539804073 0 -19.755816539804073 -7.1864985052594079 0 0 0 0 -7.8277694919693204 -5.9222975330867484 0 -5.9222975330867484 0.060554816049261717 0 0 0 0 -5.05875596167607 -3.4487269451046814 0 -3.4487269451046814 -0.58679842166566232 0 0 0 0 -7.1706447249930534 -5.5147522831525748 0 -5.5147522831525748 -0.59245882363757119 0 0 0 0 -2.1979725492970879 -3.8581388317832959 0 -3.8581388317832959 0.64773507293332244 0 0 0 0 -4.7355911876616688 -3.3169141448122907 0 -3.3169141448122907 0.48680656794258326 0 0 0 0 -0.69107193102912845 -0.98178254840854962 0 -0.98178254840854962 0.31357627101085583 0 0 0 0 -12.805432198113522 -6.8264326380094644 0 -6.8264326380094644 -0.85412617107022015 0 0 0 0 -12.437009109002247 -7.7381269001589317 0 -7.7381269001589317 -0.26225419491674984 0 0 0 0 0.83246912751296431 -1.8443570817026362 0 -1.8443570817026362 0.92612793118484404 0 0 0 0 -9.8614626553317066 -10.843888250516102 0 -10.843888250516102 -5.36599576556182 0 0 0 0 -7.915369229438511 -6.8652664704477502 0 -6.8652664704477502 -4.5038520583075297 0 0 0 0 -7.9229513219860337 -6.8132855621460067 0 -6.8132855621460067 -4.4595982264982013 0 0 0 0 -7.9534764626350807 -6.8917779848561622 0 -6.8917779848561622 -4.4998707209101667 0 0 0 0 -7.9677304089077552 -6.8430726987999151 0 -6.8430726987999151 -4.4617620893914136 0 0 0 0 -10.487885846418521 -4.9983011186377553 0 -4.9983011186377553 2.118276038676413 0 0 0 0 -2.6137536760143121 -9.3495174520430737 0 -9.3495174520430737 -1.7246988706665434 0 0 0 0 -9.0457375934038282 -5.6070936034946044 0 -5.6070936034946044 0.075837106647668406 0 0 0 0 -0.9984338348829116 -1.0659016394221723 0 -1.0659016394221723 -0.69650292865841834 0 0 0 0 -7.2759109448670642 -10.087510714856762 0 -10.087510714856762 0.90529939511907287 0 0 0 0 -9.0143813327631506 -7.0402238566912274 0 -7.0402238566912274 2.0437349295825697 0 0 0 0 -2.1615754680506143 -8.2929221466629315 0 -8.2929221466629315 -5.1713597997695615 0 0 0 0 -4.3014589140566386 -3.8289346561068669 0 -3.8289346561068669 -2.1598950332681852 0 0 0 0 -7.0722706109900173 -7.2695706599679397 0 -7.2695706599679397 -5.1140415298705193 0 0 0 0 -5.41720159954275 -3.8009591328209353 0 -3.8009591328209353 -0.7144171525760612 0 0 0 0 -2.0529829705743232 -1.2879449072918092 0 -1.2879449072918092 1.2196705841856001 0 0 0 0 -4.9916985587869931 -3.4547969989826015 0 -3.4547969989826015 -1.0994077550703878 0 0 0 0 -4.4287097695639392 -3.0992472740797066 0 -3.0992472740797066 -1.1404524691969335 0 0 0 0 -5.5358472318202985 -4.223075343950768 0 -4.223075343950768 -2.0836405419540824 0 0 0 0 -0.10415204533637734 -4.7241092289550579 0 -4.7241092289550579 -2.8513863755724742 0 0 0 0 -7.6841164009406384 -5.9301200228974267 0 -5.9301200228974267 0.045351984528679168 0 0 0 0 -7.6208820219289919 -8.6578579673268905 0 -8.6578579673268905 -0.77188086111709708 0 0 0 0 0.048990779026107489 -2.315611865933036 0 -2.315611865933036 0.72447146938531404 0 0 0 0 -5.2299441737288923 -3.6064549700398132 0 -3.6064549700398132 -1.4338377820967594 0 0 0 0 -7.0760135035097846 -4.2815761706906414 0 -4.2815761706906414 7.1134523030877972 0 0 0 0 -4.2133906574326829 -5.1942685510639421 0 -5.1942685510639421 -1.1613434703740495 0 0 0 0 -1.3198583945531936 -3.9350206715862441 0 -3.9350206715862441 0.11261461861977295 0 0 0 0 -3.8589997690463633 -3.0005813001100705 0 -3.0005813001100705 0.30562711671336729 0 0 0 0 -3.3723057650895498 -4.5955090024935998 0 -4.5955090024935998 -0.61708612775692018 0 0 0 0 -4.5974652774348215 -1.0902869588262547 0 -1.0902869588262547 -4.0151479055457457 0 0 0 0 -0.88763035792405987 -3.3911105167900768 0 -3.3911105167900768 0.053125501441591894 0 0 0 0 -5.541965217100369 -0.93014575887673345 0 -0.93014575887673345 1.3376585506648553 0 0 0 0 -2.3654691134702741 -3.7899440571499019 0 -3.7899440571499019 -0.07774808677633871 0 0 0 0 -2.0619330761530819 -3.4694599584545358 0 -3.4694599584545358 -6.7312827151145029 0 0 0 0 -14.725114334123646 -2.6020204840942824 0 -2.6020204840942824 2.0234142161903037 0 0 0 0 -7.11696788642314 -8.8387944331102517 0 -8.8387944331102517 42.989475536815007 0 0 0 0 -1.8080883794514189 -0.74330859946295025 0 -0.74330859946295025 0.5081261683075553 0 0 0 0 24.349238605876508 -25.69010790956645 0 -25.69010790956645 12.063017263964866 0 0 0 0 -43.801390870889122 31.299862117237126 0 31.299862117237126 56.815433485069661 0 0 0 0 -27.24735801755287 -47.535740809935987 0 -47.535740809935987 22.68329858845027 0 0 0 0 -0.16912331526520141 -0.38700125112693584 0 -0.38700125112693584 -0.43331222309365458 0 0 0 0 -11.381978522211284 37.379371336464828 0 37.379371336464828 -28.795204688029116 0 0 0 0 -0.50879749609157443 -1.3789307248598561 0 -1.3789307248598561 0.00028640927666856442 0 0 0 0 -2.6661731862855014 -2.6225164987094267 0 -2.6225164987094267 -1.8469127710984843 0 0 0 0 -5.1716062861055434 -12.110829381469557 0 -12.110829381469557 7.6936043189489283 0 0 0 0 -8.8840009644927704 -13.710310199348896 0 -13.710310199348896 14.888894008101488 0 0 0 0 -1.2507072908204506 -0.83988290237590491 0 -0.83988290237590491 -0.55336784643068881 0 0 0 0 -10.729274584426548 3.7077990954969664 0 3.7077990954969664 1.603855696732353 0 0 0 0 -1.4158525015481018 -0.35189959463286868 0 -0.35189959463286868 0.19304606428522675 0 0 0 0 -2.9404515305809582 -1.486412047687736 0 -1.486412047687736 0.00058677207716944656 0 0 0 0 -0.81528396487508736 0.15403567670458251 0 0.15403567670458251 0.27409380035398812 0 0 0 0 -53.942441923404658 -13.485158025773671 0 -13.485158025773671 -1.8384991636085033 0 0 0 0 -77.119717398110879 -20.064126507879337 0 -20.064126507879337 7.1739432942904386 0 0 0 0 0.18325520100555082 -0.53507082374682113 0 -0.53507082374682113 -0.054434516323333071 0 0 0 0 37.126771176484908 -13.015552939411464 0 -13.015552939411464 -25.108227175715001 0 0 0 0 -72.735975621492798 -27.904223693918539 0 -27.904223693918539 19.189900029381533 0 0 0 0 12.396296084320056 -10.039845037775649 0 -10.039845037775649 -2.0490988620549615 0 0 0 0 2.8360218358041509 -12.405438886798365 0 -12.405438886798365 0.80752407730469145 0 0 0 0 -68.053892895909257 -16.72694340963892 0 -16.72694340963892 7.2001836513190938 0 0 0 0 -31.508282200253234 -11.268926227654447 0 -11.268926227654447 1.7117049486732867 0 0 0 0 -18.661971436338717 -4.6410368364850001 0 -4.6410368364850001 9.6308993952125093 0 0 0 0 -25.552624106639087 2.2418068288825452 0 2.2418068288825452 4.5893846595790819 0 0 0 0 -14.864393985603783 -3.438149570083624 0 -3.438149570083624 -2.0784226463038067 0 0 0 0 -36.106640497917397 2.6009751673291248 0 2.6009751673291248 0.08373358362041472 0 0 0 0 -55.743597951253832 -4.8788994413162072 0 -4.8788994413162072 9.0047290826696553 0 0 0 0 -36.902917809469727 -2.5733583471246675 0 -2.5733583471246675 1.5454561033420759 0 0 0 0 -70.880181973049957 -13.270848471604495 0 -13.270848471604495 14.439198767529888 0 0 0 0 -76.057130343282552 4.095711958118045 0 4.095711958118045 3.3070992519451465 0 0 0 0 -25.470356983139936 18.320446797014483 0 18.320446797014483 -19.501902573667394 0 0 0 0 -15.311839813446568 -5.8503516127375406 0 -5.8503516127375406 2.9448074862084468 0 0 0 0 -5.6157160305560829 -3.157271640071432 0 -3.157271640071432 -1.0723271780684165 0 0 0 0 -13.316411378424164 -6.9282293189735356 0 -6.9282293189735356 -11.630445921927276 0 0 0 0 -0.0056251995247293962 -34.429991583521769 0 -34.429991583521769 -0.12174140264790378 0 0 0 0 -17.137087038241589 -31.265269324969267 0 -31.265269324969267 40.315917143152092 0 0 0 0 11.539705921198447 -16.703259358038366 0 -16.703259358038366 16.632212447671918 0 0 0 0 11.448886576175369 -20.296600423672672 0 -20.296600423672672 0.089451728779749828 0 0 0 0 -164.63230722585649 90.440498454448971 0 90.440498454448971 -12.941967170494536 0 0 0 0 -2.1732572000129835 -0.87230999842304513 0 -0.87230999842304513 -0.49729636363829144 0 0 0 0 -80.873709615307234 39.879778024858751 0 39.879778024858751 -27.1371388301759 0 0 0 0 24.665890579279221 -83.183286823256822 0 -83.183286823256822 -26.389507627642161 0 0 0 0 -449.98852341609381 -366.52076401454178 0 -366.52076401454178 1.0810207073592593 0 0 0 0 28.865602188877347 -8.6896188677324062 0 -8.6896188677324062 -0.19916096278757323 0 0 0 0 -4.6247458200698954 -0.81787949462206555 0 -0.81787949462206555 1.2086300146120124 0 0 0 0 -155.19866742959675 8.8619031054513471 0 8.8619031054513471 24.121511460791226 0 0 0 0 -145.62272021520039 -30.026750924445423 0 -30.026750924445423 27.395223599836754 0 0 0 0 -68.719800987134022 -27.534502170812175 0 -27.534502170812175 7.1814543771943136 0 0 0 0 -116.19970373400974 -3.6173535187335801 0 -3.6173535187335801 15.545253321960445 0 0 0 0 0.88335908293380161 -12.3367744351571 0 -12.3367744351571 1.2706463175131546 0 0 0 0 -87.392560391683219 -48.083203448011773 0 -48.083203448011773 26.274550898477173 0 0 0 0 0.01216845009216172 -3.4191919470993177 0 -3.4191919470993177 -0.084168909321368376 0 0 0 0 -49.581817654794577 -34.329404703225009 0 -34.329404703225009 -27.567283890180047 0 0 0 0 -17.700800302843163 -21.972896543384195 0 -21.972896543384195 16.619283274725603 0 0 0 0 -21.770273184152607 -1.6443010744857034 0 -1.6443010744857034 1.0344931578336147 0 0 0 0 -23.126769349610186 -29.980396744210793 0 -29.980396744210793 41.653688442176644 0 0 0 0 -19.723932997502743 -3.127300325170836 0 -3.127300325170836 -0.009033857490067021 0 0 0 0 -21.9976136473108 -4.0350506592442343 0 -4.0350506592442343 1.9649053809043835 0 0 0 0 -21.003977610814218 -2.6356733783159143 0 -2.6356733783159143 3.4515224508159008 0 0 0 0 -18.732179228636596 -1.7295425058000546 0 -1.7295425058000546 1.4784533877937065 0 0 0 0 -18.939847637073399 -0.86354338595083391 0 -0.86354338595083391 2.5834094354668196 0 0 0 0 -11.771545412862906 1.7929505863121449 0 1.7929505863121449 1.212003199281753 0 0 0 0 -15.963906936348394 1.017364303692375 0 1.017364303692375 3.7532404258308816 0 0 0 0 -14.742634479076514 -0.087005779369974334 0 -0.087005779369974334 0.041831015281786676 0 0 0 0 -30.75998662674283 -16.842993177532662 0 -16.842993177532662 74.592552211635848 0 0 0 0 0.13600543538996135 -21.74458399584455 0 -21.74458399584455 28.042033611038278 0 0 0 0 -17.315528837202162 -0.33026710293849249 0 -0.33026710293849249 -0.032747431705917623 0 0 0 0 -19.46478826375278 -0.37665135429415386 0 -0.37665135429415386 33.050205342982736 0 0 0 0 -20.557703919463165 -26.607264058389774 0 -26.607264058389774 11.003921338871805 0 0 0 0 -47.060525069049618 -39.270850315944699 0 -39.270850315944699 16.21615658211249 0 0 0 0 -25.926971650444102 -25.035433422919596 0 -25.035433422919596 1.4760583620350189 0 0 0 0 -29.119215521048318 -24.212009634182323 0 -24.212009634182323 27.603519511107606 0 0 0 0 -37.24465592456454 -11.659292438030661 0 -11.659292438030661 8.8662343236828747 0 0 0 0 -18.565180078217509 -6.4301477085489296 0 -6.4301477085489296 17.996182712378868 0 0 0 0 -12.483746069274275 -21.086607764728797 0 -21.086607764728797 6.4301461085306073 0 0 0 0 -30.620632338059295 -16.391001150422198 0 -16.391001150422198 12.839380768751653 0 0 0 0 -27.458895248351837 -19.295363045857812 0 -19.295363045857812 6.3158853274485409 0 0 0 0 -19.667240768127158 -15.994265109441585 0 -15.994265109441585 -2.3377697381511098 0 0 0 0 -32.173177882345044 -23.048176428694006 0 -23.048176428694006 -5.4771295572681993 0 0 0 0 -22.757146885272959 -22.783025098815415 0 -22.783025098815415 -12.756333988329061 0 0 0 0 -42.503365094705259 -9.7516847057895575 0 -9.7516847057895575 -11.323378177798077 0 0 0 0 -80.756712461909046 15.312092391163787 0 15.312092391163787 24.704902839464921 0 0 0 0 -110.72496334478274 8.4832350534634315 0 8.4832350534634315 24.602789223679494 0 0 0 0 -22.118571036331559 -12.817822238617737 0 -12.817822238617737 -0.34593586496885109 0 0 0 0 -64.678412717450556 -10.893602524376547 0 -10.893602524376547 2.7952427912841813 0 0 0 0 -31.391051034940006 -6.3871809552776142 0 -6.3871809552776142 -2.8719792731644702 0 0 0 0 -50.2754033082756 19.021654030056197 0 19.021654030056197 -2.1588390697779687 0 0 0 0 -19.358800537924253 -13.692835413718058 0 -13.692835413718058 13.830953897286236 0 0 0 0 -63.302887057000589 66.831199543959201 0 66.831199543959201 -26.214476134024153 0 0 0 0 27.176609686052871 -4.5157571046238445 0 -4.5157571046238445 -6.5460443689680687 0 0 0 0 -47.993484466726841 -20.204780963101712 0 -20.204780963101712 110.1601220248449 0 0 0 0 -12.398633259568442 -0.3336028095911594 0 -0.3336028095911594 0.10641798585408221 0 0 0 0 -15.557424782902672 14.226219702322851 0 14.226219702322851 47.013943859791652 0 0 0 0 -6.0791385052179976 17.855754298099782 0 17.855754298099782 31.447196670704098 0 0 0 0 -12.832115724947471 5.5750889291985004 0 5.5750889291985004 17.360606225567608 0 0 0 0 5.7368608834767656 14.056586314285596 0 14.056586314285596 -0.10444080458000826 0 0 0 0 12.476141664572424 26.321623447291131 0 26.321623447291131 13.990801091229514 0 0 0 0 -290.50031579230563 -82.587729358595425 0 -82.587729358595425 0.032031531634856947 0 0 0 0 -254.27247500054364 -179.11956665310481 0 -179.11956665310481 -151.6923589656617 0 0 0 0 36.045202751178977 -68.174346846819844 0 -68.174346846819844 -141.4781771198468 0 0 0 0 -644.1119685537974 92.909273481716809 0 92.909273481716809 -175.03258862729126 0 0 0 0 -580.36989000108406 -193.56358906728929 0 -193.56358906728929 -10.143871905487686 0 0 0 0 -572.0249585028123 89.749925415501821 0 89.749925415501821 89.964295392299391 0 0 0 0 -531.75515460633869 -294.18700060663377 0 -294.18700060663377 -65.588472847063713 0 0 0 0 -4.8915147061518383 -0.062916905234047249 0 -0.062916905234047249 -0.13633460204334749 0 0 0 0 -208.53627292951933 185.84997076452419 0 185.84997076452419 -72.142106295469304 0 0 0 0 -199.02292329715965 -25.299942304037813 0 -25.299942304037813 -101.28040918842271 0 0 0 0 -84.072755108096317 -199.28713142736865 0 -199.28713142736865 0.0092945463820797158 0 0 0 0 -333.20307412467446 -158.37046167183416 0 -158.37046167183416 -0.10332424044009667 0 0 0 0 -239.51942198118923 -244.0087242870195 0 -244.0087242870195 -33.119889898110614 0 0 0 0 -269.42943705209223 -117.08383855387876 0 -117.08383855387876 34.222186190954744 0 0 0 0 -85.054253931401036 -146.89660792316087 0 -146.89660792316087 7.877542777769122 0 0 0 0 -84.457162631953864 -190.93986448923854 0 -190.93986448923854 27.907671710581781 0 0 0 0 -197.65181000276971 -106.69496440357955 0 -106.69496440357955 71.882172289791924 0 0 0 0 -187.06766784472893 -187.91608719651867 0 -187.91608719651867 56.170613974109074 0 0 0 0 -287.00518064823882 -162.56837736279522 0 -162.56837736279522 51.357312764577273 0 0 0 0 -260.08813306772026 -109.50872215033633 0 -109.50872215033633 107.4084828346804 0 0 0 0 -96.297018906405356 -156.04201204960737 0 -156.04201204960737 70.341800015993158 0 0 0 0 -73.541048438672078 -132.0970804217468 0 -132.0970804217468 62.814976177765857 0 0 0 0 -38.602317229442633 -186.37681625355299 0 -186.37681625355299 36.981534422386176 0 0 0 0 -174.45448195076278 64.51256789535455 0 64.51256789535455 23.022785428274801 0 0 0 0 -197.8695520126912 15.280383210642867 0 15.280383210642867 63.858828086811627 0 0 0 0 -283.74924073985676 69.359854241947687 0 69.359854241947687 91.4065058648589 0 0 0 0 -398.32867797134622 -65.309736290272667 0 -65.309736290272667 112.98984472550364 0 0 0 0 -222.58106889077681 -58.39819165580775 0 -58.39819165580775 113.15779821369347 0 0 0 0 -241.61995538757856 -34.011481811138765 0 -34.011481811138765 91.378292417855846 0 0 0 0 -195.17583461708364 10.64842478007813 0 10.64842478007813 59.850194761816965 0 0 0 0 -136.61586556212569 -13.558545109395709 0 -13.558545109395709 58.735286189770704 0 0 0 0 -166.83809333063436 -29.352423669588916 0 -29.352423669588916 50.831702357754693 0 0 0 0 -111.22967285857158 -38.683293006479289 0 -38.683293006479289 49.275481082529041 0 0 0 0 -199.08696378989225 -76.399809239746901 0 -76.399809239746901 98.51423015398359 0 0 0 0 -159.20039275343333 -54.893552572037152 0 -54.893552572037152 92.610474784208122 0 0 0 0 -170.2333271618063 -139.58415137195425 0 -139.58415137195425 58.40772319392272 0 0 0 0 -142.721103950822 -106.39602180927477 0 -106.39602180927477 97.162960608895446 0 0 0 0 -79.789279109394556 -94.193645196874058 0 -94.193645196874058 25.279710860916566 0 0 0 0 -110.95781400764918 -54.553021698414796 0 -54.553021698414796 35.370857255500596 0 0 0 0 -138.84465005933544 -91.996305940197999 0 -91.996305940197999 35.249907098155745 0 0 0 0 -87.721998484921187 -130.32720581921558 0 -130.32720581921558 96.374721985062934 0 0 0 0 -11.285069515257419 -105.16712047271812 0 -105.16712047271812 82.835323609955594 0 0 0 0 -162.7219601298184 -100.939006324209 0 -100.939006324209 98.916524849308189 0 0 0 0 -168.91928449086845 -106.49673329990401 0 -106.49673329990401 110.65043035039889 0 0 0 0 -90.597689440150134 -107.65044375293655 0 -107.65044375293655 99.612447917083955 0 0 0 0 -148.94041272029745 -136.61768882333695 0 -136.61768882333695 113.50051567553783 0 0 0 0 -169.34056830968257 -119.17437161647649 0 -119.17437161647649 144.55731811221267 0 0 0 0 -0.23402925545087783 -87.177327597099065 0 -87.177327597099065 97.236079790025542 0 0 0 0 -2.898835262747312 -2.0255132424941316 0 -2.0255132424941316 -1.2810149491298723 0 0 0 0 -104.69722613523891 -33.781296623801381 0 -33.781296623801381 187.97637100752945 0 0 0 0 -208.35366438514757 -121.13353265241813 0 -121.13353265241813 202.18541221329906 0 0 0 0 -293.65777156937111 -221.03367500269451 0 -221.03367500269451 145.96092015018303 0 0 0 0 -146.21991289349262 -338.12052444059282 0 -338.12052444059282 -161.6803577308583 0 0 0 0 -242.08667640958629 14.542457356138584 0 14.542457356138584 -193.76921374789549 0 0 0 0 0.95202886973487111 -0.91027546900019018 0 -0.91027546900019018 0.33253417562621479 0 0 0 0 -188.99412226421009 -283.44414568080447 0 -283.44414568080447 -232.50867203284406 0 0 0 0 -6.7559147292795387 -106.23178840178934 0 -106.23178840178934 -360.40591197732692 0 0 0 0 -73.126784133139154 -60.930457532027276 0 -60.930457532027276 9.3411051065850188 0 0 0 0 -43.826638818150968 -88.97098302793529 0 -88.97098302793529 -16.79410768728485 0 0 0 0 -82.622052017295573 -78.32644464009627 0 -78.32644464009627 0.30461739651218522 0 0 0 0 -103.06470287892807 -138.4040407284856 0 -138.4040407284856 25.541809021848167 0 0 0 0 -3.1292129502362513 -159.87008844207685 0 -159.87008844207685 1.3608173237553274 0 0 0 0 -47.861905143810873 -103.53734526332482 0 -103.53734526332482 -68.508743385616981 0 0 0 0 27.983444744460712 -4.3935321169358303 0 -4.3935321169358303 -45.887663473366047 0 0 0 0 18.250386792060453 -52.886130490165669 0 -52.886130490165669 -65.957619969954976 0 0 0 0 -19.678654081712011 -71.076738685324017 0 -71.076738685324017 -62.803447766134923 0 0 0 0 -31.106577013244532 -54.004864666885624 0 -54.004864666885624 -42.368257186084747 0 0 0 0 -53.597751330798928 -58.219995352093974 0 -58.219995352093974 -41.635534302228734 0 0 0 0 -53.208453196495611 -64.924223492645069 0 -64.924223492645069 -38.598886154140928 0 0 0 0 -55.528166552940093 -62.098871343246628 0 -62.098871343246628 -32.360300463449676 0 0 0 0 -58.055395327173756 -55.852502175968766 0 -55.852502175968766 -36.007702156806772 0 0 0 0 -51.509173496182484 -60.730457416243553 0 -60.730457416243553 -50.333205888942757 0 0 0 0 -50.577597780713404 -56.345143138612912 0 -56.345143138612912 -33.059163851881749 0 0 0 0 -37.987069227070606 -46.219063907366944 0 -46.219063907366944 -38.951295585005937 0 0 0 0 -37.554578402905463 -44.67963856426104 0 -44.67963856426104 -37.190454751111247 0 0 0 0 -39.217162105527677 -54.093602543828865 0 -54.093602543828865 -53.659601571365783 0 0 0 0 -50.89177653377169 -50.241643696862866 0 -50.241643696862866 -26.12469938222057 0 0 0 0 -51.562055423513812 -55.309656483846993 0 -55.309656483846993 -32.175522182510576 0 0 0 0 -58.506005274861309 -58.819693444451332 0 -58.819693444451332 -14.808800002709177 0 0 0 0 -66.208423659647451 -55.071716078821737 0 -55.071716078821737 -13.905561995267135 0 0 0 0 -65.025062843697015 -44.874001917224632 0 -44.874001917224632 -8.8976927648891433 0 0 0 0 -49.63268172772041 -47.006614345310481 0 -47.006614345310481 -22.504781681203895 0 0 0 0 -49.08620057940243 -30.040815370704877 0 -30.040815370704877 -9.6521680497244233 0 0 0 0 -52.579129229674436 -37.061988510663468 0 -37.061988510663468 -14.756491722464943 0 0 0 0 -47.896641094037477 -39.967941112705375 0 -39.967941112705375 -16.582596012954127 0 0 0 0 -40.28603847310842 -40.484259375102738 0 -40.484259375102738 -27.577160412518424 0 0 0 0 -34.670289621357369 -36.016032851441196 0 -36.016032851441196 -25.116883559883718 0 0 0 0 -38.622115828326059 -42.902800309612758 0 -42.902800309612758 -34.639320592934382 0 0 0 0 -25.213892876532555 -34.756057616477847 0 -34.756057616477847 -36.725636089862746 0 0 0 0 0.14405721533356797 -0.5926084027231866 0 -0.5926084027231866 -1.0631334739026101 0 0 0 0 -2.0397667093106975 -1.3647257777884079 0 -1.3647257777884079 -4.1512900828456623 0 0 0 0 -22.214491340328095 -24.382505905260587 0 -24.382505905260587 -29.02751444653677 0 0 0 0 -1.8270682025176939 -0.72964355677686399 0 -0.72964355677686399 -5.1640043652087115 0 0 0 0 -40.631635836440239 -30.012698107908221 0 -30.012698107908221 -19.42007599702265 0 0 0 0 -2.7517150141429738 -11.163943298804952 0 -11.163943298804952 -14.728401544070039 0 0 0 0 -3.1531480527479516 -3.488132785458717 0 -3.488132785458717 2.2399603912476014 0 0 0 0 1.9151127695437111 -1.4294075726319555 0 -1.4294075726319555 -1.0955314227415087 0 0 0 0 8.360282737743546 -6.4912742824981251 0 -6.4912742824981251 -17.859236782674998 0 0 0 0 6.6513850182564056 6.4895106350286369 0 6.4895106350286369 -0.20076859480104758 0 0 0 0 20.441942835670488 2.4207900172095833 0 2.4207900172095833 -12.731504817884343 0 0 0 0 4.7117500365093292 -25.911853443040854 0 -25.911853443040854 -11.766497428066941 0 0 0 0 -56.116847287128621 -26.209592171934673 0 -26.209592171934673 12.06098015670068 0 0 0 0 0.19083629370665456 -0.47984041148773926 0 -0.47984041148773926 -0.07319616896408121 0 0 0 0 61.65429145480357 -10.289327747088464 0 -10.289327747088464 -34.675253578541742 0 0 0 0 55.653049131398802 -17.254139443663007 0 -17.254139443663007 8.3177042739321223 0 0 0 0 -11.984610459910073 -34.105670769407425 0 -34.105670769407425 -10.078382860152487 0 0 0 0 -55.214856806758689 -46.046298674635864 0 -46.046298674635864 -18.759934571153281 0 0 0 0 0.33014099498016947 -0.20921811857817119 0 -0.20921811857817119 -0.40528267114144256 0 0 0 0 -52.637418603055266 -34.592997747135087 0 -34.592997747135087 -19.158516322364449 0 0 0 0 -43.203393881318334 -34.694247463743523 0 -34.694247463743523 -21.361902379550884 0 0 0 0 -44.723933739063796 -24.8911893619088 0 -24.8911893619088 -4.998719935916597 0 0 0 0 -36.649529357946449 -27.27099505185106 0 -27.27099505185106 -13.299085370288594 0 0 0 0 -36.090662184153814 -43.06456066125935 0 -43.06456066125935 -24.115155380695796 0 0 0 0 -3.9487390734648216 -24.507278821549335 0 -24.507278821549335 -14.837255103355346 0 0 0 0 -34.551830208289175 -31.391602187684839 0 -31.391602187684839 3.4836349340166635 0 0 0 0 1.6917085320405931 4.3437058118815912 0 4.3437058118815912 16.041955960437917 0 0 0 0 -23.560905265201654 -25.214390612998159 0 -25.214390612998159 -7.0652240360723226 0 0 0 0 0.26453166970324382 -0.76187185647458477 0 -0.76187185647458477 -0.016404210209401526 0 0 0 0 -23.640398386771267 -23.012801249980839 0 -23.012801249980839 1.8733611074603687 0 0 0 0 -19.689648510920051 -26.883934613798374 0 -26.883934613798374 -7.4640593555595842 0 0 0 0 -26.264101255706919 -26.289062537087375 0 -26.289062537087375 -7.4307751939522859 0 0 0 0 -28.593522214687255 -23.080154086999755 0 -23.080154086999755 -6.2884748471060448 0 0 0 0 -37.082456829288731 -24.381059731939786 0 -24.381059731939786 -2.634680340433988 0 0 0 0 -41.240983655854507 -25.930573727356204 0 -25.930573727356204 -0.71932351785289939 0 0 0 0 -45.373580674591722 -16.794675688192456 0 -16.794675688192456 4.2727989116719982 0 0 0 0 -65.899873296864826 -24.422391950056408 0 -24.422391950056408 5.0558280697932787 0 0 0 0 -80.658234009657463 -13.248613001345802 0 -13.248613001345802 15.460897302459983 0 0 0 0 -64.260570882838238 -8.4029177565627151 0 -8.4029177565627151 15.584532520966604 0 0 0 0 -113.54107289760577 -29.588470966243221 0 -29.588470966243221 20.685758864146919 0 0 0 0 -96.540687456430533 -53.711903234958299 0 -53.711903234958299 9.5495753841787518 0 0 0 0 -76.821943043363717 -36.053639636809748 0 -36.053639636809748 21.797851012428964 0 0 0 0 -75.991486972232451 -34.03464936246155 0 -34.03464936246155 1.6926665980136022 0 0 0 0 -58.424206073552341 -36.183975354686481 0 -36.183975354686481 1.4206184503527766 0 0 0 0 -55.896407140440715 -24.498816436305788 0 -24.498816436305788 4.6001081034482922 0 0 0 0 -49.835360367165777 -30.416623660063124 0 -30.416623660063124 -2.507327952867854 0 0 0 0 -162.21585316868186 -229.17962491497019 0 -229.17962491497019 -294.04173173011532 0 0 0 0 -2.2843385924952599 -0.11403956781032321 0 -0.11403956781032321 2.7981679216172779 0 0 0 0 30.131067886497476 -25.596679513068011 0 -25.596679513068011 6.558790219004095 0 0 0 0 0.263972276334691 -1.0215339129523535 0 -1.0215339129523535 0.60192646278978046 0 0 0 0 -16.477134264016058 -46.229705420555547 0 -46.229705420555547 370.43325297955198 0 0 0 0 -0.089196549511683543 -0.22898250101981432 0 -0.22898250101981432 -0.59167879339857876 0 0 0 0 11.858734371482569 -54.391361654914363 0 -54.391361654914363 24.316521523314805 0 0 0 0 -1.7696785153955261 -5.5073248873346756 0 -5.5073248873346756 -2.8648463703302696 0 0 0 0 0.45717910915318072 -3.9685940123292553 0 -3.9685940123292553 2.4694411898115121 0 0 0 0 -2.2121426741661452 -3.0465177869712825 0 -3.0465177869712825 0.24002078679221128 0 0 0 0 -1.8650897608167725 -5.0789892312341181 0 -5.0789892312341181 -2.6026513808683376 0 0 0 0 2.3543412482005195 -1.4003352025584519 0 -1.4003352025584519 -0.9413880296728685 0 0 0 0 -1.2769908314355263 -0.23035329054807363 0 -0.23035329054807363 -0.26675504172185072 0 0 0 0 -11.092325900448486 -1.920449961671693 0 -1.920449961671693 -8.703879256014261 0 0 0 0 -323.66348772141828 -363.70226825934424 0 -363.70226825934424 0.077713989260701055 0 0 0 0 -0.34810454863716472 -382.46264236007744 0 -382.46264236007744 -193.54038962054619 0 0 0 0 -162.1769762701087 -226.17330473129647 0 -226.17330473129647 -64.300187210310469 0 0 0 0 0.56726691264971407 -1.4589622981776316 0 -1.4589622981776316 -0.84349735814569371 0 0 0 0 -0.46340471312727516 -2.2943546754945956 0 -2.2943546754945956 0.6751978238073626 0 0 0 0 -3.7911595583354938 -6.7701358184531273 0 -6.7701358184531273 -7.4661281808803324 0 0 0 0 2.1752265941123206 -3.1861801331784889 0 -3.1861801331784889 -2.8063698538439397 0 0 0 0 -605.22398975986835 -153.852857923177 0 -153.852857923177 -27.923628406420448 0 0 0 0 -0.51413205688949759 -1.0145514898493477 0 -1.0145514898493477 -1.2996609031573669 0 0 0 0 0.03028727805303788 -3.6748174990821099 0 -3.6748174990821099 -0.0023722288078715792 0 0 0 0 -2.3091768503472849 -2.932559586105981 0 -2.932559586105981 -0.0011647614228422754 0 0 0 0 -1.0709183225553716 -1.8487850505125607 0 -1.8487850505125607 -1.8954622406199633 0 0 0 0 -0.43714944867259931 -0.13774829998934734 0 -0.13774829998934734 0.49183941443420309 0 0 0 0 -0.53121477066630973 -0.78340684033695851 0 -0.78340684033695851 -0.34515340012702467 0 0 0 0 6.2708648003972485 -8.0976365719579917 0 -8.0976365719579917 -12.401114626693015 0 0 0 0 2.5258207767491925 -2.3250719956099424 0 -2.3250719956099424 0.050976178623354684 0 0 0 0 -21.787164385625147 -16.515600684970195 0 -16.515600684970195 -10.2784980388451 0 0 0 0 -3.5651701111473812 -3.5589715680589507 0 -3.5589715680589507 -4.9314298483022867 0 0 0 0 -5.4879408282758959 3.5799548724685337 0 3.5799548724685337 -27.070749011494627 0 0 0 0 7.1318371784764167 -4.5745073251673602 0 -4.5745073251673602 -5.7973694850697939 0 0 0 0 3.2773347785168596 -2.9763363729326464 0 -2.9763363729326464 -1.1754157965166243 0 0 0 0 1.7185087262423622 -8.8014036769000086 0 -8.8014036769000086 -7.7997803228463454 0 0 0 0 -0.67700329193515785 -4.1654110752692723 0 -4.1654110752692723 -3.9693260744058421 0 0 0 0 -0.79843854810314951 -5.6916662793883006 0 -5.6916662793883006 -3.7766972154543055 0 0 0 0 -0.91182195417786716 -6.3535825227681926 0 -6.3535825227681926 -3.0435402217772207 0 0 0 0 -0.74549046499669203 -6.3739903883179068 0 -6.3739903883179068 -3.8111969783749373 0 0 0 0 -0.89446623487310717 -5.6378701035355334 0 -5.6378701035355334 -2.6699952670724088 0 0 0 0 -1.4017756347846344 -4.1380618502663538 0 -4.1380618502663538 0.98410490030051179 0 0 0 0 -19.243984471202566 -37.813111067376667 0 -37.813111067376667 15.157127398385313 0 0 0 0 14.338684078273218 -77.106940375861086 0 -77.106940375861086 -39.236003430289202 0 0 0 0 -12.737766276120965 -12.941500697350421 0 -12.941500697350421 27.288436064809503 0 0 0 0 -24.966196046698315 64.757846025951949 0 64.757846025951949 12.65595741519428 0 0 0 0 11.756276075200731 6.6865096528163122 0 6.6865096528163122 -77.158384024342013 0 0 0 0 -0.74481813848567668 -0.099220356920424635 0 -0.099220356920424635 0.090563309352749144 0 0 0 0 -7.3958024319963442 -4.0360011340517303 0 -4.0360011340517303 -3.761330688437738 0 0 0 0 12.999524340062635 -14.351887962685396 0 -14.351887962685396 -12.21022438448199 0 0 0 0 -3.6111426837612086 -7.6126765828908001 0 -7.6126765828908001 -6.3898103822923105 0 0 0 0 4.666285541094112 -19.647701733423673 0 -19.647701733423673 -11.62000400371835 0 0 0 0 -10.596466179849813 -17.223935334905036 0 -17.223935334905036 -10.998733994057147 0 0 0 0 -22.528688853846688 -11.984904703294887 0 -11.984904703294887 -6.5955904745660519 0 0 0 0 7.9019446566089755 -9.5133903181831556 0 -9.5133903181831556 -10.366226625414129 0 0 0 0 -10.530988383416116 -16.207101456258897 0 -16.207101456258897 1.2217167964972759 0 0 0 0 2.157828636773047 -20.462548544370293 0 -20.462548544370293 -3.369491273746462 0 0 0 0 -24.967700041212083 -16.03743485061932 0 -16.03743485061932 2.8037616425244778 0 0 0 0 -70.761631993838819 -2.3302785595960813 0 -2.3302785595960813 7.4056731889049843 0 0 0 0 258.00602324394822 -95.499344071510222 0 -95.499344071510222 -44.106468045756628 0 0 0 0 -24.988427685990246 3.6824338779897516 0 3.6824338779897516 -9.4658170513321238 0 0 0 0 -0.19045111018400185 -0.96086648731421676 0 -0.96086648731421676 -0.84308613695584 0 0 0 0 92.605618701441927 95.352384709383841 0 95.352384709383841 51.723726459728823 0 0 0 0 298.9249555511924 -90.573118618187436 0 -90.573118618187436 -60.739270632748571 0 0 0 0 407.29133909508528 -93.3934342877983 0 -93.3934342877983 -60.667585013709186 0 0 0 0 4.3403554662509123 -42.452917326512761 0 -42.452917326512761 -38.478094722840979 0 0 0 0 -49.049006119379555 -40.596698194041892 0 -40.596698194041892 -7.8617341903154738 0 0 0 0 14.235300866639591 -6.0620690188075059 0 -6.0620690188075059 -21.297938889187208 0 0 0 0 -12.033273979379373 -22.328365684593336 0 -22.328365684593336 -15.714894820615882 0 0 0 0 -18.962535905517143 24.855726254480032 0 24.855726254480032 -12.675770586027284 0 0 0 0 -37.371062589018038 -11.872623469556856 0 -11.872623469556856 31.979505631627035 0 0 0 0 -20.900634103497396 30.409345403033512 0 30.409345403033512 44.629735199519928 0 0 0 0 -38.455652185381041 -14.806781693265293 0 -14.806781693265293 76.231201848411729 0 0 0 0 234.25162711078883 76.594924295204692 0 76.594924295204692 3.4704945374978706 0 0 0 0 1.3201290846063856 -0.60104424903689235 0 -0.60104424903689235 0.54107590255744498 0 0 0 0 5.2874107084953721 -20.14311081162117 0 -20.14311081162117 -0.036241155941752368 0 0 0 0 -0.089811969373840839 16.702858192717031 0 16.702858192717031 -2.2812428171173451 0 0 0 0 437.76360475796901 -97.267351465477986 0 -97.267351465477986 -51.499315817651222 0 0 0 0 434.52412150923726 -137.05712889207337 0 -137.05712889207337 -58.278277210010856 0 0 0 0 79.394966872217992 -67.632049992743305 0 -67.632049992743305 -2.8715511418013193 0 0 0 0 1.7532652176020136 -0.25539957999557572 0 -0.25539957999557572 0.064429042268077552 0 0 0 0 328.97102084605467 -196.15394325466923 0 -196.15394325466923 4.3999848811581614 0 0 0 0 253.34186481094139 -166.25760297052284 0 -166.25760297052284 -33.062650256091729 0 0 0 0 276.88846911335531 -96.222655714784196 0 -96.222655714784196 65.717425188676316 0 0 0 0 284.10169653523189 -194.79098237475773 0 -194.79098237475773 -0.040130888384737773 0 0 0 0 110.37665790650499 -143.71458804657505 0 -143.71458804657505 41.521918149994235 0 0 0 0 103.61898715519965 -100.09549326874367 0 -100.09549326874367 -41.200536236214248 0 0 0 0 84.665250239040688 -216.04734028900566 0 -216.04734028900566 -62.891692156287036 0 0 0 0 121.96027492852591 -142.61218258649569 0 -142.61218258649569 25.556271252522492 0 0 0 0 67.654289670308572 -173.91235225091623 0 -173.91235225091623 9.1915518686219002 0 0 0 0 68.041222764915801 -167.18653964656369 0 -167.18653964656369 9.995636317285971 0 0 0 0 202.46735981391794 -180.12318315567245 0 -180.12318315567245 -24.723079250506999 0 0 0 0 212.20423474437666 -140.71468019014446 0 -140.71468019014446 -10.355606268365591 0 0 0 0 280.8245457128578 -136.63660404239818 0 -136.63660404239818 -30.148810313703507 0 0 0 0 156.75464574204398 -133.5640950245047 0 -133.5640950245047 -5.2732811153036891 0 0 0 0 229.81609550713256 -79.967806946442579 0 -79.967806946442579 29.739349020974714 0 0 0 0 142.55570533389664 -165.77988231514701 0 -165.77988231514701 -0.082350422675517621 0 0 0 0 64.544047846717149 -133.15687676238485 0 -133.15687676238485 44.246616664419435 0 0 0 0 74.158700726628012 -141.26729917493321 0 -141.26729917493321 59.624739457975011 0 0 0 0 117.37527841200972 -114.58827643398217 0 -114.58827643398217 53.950412201731524 0 0 0 0 19.338345999785815 -152.6449386374552 0 -152.6449386374552 50.591733346258479 0 0 0 0 148.03586356157939 -112.80268903860087 0 -112.80268903860087 48.36019525732263 0 0 0 0 123.05744266243892 -130.44877504966826 0 -130.44877504966826 35.907801094822389 0 0 0 0 109.65072077291188 -102.96105506567346 0 -102.96105506567346 100.37651021203419 0 0 0 0 -6.7066439268955165 -5.3118292850175983 0 -5.3118292850175983 -3.3807196588831978 0 0 0 0 67.618254270748366 -135.56269886921018 0 -135.56269886921018 111.5900901744626 0 0 0 0 99.485096222837456 -90.274674879196027 0 -90.274674879196027 96.473018556681382 0 0 0 0 -68.876741518626659 19.529588549605705 0 19.529588549605705 19.115997792654525 0 0 0 0 21.07942067397471 -28.290956242612538 0 -28.290956242612538 -144.25966240183698 0 0 0 0 -24.498137723316177 -125.04392869869844 0 -125.04392869869844 -230.36414864972812 0 0 0 0 150.00129178169936 -41.514028421643843 0 -41.514028421643843 -74.445535521965212 0 0 0 0 -113.17305118838885 -76.285170546120298 0 -76.285170546120298 -67.561501396736276 0 0 0 0 0.35640061986667249 0.19797714630595387 0 0.19797714630595387 -0.69719433396527819 0 0 0 0 52.952470185980928 -131.23342350918756 0 -131.23342350918756 -127.28218942873264 0 0 0 0 -14.968128540967882 -4.9723970214045039 0 -4.9723970214045039 29.353049718615694 0 0 0 0 -2.3686872224384867 -1.1973707306119419 0 -1.1973707306119419 0.20077433933213484 0 0 0 0 80.224480502392908 -82.985990841255443 0 -82.985990841255443 18.406542123997497 0 0 0 0 -31.236096507305774 -107.59830683966538 0 -107.59830683966538 19.424580164232452 0 0 0 0 30.533515452461415 -73.819220336986177 0 -73.819220336986177 22.861993151189381 0 0 0 0 29.993157884400716 -72.040965550217152 0 -72.040965550217152 28.569984384095733 0 0 0 0 31.400793218635954 -82.430944502586499 0 -82.430944502586499 -1.8735719375545159 0 0 0 0 57.101955822763557 -121.00105115931365 0 -121.00105115931365 -13.069922923599734 0 0 0 0 99.330613395228283 -120.65693598031248 0 -120.65693598031248 -104.1030785670664 0 0 0 0 39.881953344316571 -148.79671958830204 0 -148.79671958830204 177.18092719703236 0 0 0 0 137.67344045510981 -250.90308156806532 0 -250.90308156806532 178.64261014633303 0 0 0 0 34.901577594733681 -83.448980989387564 0 -83.448980989387564 -11.614260432852461 0 0 0 0 -26.221681054333203 132.82899694341381 0 132.82899694341381 3.7279492687648599 0 0 0 0 -0.79756968460473132 -0.28767666710146056 0 -0.28767666710146056 0.46640474138254717 0 0 0 0 -140.84088726411392 -54.835049014565357 0 -54.835049014565357 86.473718313856807 0 0 0 0 -6.9830695472246944 -4.662032423563307 0 -4.662032423563307 -3.1050942889210944 0 0 0 0 -28.92408950034951 -60.238466650877854 0 -60.238466650877854 60.952138382725025 0 0 0 0 35.819907316146782 -44.630522037241917 0 -44.630522037241917 43.946737580454283 0 0 0 0 -16.895666292704846 -20.770259916471332 0 -20.770259916471332 93.104783314991437 0 0 0 0 -7.9646050771589216 -8.8925413572405887 0 -8.8925413572405887 -2.8441353503003484 0 0 0 0 -15.421485663296153 -2.917812218565814 0 -2.917812218565814 4.5195862793189008 0 0 0 0 -2.6932059313586105 -2.9473793984210186 0 -2.9473793984210186 -1.8314931746019312 0 0 0 0 -13.423658333998901 9.6855214660145066 0 9.6855214660145066 37.141626698235086 0 0 0 0 -9.5285224845976799 -6.1965262493966531 0 -6.1965262493966531 -3.2342910200998176 0 0 0 0 -2.223269448147132 -0.37772272275963203 0 -0.37772272275963203 1.6926846141172547 0 0 0 0 -14.052388913672985 -15.995419003994812 0 -15.995419003994812 6.1312705711679882 0 0 0 0 -9.5497835812093399 -9.5519906252930014 0 -9.5519906252930014 1.1629571780267725 0 0 0 0 -23.299918614353373 22.485886028148343 0 22.485886028148343 17.332241275847309 0 0 0 0 -2.7461466189712667 -0.57434804050414456 0 -0.57434804050414456 1.4080213737736642 0 0 0 0 -44.976165476280585 -4.700365473326201 0 -4.700365473326201 46.52405140761357 0 0 0 0 -12.324510974551231 -30.139036060740182 0 -30.139036060740182 55.407294404703862 0 0 0 0 9.1441804339629016 -5.5304305650570313 0 -5.5304305650570313 -13.080492908664382 0 0 0 0 -0.55180275091350239 -1.4860451623189057 0 -1.4860451623189057 -1.2129225860997366 0 0 0 0 -6.32951672227572 -6.5133061837909212 0 -6.5133061837909212 -4.451792644150693 0 0 0 0 8.3386614684732194 1.0989004309794836 0 1.0989004309794836 11.716983832371625 0 0 0 0 -4.9148596756822371 -4.4184871025581742 0 -4.4184871025581742 27.347798288568811 0 0 0 0 33.337673515368806 -114.27917659978448 0 -114.27917659978448 187.70318974092334 0 0 0 0 17.077416124357114 -156.37401112610132 0 -156.37401112610132 185.22959592369989 0 0 0 0 90.55746374607088 -134.13649428694498 0 -134.13649428694498 168.65991701190433 0 0 0 0 76.115262293812293 -195.71487402777552 0 -195.71487402777552 242.75457381035631 0 0 0 0 89.861407865031651 -105.50430934801079 0 -105.50430934801079 203.82242631655481 0 0 0 0 183.17960611044236 -139.42265820321677 0 -139.42265820321677 121.1767365394262 0 0 0 0 102.28759837828875 -117.55400627348854 0 -117.55400627348854 50.948986571631394 0 0 0 0 75.660272534536489 -159.56657249135969 0 -159.56657249135969 123.49498776709152 0 0 0 0 115.68103995957972 -116.81431409573088 0 -116.81431409573088 7.1645249446883099 0 0 0 0 87.321688430107315 -153.78376905330333 0 -153.78376905330333 -17.099349938708656 0 0 0 0 78.031509734115843 -97.4872093050476 0 -97.4872093050476 -54.928262982612068 0 0 0 0 79.393051989718515 -92.25648487156468 0 -92.25648487156468 -78.945971752733385 0 0 0 0 30.581711454851757 -154.55960691658584 0 -154.55960691658584 -46.50686623879119 0 0 0 0 64.559377972098446 -75.727114132909264 0 -75.727114132909264 -112.03440118775779 0 0 0 0 59.021184554676438 -130.1224799112897 0 -130.1224799112897 -88.588288691851631 0 0 0 0 39.902422632843809 -101.08712224779345 0 -101.08712224779345 75.160115775659506 0 0 0 0 52.876660510624788 -151.23045584421743 0 -151.23045584421743 29.496604198977366 0 0 0 0 62.135387664755399 -142.16350581900042 0 -142.16350581900042 160.34076404287225 0 0 0 0 67.492294772476725 -128.57045277053521 0 -128.57045277053521 63.330039275659146 0 0 0 0 0.79583990156970685 -163.95005876123105 0 -163.95005876123105 88.847219723058515 0 0 0 0 3.0010626977709762 -141.7808739640177 0 -141.7808739640177 -111.85690831847569 0 0 0 0 9.8124396345210698 -88.498855643180832 0 -88.498855643180832 -5.6537371684680693 0 0 0 0 -46.503679460882267 -89.071454008028923 0 -89.071454008028923 -5.042436777354169 0 0 0 0 -0.14274660329647304 -126.37396831746173 0 -126.37396831746173 -172.86592818909412 0 0 0 0 14.628473182612652 -105.38290222542582 0 -105.38290222542582 -3.7752350191386199 0 0 0 0 0.011832734740892192 -147.25750874177629 0 -147.25750874177629 135.35489591196892 0 0 0 0 16.181284309161128 -95.438459742470513 0 -95.438459742470513 191.56100175465326 0 0 0 0 -14.19509717663459 -124.50156142136211 0 -124.50156142136211 237.70291180587083 0 0 0 0 17.353632749242024 -115.15987674142707 0 -115.15987674142707 148.89567469059693 0 0 0 0 1.8176248228955956 -148.33830376053083 0 -148.33830376053083 198.0061450150879 0 0 0 0 -3.6533755240223087 -1.2301581500991636 0 -1.2301581500991636 2.4319571586642539 0 0 0 0 1.9417838172448683 -120.2607829820081 0 -120.2607829820081 240.58604871527314 0 0 0 0 16.587556150483579 -58.636993264270131 0 -58.636993264270131 195.81948428585565 0 0 0 0 21.233773836644104 -116.71150999669226 0 -116.71150999669226 219.17158664015005 0 0 0 0 16.599997867549973 -48.408680742289107 0 -48.408680742289107 277.38500724390542 0 0 0 0 1.2765145890580243 -75.848610085547534 0 -75.848610085547534 424.33576229744358 0 0 0 0 22.412131326968847 -137.16543987673867 0 -137.16543987673867 252.60382265096268 0 0 0 0 -4.9535928380864789 -130.78264978168227 0 -130.78264978168227 336.15119758520359 0 0 0 0 0.080195437492875499 -59.033013188333825 0 -59.033013188333825 239.5604957136311 0 0 0 0 19.014418620119613 -101.08255190841373 0 -101.08255190841373 242.26526727804958 0 0 0 0 0.015535862683464075 -11.846094347803501 0 -11.846094347803501 -18.932209391598008 0 0 0 0 0.64810212728116312 -9.3015732094677332 0 -9.3015732094677332 -14.054772747324932 0 0 0 0 -5.3369465265459439 -3.6655608062219471 0 -3.6655608062219471 0.93507595235303143 0 0 0 0 -1.208693227148288 -1.5134601217087766 0 -1.5134601217087766 -2.4663178750148766 0 0 0 0 -16.42000030995041 171.61574381680111 0 171.61574381680111 -590.17514735770055 0 0 0 0 -66.538399979837777 103.81109158335357 0 103.81109158335357 -296.98137083122492 0 0 0 0 -35.129854040689679 -21.983966052138385 0 -21.983966052138385 -19.028864787963244 0 0 0 0 0.50820382694106314 0.33774095842762364 0 0.33774095842762364 -1.2973854764632451 0 0 0 0 0.056942816681839759 33.303126495370179 0 33.303126495370179 -618.25325071173575 0 0 0 0 -31.244483976591255 -128.40228320653341 0 -128.40228320653341 -539.96133657051178 0 0 0 0 -163.79293808409602 -38.355303573505807 0 -38.355303573505807 -348.53650999213096 0 0 0 0 -22.155829124632874 -41.168622338323985 0 -41.168622338323985 -348.54536099388315 0 0 0 0 -22.491626670930998 -151.35676510862825 0 -151.35676510862825 -256.31687445402349 0 0 0 0 6.229715183544613 -39.536683455073216 0 -39.536683455073216 -407.30361956304387 0 0 0 0 -3.7592147654409018 -84.58133993974991 0 -84.58133993974991 -262.27322216334869 0 0 0 0 37.501431337399481 -104.05140667011938 0 -104.05140667011938 -276.1007322419664 0 0 0 0 -23.52696381034184 -88.101434967791647 0 -88.101434967791647 -136.41506911546639 0 0 0 0 53.78540311353936 -57.63989984642194 0 -57.63989984642194 -403.65113623353795 0 0 0 0 18.460698836493975 71.456238488397503 0 71.456238488397503 -415.62487126903693 0 0 0 0 36.242118133770418 12.923218512671156 0 12.923218512671156 -276.34559569732664 0 0 0 0 56.559754892379715 -0.63025314731658 0 -0.63025314731658 -326.04847667545891 0 0 0 0 38.890424646975589 -65.778058267986125 0 -65.778058267986125 -248.3968844603678 0 0 0 0 17.019560887402804 -114.5675202142429 0 -114.5675202142429 -138.96098412997708 0 0 0 0 76.954185155958839 -68.809183375995417 0 -68.809183375995417 -261.50279353273345 0 0 0 0 74.655476709531285 -119.7617433431185 0 -119.7617433431185 -107.17122172645395 0 0 0 0 87.409746341652863 -88.21410281190947 0 -88.21410281190947 -169.96847010446254 0 0 0 0 64.112836906616394 -96.407633615238865 0 -96.407633615238865 -171.00876508878355 0 0 0 0 87.00560093225431 -83.699803126402912 0 -83.699803126402912 -187.85664992490638 0 0 0 0 76.934399649877378 -50.207524761902278 0 -50.207524761902278 -263.36728668237265 0 0 0 0 67.870928670163266 -78.839379642778113 0 -78.839379642778113 -179.41475136730514 0 0 0 0 58.396129529428435 -35.702475456082539 0 -35.702475456082539 -230.90257314664086 0 0 0 0 38.223832625211799 -3.7630674151050698 0 -3.7630674151050698 -247.20206591591705 0 0 0 0 52.422973598006138 -18.732673392653396 0 -18.732673392653396 -246.06799571249212 0 0 0 0 14.377570693613961 7.1281805718062969 0 7.1281805718062969 -249.72280765404503 0 0 0 0 9.0476088244649873 13.564399997841974 0 13.564399997841974 -242.78690960867607 0 0 0 0 35.70700244843465 7.5694417926033566 0 7.5694417926033566 -273.697793478932 0 0 0 0 1.6707453278126323 0.11175293545852583 0 0.11175293545852583 -2.1143876716356962 0 0 0 0 24.334437325467661 37.419646549806657 0 37.419646549806657 -281.27286689737593 0 0 0 0 -30.81511711076746 50.903077892409783 0 50.903077892409783 -220.4355586000745 0 0 0 0 -9.0346716401727463 -16.394695213082741 0 -16.394695213082741 10.46121066698106 0 0 0 0 1.507965621403855 -15.91641688099844 0 -15.91641688099844 -27.628768046711457 0 0 0 0 -0.082489073522310719 -0.6392153320126468 0 -0.6392153320126468 -2.2504789966002656 0 0 0 0 -3.0756762171194865 -5.2405190166830184 0 -5.2405190166830184 -6.2184989794373564 0 0 0 0 -0.46791981507072933 -1.4619530396734781 0 -1.4619530396734781 -2.4037168847316579 0 0 0 0 1.0599481160097639 -8.5616724703577347 0 -8.5616724703577347 -16.419118179343968 0 0 0 0 -1.2362530741968669 -7.9714405001313526 0 -7.9714405001313526 -7.4087909830771679 0 0 0 0 0.8340519473215231 -1.8446188836734763 0 -1.8446188836734763 -2.5751320385290342 0 0 0 0 -6.4085751950115082 -25.841389160650579 0 -25.841389160650579 24.473757183870475 0 0 0 0 40.679100055633171 9.7600850929029548 0 9.7600850929029548 -64.296111080002447 0 0 0 0 29.317260131278545 4.7787602145447181 0 4.7787602145447181 -11.725041365742072 0 0 0 0 1.5410777464298917 0.22322433229132344 0 0.22322433229132344 -0.1498007839063451 0 0 0 0 -11.504178901392152 -9.0882130761783628 0 -9.0882130761783628 -21.556557523310403 0 0 0 0 28.250092425430921 -0.27832992857111094 0 -0.27832992857111094 -29.611009988715523 0 0 0 0 -12.227197398089629 14.189627302082954 0 14.189627302082954 -45.738309322789064 0 0 0 0 -15.380979371040667 7.9365524423328679 0 7.9365524423328679 -36.413198449430638 0 0 0 0 1.8072510632700869 -22.640158891137617 0 -22.640158891137617 -47.734124280786546 0 0 0 0 -10.650638630640515 8.1494292517497797 0 8.1494292517497797 -28.816422398896975 0 0 0 0 0.69886980034056023 -0.17283147220064521 0 -0.17283147220064521 -0.18257611890600156 0 0 0 0 14.387417511028616 -6.9726429033880777 0 -6.9726429033880777 -38.743249895462213 0 0 0 0 10.707437397653848 7.4213502400889411 0 7.4213502400889411 -63.953764422969471 0 0 0 0 32.957268221063714 -71.830612353465767 0 -71.830612353465767 -123.63463663051857 0 0 0 0 46.182054053035245 -59.19294327870557 0 -59.19294327870557 -169.483502674997 0 0 0 0 55.509053283076355 -76.870880965941979 0 -76.870880965941979 -146.71182717290503 0 0 0 0 67.50940030039601 -44.429090137526373 0 -44.429090137526373 -122.9611200033869 0 0 0 0 15.671146180491633 -4.1263734705535171 0 -4.1263734705535171 -226.99683386626202 0 0 0 0 37.499896476580943 -36.65583591060431 0 -36.65583591060431 -195.39045339536096 0 0 0 0 27.696280566382484 -58.234457324373579 0 -58.234457324373579 -140.53934864435178 0 0 0 0 60.261830635949082 -81.923159186078465 0 -81.923159186078465 -168.75012708242866 0 0 0 0 79.790589396943687 -70.9110782918724 0 -70.9110782918724 -214.91293057303346 0 0 0 0 92.710764499792276 -92.499420226710754 0 -92.499420226710754 -166.41669419809227 0 0 0 0 77.547585789783625 -99.430928939060323 0 -99.430928939060323 -109.51062273637945 0 0 0 0 82.858532903204377 -121.7390563673689 0 -121.7390563673689 -143.32606828482858 0 0 0 0 82.862548913601131 -76.474738751742734 0 -76.474738751742734 -98.021493803056728 0 0 0 0 50.298317129960196 -101.80904716610348 0 -101.80904716610348 -152.54382363462537 0 0 0 0 50.143884610961322 -101.39479990343807 0 -101.39479990343807 -153.60213740112522 0 0 0 0 72.291652982124106 -100.82571623379272 0 -100.82571623379272 -167.58372706949376 0 0 0 0 55.260371835694968 -84.449529309753416 0 -84.449529309753416 -180.87608622221069 0 0 0 0 51.220239034073984 -96.695194864259747 0 -96.695194864259747 -151.90403870078262 0 0 0 0 18.292417768025189 -127.64867239188197 0 -127.64867239188197 -140.15051147570739 0 0 0 0 -17.208712813306192 -108.97626536559164 0 -108.97626536559164 -128.45339631448678 0 0 0 0 -92.73448687166092 -177.51731705640759 0 -177.51731705640759 -186.83628154138933 0 0 0 0 -19.294066634069168 -119.1243950455945 0 -119.1243950455945 -142.75655676745919 0 0 0 0 -54.319427943461051 -99.607343308276995 0 -99.607343308276995 -115.49590090586116 0 0 0 0 -123.58482549328073 -126.71914340841431 0 -126.71914340841431 -112.71131979982874 0 0 0 0 -13.727088002629991 -93.037647735610221 0 -93.037647735610221 -114.47726194132974 0 0 0 0 -49.263654367136041 -50.721218824633979 0 -50.721218824633979 -11.557475954602523 0 0 0 0 -101.8617031144704 -105.63046907006492 0 -105.63046907006492 -90.670210695828246 0 0 0 0 4.9717509814116596 -5.1346565219487772 0 -5.1346565219487772 4.339610255501853 0 0 0 0 -5.7757387038436718 -37.487894600708387 0 -37.487894600708387 -52.397602701910728 0 0 0 0 -13.551982987379233 -81.308997959187764 0 -81.308997959187764 -139.35695389279863 0 0 0 0 -3.3814877662025538 -83.500109908372906 0 -83.500109908372906 -51.50770231658889 0 0 0 0 6.7251519435711593 -6.6368199264298973 0 -6.6368199264298973 6.4500619035121076 0 0 0 0 -35.509772852437891 -23.378826813575415 0 -23.378826813575415 -2.1304928251838646 0 0 0 0 -39.788737938155464 -29.373255060972042 0 -29.373255060972042 2.5642640470960032 0 0 0 0 -24.297446248324377 -17.78796614632347 0 -17.78796614632347 2.4787922205059658 0 0 0 0 -14.233735873793194 -10.707064096343856 0 -10.707064096343856 3.5907950268935167 0 0 0 0 -5.9100741772690526 -9.4638856594792742 0 -9.4638856594792742 3.6252660804329935 0 0 0 0 -35.046855345686708 -2.2416337032800584 0 -2.2416337032800584 15.588458215885112 0 0 0 0 -37.000614783141828 -8.8288812383298136 0 -8.8288812383298136 18.927363769147632 0 0 0 0 -19.927170559907609 0.43390580603227136 0 0.43390580603227136 11.145132933126661 0 0 0 0 -27.714300433774042 5.0924162212386364 0 5.0924162212386364 9.2406081759841072 0 0 0 0 -12.175038055143887 -0.78841452213873708 0 -0.78841452213873708 -0.78504167202868302 0 0 0 0 -13.580712874017991 5.3197638390183783 0 5.3197638390183783 -3.598836450851195 0 0 0 0 -3.8653294706546149 -5.7530707913970218 0 -5.7530707913970218 2.2257926885777124 0 0 0 0 -6.5593860090382314 -3.6853160353223213 0 -3.6853160353223213 -1.4987861910665004 0 0 0 0 -8.6331687055562725 -7.7344767520885398 0 -7.7344767520885398 7.919016155467034 0 0 0 0 -21.213301542859426 -3.7287891470307386 0 -3.7287891470307386 7.7974789295294613 0 0 0 0 -2.5036292325357863 -6.5689738127957753 0 -6.5689738127957753 -0.11536815884210228 0 0 0 0 -5.4536516919088172 -16.998831258603786 0 -16.998831258603786 2.2654471717178239 0 0 0 0 -5.6101072772637046 -5.7761784171972561 0 -5.7761784171972561 -1.1809126295235863 0 0 0 0 -2.6248124479952821 -4.4619404738527919 0 -4.4619404738527919 0.47895052043077158 0 0 0 0 -3.8512003189916868 -5.7194555660230435 0 -5.7194555660230435 -0.61605576974307041 0 0 0 0 -3.5325478115091755 -4.5563531756133671 0 -4.5563531756133671 0.33086164077076319 0 0 0 0 0.39323198573801221 -1.6189588562902912 0 -1.6189588562902912 -0.93192897732073732 0 0 0 0 -2.623546499386407 -7.6156344014589763 0 -7.6156344014589763 -2.7864805481131043 0 0 0 0 13.271916680831055 -3.0567593724008475 0 -3.0567593724008475 -8.7653235978724524 0 0 0 0 3.921713435418269 -24.745023118048351 0 -24.745023118048351 4.9878176919010002 0 0 0 0 6.975879710058507 -7.1236161951651411 0 -7.1236161951651411 -7.9372643636515932 0 0 0 0 2.9969018205379996 -5.433497157797615 0 -5.433497157797615 -8.0276444069006807 0 0 0 0 -13.435179218888152 -17.644020156706574 0 -17.644020156706574 2.5765677952570059 0 0 0 0 7.1874692878664455 -9.3589172849638054 0 -9.3589172849638054 6.5516988770166371 0 0 0 0 4.3543531462619285 -18.529512953975427 0 -18.529512953975427 -21.190691226935087 0 0 0 0 1.4132554975585663 -1.6521459064542796 0 -1.6521459064542796 -25.277078340452135 0 0 0 0 7.1709719787086215 -3.5258994052173875 0 -3.5258994052173875 -12.850221667547885 0 0 0 0 17.965568157824237 -19.928887197753284 0 -19.928887197753284 -19.473086473026342 0 0 0 0 6.7807451273911283 -9.2218759269198927 0 -9.2218759269198927 -26.151681313845529 0 0 0 0 8.1478040011243138 -8.9951934579494264 0 -8.9951934579494264 -4.9611863193104 0 0 0 0 3.5822398155513184 -3.7173722495809329 0 -3.7173722495809329 -9.1382175159816086 0 0 0 0 19.519553895160243 -15.514414319442039 0 -15.514414319442039 -8.3631088229121815 0 0 0 0 5.7413702642419047 -6.0036945023742909 0 -6.0036945023742909 -1.05117979815018 0 0 0 0 -6.3705678388741944 -10.622954533351731 0 -10.622954533351731 -2.0759395660334121 0 0 0 0 -4.6963601036150067 -12.115025584287196 0 -12.115025584287196 -9.2719987347040842 0 0 0 0 6.5057830651912809 -14.374016377822727 0 -14.374016377822727 -14.83385388320221 0 0 0 0 9.652799563019471 -5.5638884879699617 0 -5.5638884879699617 -6.4324585914164345 0 0 0 0 43.234840246230306 10.205429002589426 0 10.205429002589426 -5.0688103086094998 0 0 0 0 0.28202356766690428 -0.12205535556664771 0 -0.12205535556664771 0.29250246753687037 0 0 0 0 -3.6998190899729337 -15.304078741171089 0 -15.304078741171089 20.059324965524866 0 0 0 0 13.331474417661411 -29.148555700106044 0 -29.148555700106044 23.955157584259723 0 0 0 0 11.963077621616321 -5.0729416633103028 0 -5.0729416633103028 -11.060418670646413 0 0 0 0 -13.696425161153911 -30.414084222153861 0 -30.414084222153861 -0.64541643433585705 0 0 0 0 5.9138172906209761 -4.0721206902418494 0 -4.0721206902418494 -0.59021601274476865 0 0 0 0 -7.6877301900876773 -16.367764349796744 0 -16.367764349796744 -5.5514050890506041 0 0 0 0 -1.8160248421208962 -5.8634224008983438 0 -5.8634224008983438 -11.268336216294529 0 0 0 0 -0.007411385504383361 -10.253173271702053 0 -10.253173271702053 -8.2917915481052944 0 0 0 0 4.3634083683614122 -3.8049099045970891 0 -3.8049099045970891 -2.1141216663295772 0 0 0 0 -0.00057203115102311131 -12.41609579183887 0 -12.41609579183887 -6.8068890168815415 0 0 0 0 -3.5656684525602031 -9.69618768849341 0 -9.69618768849341 -8.2579192887592114 0 0 0 0 0.0054390504446928389 -13.329220021016226 0 -13.329220021016226 1.8664882485281851 0 0 0 0 -1.6240738049543779 -9.113672396758318 0 -9.113672396758318 -2.8196849570776976 0 0 0 0 -0.76885844790376723 -14.88818644929961 0 -14.88818644929961 -7.9609758666010748 0 0 0 0 -2.5926817239887896 -6.3196583871490475 0 -6.3196583871490475 -0.93084997413552628 0 0 0 0 -5.2736320639105543 -6.9570219566485321 0 -6.9570219566485321 18.586018337291534 0 0 0 0 0.24806965398157388 0.48966446685682641 0 0.48966446685682641 -0.071064258665511915 0 0 0 0 -5.3677671391997137 0.91668116875462147 0 0.91668116875462147 21.773088409961019 0 0 0 0 2.8492949021474487 6.0438467600115473 0 6.0438467600115473 11.687498770378625 0 0 0 0 0.98425151811014189 -1.5904191301282999 0 -1.5904191301282999 2.7054155515622611 0 0 0 0 4.0766561598120461 9.5457776948715036 0 9.5457776948715036 21.391460161848045 0 0 0 0 -4.7272448074336353 -13.007730497042985 0 -13.007730497042985 -0.099920395814478979 0 0 0 0 0.5716284048646969 -0.68449325372485248 0 -0.68449325372485248 0.77550991912944056 0 0 0 0 -3.945247061583359 3.5539473773287682 0 3.5539473773287682 28.547951274827597 0 0 0 0 -7.3829466297083854 4.5249645980757123 0 4.5249645980757123 41.342447705665109 0 0 0 0 -2.8257189880478109 5.4241809649111019 0 5.4241809649111019 28.711353307665377 0 0 0 0 -9.5198032774642343 -2.6768478479834812 0 -2.6768478479834812 21.419846952239368 0 0 0 0 -9.033728782687831 2.6796806215743345 0 2.6796806215743345 23.420879793243785 0 0 0 0 -19.21384385442957 -9.8751892865213335 0 -9.8751892865213335 25.132986864287886 0 0 0 0 -10.999496540182463 1.1053748344800169 0 1.1053748344800169 23.196501789620015 0 0 0 0 -8.5564283087223885 -4.1637475317484132 0 -4.1637475317484132 17.786557613220793 0 0 0 0 -2.503810852760239 1.9189758641657875 0 1.9189758641657875 23.694716435486043 0 0 0 0 -5.6078055854636659 2.7365402711918705 0 2.7365402711918705 20.959178814598999 0 0 0 0 -7.7708268028472958 -1.3947020584510028 0 -1.3947020584510028 24.431086470170158 0 0 0 0 -7.7592919254893786 -1.2427996268197603 0 -1.2427996268197603 16.862604123856727 0 0 0 0 -2.5005561408252106 -0.69221037215265824 0 -0.69221037215265824 14.632271870064869 0 0 0 0 -4.6161377326207003 -4.7964009984261793 0 -4.7964009984261793 12.749685714059524 0 0 0 0 -4.8150954029679269 -6.418316742292518 0 -6.418316742292518 8.9006179307471029 0 0 0 0 -2.7784370984554698 -5.1015628709701559 0 -5.1015628709701559 4.5802600765928219 0 0 0 0 -7.3635327355186746 -6.6273844778079365 0 -6.6273844778079365 16.149137076447914 0 0 0 0 -7.02416227973481 -9.4196176942114107 0 -9.4196176942114107 34.317064168942125 0 0 0 0 -3.2078345610734686 -8.3982233345059285 0 -8.3982233345059285 -3.9681364507723629 0 0 0 0 -0.2741666663569049 -4.8405375262182133 0 -4.8405375262182133 -1.0052302499352663 0 0 0 0 0.40378408838023461 -12.163431437597808 0 -12.163431437597808 5.1266686799590389 0 0 0 0 -2.1253129010556222 -9.2932617593189661 0 -9.2932617593189661 0.38165894077428675 0 0 0 0 -2.9798198429125478 -5.0640763569126648 0 -5.0640763569126648 -0.53824277918283769 0 0 0 0 -0.41953599096540728 -1.2296955672516425 0 -1.2296955672516425 1.7962046566954282 0 0 0 0 -0.47495244146557525 -2.3008595358260209 0 -2.3008595358260209 -2.6077117316344811 0 0 0 0 0.86000582918364188 -2.5379817199376085 0 -2.5379817199376085 1.8125549655397961 0 0 0 0 -30.145959665449482 -27.742349587781064 0 -27.742349587781064 -33.920906865088 0 0 0 0 -28.063732651095052 -35.983513977509574 0 -35.983513977509574 -36.328996361626196 0 0 0 0 -21.394834994818666 -10.954988251904069 0 -10.954988251904069 16.775967325229431 0 0 0 0 -1.4220087286845171 0.23797293716291534 0 0.23797293716291534 0.062512027369603373 0 0 0 0 -2.8622675312963111 2.8851535570938722 0 2.8851535570938722 10.826031404601963 0 0 0 0 1.2707876237238445 -3.1953587180078991 0 -3.1953587180078991 -1.6481741487656976 0 0 0 0 -28.76088836366398 -35.438272366762249 0 -35.438272366762249 -36.397393671250029 0 0 0 0 -0.13209462999589761 -0.02414525854081262 0 -0.02414525854081262 0.66464074677893237 0 0 0 0 1.2441120732258888 -2.7180104865027168 0 -2.7180104865027168 3.9077757316905846 0 0 0 0 -3.436817354257073 -6.2870054358811558 0 -6.2870054358811558 6.6714747174137301 0 0 0 0 -9.6678111940109375 -5.6363184537631241 0 -5.6363184537631241 10.392891744158987 0 0 0 0 -1.8813293727246219 -3.5823201831881306 0 -3.5823201831881306 4.1137011334431008 0 0 0 0 -5.3755828175326315 -11.472536179870986 0 -11.472536179870986 19.727116733844014 0 0 0 0 1.4474444294173736 -11.857641740614781 0 -11.857641740614781 -2.9898351857264061 0 0 0 0 0.081585281557636335 9.6821285378355242 0 9.6821285378355242 8.5176014522094192 0 0 0 0 -6.7188839347963949 10.073735602847592 0 10.073735602847592 31.300087575411453 0 0 0 0 30.390900296864857 -3.6331627410590954 0 -3.6331627410590954 -25.09092524947846 0 0 0 0 0.53743765307717695 0.32573636403787987 0 0.32573636403787987 -0.47083381799680879 0 0 0 0 -22.951134529228511 -50.841906646483039 0 -50.841906646483039 -120.67794211883302 0 0 0 0 -19.297263364747778 -32.298814443821357 0 -32.298814443821357 -79.194350005011074 0 0 0 0 -23.025712642029248 -23.714532629366659 0 -23.714532629366659 -47.620995102755842 0 0 0 0 -31.718339492821542 -42.082685590991787 0 -42.082685590991787 -50.069987576138374 0 0 0 0 -56.557933532960305 -73.866476831479304 0 -73.866476831479304 -77.126798705628971 0 0 0 0 -45.71631613108184 -59.474077474103979 0 -59.474077474103979 -57.565430344880951 0 0 0 0 -48.240002919393191 -53.129206206332128 0 -53.129206206332128 -52.847967052646709 0 0 0 0 -59.465626872040048 -57.294814865956596 0 -57.294814865956596 -56.152327458847139 0 0 0 0 -37.746828136288968 -93.738232556866933 0 -93.738232556866933 -135.84141699955808 0 0 0 0 -49.893744531393168 -60.515869053385359 0 -60.515869053385359 -55.194885825221718 0 0 0 0 -83.90458145161756 -94.244550456230172 0 -94.244550456230172 -81.576773476206654 0 0 0 0 -71.171381378633669 -35.773643863960388 0 -35.773643863960388 -58.86131069205112 0 0 0 0 -16.186963633956566 -30.674278016950552 0 -30.674278016950552 -33.232724607001728 0 0 0 0 -31.256428952543502 -34.905102935907053 0 -34.905102935907053 -48.957326612438919 0 0 0 0 -25.922998283565903 -58.647003013377798 0 -58.647003013377798 -61.316139960670625 0 0 0 0 -27.579648386730696 -60.877332342052796 0 -60.877332342052796 -23.055171367871935 0 0 0 0 -28.623024933369379 -64.373320675648756 0 -64.373320675648756 -75.974062298209901 0 0 0 0 -27.776874184154622 -53.053153367650793 0 -53.053153367650793 -24.898657762549192 0 0 0 0 -28.233761107150713 -1.3257918701183371 0 -1.3257918701183371 40.751495592941865 0 0 0 0 -0.35367293581868608 0.33134710664333511 0 0.33134710664333511 -0.29406112552984887 0 0 0 0 -11.247776644584519 -30.442840910486666 0 -30.442840910486666 -4.4144314890031637 0 0 0 0 -70.797314082876255 -70.524658790074682 0 -70.524658790074682 -20.811181489833871 0 0 0 0 -58.144621311268565 -22.698741902515394 0 -22.698741902515394 26.44566376804687 0 0 0 0 -2.6153001142374706 -9.8300706577356323 0 -9.8300706577356323 1.3245469665926066 0 0 0 0 -105.24459365164648 -170.05182927031774 0 -170.05182927031774 -101.42427871470682 0 0 0 0 -135.57927554187881 -151.60713063631374 0 -151.60713063631374 -102.6949243757465 0 0 0 0 -17.283866439067424 -47.446382181375157 0 -47.446382181375157 -47.636792564250754 0 0 0 0 -25.294848517475657 -52.633875229984142 0 -52.633875229984142 -34.769724464910723 0 0 0 0 2.8002470859739006 -2.951184526019194 0 -2.951184526019194 2.197202489005214 0 0 0 0 -39.986297791567267 -33.170138752794628 0 -33.170138752794628 -10.02581007799381 0 0 0 0 -23.78738085914847 -56.926223434913481 0 -56.926223434913481 -9.243963670123776 0 0 0 0 -41.091129235405788 -41.4290846302506 0 -41.4290846302506 18.122418291424765 0 0 0 0 -23.014540652206051 -44.334806809004476 0 -44.334806809004476 -34.749795981555607 0 0 0 0 -29.398616367081559 -37.751619573364223 0 -37.751619573364223 15.724465056008512 0 0 0 0 -4.5554920268909882 -12.386646544256564 0 -12.386646544256564 2.1104708224684146 0 0 0 0 -24.309398527650046 -16.14462180186456 0 -16.14462180186456 3.3866611135526909 0 0 0 0 -20.928264063961251 -41.333165464160629 0 -41.333165464160629 -2.3608801434074849 0 0 0 0 -30.282221837265752 -32.273027783377984 0 -32.273027783377984 46.701140796899836 0 0 0 0 7.7867775827362493 -62.745036860668733 0 -62.745036860668733 11.93798532623714 0 0 0 0 70.665622788539622 -42.404905915741438 0 -42.404905915741438 9.8127674626739463 0 0 0 0 1.5690933601963479 -13.176116641535373 0 -13.176116641535373 -0.29268414753005345 0 0 0 0 -15.143235794746943 20.927437440490849 0 20.927437440490849 105.07543434625586 0 0 0 0 -10.667239325995979 -69.663492296339882 0 -69.663492296339882 91.684472522597389 0 0 0 0 -35.631042094564691 -12.052781299746584 0 -12.052781299746584 53.942102979968695 0 0 0 0 65.553593515647663 4.4572866459325269 0 4.4572866459325269 24.811896649394839 0 0 0 0 -39.220252670684204 -10.867649682672891 0 -10.867649682672891 17.869410487768356 0 0 0 0 -44.920292476866962 -29.218567170201823 0 -29.218567170201823 17.715581550559364 0 0 0 0 -41.215836834651782 -5.8617670481362438 0 -5.8617670481362438 39.895100200519551 0 0 0 0 -45.763287850737584 -25.059144066605825 0 -25.059144066605825 42.492435259797276 0 0 0 0 -36.928300468830457 -4.7247146421271964 0 -4.7247146421271964 34.34894805476506 0 0 0 0 -40.671636462117021 -3.1567842908852981 0 -3.1567842908852981 39.610359612007414 0 0 0 0 -36.479276754937473 2.2209654440518989 0 2.2209654440518989 24.52369672824716 0 0 0 0 -42.680104308346927 -9.8872668402118506 0 -9.8872668402118506 31.158859747318274 0 0 0 0 -41.767455893941587 0.66401861871509027 0 0.66401861871509027 26.913913796503493 0 0 0 0 -40.805264957902182 10.260962860224936 0 10.260962860224936 18.367757975292989 0 0 0 0 -38.413722499532014 5.7134188290392558 0 5.7134188290392558 13.239798938006061 0 0 0 0 -29.449978819679018 10.846282240966957 0 10.846282240966957 6.2728487979311467 0 0 0 0 -28.509316562573076 2.2833355582949935 0 2.2833355582949935 9.3631816205988798 0 0 0 0 -39.930380533214702 12.370064634287701 0 12.370064634287701 31.835685980169274 0 0 0 0 -42.97891885498229 -4.404173506058827 0 -4.404173506058827 7.4759075520269107 0 0 0 0 -43.000663387106584 13.088555635157753 0 13.088555635157753 8.6662723403733253 0 0 0 0 -10.484721725209965 14.189738387833131 0 14.189738387833131 -23.028003018909658 0 0 0 0 -42.234918047755855 3.7450440318370966 0 3.7450440318370966 -5.4967721538341721 0 0 0 0 -43.922085841069929 16.379312995087275 0 16.379312995087275 4.1579259604036451 0 0 0 0 -5.4034827398284051 -25.532152348630405 0 -25.532152348630405 12.251743222997902 0 0 0 0 -5.1483985630220559 -12.218921089650394 0 -12.218921089650394 -4.5181478261833945 0 0 0 0 -17.125973191192315 20.211751010387161 0 20.211751010387161 36.91416009901036 0 0 0 0 -27.601341861497076 -16.146580078013017 0 -16.146580078013017 -33.428219375357003 0 0 0 0 -53.649470073631164 4.38368819779771 0 4.38368819779771 1.1668200632584558 0 0 0 0 -37.261693589716742 -38.103984484728244 0 -38.103984484728244 -24.317644626553374 0 0 0 0 4.5976970084057029 -56.878332279800816 0 -56.878332279800816 -19.738630616751379 0 0 0 0 -2.3008520995717845 -37.398738880979636 0 -37.398738880979636 -37.686005959768863 0 0 0 0 0.79544122943480033 -50.285874953385701 0 -50.285874953385701 -40.030517342863277 0 0 0 0 -6.6432620703856173 -49.267265763063051 0 -49.267265763063051 -4.6678065279866132 0 0 0 0 -9.0974928169835039 -40.222981784923377 0 -40.222981784923377 24.168223169935118 0 0 0 0 19.495474869768259 -66.032503360146279 0 -66.032503360146279 90.166664207846225 0 0 0 0 -0.20579015679322765 -26.773297390323023 0 -26.773297390323023 19.4399085610778 0 0 0 0 -5.8884500425540409 -43.078589111281644 0 -43.078589111281644 28.6066068714008 0 0 0 0 11.506288719192526 38.615340101698621 0 38.615340101698621 101.30868692838067 0 0 0 0 -19.154468688992893 -18.830612231886334 0 -18.830612231886334 9.2078965454138597 0 0 0 0 -19.577107867049563 -19.085819523637838 0 -19.085819523637838 9.8631623215587751 0 0 0 0 -21.148211946039737 -11.334605925356755 0 -11.334605925356755 40.934875257332351 0 0 0 0 -20.340117500390988 -6.5433583292688127 0 -6.5433583292688127 53.909480368281947 0 0 0 0 -19.221157182217212 -31.804072555236417 0 -31.804072555236417 20.626542619455904 0 0 0 0 -25.675992337612115 -38.847473232084667 0 -38.847473232084667 6.4654375360605627 0 0 0 0 -17.968857707110146 -45.688123174976681 0 -45.688123174976681 -7.6560421837294541 0 0 0 0 -14.956736379064751 -32.71328515208188 0 -32.71328515208188 -6.8084986355397632 0 0 0 0 -13.452655020873863 -35.014865453039874 0 -35.014865453039874 -20.124004242281899 0 0 0 0 -18.177182800721312 -38.540228367704458 0 -38.540228367704458 -28.658680339593957 0 0 0 0 -7.201911459389521 -42.32550719857386 0 -42.32550719857386 -56.540249622883948 0 0 0 0 -26.329996650667454 -33.220998269768643 0 -33.220998269768643 -30.616454581579319 0 0 0 0 -11.764315375355636 -31.626635074044998 0 -31.626635074044998 -57.198408552436376 0 0 0 0 1.7271842697103139 -0.99710794519292989 0 -0.99710794519292989 0.77630522339461194 0 0 0 0 -1.793172696909096 4.0626914904169098 0 4.0626914904169098 6.9328998530054378 0 0 0 0 -12.694541856935757 -5.1693953384474298 0 -5.1693953384474298 7.1461731058364109 0 0 0 0 -1.8448978005480114 -8.7634910388656309 0 -8.7634910388656309 -0.46303781640017405 0 0 0 0 -21.378105951983343 -20.021308320268417 0 -20.021308320268417 7.3817109796787008 0 0 0 0 6.2824564571582151 -7.3630583216103105 0 -7.3630583216103105 0.24173139570166668 0 0 0 0 30.224630273643925 13.69459142439382 0 13.69459142439382 -7.0660989743580558 0 0 0 0 -0.48045034104472961 6.3125733328628826 0 6.3125733328628826 2.4838051486476616 0 0 0 0 18.423180790123297 -21.114683148872246 0 -21.114683148872246 11.601891320706727 0 0 0 0 -2.4386121467401267 3.0496052295430189 0 3.0496052295430189 34.401142908625843 0 0 0 0 0.51166310375207047 -0.4104267891826936 0 -0.4104267891826936 0.23121186930234394 0 0 0 0 -35.254269582907 -10.858660916505869 0 -10.858660916505869 14.915183222295582 0 0 0 0 -56.457146949227536 -44.727032100241104 0 -44.727032100241104 -4.3474989118276426 0 0 0 0 18.853160950429583 -31.214987984565255 0 -31.214987984565255 -90.633319555434355 0 0 0 0 13.380299150408973 -19.125787650678831 0 -19.125787650678831 -53.013054425357041 0 0 0 0 -21.963173795692455 -62.305512817112231 0 -62.305512817112231 -65.823462174963424 0 0 0 0 -40.798512375355131 -22.120932717127744 0 -22.120932717127744 -40.132831315816929 0 0 0 0 -60.426429081508104 -40.19744825523594 0 -40.19744825523594 -28.823063416650257 0 0 0 0 -54.843919965593159 -34.420410240116325 0 -34.420410240116325 -31.984606146079955 0 0 0 0 11.933063902148206 -30.030562090594231 0 -30.030562090594231 -89.639810215100908 0 0 0 0 -25.025581575144315 -114.58022802899814 0 -114.58022802899814 -130.84342946124889 0 0 0 0 -34.503966228265199 -37.268100850061273 0 -37.268100850061273 -88.943977208649812 0 0 0 0 -0.22537141730770216 0.2402955425840787 0 0.2402955425840787 -0.55293957325034881 0 0 0 0 -20.704234427646952 0.38605037610523141 0 0.38605037610523141 -9.8597248203795971 0 0 0 0 -46.11508433322706 19.266256370777683 0 19.266256370777683 -8.7927188302383001 0 0 0 0 -2.4847625440847736 -2.358458732456258 0 -2.358458732456258 -1.3148570385649876 0 0 0 0 -1.1201215046894966 -0.78345504198010119 0 -0.78345504198010119 -0.5387753911944877 0 0 0 0 -50.808075352964806 15.445769547265627 0 15.445769547265627 -11.474531858593309 0 0 0 0 -117.34098029324014 -2.0238951697574521 0 -2.0238951697574521 -8.6711642741831838 0 0 0 0 -42.202638644019316 5.7041020574943104 0 5.7041020574943104 -10.879959176871125 0 0 0 0 -189.49951192733351 -84.864196759584047 0 -84.864196759584047 -43.058572309492774 0 0 0 0 -176.51096717368273 30.89493599625257 0 30.89493599625257 -13.228637345827792 0 0 0 0 -1.1401355882009128 -0.73597853326189444 0 -0.73597853326189444 -0.53068647681544689 0 0 0 0 -43.53179585644466 34.694655637784763 0 34.694655637784763 -19.542783886308825 0 0 0 0 -22.611499918708432 -20.019714302017974 0 -20.019714302017974 -4.5195922072998655 0 0 0 0 -0.92437975444772746 -13.434389754469521 0 -13.434389754469521 -8.9068093339292318 0 0 0 0 -6.0492203237899957 -29.52703311011669 0 -29.52703311011669 -45.306429265108818 0 0 0 0 -115.02421005487668 -90.421528168732493 0 -90.421528168732493 -9.8497133171968017 0 0 0 0 -26.627971401763261 -91.786162788481533 0 -91.786162788481533 -143.34971707271689 0 0 0 0 -105.5734743220799 63.685246324098728 0 63.685246324098728 -22.704788045993155 0 0 0 0 -89.578373431781074 -76.175613253097254 0 -76.175613253097254 -9.2784897296478448 0 0 0 0 -35.205868537052083 -48.694799805059574 0 -48.694799805059574 -29.930792085391658 0 0 0 0 -85.384416737655556 -66.233684283620278 0 -66.233684283620278 -8.9858356420080696 0 0 0 0 -63.928649088866223 -81.62759871696926 0 -81.62759871696926 -61.21570729265909 0 0 0 0 -30.541622820306657 -46.734417450110413 0 -46.734417450110413 -41.281528297423279 0 0 0 0 -58.122571616533946 -79.148014784358011 0 -79.148014784358011 -39.840829212042081 0 0 0 0 -0.82137167222816387 0.5418855451071849 0 0.5418855451071849 -0.48664951177910254 0 0 0 0 -67.222544564199779 -50.038737006700558 0 -50.038737006700558 -28.132743753250907 0 0 0 0 -65.344687490440265 -25.732332854970991 0 -25.732332854970991 5.1290876787115849 0 0 0 0 -0.23797586517351021 -0.19726462798197808 0 -0.19726462798197808 -0.11127522170933091 0 0 0 0 -71.708310409176192 -38.889727831074197 0 -38.889727831074197 -52.046437533557764 0 0 0 0 -61.840114332417215 -55.546210594407967 0 -55.546210594407967 -38.552008676289006 0 0 0 0 5.822102956872186 -20.253263645386596 0 -20.253263645386596 -30.403895816581468 0 0 0 0 -38.075542105814748 -28.772339960631598 0 -28.772339960631598 -12.012914285192892 0 0 0 0 -55.535159441613359 -9.685776768422329 0 -9.685776768422329 15.307073865179518 0 0 0 0 -28.218661158749455 -2.1890147315557442 0 -2.1890147315557442 11.632584606789806 0 0 0 0 -0.041974514997491497 -0.57402806299933218 0 -0.57402806299933218 3.390575131681544 0 0 0 0 10.056669447315926 -19.618650809280552 0 -19.618650809280552 9.5093683747427349 0 0 0 0 -4.7384217856524629 -7.692455175294981 0 -7.692455175294981 12.98476021010265 0 0 0 0 -84.983839495729541 -54.868492268124854 0 -54.868492268124854 -18.227570597980957 0 0 0 0 -80.590101391844655 -81.137575121451391 0 -81.137575121451391 -62.673718726498919 0 0 0 0 -44.755017862725708 -40.141106064428527 0 -40.141106064428527 -14.999090466188136 0 0 0 0 -0.76015059760792525 0.27759970929998801 0 0.27759970929998801 -0.093567965343900994 0 0 0 0 -33.126105985384129 -20.528419082595519 0 -20.528419082595519 -1.0155986170420874 0 0 0 0 -35.264414457420571 -17.002575441670615 0 -17.002575441670615 -5.8243517904033979 0 0 0 0 -0.29825723791491043 0.010484513853675992 0 0.010484513853675992 0.014432434088515578 0 0 0 0 -37.938045700446764 -20.554892163367867 0 -20.554892163367867 8.8603163800244147 0 0 0 0 -42.085548786850268 -33.136785042925567 0 -33.136785042925567 4.299250699105869 0 0 0 0 -24.479081751453123 -25.087663250740661 0 -25.087663250740661 -22.35957968843104 0 0 0 0 -23.312527947434717 -10.669616325881691 0 -10.669616325881691 4.3412651123690011 0 0 0 0 -19.072590007304825 0.50371761676797178 0 0.50371761676797178 2.9407253780204883 0 0 0 0 -18.126253198395716 -7.2013797774334307 0 -7.2013797774334307 -2.5412011639327829 0 0 0 0 -17.28563557290363 -14.897972431014296 0 -14.897972431014296 4.4993929149432006 0 0 0 0 -28.6260052241214 -5.8307398433607887 0 -5.8307398433607887 -0.98410252580970337 0 0 0 0 -4.747319399936714 -9.3148389238108393 0 -9.3148389238108393 5.0377448434073813 0 0 0 0 -11.151841464055906 -1.4553534562428467 0 -1.4553534562428467 4.6502688391986453 0 0 0 0 -19.011645362864783 -4.7987104883640086 0 -4.7987104883640086 5.788238067223574 0 0 0 0 -13.675926733612869 -3.4162003104238465 0 -3.4162003104238465 2.8576093205228972 0 0 0 0 -1.2093328176852083 -8.2157841269436176 0 -8.2157841269436176 1.3369869267216927 0 0 0 0 -13.878435879676545 -5.8433229320471582 0 -5.8433229320471582 1.9142573272938535 0 0 0 0 -12.304514617704626 -8.5052187904801713 0 -8.5052187904801713 3.4224401473820762 0 0 0 0 -3.1423918945783953 -14.753674170769955 0 -14.753674170769955 3.3962829376678201 0 0 0 0 -5.0723813995055025 -13.96760553558056 0 -13.96760553558056 3.1316461383230489 0 0 0 0 -9.852960553689627 -12.76863720518395 0 -12.76863720518395 7.2732753030668391 0 0 0 0 -5.1382303118666641 -28.615243809340598 0 -28.615243809340598 33.208847821029849 0 0 0 0 17.969439846770911 -6.2542995042131224 0 -6.2542995042131224 3.7440896412917937 0 0 0 0 15.934637376092724 -22.271247114072139 0 -22.271247114072139 -10.359724852505845 0 0 0 0 -18.493125556032282 -24.511277028816835 0 -24.511277028816835 6.6431033361723166 0 0 0 0 -0.18030487100919856 -0.1947210183151391 0 -0.1947210183151391 -0.11619761992144362 0 0 0 0 -11.602905450385151 -2.0379803227397133 0 -2.0379803227397133 -19.182376950460821 0 0 0 0 14.889303819956694 -52.121339531041485 0 -52.121339531041485 -10.120655717529893 0 0 0 0 -39.769076067215792 -41.532686360412299 0 -41.532686360412299 50.725472974811964 0 0 0 0 -1.1698999501974896 -0.51554236363585915 0 -0.51554236363585915 1.646546726562363 0 0 0 0 2.1515665002358375 -7.1833501615431707 0 -7.1833501615431707 6.0094535231189958 0 0 0 0 -8.0708493687143346 -13.133529948434898 0 -13.133529948434898 1.579692954240727 0 0 0 0 -11.017260407079448 16.597751522030194 0 16.597751522030194 17.26676892620344 0 0 0 0 -3.9381164684546093 -10.66190837701788 0 -10.66190837701788 3.0189189519651336 0 0 0 0 -5.4756943781503651 -13.575684422376526 0 -13.575684422376526 5.7323530636354008 0 0 0 0 2.971830418721467 -5.8885817587745706 0 -5.8885817587745706 8.8020123359609812 0 0 0 0 22.80190807530289 -12.671052837763114 0 -12.671052837763114 17.089090901702775 0 0 0 0 -4.1582249100747504 -10.413336028831964 0 -10.413336028831964 6.7243080838588867 0 0 0 0 -1.3765872722134311 -9.4411217967923609 0 -9.4411217967923609 7.5783198968361907 0 0 0 0 -2.790763373943264 -11.95462187138537 0 -11.95462187138537 6.5374310517281629 0 0 0 0 -4.8348063649440611 -6.1499778715702327 0 -6.1499778715702327 -2.0637038997769324 0 0 0 0 -4.5558049733990629 -12.273606223192814 0 -12.273606223192814 12.583249034666551 0 0 0 0 -5.7029978928167111 -13.11492903839644 0 -13.11492903839644 9.6716254678181031 0 0 0 0 -4.3302512001300784 -12.340091606443821 0 -12.340091606443821 10.052601372754452 0 0 0 0 -19.543903887188208 -22.278524595310273 0 -22.278524595310273 5.3668748716936534 0 0 0 0 1.4911554329671368 -4.772685847286354 0 -4.772685847286354 2.1310603241012842 0 0 0 0 0.953363781050939 -3.8155168748444339 0 -3.8155168748444339 2.8169930088824913 0 0 0 0 -4.5511878941524628 -7.9140767069575304 0 -7.9140767069575304 -0.81318582823223551 0 0 0 0 -2.2856667719098525 -6.489220302774072 0 -6.489220302774072 6.8386763586764996 0 0 0 0 -15.890789332264831 -19.577096121862269 0 -19.577096121862269 6.7571931598495212 0 0 0 0 -22.291129714099952 -5.4241178570619013 0 -5.4241178570619013 6.8081039621474702 0 0 0 0 -37.703736211675277 -19.820322760124327 0 -19.820322760124327 11.906640772554056 0 0 0 0 -15.162483919386432 -31.373621686249862 0 -31.373621686249862 -25.393097099006809 0 0 0 0 1.5342698207394676 -2.22215275749741 0 -2.22215275749741 0.34815838711900504 0 0 0 0 -19.671080287516816 -17.883962609399532 0 -17.883962609399532 -1.8004779085101745 0 0 0 0 83.866103547007697 -6.8518858392621951 0 -6.8518858392621951 -84.900059730219709 0 0 0 0 -25.110599272840318 -5.3020367922006244 0 -5.3020367922006244 8.2618051920453581 0 0 0 0 5.1777947123094137 -8.0078958344691173 0 -8.0078958344691173 0.85908149554351354 0 0 0 0 23.212401515273086 -98.395802672996069 0 -98.395802672996069 76.867477728159429 0 0 0 0 -3.348961962544049 -10.357814804264443 0 -10.357814804264443 4.6009465166973342 0 0 0 0 -0.32826818678749703 -2.1616017261430009 0 -2.1616017261430009 0.077045527588349927 0 0 0 0 -8.7871088256624716 -20.596416236445748 0 -20.596416236445748 -7.4279457921538778 0 0 0 0 -3.8841067926805408 -22.432382745713767 0 -22.432382745713767 -6.7895065331413207 0 0 0 0 -7.112632526251673 -6.5160804240644552 0 -6.5160804240644552 4.0242248364747866 0 0 0 0 -2.0495852675558126 -14.409734795414806 0 -14.409734795414806 -2.1923089345391418 0 0 0 0 16.072346148972429 -5.5681252177764691 0 -5.5681252177764691 4.8578592138998147 0 0 0 0 -0.34935383308808809 -0.37833154733810836 0 -0.37833154733810836 -0.2939227336640684 0 0 0 0 -14.015570210685837 -16.511611207763963 0 -16.511611207763963 12.177110007683041 0 0 0 0 11.962206681555472 2.6460378804533775 0 2.6460378804533775 -7.6661579194478691 0 0 0 0 -24.147503795386001 -35.022479489119632 0 -35.022479489119632 -16.165530704631237 0 0 0 0 -23.012296626704938 -0.48635875446939281 0 -0.48635875446939281 -9.0952855474788521 0 0 0 0 0.0013498555617843522 -28.651173416255915 0 -28.651173416255915 30.787497455938137 0 0 0 0 17.58114942157772 -32.464045875912916 0 -32.464045875912916 26.151938155278799 0 0 0 0 15.20922339434037 -32.772992064541427 0 -32.772992064541427 26.140924689980238 0 0 0 0 -6.8895097469051976 -5.6550417676774174 0 -5.6550417676774174 -3.7284038981788363 0 0 0 0 14.542620567525546 -29.670290389390573 0 -29.670290389390573 23.404099925574883 0 0 0 0 0.023939860035170568 -20.367269271343048 0 -20.367269271343048 17.756439246461468 0 0 0 0 -5.256974154895353 -4.9689853413562419 0 -4.9689853413562419 -2.6237469046054507 0 0 0 0 9.8139193848255672 -18.070388170288425 0 -18.070388170288425 13.658816384493548 0 0 0 0 -3.8991988071211381 -8.3224328611922829 0 -8.3224328611922829 -7.1121926118430565 0 0 0 0 -3.618360350148258 -2.6246487057766359 0 -2.6246487057766359 -1.8757523644879761 0 0 0 0 0.0029581494090962224 -1.0217032611853938 0 -1.0217032611853938 -2.3039343041818938 0 0 0 0 3.9078684665177263 -0.72468991722464438 0 -0.72468991722464438 -1.4904098938502983 0 0 0 0 -21.204385988542526 -19.104881089932405 0 -19.104881089932405 5.7672630824217777 0 0 0 0 -5.5031107821969272 -8.5124099897655015 0 -8.5124099897655015 -0.94154906564290286 0 0 0 0 -11.557086135068857 1.0576595746458679 0 1.0576595746458679 -2.2755653369868014 0 0 0 0 15.810740383027223 7.8728249809823865 0 7.8728249809823865 3.7331395272913142 0 0 0 0 31.576538747072846 -22.709500631120136 0 -22.709500631120136 -3.6283451609215263 0 0 0 0 14.944260045180272 -13.125458719313428 0 -13.125458719313428 -8.7021793472740683 0 0 0 0 12.118904220034892 -13.147688933428526 0 -13.147688933428526 -8.5178008689301805 0 0 0 0 14.004326671466515 -16.240516715100966 0 -16.240516715100966 -11.50393477668149 0 0 0 0 1.2029161119080527 -19.856953225518964 0 -19.856953225518964 4.3510047929039501 0 0 0 0 -6.4482727459435409 2.5300002036187834 0 2.5300002036187834 -7.4095354987584869 0 0 0 0 0.43731279636267573 2.1134083138117603 0 2.1134083138117603 -13.666562749344848 0 0 0 0 -0.93770691171994258 -12.438035346558991 0 -12.438035346558991 34.803345417506534 0 0 0 0 34.867523149861881 -18.858311310259069 0 -18.858311310259069 -13.011339616466103 0 0 0 0 0.29297671608004094 -0.23967390746291528 0 -0.23967390746291528 0.18314949119705304 0 0 0 0 3.1766415173296991 0.79189083719711562 0 0.79189083719711562 10.600138954459453 0 0 0 0 -1.1084072257806383 -12.495611350559329 0 -12.495611350559329 -11.607216704362145 0 0 0 0 30.310321923847368 -0.23276820095270523 0 -0.23276820095270523 -9.4623931782398358 0 0 0 0 20.167456311786736 -11.892099846194469 0 -11.892099846194469 -9.4965109452941761 0 0 0 0 7.6524807786918245 -1.6677625754009568 0 -1.6677625754009568 -9.5526481584220164 0 0 0 0 14.904992350214343 -13.025199318181308 0 -13.025199318181308 -8.8903134963729826 0 0 0 0 2.6985155631919042 -14.087079599772096 0 -14.087079599772096 6.5270062014942596 0 0 0 0 -2.7000390501816582 -7.0355835416094124 0 -7.0355835416094124 5.1550343447706837 0 0 0 0 -5.2063190892176863 -4.5643057900115309 0 -4.5643057900115309 1.3850997288900544 0 0 0 0 -4.9293426376680145 -11.730343991504924 0 -11.730343991504924 -4.8036779661606488 0 0 0 0 0.96079421872923376 -7.5635993095701224 0 -7.5635993095701224 -5.1956017442153097 0 0 0 0 -6.7005942877676716 -6.645351649609438 0 -6.645351649609438 -0.00075429403841553722 0 0 0 0 -4.3557906932619517 -4.7330184639195068 0 -4.7330184639195068 1.4295498056517317 0 0 0 0 -4.1244813868200936 -7.4748659199843814 0 -7.4748659199843814 -1.4137487186289945 0 0 0 0 -5.8526587045907945 -8.6289898981711985 0 -8.6289898981711985 -1.4310459879779955 0 0 0 0 -5.4495657227790595 -3.1294894332222389 0 -3.1294894332222389 -0.70604680140755605 0 0 0 0 0.54601743289693871 -1.8437234772900766 0 -1.8437234772900766 0.71794197417468908 0 0 0 0 -6.4204325518094265 3.6277438828210506 0 3.6277438828210506 -0.36428104036258446 0 0 0 0 -10.666007838918631 -8.0658409684860999 0 -8.0658409684860999 -24.239604356794189 0 0 0 0 -9.8652866660013387 -17.12434285633708 0 -17.12434285633708 -0.22993868191835176 0 0 0 0 -5.4836919989120361 8.0613059442171107 0 8.0613059442171107 -2.7788179892941116 0 0 0 0 0.91443650493799566 -0.64186251368555958 0 -0.64186251368555958 0.63777039207939978 0 0 0 0 -19.967736303258789 -26.211922527956631 0 -26.211922527956631 -32.839204973291999 0 0 0 0 -25.540631036350533 -13.979540753063702 0 -13.979540753063702 0.87958081111764841 0 0 0 0 -49.30080988366899 -32.400240196913728 0 -32.400240196913728 -15.430839587540731 0 0 0 0 -82.292060687878802 -45.182752554160743 0 -45.182752554160743 -3.328415161819521 0 0 0 0 -42.363165232390656 -23.332938927840928 0 -23.332938927840928 -4.6822471975656299 0 0 0 0 -71.700945162071548 -76.925301916057151 0 -76.925301916057151 -43.949342512536532 0 0 0 0 1.2537396950910988 -18.957356434385702 0 -18.957356434385702 -55.76140258448595 0 0 0 0 -63.168720190760723 -120.94019897686485 0 -120.94019897686485 -208.00701763006282 0 0 0 0 -450.7274680786777 -320.47218388287729 0 -320.47218388287729 -39.883520879867092 0 0 0 0 -5.253512764437609 -0.98083130682284647 0 -0.98083130682284647 -0.094722414577577574 0 0 0 0 -393.54941654941058 -182.95491148743267 0 -182.95491148743267 -4.8381351747520966 0 0 0 0 -97.563749373019164 -65.917557743042835 0 -65.917557743042835 -7.2973538257490134 0 0 0 0 -45.531915149605993 -12.969078618790945 0 -12.969078618790945 36.099843109152062 0 0 0 0 -41.580491841559251 -24.112559413256179 0 -24.112559413256179 10.607705610680568 0 0 0 0 -8.8052584419354147 -9.0355275433734388 0 -9.0355275433734388 -8.3511157971458623 0 0 0 0 231.20148825054139 0.96917930701283694 0 0.96917930701283694 -27.15961327264904 0 0 0 0 -423.5036662017036 497.64259882923739 0 497.64259882923739 389.38070207196142 0 0 0 0 37.508094955112028 -60.90729624402843 0 -60.90729624402843 67.800888109734387 0 0 0 0 80.06056278100732 -57.09058431929634 0 -57.09058431929634 42.938350108924169 0 0 0 0 45.229907865674249 -60.790804902260334 0 -60.790804902260334 37.544760002041585 0 0 0 0 59.845689640129422 -87.667919479866669 0 -87.667919479866669 57.896442350099051 0 0 0 0 55.861826653267826 -57.113756419557262 0 -57.113756419557262 39.330718118862023 0 0 0 0 -8.0624445551629478 -7.8837074269088045 0 -7.8837074269088045 -6.9476949510412531 0 0 0 0 28.766477280047638 -18.924563846598403 0 -18.924563846598403 -18.931157013726988 0 0 0 0 9.9180772540348698 -2.830844625849295 0 -2.830844625849295 -0.67145692378653621 0 0 0 0 -0.33530890425754478 -12.024705298773824 0 -12.024705298773824 -13.948779669821306 0 0 0 0 -39.7175088112308 -29.401393982369996 0 -29.401393982369996 -4.2126700749668089 0 0 0 0 5.4838613112242456 -24.460736825495587 0 -24.460736825495587 11.356071321200389 0 0 0 0 39.418924791410973 -23.616098622804202 0 -23.616098622804202 -18.950318818974665 0 0 0 0 26.316345451779853 -46.962072114605007 0 -46.962072114605007 33.965509523712626 0 0 0 0 -7.3579564754334683 -6.7142426559110895 0 -6.7142426559110895 -5.2960421530877611 0 0 0 0 8.5615574365692737 -45.31963515690336 0 -45.31963515690336 42.363475920127257 0 0 0 0 30.486355682286103 -42.766337651942763 0 -42.766337651942763 33.404160238152144 0 0 0 0 44.487666283719591 -64.788535525438647 0 -64.788535525438647 41.635240101433283 0 0 0 0 24.06220643468987 -52.894814941335426 0 -52.894814941335426 47.178205299604087 0 0 0 0 21.862129807144811 -46.254411197203581 0 -46.254411197203581 28.683226435500728 0 0 0 0 13.361026793074416 -51.944884217022263 0 -51.944884217022263 50.557769280271714 0 0 0 0 -8.5399808584425045 -28.190475034420842 0 -28.190475034420842 24.165553871593715 0 0 0 0 7.9862829492867604 -35.87159439935931 0 -35.87159439935931 20.458902109930477 0 0 0 0 28.949627412125665 -48.134434295004212 0 -48.134434295004212 35.632768650130402 0 0 0 0 0.32499579782415822 -39.791899275093328 0 -39.791899275093328 41.289283354871714 0 0 0 0 -3.1866338988929783 -38.681027188122471 0 -38.681027188122471 38.091220199791678 0 0 0 0 -0.0077133968588896096 -35.029578028213564 0 -35.029578028213564 20.636540152886027 0 0 0 0 -1.6240221100215422 -29.572408337256547 0 -29.572408337256547 32.448946888247065 0 0 0 0 0.0027971260569756851 -36.043196605314961 0 -36.043196605314961 36.05078735961456 0 0 0 0 2.4641934045721428 -33.75342424619032 0 -33.75342424619032 37.93838307463966 0 0 0 0 11.314729745521618 -38.138325557510143 0 -38.138325557510143 33.134012874873406 0 0 0 0 10.359299677049421 -36.513808243674248 0 -36.513808243674248 36.320735625461111 0 0 0 0 -5.7396789006179461 -15.38835523546345 0 -15.38835523546345 -77.333856317131563 0 0 0 0 -3.5726010946491442 -37.440309803390164 0 -37.440309803390164 -89.133070172039311 0 0 0 0 -0.0047452745002374286 -30.474385975682139 0 -30.474385975682139 -55.678073280663057 0 0 0 0 -0.79377585857946542 -15.209578677602622 0 -15.209578677602622 -43.565525630509001 0 0 0 0 -5.6647732172405085 -21.80561440434667 0 -21.80561440434667 10.32867371770385 0 0 0 0 -0.0022119737614060154 -31.034686343553897 0 -31.034686343553897 -13.203949367688892 0 0 0 0 0.29862124086594122 -30.377908322552855 0 -30.377908322552855 -9.1192590322111755 0 0 0 0 -10.954898672369382 -23.355012174392641 0 -23.355012174392641 -9.3244126894560395 0 0 0 0 -12.594273922706634 -18.125480227100525 0 -18.125480227100525 -2.0073323927758793 0 0 0 0 1.0832890407364175 -28.148311938977713 0 -28.148311938977713 -41.988656159045718 0 0 0 0 5.3726022859746081 -35.001115593998975 0 -35.001115593998975 -0.084209358901262021 0 0 0 0 -3.8413378350851417 -32.073200052797347 0 -32.073200052797347 32.302945445552098 0 0 0 0 18.838610216573215 -44.888765371352065 0 -44.888765371352065 10.691284657700635 0 0 0 0 -4.9297391729669471 -25.411441744587592 0 -25.411441744587592 10.61771389735668 0 0 0 0 3.1749978144052875 -36.265117949213959 0 -36.265117949213959 -25.5119527347847 0 0 0 0 -14.915290697554155 -20.122904615199104 0 -20.122904615199104 -32.052914585417966 0 0 0 0 -2.9908671557059279 -34.60332797938338 0 -34.60332797938338 -74.770958316487395 0 0 0 0 -8.9273026114697132 -48.911266157253692 0 -48.911266157253692 -101.74225234234655 0 0 0 0 -16.352504513470194 -13.907076037223305 0 -13.907076037223305 -48.806731454752708 0 0 0 0 -24.438438074601947 -26.020957629840222 0 -26.020957629840222 -94.645973482727413 0 0 0 0 -22.32316747592813 -58.155424984687897 0 -58.155424984687897 -120.46735325395025 0 0 0 0 -19.465398147993255 -20.045123271747798 0 -20.045123271747798 -85.92836043105217 0 0 0 0 -1.3114807302081317 -80.991759447618961 0 -80.991759447618961 -180.29070986960556 0 0 0 0 -46.265784908773639 -51.213177633640271 0 -51.213177633640271 -121.53302441305044 0 0 0 0 -1.2596426568561583 -36.201813725092507 0 -36.201813725092507 -125.33824194615738 0 0 0 0 -26.863278527260263 -51.458086311690067 0 -51.458086311690067 -102.17345218541004 0 0 0 0 1.3693566539180395 -2.7619168294356555 0 -2.7619168294356555 1.7899544762606974 0 0 0 0 10.084502002478985 -38.444337785379957 0 -38.444337785379957 -170.77038095705041 0 0 0 0 58.590650223810371 -14.008965214447983 0 -14.008965214447983 84.059408454297795 0 0 0 0 -20.668388417407186 21.391891697911092 0 21.391891697911092 96.584324176410746 0 0 0 0 39.587784631054092 -53.60577943218459 0 -53.60577943218459 -65.042748208457169 0 0 0 0 -46.466232520730046 -28.977764404351547 0 -28.977764404351547 -102.39980841109536 0 0 0 0 10.277720957710699 -73.321060490313812 0 -73.321060490313812 -77.512351353378563 0 0 0 0 -20.31914298452466 -38.013494704828418 0 -38.013494704828418 -56.504184410619018 0 0 0 0 5.120279426473644 -40.674029420705438 0 -40.674029420705438 -103.87913486189882 0 0 0 0 -15.397130534125608 -24.271960112546822 0 -24.271960112546822 -68.274930976942869 0 0 0 0 4.1018991102791915 -39.265498435563813 0 -39.265498435563813 -60.588990883992437 0 0 0 0 19.607091094825591 -49.84493125280278 0 -49.84493125280278 -57.046876821750544 0 0 0 0 -8.1375408126696129 -29.735766185551483 0 -29.735766185551483 -19.530066869772782 0 0 0 0 17.598249610608036 -44.575965569270465 0 -44.575965569270465 -18.709898037590222 0 0 0 0 9.2121260271123901 -36.987222192218042 0 -36.987222192218042 22.569705079256892 0 0 0 0 38.720218470183681 -59.053641228178321 0 -59.053641228178321 20.472919803477453 0 0 0 0 9.7194303238320572 -43.251680288789885 0 -43.251680288789885 44.174209267604056 0 0 0 0 94.688498506980977 -84.8079982718466 0 -84.8079982718466 34.859063678377424 0 0 0 0 56.371941539993713 -91.793710135508036 0 -91.793710135508036 50.476945414207876 0 0 0 0 33.227373650046502 -55.83911299154579 0 -55.83911299154579 50.752184660477724 0 0 0 0 34.215530151253915 -46.813076970491238 0 -46.813076970491238 28.976864556156102 0 0 0 0 41.425963223478902 -59.703302812613742 0 -59.703302812613742 -18.135720600668265 0 0 0 0 7.4473981010323769 -48.829229845484633 0 -48.829229845484633 -17.986882466464976 0 0 0 0 31.616982707173975 -96.722254358383367 0 -96.722254358383367 -74.584682403004081 0 0 0 0 98.416559230265193 -72.711848061025194 0 -72.711848061025194 -93.467590605446276 0 0 0 0 80.597382658006609 -34.843430147315075 0 -34.843430147315075 -13.461784944172905 0 0 0 0 -86.873560325653671 37.791139659157125 0 37.791139659157125 172.55902980881956 0 0 0 0 78.567434589698678 -117.44951545669073 0 -117.44951545669073 62.873474777416959 0 0 0 0 38.561279848468985 -75.236243548486328 0 -75.236243548486328 80.73566027621473 0 0 0 0 -7.9607718947851396 -7.3189705455494583 0 -7.3189705455494583 -5.6662896695829659 0 0 0 0 32.00104595848461 75.146632077838831 0 75.146632077838831 -82.335180924802899 0 0 0 0 -114.55856513918116 -126.83906276457401 0 -126.83906276457401 210.2510669617659 0 0 0 0 -3.3263417356617495 -2.4232034511034186 0 -2.4232034511034186 -1.4485238880718327 0 0 0 0 -328.39714640789316 183.37157227271837 0 183.37157227271837 22.173572314351986 0 0 0 0 98.523213073127408 -80.765837289836782 0 -80.765837289836782 -156.23221025719795 0 0 0 0 91.73529522431636 -165.33462179657863 0 -165.33462179657863 -148.57227436054745 0 0 0 0 80.318603320009061 -163.85468884339548 0 -163.85468884339548 -80.77272942453601 0 0 0 0 -29.498571928047113 -99.971075794470437 0 -99.971075794470437 -68.424458728896752 0 0 0 0 62.715492701539915 -133.04363675980267 0 -133.04363675980267 -122.71572741270302 0 0 0 0 66.073494312462572 -113.14694787053668 0 -113.14694787053668 -74.324783035278415 0 0 0 0 18.926617494118545 -133.72651603238137 0 -133.72651603238137 -55.811157817174944 0 0 0 0 1.3926604875974178 -3.4719265435150426 0 -3.4719265435150426 2.3923434048557448 0 0 0 0 6.9632362968295638 32.817642548013055 0 32.817642548013055 45.631983971984425 0 0 0 0 1.7051751678664004 25.801693714003932 0 25.801693714003932 42.100990011910596 0 0 0 0 11.751235623975845 -10.238565209079326 0 -10.238565209079326 22.687545253929102 0 0 0 0 23.483259304472085 26.8702502512227 0 26.8702502512227 26.320442692912479 0 0 0 0 -14.004994372742658 -8.0206898043447836 0 -8.0206898043447836 -1.3391947359922369 0 0 0 0 -5.0208014129093499 -16.104153999926325 0 -16.104153999926325 5.4091993703225398 0 0 0 0 -33.713913891335324 -28.184213071140334 0 -28.184213071140334 -2.7163493916855259 0 0 0 0 -6.8762598964412973 -8.1953458889215511 0 -8.1953458889215511 -3.9387239373702414 0 0 0 0 -12.159606508067554 3.5246621778453004 0 3.5246621778453004 19.183433489722574 0 0 0 0 0.16904380929554463 2.5166429776795667 0 2.5166429776795667 15.682810209194088 0 0 0 0 4.5243945748134138 18.902468590997927 0 18.902468590997927 48.757702835428972 0 0 0 0 9.5179451358417282 -9.9078143228833824 0 -9.9078143228833824 27.601400458631133 0 0 0 0 10.124159290108764 -8.5749680552428913 0 -8.5749680552428913 28.196747741116724 0 0 0 0 -0.097496495407540351 -2.3753859611413191 0 -2.3753859611413191 22.582556265680751 0 0 0 0 15.222714358552366 -19.306959826450765 0 -19.306959826450765 1.3802139569074825 0 0 0 0 14.887062616860135 -24.544468866438081 0 -24.544468866438081 38.786516983093861 0 0 0 0 24.816874696697596 -22.147976554099245 0 -22.147976554099245 -4.197734384657906 0 0 0 0 -0.33497139135943144 -22.927967807697257 0 -22.927967807697257 6.8320193968254443 0 0 0 0 27.041765226473217 -25.116157946348011 0 -25.116157946348011 -17.843872322010327 0 0 0 0 -22.048624995753926 -15.56303004102341 0 -15.56303004102341 -18.873687732770009 0 0 0 0 -0.37832866242752061 -20.645793638061761 0 -20.645793638061761 -21.555348179151451 0 0 0 0 -26.509666552286944 -25.07544697105493 0 -25.07544697105493 -1.1314353916525501 0 0 0 0 -34.249313390460884 -13.294178209974092 0 -13.294178209974092 -17.670662371113167 0 0 0 0 -52.999275265316101 -7.0304338853008517 0 -7.0304338853008517 -38.075749174914904 0 0 0 0 -30.193748803380004 -29.089509582397682 0 -29.089509582397682 -19.302283183845731 0 0 0 0 -20.82895694517174 -34.63632194576013 0 -34.63632194576013 -53.883274136462433 0 0 0 0 -43.685521302604684 -61.523213015153644 0 -61.523213015153644 -12.288771928070219 0 0 0 0 0.099269937192968172 -0.10298536755347953 0 -0.10298536755347953 0.00020754029300762422 0 0 0 0 0.11051967210369185 -28.003609070315505 0 -28.003609070315505 -12.055947916729451 0 0 0 0 -16.809295070605003 -45.82767848506731 0 -45.82767848506731 -22.850890783201198 0 0 0 0 -16.44544262283307 -47.091210828508991 0 -47.091210828508991 -9.1851233261768925 0 0 0 0 4.7946569084633666 -61.221346319814479 0 -61.221346319814479 2.782826743680836 0 0 0 0 -49.338106637198507 -41.945130270820535 0 -41.945130270820535 21.660620953791614 0 0 0 0 -14.986289141568705 -45.489127300718252 0 -45.489127300718252 9.5158128475643196 0 0 0 0 -32.203177296425565 -22.994230174183578 0 -22.994230174183578 28.233022635172659 0 0 0 0 10.371801150042302 -25.129851217559036 0 -25.129851217559036 1.3918451004204258 0 0 0 0 13.20687842707548 -40.040230283764075 0 -40.040230283764075 6.5124602139038643 0 0 0 0 22.592068090074463 -25.036973504563903 0 -25.036973504563903 -5.6564543946942649 0 0 0 0 4.8311868144028267 -35.078087005368701 0 -35.078087005368701 -8.3622358322895707 0 0 0 0 35.954607388790464 -19.427596279255681 0 -19.427596279255681 -9.910530519441636 0 0 0 0 22.327188795563416 -24.788791563186265 0 -24.788791563186265 -3.0696839182936628 0 0 0 0 -2.5223489840536786 -17.885723001245537 0 -17.885723001245537 -48.083336348460548 0 0 0 0 9.1547763188718818 -15.042461216656694 0 -15.042461216656694 15.134809962896611 0 0 0 0 0.48047278117518033 0.011817124904176524 0 0.011817124904176524 -0.073248042410503519 0 0 0 0 5.0721589470667823 -22.295058476510889 0 -22.295058476510889 37.635148361142583 0 0 0 0 5.3383581327070715 -0.23123881042763905 0 -0.23123881042763905 -0.23737360749638015 0 0 0 0 1.6855757636276394 -1.9678690492870601 0 -1.9678690492870601 -0.062603527978680518 0 0 0 0 -93.628208435065062 -46.538116821896793 0 -46.538116821896793 22.044845721330717 0 0 0 0 0.4830122402644399 -0.97018741386477814 0 -0.97018741386477814 0.7299814902026911 0 0 0 0 15.420859671241487 -8.3557019124134513 0 -8.3557019124134513 4.6508260363733598 0 0 0 0 48.649024923368415 0.35654507562747995 0 0.35654507562747995 -1.6453198315130919 0 0 0 0 23.831755698469351 -3.643226623206175 0 -3.643226623206175 -2.2784073091853543 0 0 0 0 59.185534757503774 -31.058742104049429 0 -31.058742104049429 -2.6776026410835243 0 0 0 0 102.07521479285788 -22.409999798016997 0 -22.409999798016997 5.9573339967426477 0 0 0 0 32.99991641250017 -46.917147725316255 0 -46.917147725316255 92.223259067828849 0 0 0 0 0.26697927307529667 -0.44767848656235643 0 -0.44767848656235643 0.41379776677776015 0 0 0 0 -75.008490362632074 -15.44893933526285 0 -15.44893933526285 84.156065087689399 0 0 0 0 -18.965258134846408 54.679683173475013 0 54.679683173475013 45.014047740305159 0 0 0 0 -6.1173243337862004 -54.024986809066547 0 -54.024986809066547 -162.40934458043319 0 0 0 0 -38.430621909214096 50.307140956711464 0 50.307140956711464 133.34977447479736 0 0 0 0 0.66900915985495857 -1.4895398764910617 0 -1.4895398764910617 1.0072095350723456 0 0 0 0 36.742523506524776 28.625885399830196 0 28.625885399830196 57.837742793980624 0 0 0 0 -16.574441166610995 -17.290449700246654 0 -17.290449700246654 86.053449452773407 0 0 0 0 0.90576272878388409 -11.696590141285185 0 -11.696590141285185 -13.027590929284145 0 0 0 0 -10.64999359538524 -32.423247135139633 0 -32.423247135139633 -28.56296853716583 0 0 0 0 -46.096760926531715 -49.382736614062452 0 -49.382736614062452 -17.670037047810638 0 0 0 0 -23.050843976480792 -26.841483399810663 0 -26.841483399810663 -36.702049818655638 0 0 0 0 1.0724690565153558 -1.1839139207109817 0 -1.1839139207109817 0.021912169683872551 0 0 0 0 -2.8149099343336275 -47.707998098010705 0 -47.707998098010705 -15.48461919356015 0 0 0 0 -13.132434157349053 -13.35379382429292 0 -13.35379382429292 8.7872607999278216 0 0 0 0 3.9023952372735948 -40.605078910649411 0 -40.605078910649411 42.906522086147675 0 0 0 0 21.377764310713246 3.2670729266201874 0 3.2670729266201874 26.842350329051271 0 0 0 0 4.6868577506729707 -36.478291146368392 0 -36.478291146368392 104.17343800156289 0 0 0 0 12.075138617523862 -19.75373753788838 0 -19.75373753788838 -32.553977273596722 0 0 0 0 5.3030150307240547 -33.732167322729431 0 -33.732167322729431 1.162002109002831 0 0 0 0 5.2713118560528214 -1.0346515927129978 0 -1.0346515927129978 16.786009737168456 0 0 0 0 0.043714735746107181 -28.092566778273579 0 -28.092566778273579 -25.643368974291889 0 0 0 0 15.114937698243011 -24.229716607732371 0 -24.229716607732371 27.98186848390398 0 0 0 0 -0.043296609824203185 -14.565091404904697 0 -14.565091404904697 37.503398294103135 0 0 0 0 -26.957301405611361 -57.802670327780334 0 -57.802670327780334 15.634507816919722 0 0 0 0 0.31948153405012647 -0.26422454271191675 0 -0.26422454271191675 0.16328953609009944 0 0 0 0 -8.6308954946325684 44.083518057625042 0 44.083518057625042 189.44747547032648 0 0 0 0 -9.191381198257659 -69.975108931040495 0 -69.975108931040495 -153.95334244203457 0 0 0 0 -23.75230138814004 -61.509952548977083 0 -61.509952548977083 -41.239101653583475 0 0 0 0 0.022936725320500024 -30.398495746024984 0 -30.398495746024984 -54.839012074384755 0 0 0 0 5.4314289653484593 -38.307860935861186 0 -38.307860935861186 -101.12678509827265 0 0 0 0 5.0973507110838909 -4.4482852570177869 0 -4.4482852570177869 -1.7104512249273682 0 0 0 0 0.50091081843129359 -5.3802605183036007 0 -5.3802605183036007 5.3546951059568499 0 0 0 0 2.4965991692623035 -5.36383991481968 0 -5.36383991481968 -1.7158234075236556 0 0 0 0 -0.78758703280472986 -4.4924349508539256 0 -4.4924349508539256 -0.67032392685987408 0 0 0 0 0.31003145582508296 -4.0525771993015951 0 -4.0525771993015951 -3.8455585323777939 0 0 0 0 -2.219895090692372 -4.3834758100744438 0 -4.3834758100744438 -2.4926148175195881 0 0 0 0 -2.6630246307377661 -2.7480095545387853 0 -2.7480095545387853 0.44484076543816087 0 0 0 0 -0.082434586811359623 -3.5167201124354506 0 -3.5167201124354506 -2.7669019152447163 0 0 0 0 0.8166682793853397 -4.2615192325705493 0 -4.2615192325705493 -3.6602889301635742 0 0 0 0 0.29045980145492933 -4.2938755909442792 0 -4.2938755909442792 0.32736583599395197 0 0 0 0 -2.2060011603789462 -8.0063398440480569 0 -8.0063398440480569 3.4643976759300585 0 0 0 0 -10.966037456782033 -7.4685526565908518 0 -7.4685526565908518 8.8798203146661194 0 0 0 0 2.2842519927763476 -1.9328823006765372 0 -1.9328823006765372 -1.5708328956641555 0 0 0 0 3.6012661272925612 -5.614598215388849 0 -5.614598215388849 1.948256592202849 0 0 0 0 2.5752554350128776 -8.8618835542011993 0 -8.8618835542011993 -2.8289603830411494 0 0 0 0 -9.2858986304381688 -23.561003988112873 0 -23.561003988112873 6.4836427943581896 0 0 0 0 7.1473335477020079 -5.0529505481227126 0 -5.0529505481227126 0.27944594302808379 0 0 0 0 0.17802366773935319 -4.3301188173386294 0 -4.3301188173386294 2.3166504118293005 0 0 0 0 3.2669967380691851 -4.6001655749765877 0 -4.6001655749765877 3.7824044176730451 0 0 0 0 -3.0181099842156982 -15.249083771114215 0 -15.249083771114215 -3.962389579570754 0 0 0 0 -8.780576226510675 -6.5686608106623225 0 -6.5686608106623225 -1.1121038860203498 0 0 0 0 -32.983660680752109 -17.137850258834931 0 -17.137850258834931 6.0061646987871171 0 0 0 0 -15.478866295982698 -19.538017550873121 0 -19.538017550873121 -7.9936921090788928 0 0 0 0 6.0680113768971449 -4.0190878741343443 0 -4.0190878741343443 -1.2608715584678145 0 0 0 0 0.51871877448957093 -12.654797781024797 0 -12.654797781024797 -15.207095717642233 0 0 0 0 -0.0097730614126803061 -0.32901530281529645 0 -0.32901530281529645 2.4115721688483935 0 0 0 0 -17.357908362282615 -17.827277956149828 0 -17.827277956149828 -16.05591587463141 0 0 0 0 -2.6023312277905646 -5.3141017868257174 0 -5.3141017868257174 4.4794634893002625 0 0 0 0 -17.02173582737305 -5.0278075309618089 0 -5.0278075309618089 12.353379731000359 0 0 0 0 -6.9384828618021857 -11.533644387373897 0 -11.533644387373897 7.6406792487350685 0 0 0 0 1.7812291956738591 -3.4164942795261046 0 -3.4164942795261046 2.0924944021904732 0 0 0 0 0.18837322651859267 -7.5176074903686336 0 -7.5176074903686336 2.0302068629030998 0 0 0 0 -0.77761148413189574 -4.6607562227821262 0 -4.6607562227821262 0.56117422805786199 0 0 0 0 -0.047356982443403695 -1.19809056399597 0 -1.19809056399597 -0.69431867051297591 0 0 0 0 -9.1924127728852909 -6.6242836045842068 0 -6.6242836045842068 17.261774641806767 0 0 0 0 -0.49803091835201485 -7.8459978745947865 0 -7.8459978745947865 -22.204523783058448 0 0 0 0 -2.7699409822280359 -10.058887836061785 0 -10.058887836061785 2.8033108438855834 0 0 0 0 0.79619128737347467 -2.4244332517095311 0 -2.4244332517095311 2.533673782504148 0 0 0 0 -8.024633557535708 -15.625169834660255 0 -15.625169834660255 12.713085043831825 0 0 0 0 -7.7970070595438301 -5.7193024685947762 0 -5.7193024685947762 5.7843398821299559 0 0 0 0 -3.484718043155226 -4.5073073750818367 0 -4.5073073750818367 6.906695208788733 0 0 0 0 3.772291376371868 -6.7055576957978928 0 -6.7055576957978928 1.6161362030486544 0 0 0 0 -5.9563078563442104 -10.345663944930607 0 -10.345663944930607 0.2849902693766353 0 0 0 0 2.3275120680978034 -14.871328109092929 0 -14.871328109092929 0.80775488744825452 0 0 0 0 -2.0932535686843039 -7.5694018748984888 0 -7.5694018748984888 -13.06447446211854 0 0 0 0 -4.6075460396459675 -13.076337227508702 0 -13.076337227508702 1.2040831412174242 0 0 0 0 -2.0813409684205908 -8.7341911188989059 0 -8.7341911188989059 -5.6704362260577454 0 0 0 0 -13.03933290243549 8.0679278256222915 0 8.0679278256222915 51.798614610523998 0 0 0 0 -2.7779167625685659 -16.979797793975109 0 -16.979797793975109 -17.602204979693738 0 0 0 0 0.17379975285593829 -1.6833223599857865 0 -1.6833223599857865 1.4562514746880684 0 0 0 0 -10.733548675692873 -14.920540510476172 0 -14.920540510476172 -8.3073484172350192 0 0 0 0 2.903190413797347 -3.0072856883823427 0 -3.0072856883823427 20.228340376286084 0 0 0 0 -4.5595986098768151 -8.5235537007187467 0 -8.5235537007187467 9.497238295545344 0 0 0 0 20.771035432328063 2.1113419232478918 0 2.1113419232478918 5.1863609791412273 0 0 0 0 -0.37091762224190461 -4.7746266093427039 0 -4.7746266093427039 19.332521874383929 0 0 0 0 -0.31391054075356806 -8.689540202475655 0 -8.689540202475655 0.41699047337806405 0 0 0 0 -1.0020187062624899 -4.4846420262320947 0 -4.4846420262320947 7.256755104540324 0 0 0 0 -9.5891509523462446 -24.178506633642428 0 -24.178506633642428 -10.041975623817962 0 0 0 0 -1.5979779653749233 -6.9141255843911207 0 -6.9141255843911207 7.653846647530389 0 0 0 0 -0.029656332688460907 -3.3387121313023194 0 -3.3387121313023194 -0.39139596962863532 0 0 0 0 1.9384420781425433 -8.2325886959790751 0 -8.2325886959790751 0.14304599474263568 0 0 0 0 9.0036732922908413 -1.7177034216116454 0 -1.7177034216116454 -1.914783773916497 0 0 0 0 1.049567412416252 -2.0311313897498811 0 -2.0311313897498811 0.90601879365691818 0 0 0 0 -3.9744141253504495 -9.300372378152133 0 -9.300372378152133 8.1482639444880078 0 0 0 0 -1.3988810191075558 -5.4954720451200654 0 -5.4954720451200654 2.4210286968227006 0 0 0 0 -1.4014578798305592 -6.8185699054590714 0 -6.8185699054590714 8.3590136581107117 0 0 0 0 -1.0015200799786612 -4.8833118469427177 0 -4.8833118469427177 1.5255335280053797 0 0 0 0 -1.198990783203044 -5.185044050137833 0 -5.185044050137833 -2.3450818131359483 0 0 0 0 -4.9533452367476372 -7.6392663228251969 0 -7.6392663228251969 2.8027816942982371 0 0 0 0 1.077491971310792 -1.2955009096097001 0 -1.2955009096097001 -1.9050852366244726 0 0 0 0 -17.246124699515349 -14.860505568392 0 -14.860505568392 -8.7115492366374383 0 0 0 0 -8.9950638881200575 -4.1501591903543158 0 -4.1501591903543158 -3.4224409228290824 0 0 0 0 -18.039065858837652 -7.6567834370641812 0 -7.6567834370641812 -0.23713273790731115 0 0 0 0 -14.817924502456663 -7.8206558370775383 0 -7.8206558370775383 -0.52397893438319443 0 0 0 0 -19.584870485370629 -4.3135535597789385 0 -4.3135535597789385 2.7847687528937968 0 0 0 0 67.948983181436233 18.98613794319192 0 18.98613794319192 -78.048292621465407 0 0 0 0 -1.6061364515217988 -1.824438155201634 0 -1.824438155201634 2.2484295126745621 0 0 0 0 1.5439746487354569 -58.982890070954795 0 -58.982890070954795 21.948900432980281 0 0 0 0 -0.24496905614241626 -5.8342636142280959 0 -5.8342636142280959 0.37246641230036015 0 0 0 0 4.7746239668665211 -7.2558580050688448 0 -7.2558580050688448 0.10794245166949512 0 0 0 0 -1.1877354518946959 -7.3712628096434401 0 -7.3712628096434401 5.8690020456306229 0 0 0 0 -4.3633712420814845 -10.137638329050333 0 -10.137638329050333 -3.0325118178150205 0 0 0 0 -13.025301133103021 -4.035205020154419 0 -4.035205020154419 -0.90563865060852766 0 0 0 0 -146.81496755459375 -88.795675450557155 0 -88.795675450557155 309.54771946509209 0 0 0 0 -27.110820183803298 -59.925437733094441 0 -59.925437733094441 -38.792591924895532 0 0 0 0 -17.950520182082983 36.623845730888661 0 36.623845730888661 182.23207693541826 0 0 0 0 -16.93309489155974 -6.0899657093546287 0 -6.0899657093546287 -2.0799913944539972 0 0 0 0 -67.678186945202469 -169.9573142788895 0 -169.9573142788895 159.31258147922472 0 0 0 0 -20.054618893744191 -4.1085249525500558 0 -4.1085249525500558 8.6598719935327608 0 0 0 0 135.71583309225571 -175.30195791077676 0 -175.30195791077676 -136.34037145096863 0 0 0 0 43.995734727093804 6.2471708303683045 0 6.2471708303683045 15.779006803464085 0 0 0 0 6.9061531699803709 -5.5653252784065685 0 -5.5653252784065685 2.287069518539222 0 0 0 0 63.914486837984441 -143.30346689634462 0 -143.30346689634462 99.294791220684147 0 0 0 0 -0.68128545885459602 0.39438828659861747 0 0.39438828659861747 0.18663213726809591 0 0 0 0 62.131978677165534 19.219389338000155 0 19.219389338000155 -268.24046181801532 0 0 0 0 -82.924672934808768 -10.62294140089125 0 -10.62294140089125 103.76670170860416 0 0 0 0 130.1894626111789 -54.045693646502968 0 -54.045693646502968 19.627427785271266 0 0 0 0 -368.35770333989171 -181.01083937606612 0 -181.01083937606612 -3.7288335478224326 0 0 0 0 14.867894259285094 -236.1257101151582 0 -236.1257101151582 -50.058939932007888 0 0 0 0 129.65393209369722 -76.599757457513533 0 -76.599757457513533 -86.905015786051649 0 0 0 0 -93.62990903572063 -79.299597055498907 0 -79.299597055498907 -42.577614984549541 0 0 0 0 -287.68273542491443 172.02239546659098 0 172.02239546659098 -42.55494436146364 0 0 0 0 -6.8757064098463161 -168.41600431718007 0 -168.41600431718007 -139.55180122507272 0 0 0 0 -25.430071176982892 23.125057267604802 0 23.125057267604802 70.430104968391419 0 0 0 0 2.6918882538451712 -4.0211198900838543 0 -4.0211198900838543 2.9390924431913934 0 0 0 0 -32.459357914485736 18.552813290015138 0 18.552813290015138 71.496807868034011 0 0 0 0 -32.458949857180414 21.497110061434455 0 21.497110061434455 56.716423849098319 0 0 0 0 52.704366063435373 -33.846637340867971 0 -33.846637340867971 -34.571059934147002 0 0 0 0 0.62155864393929505 -0.28581635206461531 0 -0.28581635206461531 0.064214278326000629 0 0 0 0 -10.123490259720711 -56.148268019218335 0 -56.148268019218335 122.7692859323277 0 0 0 0 -40.053603829874191 -9.341789330571828 0 -9.341789330571828 60.994043055150556 0 0 0 0 89.882133736555261 -31.284521935069563 0 -31.284521935069563 62.046691826335973 0 0 0 0 -4.7287708257354097 2.0904292726852418 0 2.0904292726852418 87.558029665929325 0 0 0 0 16.689658960385714 23.006316905133872 0 23.006316905133872 56.602400565166192 0 0 0 0 23.664972954524274 39.51384575912175 0 39.51384575912175 95.46124640403832 0 0 0 0 -5.6121189618806966 10.072645875103873 0 10.072645875103873 125.64396889666841 0 0 0 0 1.135470873574377 -79.712792289044046 0 -79.712792289044046 107.39272544951928 0 0 0 0 -0.20249835048161913 -68.244039672705185 0 -68.244039672705185 69.187668805344174 0 0 0 0 -7.2837565684312722 -73.765123343666687 0 -73.765123343666687 74.082252948443738 0 0 0 0 -17.003232185044908 -54.557487100717026 0 -54.557487100717026 91.261844900972164 0 0 0 0 56.327134375707828 69.528126261998977 0 69.528126261998977 -45.849123712319397 0 0 0 0 -11.884881526279059 -27.289789580601678 0 -27.289789580601678 -39.36562184970785 0 0 0 0 0.14325496923227377 -0.79581079681219435 0 -0.79581079681219435 0.71640386763927166 0 0 0 0 -20.17275656887432 -94.916958154814949 0 -94.916958154814949 30.67889738343456 0 0 0 0 -84.156995843186451 -37.378517502683849 0 -37.378517502683849 59.375135989205319 0 0 0 0 -43.104532968183776 -56.443236970291082 0 -56.443236970291082 -63.248782510422416 0 0 0 0 8.6133622603265394 -9.4647236873132101 0 -9.4647236873132101 14.391504592237538 0 0 0 0 -34.260719509682531 33.268566480665555 0 33.268566480665555 -17.946285537474296 0 0 0 0 -21.277179996915947 36.842361272089988 0 36.842361272089988 31.54912156452724 0 0 0 0 -14.978227210929617 2.4359527188145194 0 2.4359527188145194 6.5598966026998369 0 0 0 0 -34.064260459219895 -0.70898666994131787 0 -0.70898666994131787 -20.470280792998665 0 0 0 0 -36.000368908062228 -12.029409829075803 0 -12.029409829075803 18.871801803885376 0 0 0 0 -11.148891347635072 10.460935374318979 0 10.460935374318979 3.9967104265500666 0 0 0 0 -19.473390320919862 -4.1227486912359836 0 -4.1227486912359836 60.663088125359081 0 0 0 0 -1.4166759242798435 -9.0712045573617388 0 -9.0712045573617388 59.527041220768865 0 0 0 0 0.13832049146107295 0.086433913726819966 0 0.086433913726819966 -0.3307512815446052 0 0 0 0 1.7098742868774863 -0.52025986054384354 0 -0.52025986054384354 -0.22239591509354995 0 0 0 0 -1.5418613584224659 -2.4153028115636062 0 -2.4153028115636062 39.577179890933508 0 0 0 0 15.527104157612484 5.9484779667734529 0 5.9484779667734529 -5.9661259892644409 0 0 0 0 14.784175493377916 -14.294037163580299 0 -14.294037163580299 -27.397002738269293 0 0 0 0 2.9588815935858293 -0.31024240156841643 0 -0.31024240156841643 -25.92578320718809 0 0 0 0 26.859618097361817 -38.103257686487041 0 -38.103257686487041 100.30736713156944 0 0 0 0 7.709398029212025 -14.891604122281478 0 -14.891604122281478 73.521591018492927 0 0 0 0 81.576534879153769 -13.639844578389102 0 -13.639844578389102 73.016621860150281 0 0 0 0 59.159196498039819 -58.298955179095287 0 -58.298955179095287 46.517014071069639 0 0 0 0 14.808854063567196 -15.829595881451212 0 -15.829595881451212 53.615405065806954 0 0 0 0 32.827443409716579 -58.192700245348988 0 -58.192700245348988 19.12260603731238 0 0 0 0 114.09932011124056 -9.6153268535459802 0 -9.6153268535459802 -45.765232677991548 0 0 0 0 4.5279197299969383 -29.314435556452167 0 -29.314435556452167 66.265714539541136 0 0 0 0 38.766939799686952 -81.405171759666473 0 -81.405171759666473 93.064306287166858 0 0 0 0 16.673124715471204 4.6633563913835587 0 4.6633563913835587 131.01314430418938 0 0 0 0 44.71072166539409 44.596256792487317 0 44.596256792487317 -83.699157233847927 0 0 0 0 18.986581775512605 -44.220853469822032 0 -44.220853469822032 11.769375102334948 0 0 0 0 38.804195842647459 -72.565025027972183 0 -72.565025027972183 -45.317438669249668 0 0 0 0 23.633162828602508 -47.291363152286351 0 -47.291363152286351 -18.938320542927386 0 0 0 0 6.7998145433193713 -32.085301993736948 0 -32.085301993736948 17.124081052595841 0 0 0 0 4.9467925119736265 -31.074641320469532 0 -31.074641320469532 16.704765716707584 0 0 0 0 2.9530642772524516 -20.764023012282024 0 -20.764023012282024 -13.544376431874753 0 0 0 0 20.888131280436937 -15.830587197866294 0 -15.830587197866294 -30.441175592228348 0 0 0 0 16.92932787296013 -20.404001446565246 0 -20.404001446565246 -14.645653371170624 0 0 0 0 12.934378971013821 -6.5762966569552317 0 -6.5762966569552317 2.1782231134916823 0 0 0 0 24.245705841773088 -11.091375648923872 0 -11.091375648923872 -0.25765473083603752 0 0 0 0 -2.9386056580278819 -17.152027162074745 0 -17.152027162074745 -8.7557759873493524 0 0 0 0 12.567896347609349 6.7610962747799022 0 6.7610962747799022 -72.675804599945991 0 0 0 0 3.4412002313316243 -1.4692054896401707 0 -1.4692054896401707 0.06771409890640534 0 0 0 0 6.7734932489329367 -25.784960093885871 0 -25.784960093885871 -28.80385668097324 0 0 0 0 4.322023097129204 -3.7640256735345758 0 -3.7640256735345758 7.8794569669889825 0 0 0 0 0.16603123077129567 -5.5200699988051163 0 -5.5200699988051163 1.5114380977410466 0 0 0 0 -1.8248031376888321 8.4408892870059447 0 8.4408892870059447 -2.9461858565211969 0 0 0 0 6.0335836404870875 -4.3017454390341854 0 -4.3017454390341854 1.7653823978049663 0 0 0 0 8.1193847045569782 -10.47890031441699 0 -10.47890031441699 -3.8660196068447021 0 0 0 0 -0.00440309982054643 -0.22843639442937658 0 -0.22843639442937658 0.86463396198558184 0 0 0 0 35.276697462302764 8.1973867083884784 0 8.1973867083884784 12.977291586728938 0 0 0 0 -54.672870643858914 -40.147132381438723 0 -40.147132381438723 -8.879591204539679 0 0 0 0 -36.617696354900545 -24.406118007192504 0 -24.406118007192504 -7.4683602407067156 0 0 0 0 -28.753757976079214 -21.282461242533543 0 -21.282461242533543 -0.35719293574368294 0 0 0 0 -27.454355003912497 -16.686999907950906 0 -16.686999907950906 -19.986128134539058 0 0 0 0 -52.691507809213363 -38.875421033296334 0 -38.875421033296334 -10.514730764838646 0 0 0 0 -50.153178660431877 -42.424372982671343 0 -42.424372982671343 -34.193177512942299 0 0 0 0 1.2100754936184339 -0.71130620854296822 0 -0.71130620854296822 -0.3030522548682435 0 0 0 0 -0.016173201052019692 -0.050198480164212356 0 -0.050198480164212356 -0.76874602919035917 0 0 0 0 -44.034995876652829 -29.057794484869987 0 -29.057794484869987 101.82066600428078 0 0 0 0 -115.4397379368711 -50.904021848190098 0 -50.904021848190098 -8.2905115764872335 0 0 0 0 19.070051679325843 -8.9808440944884182 0 -8.9808440944884182 -13.668762973214882 0 0 0 0 -77.707722898194334 -15.497084851412239 0 -15.497084851412239 -24.661072742414717 0 0 0 0 40.750627672260634 7.8378737801258334 0 7.8378737801258334 -30.057708057890181 0 0 0 0 1.0151259121447112 -1.9180734769686545 0 -1.9180734769686545 0.17230364098864337 0 0 0 0 -1.0028539545973203 -0.70219067207855801 0 -0.70219067207855801 0.91579423618787215 0 0 0 0 2.45815227314597 -4.9871065752311949 0 -4.9871065752311949 -4.9472772566189889 0 0 0 0 4.7908380806911737 6.4269232992750744 0 6.4269232992750744 31.435454998010101 0 0 0 0 38.958897626718681 -19.791625366801043 0 -19.791625366801043 -45.085673557546386 0 0 0 0 -73.980529409353039 -51.850087476780573 0 -51.850087476780573 -12.138377091316272 0 0 0 0 -82.621308261190279 -23.981320396268586 0 -23.981320396268586 -6.1193621819467126 0 0 0 0 -0.60884621096394653 -0.037984320288632745 0 -0.037984320288632745 0.16882296060406143 0 0 0 0 -7.0376163461514807 -0.424423475536571 0 -0.424423475536571 0.54176673135543751 0 0 0 0 -53.452278284976273 -37.180371957378213 0 -37.180371957378213 -8.6854274536087814 0 0 0 0 7.7699154277324851 -10.326733770389126 0 -10.326733770389126 -5.2283612354468687 0 0 0 0 1.2455476003710153 -2.7314896711926231 0 -2.7314896711926231 0.8979722255890088 0 0 0 0 -7.4025692222840007 -8.4827838042311434 0 -8.4827838042311434 2.8075101118938797 0 0 0 0 -1.2098229675757466 -6.5409059989784311 0 -6.5409059989784311 11.885781742658764 0 0 0 0 1.6095132963161958 -4.9868883400144135 0 -4.9868883400144135 2.7840005483848267 0 0 0 0 0.55777454069156995 -1.1432741417355246 0 -1.1432741417355246 -0.431841978311785 0 0 0 0 9.4833874143514549 -6.683163406846063 0 -6.683163406846063 -4.2493493932398678 0 0 0 0 0.88498702238393889 -7.0769292351116491 0 -7.0769292351116491 -0.85052616883075416 0 0 0 0 -4.1419532560248626 -15.053347587462554 0 -15.053347587462554 31.793980816130471 0 0 0 0 -0.1201286481864372 -4.9897929573303372 0 -4.9897929573303372 0.66814727622386272 0 0 0 0 0.58538917795403034 -3.7460246389371257 0 -3.7460246389371257 -0.30078771195937826 0 0 0 0 2.1628086008819807 -3.4801689543154843 0 -3.4801689543154843 1.1203638255895298 0 0 0 0 -10.894738247789064 -4.4054456868518415 0 -4.4054456868518415 5.9596112999926163 0 0 0 0 -1.733575358226517 -2.2509913119967848 0 -2.2509913119967848 1.7028588420776032 0 0 0 0 1.8213201658315263 -4.1121710647444658 0 -4.1121710647444658 -0.1948934506030735 0 0 0 0 -3.7491446204494423 7.8063992803319451 0 7.8063992803319451 1.2964601322100719 0 0 0 0 -31.514142021260341 14.942337422756111 0 14.942337422756111 -0.53081397401711872 0 0 0 0 -1.3148737953470118 -4.8043892019983332 0 -4.8043892019983332 -1.2061344901094344 0 0 0 0 -1.9077365366485566 -1.8114700240440076 0 -1.8114700240440076 1.9462281486310062 0 0 0 0 1.1179784975554039 -1.6392671272626025 0 -1.6392671272626025 -0.85191683721524747 0 0 0 0 2.0762163001894756 -1.7304145753883518 0 -1.7304145753883518 -2.2945904990749941 0 0 0 0 20.501180295017548 -15.647268796713632 0 -15.647268796713632 -18.1378512452076 0 0 0 0 4.4162119873781194 -0.034142596402034542 0 -0.034142596402034542 -5.4562869319306628 0 0 0 0 2.6402374992092703 -4.4617783623349894 0 -4.4617783623349894 -0.18213617683318351 0 0 0 0 75.765183265019004 32.757524811152621 0 32.757524811152621 126.54807818910785 0 0 0 0 -1.7852348214091762 -2.6064753340557445 0 -2.6064753340557445 23.436788664666437 0 0 0 0 159.06997161439722 -28.261837106618486 0 -28.261837106618486 -158.45837530782501 0 0 0 0 14.388333460752619 -38.439554713537746 0 -38.439554713537746 34.513508994042127 0 0 0 0 -10.021893250490393 -17.074553642267801 0 -17.074553642267801 36.886051249475031 0 0 0 0 15.137322285281698 -24.286499241547745 0 -24.286499241547745 8.3765314612805923 0 0 0 0 -2.3139072922385822 -25.530109416316236 0 -25.530109416316236 43.22292687735353 0 0 0 0 -1.3187667348101968 -6.9373588016350141 0 -6.9373588016350141 5.2298353859695794 0 0 0 0 5.3674831341886602 -16.617727561520383 0 -16.617727561520383 19.161277378991372 0 0 0 0 61.155313704541186 28.591718078303529 0 28.591718078303529 -12.787024063803074 0 0 0 0 18.064841843741306 2.1032688200316443 0 2.1032688200316443 1.964302313137523 0 0 0 0 -0.58998815407431948 -0.86879287751089862 0 -0.86879287751089862 0.39344888060499805 0 0 0 0 30.751432746494174 -46.486916564414173 0 -46.486916564414173 2.7354087500697517 0 0 0 0 5.8710015792162835 -4.5367818837167349 0 -4.5367818837167349 -1.5604759014993306 0 0 0 0 8.3461558529834292 -5.4970574124545237 0 -5.4970574124545237 -2.2781154397334831 0 0 0 0 7.1433099965734073 -10.377768965431088 0 -10.377768965431088 -0.90512441650480469 0 0 0 0 -3.6597142638038349 -9.7888100697679761 0 -9.7888100697679761 2.627483013811343 0 0 0 0 56.993823013470319 -30.927109938583726 0 -30.927109938583726 -18.8504653192349 0 0 0 0 -2.9691685047885503 -5.0046696777621307 0 -5.0046696777621307 -0.20617630198742676 0 0 0 0 -21.679795233285404 -9.5771045222984412 0 -9.5771045222984412 4.4951418400818284 0 0 0 0 36.095006509314771 12.741600468104764 0 12.741600468104764 -49.901132771423818 0 0 0 0 -33.630718821656046 -51.981282787636133 0 -51.981282787636133 3.5296603156318724 0 0 0 0 1.9067744448279988 -1.901698878819662 0 -1.901698878819662 0.9537684011695875 0 0 0 0 2.409037650516197 -18.990706825665143 0 -18.990706825665143 -11.807320301134951 0 0 0 0 7.4886593607366549 -9.0811809416165339 0 -9.0811809416165339 4.7680941279991336 0 0 0 0 2.2310656852750981 -27.729024371492073 0 -27.729024371492073 -33.225280596658649 0 0 0 0 -27.245200575763647 -39.69934352125307 0 -39.69934352125307 -3.8693095985177024 0 0 0 0 -18.507571184112749 -26.276745194590376 0 -26.276745194590376 10.584864933498238 0 0 0 0 -16.149297094546228 -14.590665985840204 0 -14.590665985840204 -1.1923902335643106 0 0 0 0 -10.999484425863557 -22.194739035968837 0 -22.194739035968837 -6.7878718021311215 0 0 0 0 8.319955930849444 -6.7562864144195638 0 -6.7562864144195638 2.2703493657307385 0 0 0 0 -8.5834348618154763 -15.780735050589215 0 -15.780735050589215 5.8148205103364035 0 0 0 0 -11.32927899839342 -20.794893680119458 0 -20.794893680119458 15.58286751754099 0 0 0 0 -10.54859851881838 -20.600641273649984 0 -20.600641273649984 14.610469426961572 0 0 0 0 -11.132297386000573 -26.356507506752223 0 -26.356507506752223 -7.8785775365512905 0 0 0 0 -9.7694859127186646 -8.0464267967904561 0 -8.0464267967904561 21.060770364509494 0 0 0 0 -2.3571073716630053 -7.2698799883982019 0 -7.2698799883982019 -4.2125944634435655 0 0 0 0 -1.6827847094950812 -3.3382490199488188 0 -3.3382490199488188 2.6221144838696091 0 0 0 0 -11.111520194815057 -12.883691855911508 0 -12.883691855911508 3.6647400992296753 0 0 0 0 -6.8396665385444066 -10.474481486992659 0 -10.474481486992659 -2.6076598590026379 0 0 0 0 -1.6287484135646082 -13.151992990020005 0 -13.151992990020005 -2.2792361094318494 0 0 0 0 6.2626478137590311 -5.9850756394632754 0 -5.9850756394632754 -4.0250189937308392 0 0 0 0 2.8742711906767635 -1.5329791756537592 0 -1.5329791756537592 1.4217050765606332 0 0 0 0 -1.4732611001494931 -0.020032840336293489 0 -0.020032840336293489 -0.1168919136323634 0 0 0 0 9.6248329634836409 -45.106020853718178 0 -45.106020853718178 -181.61475704877051 0 0 0 0 -2.3690648656577196 -228.86709129453152 0 -228.86709129453152 39.515994947531453 0 0 0 0 -13.009239000462912 -21.183968827081344 0 -21.183968827081344 -6.5313106598536592 0 0 0 0 -6.477841694359995 -10.79577525337686 0 -10.79577525337686 -9.6811492662097862 0 0 0 0 -65.358288195413706 57.836598039236037 0 57.836598039236037 -188.74195297310098 0 0 0 0 6.8974476104951705 -5.1584831863461975 0 -5.1584831863461975 -0.10179002626231926 0 0 0 0 -77.643336289387662 -35.33420069497447 0 -35.33420069497447 19.497550784084069 0 0 0 0 -50.874194167636233 11.288024441176304 0 11.288024441176304 18.391451216349878 0 0 0 0 -29.578260867971494 -15.307374718447136 0 -15.307374718447136 5.5157803132742629 0 0 0 0 -19.6391270568447 -28.491713157294498 0 -28.491713157294498 19.460473467518 0 0 0 0 -18.236217856934672 -31.167949914519227 0 -31.167949914519227 -4.9857048667945492 0 0 0 0 -12.764316455546577 -25.306875962537788 0 -25.306875962537788 11.132669400558257 0 0 0 0 -18.717546423389649 -15.029343186087885 0 -15.029343186087885 4.9609819973301228 0 0 0 0 5.1205968465643359 -6.5030109775389082 0 -6.5030109775389082 5.9814867476072777 0 0 0 0 16.271239227946353 -4.24004204357243 0 -4.24004204357243 -3.1258157418628798 0 0 0 0 7.0154014281833952 3.0849738556628381 0 3.0849738556628381 6.9469844934491221 0 0 0 0 4.0084358620351601 -6.1868735707038676 0 -6.1868735707038676 5.392951004280409 0 0 0 0 -2.0567540268757512 -3.8142996099377342 0 -3.8142996099377342 11.462253503320881 0 0 0 0 11.555210999496921 -59.906179256748146 0 -59.906179256748146 6.7576142892693269 0 0 0 0 -61.181105076640961 -29.347184216209826 0 -29.347184216209826 -28.207452548826041 0 0 0 0 1.6592757072992619 -1.1018845550070591 0 -1.1018845550070591 0.4824339850336461 0 0 0 0 -77.443777865839365 4.5412770416692183 0 4.5412770416692183 4.9940282800021123 0 0 0 0 -3.2722170973426614 -16.053584319449996 0 -16.053584319449996 -2.5687482872972396 0 0 0 0 1.4117492143377603 -5.0541937688635699 0 -5.0541937688635699 -6.5876790228243181 0 0 0 0 -0.97100421954746707 -0.37406953094023265 0 -0.37406953094023265 5.7549601487647806 0 0 0 0 -8.6025617670966312 -1.6116047499908746 0 -1.6116047499908746 6.2594472477549061 0 0 0 0 -3.3829259427445777 -7.7702056469951231 0 -7.7702056469951231 4.0016219654344241 0 0 0 0 -13.413367180000932 -29.526468542513157 0 -29.526468542513157 1.7705994234817126 0 0 0 0 -7.5751599682745336 -8.7014200636091914 0 -8.7014200636091914 4.9953834547950464 0 0 0 0 1.9664590440533445 -1.9707144407750707 0 -1.9707144407750707 1.2213545275063531 0 0 0 0 36.070303532164871 -59.288170483970134 0 -59.288170483970134 -26.224694044959961 0 0 0 0 -2.7279622628038851 -4.9628351378344178 0 -4.9628351378344178 16.819191984761801 0 0 0 0 -3.7094540253352619 0.92426805572616644 0 0.92426805572616644 1.1004389659298477 0 0 0 0 0.68624167273674175 -4.8004752624674438 0 -4.8004752624674438 12.665340787434616 0 0 0 0 -2.8074660787420562 -0.22353761777591963 0 -0.22353761777591963 2.691191477982092 0 0 0 0 2.3209026497260012 -5.0833076312308076 0 -5.0833076312308076 7.2011868031047612 0 0 0 0 -7.2029274231890668 -10.042163132192968 0 -10.042163132192968 12.517814107687173 0 0 0 0 -5.3665044965832749 -4.7457296825858748 0 -4.7457296825858748 18.577343391748173 0 0 0 0 -5.9598293493691017 -6.4566859161490129 0 -6.4566859161490129 7.4862754436218211 0 0 0 0 -3.2057011896077654 -2.4026991264845279 0 -2.4026991264845279 1.9111742474170097 0 0 0 0 -9.0997820681154735 -11.478650386006052 0 -11.478650386006052 11.193366069949889 0 0 0 0 -9.4351202970440227 -18.530705319786591 0 -18.530705319786591 -15.172487415425508 0 0 0 0 -12.735102029200789 -24.546098039984145 0 -24.546098039984145 -15.345857581183566 0 0 0 0 -4.1098811260044386 -26.810228507146917 0 -26.810228507146917 -20.063711131599348 0 0 0 0 -29.687300042425704 -35.942912812042096 0 -35.942912812042096 -18.377442178879363 0 0 0 0 -13.092175108431292 -20.123684410955175 0 -20.123684410955175 -8.853898733564165 0 0 0 0 5.5418683511040534 -4.1161308705767006 0 -4.1161308705767006 -2.4661295387124174 0 0 0 0 -13.339716566291827 -11.921567800536991 0 -11.921567800536991 -10.763605593908323 0 0 0 0 -22.340819153383563 -30.152200396800026 0 -30.152200396800026 -22.031374330746985 0 0 0 0 -20.671057205623583 -28.016976728563236 0 -28.016976728563236 -19.825294974504843 0 0 0 0 -23.788953646372192 -25.740054106109454 0 -25.740054106109454 -7.7265240150481986 0 0 0 0 -19.745366101343734 -30.932224212280858 0 -30.932224212280858 -18.982135527516903 0 0 0 0 6.5845360335897567 -12.089719447511811 0 -12.089719447511811 1.4929795901471152 0 0 0 0 11.117061418675348 -16.560569772827762 0 -16.560569772827762 2.7387774308110693 0 0 0 0 -19.814621268275005 -34.8826613807895 0 -34.8826613807895 -30.285119708707384 0 0 0 0 2.2413613466502937 -3.228050365509457 0 -3.228050365509457 4.2320913736524517 0 0 0 0 -39.289678869348336 -40.944473355785362 0 -40.944473355785362 -21.427314377703055 0 0 0 0 -55.07449915950383 -27.59550999137889 0 -27.59550999137889 -14.376809245025015 0 0 0 0 -24.130437289058136 -26.189012297781346 0 -26.189012297781346 -29.215791207824623 0 0 0 0 -15.753399187549803 -33.442258309599765 0 -33.442258309599765 -24.456153237735634 0 0 0 0 -80.030051623793383 -58.6118513458701 0 -58.6118513458701 0.65147856957651129 0 0 0 0 0.89011064164397702 -1.2554697348027926 0 -1.2554697348027926 1.2960033689706982 0 0 0 0 -79.010150164112929 -67.070592799388137 0 -67.070592799388137 -4.2629128299297463 0 0 0 0 -24.635608244081595 -62.250717804415103 0 -62.250717804415103 -11.864885484880801 0 0 0 0 -84.657717052616135 -59.506570541171186 0 -59.506570541171186 22.013154623234868 0 0 0 0 -92.13776757029882 -27.156894780663492 0 -27.156894780663492 -24.05231349153371 0 0 0 0 -8.522629729426626 -15.327387000104864 0 -15.327387000104864 3.1307712730308594 0 0 0 0 1.1884228809725101 -15.357896016430491 0 -15.357896016430491 -14.916426495334008 0 0 0 0 -26.570516639886364 -49.654099897605064 0 -49.654099897605064 -5.546178942220422 0 0 0 0 1.6144062980238232 -49.623453683356615 0 -49.623453683356615 -20.918839402124831 0 0 0 0 62.49939108025319 -57.710329903112097 0 -57.710329903112097 -14.791612343451789 0 0 0 0 -16.761926455364119 42.779031393115119 0 42.779031393115119 145.31012020704179 0 0 0 0 61.534515201361501 1.7497579950626232 0 1.7497579950626232 -14.081040968824709 0 0 0 0 0.10657616832575734 -0.64984510760725556 0 -0.64984510760725556 1.9155965564214201 0 0 0 0 -7.1841474122063573 -6.237791553094354 0 -6.237791553094354 65.973988149600927 0 0 0 0 -4.6576148165186169 -24.405799915773628 0 -24.405799915773628 1.0335275739897511 0 0 0 0 -0.53403629693002586 -22.250016622493263 0 -22.250016622493263 -29.16005654507677 0 0 0 0 -0.52474998393400085 -1.0176086352211007 0 -1.0176086352211007 1.0603680809356564 0 0 0 0 -7.6398199536179163 -3.3247864061039607 0 -3.3247864061039607 -13.476958482067772 0 0 0 0 -12.762682404025327 -5.7432238412511794 0 -5.7432238412511794 -7.4355156290025661 0 0 0 0 -6.2810558511146155 -10.34476394433193 0 -10.34476394433193 3.4722506330886063 0 0 0 0 -5.4616413307376206 -6.8897348720747686 0 -6.8897348720747686 -11.00314632059326 0 0 0 0 -8.3307381901704503 -11.129723836939434 0 -11.129723836939434 -1.9175019732322198 0 0 0 0 -4.6450829013560906 -4.9019559152807943 0 -4.9019559152807943 1.78711307667254 0 0 0 0 -4.4470690403741173 -6.502582375218708 0 -6.502582375218708 3.3312177665857234 0 0 0 0 -7.9243320581176704 -1.8560533109904043 0 -1.8560533109904043 7.8925956063731064 0 0 0 0 -5.8241477138278803 -4.4958463291503463 0 -4.4958463291503463 5.9351763318281661 0 0 0 0 -11.125420986107201 -24.938648958060412 0 -24.938648958060412 -19.619556010049564 0 0 0 0 -2.1909788187222539 -1.7700569670396407 0 -1.7700569670396407 1.5002749953824064 0 0 0 0 -14.999601573123016 -21.501264777512347 0 -21.501264777512347 -8.9304017799681787 0 0 0 0 -8.331473112022195 -17.321323732359815 0 -17.321323732359815 -16.592893982295664 0 0 0 0 -12.745858236903587 -15.384542368589564 0 -15.384542368589564 -2.3128014591375177 0 0 0 0 0.18233067927755187 -3.4940280726102024 0 -3.4940280726102024 3.6494121454599404 0 0 0 0 -2.5821275400267041 -5.4844178753046435 0 -5.4844178753046435 -1.2340713791462861 0 0 0 0 -14.392967638761547 -15.230553385469193 0 -15.230553385469193 0.44977247403903675 0 0 0 0 -14.013032919933721 -14.200315553792962 0 -14.200315553792962 1.2894077259109054 0 0 0 0 -10.456725941855439 -11.978634366145229 0 -11.978634366145229 -9.0326459717680336 0 0 0 0 -6.1773426096365256 -16.561390150511642 0 -16.561390150511642 -2.624189130973491 0 0 0 0 -7.3933125033381657 -17.628058191567902 0 -17.628058191567902 -1.0171277321573484 0 0 0 0 -3.8541026929060536 -21.905359939801315 0 -21.905359939801315 -4.0425086129648662 0 0 0 0 -4.6099641876476198 -18.768988950832693 0 -18.768988950832693 -11.5879268467678 0 0 0 0 -4.8487759289855603 -18.932650494339327 0 -18.932650494339327 -11.585167452482665 0 0 0 0 -5.4239142654969328 -14.310441686004367 0 -14.310441686004367 -35.243389187177854 0 0 0 0 -18.881722451020323 -31.148841607340046 0 -31.148841607340046 -21.179498372822025 0 0 0 0 -81.307990061977762 24.183017954642878 0 24.183017954642878 -46.154796029488011 0 0 0 0 -22.042004088234535 -35.89815960750326 0 -35.89815960750326 -79.929479304436285 0 0 0 0 -86.780350995721165 -28.10589881449107 0 -28.10589881449107 21.640786612465718 0 0 0 0 -19.412180876408456 -3.5791566804903141 0 -3.5791566804903141 -33.720514852689348 0 0 0 0 -19.505669638698237 -2.8951468002787806 0 -2.8951468002787806 -10.841342376000512 0 0 0 0 204.23039210318348 50.16588770026101 0 50.16588770026101 -158.82536974496622 0 0 0 0 -59.473245628145378 -196.56723204159118 0 -196.56723204159118 -27.053010395312526 0 0 0 0 -140.98633175060968 3.5177844849190478 0 3.5177844849190478 4.4220211440183448 0 0 0 0 161.51276601875543 -30.042350614087809 0 -30.042350614087809 -47.197947678007722 0 0 0 0 27.232545010865579 -10.181993763321771 0 -10.181993763321771 6.2677244973174311 0 0 0 0 24.713920868188836 -37.928479564375245 0 -37.928479564375245 7.8874581364207188 0 0 0 0 -5.960455200162869 -35.23832777672078 0 -35.23832777672078 12.277656755033377 0 0 0 0 -18.55934441075442 -19.247407402289184 0 -19.247407402289184 11.257776600058605 0 0 0 0 -8.3611662486100613 -24.475387737286951 0 -24.475387737286951 11.983681061937659 0 0 0 0 7.0438298373237558 -18.960074749823661 0 -18.960074749823661 6.1564076857108603 0 0 0 0 13.579253838427576 -13.86367063514831 0 -13.86367063514831 8.845524407000994 0 0 0 0 1.7656590352389685 -17.380284293744808 0 -17.380284293744808 8.225141315196197 0 0 0 0 2.383093223897049 -15.939611096943281 0 -15.939611096943281 8.1819741816484495 0 0 0 0 -23.766906595074033 -22.339708016240365 0 -22.339708016240365 15.974504610639656 0 0 0 0 -13.934887023966439 -19.77074512386514 0 -19.77074512386514 15.71713397362646 0 0 0 0 -21.220174093316359 -26.315695599130066 0 -26.315695599130066 21.337206701732612 0 0 0 0 -10.816728843092278 -22.749409519151186 0 -22.749409519151186 8.757538205579948 0 0 0 0 -13.849769086036758 -16.79380337502505 0 -16.79380337502505 8.0017777615562409 0 0 0 0 -10.305614148906898 -15.623687364979105 0 -15.623687364979105 0.13152731729428524 0 0 0 0 -7.5659274124383273 -17.88099788828454 0 -17.88099788828454 -0.064510395407069154 0 0 0 0 -7.6770065289474587 -18.696329999688942 0 -18.696329999688942 3.2139069203835788 0 0 0 0 -10.715098989614489 -20.973621782519785 0 -20.973621782519785 1.9455844052458815 0 0 0 0 17.705025733231196 -32.25960915851033 0 -32.25960915851033 -2.3583607328787366 0 0 0 0 -6.1489930722837016 -21.087832776750929 0 -21.087832776750929 -1.8078902565785029 0 0 0 0 -17.374808976917848 -46.066153267063783 0 -46.066153267063783 18.887628689885787 0 0 0 0 -34.382390681363177 -47.112444758797665 0 -47.112444758797665 19.460170459430856 0 0 0 0 -41.771499160779058 -24.228186831628591 0 -24.228186831628591 21.125953398289198 0 0 0 0 -30.489077990487203 -24.151976260439369 0 -24.151976260439369 13.304211527911775 0 0 0 0 -51.977452601809091 -18.580333107162005 0 -18.580333107162005 12.976090532352828 0 0 0 0 -41.086485018996427 -45.680552198887199 0 -45.680552198887199 -20.198709927491109 0 0 0 0 0.57507516681744342 -0.70182651693418485 0 -0.70182651693418485 -0.28417502968662767 0 0 0 0 43.675569965472278 -33.878187136204019 0 -33.878187136204019 -9.0523092588814507 0 0 0 0 -67.247496945034982 -42.882039236021456 0 -42.882039236021456 22.205313160496644 0 0 0 0 16.908270758442086 -20.362513008784845 0 -20.362513008784845 15.639038886127537 0 0 0 0 6.2021207685452282 -12.211268420703561 0 -12.211268420703561 11.774960821608602 0 0 0 0 -34.235071702860296 -15.172832399331583 0 -15.172832399331583 22.304380541962018 0 0 0 0 -6.9941801150980609 -8.9885083505846524 0 -8.9885083505846524 19.59482841231511 0 0 0 0 -45.010889425563619 -29.116570602309366 0 -29.116570602309366 32.774812350631265 0 0 0 0 -1.5290957000061098 5.5448400986470006 0 5.5448400986470006 30.226659882299828 0 0 0 0 -3.3074725939659402 -4.5262506627827861 0 -4.5262506627827861 45.841333470777045 0 0 0 0 7.6277224498880969 -10.573218011557628 0 -10.573218011557628 11.238302788562123 0 0 0 0 0.026702438696451836 -0.30587961620936044 0 -0.30587961620936044 -0.16400818602469869 0 0 0 0 -19.009687476544968 -11.958144277276233 0 -11.958144277276233 -13.522679552028421 0 0 0 0 -14.135975414531458 -4.3219084011843734 0 -4.3219084011843734 -33.867151523243592 0 0 0 0 -0.69202090103913605 0.070190756919942032 0 0.070190756919942032 0.56662237694104967 0 0 0 0 -10.221361832267576 -28.331442954769955 0 -28.331442954769955 -86.659729771156435 0 0 0 0 -57.891132370311425 -29.353238861639056 0 -29.353238861639056 -8.9627524009774788 0 0 0 0 -31.056250908505717 -16.328407036878843 0 -16.328407036878843 -3.3940033233266149 0 0 0 0 -42.980319666598916 -30.279637382889177 0 -30.279637382889177 0.12057112194270303 0 0 0 0 -19.022407900886719 -43.041415516202278 0 -43.041415516202278 -30.808203044893162 0 0 0 0 -4.9738496889731323 -25.569157649305453 0 -25.569157649305453 -9.0977440702522472 0 0 0 0 16.170204619280184 -44.222212769583052 0 -44.222212769583052 -12.310307577170533 0 0 0 0 -26.499086190647631 -25.851858266317322 0 -25.851858266317322 -0.0028413790678314399 0 0 0 0 -16.928486945408622 -11.625069468195306 0 -11.625069468195306 8.9563367467262651 0 0 0 0 -32.546329583281477 -18.629278951078049 0 -18.629278951078049 -39.624898656543792 0 0 0 0 0.73058414292620277 -0.95872249270046872 0 -0.95872249270046872 -0.11741509637514547 0 0 0 0 -20.906226733731273 -1.8141373313642362 0 -1.8141373313642362 -4.4556217181270767 0 0 0 0 -7.0092067367083928 -6.1124280036083292 0 -6.1124280036083292 18.025806304928665 0 0 0 0 6.1690866646385984 -35.389376362958728 0 -35.389376362958728 22.9164026466633 0 0 0 0 18.29737934764762 -19.239563223768528 0 -19.239563223768528 -13.222890753917454 0 0 0 0 40.089699300187931 -41.145224192856404 0 -41.145224192856404 -1.659506704645537 0 0 0 0 53.384015784391522 -19.751680558651969 0 -19.751680558651969 -7.4825970350711941 0 0 0 0 72.928386102103104 -19.69319742684246 0 -19.69319742684246 -0.15667388757719891 0 0 0 0 1.2014177795900522 -7.2535767107773488 0 -7.2535767107773488 7.1315243782524007 0 0 0 0 -0.29125042735677198 -18.974491754041082 0 -18.974491754041082 7.2498674709759143 0 0 0 0 1.4069591670097452 -12.690842267150572 0 -12.690842267150572 -1.110138356079915 0 0 0 0 -1.5976044980125153 -9.3042516243617683 0 -9.3042516243617683 3.6356364313542144 0 0 0 0 -1.4263977639185157 -13.473564282766816 0 -13.473564282766816 8.1541087509895078 0 0 0 0 3.9283534069701442 -7.3376714929641764 0 -7.3376714929641764 6.1224070264581414 0 0 0 0 -0.61395508665095599 -9.0925039658474915 0 -9.0925039658474915 2.6317249299602921 0 0 0 0 2.4738687235203543 6.0960243454837837 0 6.0960243454837837 15.407652433086355 0 0 0 0 -7.1996053033503813 -12.37200752522358 0 -12.37200752522358 3.4715145599848256 0 0 0 0 -3.2830913266992616 -6.397278861320614 0 -6.397278861320614 2.1262347391298686 0 0 0 0 2.831502876426498 -14.270018227972912 0 -14.270018227972912 4.5835944772616131 0 0 0 0 2.232013739408103 -12.181879328076775 0 -12.181879328076775 4.7383833133237658 0 0 0 0 -0.82704385071749886 -2.0861757378634778 0 -2.0861757378634778 1.6721877721200915 0 0 0 0 11.821118311822374 -6.4932670314892675 0 -6.4932670314892675 -5.9484555813987754 0 0 0 0 1.9146205906008618 -12.653960261451857 0 -12.653960261451857 6.1335867769935248 0 0 0 0 -4.3079408655293907 -7.237435546141473 0 -7.237435546141473 -1.3583184708178555 0 0 0 0 -17.942968548069985 -26.664380528352467 0 -26.664380528352467 -43.000875029460531 0 0 0 0 -2.001274747270581 -8.7460116857374377 0 -8.7460116857374377 5.121806976849328 0 0 0 0 7.2941413476273738 -16.628493794099086 0 -16.628493794099086 11.468706645337306 0 0 0 0 -0.54999392034494576 -14.965915924373704 0 -14.965915924373704 11.786485300276581 0 0 0 0 -2.8310291797242826 -23.616674427026965 0 -23.616674427026965 21.327027568894721 0 0 0 0 26.141104490532598 -37.643980865481126 0 -37.643980865481126 16.868843418081156 0 0 0 0 15.454390818988941 -16.522735951874893 0 -16.522735951874893 -6.976615824948567 0 0 0 0 -6.1388319614088829 -4.1690108217690209 0 -4.1690108217690209 -0.13209751314313856 0 0 0 0 -8.516826409854275 -8.9735874769157817 0 -8.9735874769157817 0.65025852026676034 0 0 0 0 -9.7608511866098979 -10.259216225856562 0 -10.259216225856562 5.0178877588314208 0 0 0 0 -2.7390000141831479 -7.3231773807237914 0 -7.3231773807237914 -1.7959545387784601 0 0 0 0 0.59406978348598649 -4.409761072028882 0 -4.409761072028882 4.206660758679682 0 0 0 0 -5.4359471757747997 -13.138305776589732 0 -13.138305776589732 -5.5816235641741514 0 0 0 0 0.28632351348861107 -4.6769178438091998 0 -4.6769178438091998 6.7644539488166977 0 0 0 0 -1.5343445944050913 -20.2990426765016 0 -20.2990426765016 -5.0195500703466678 0 0 0 0 3.2738248934126863 -4.6433087550743348 0 -4.6433087550743348 2.8459834686954935 0 0 0 0 -11.505422528823601 -22.490929444868925 0 -22.490929444868925 1.0910417346094619 0 0 0 0 -10.198768117265217 -16.058214946744556 0 -16.058214946744556 -1.4062375720350246 0 0 0 0 -0.83877736634218536 -30.094738221061561 0 -30.094738221061561 15.505065901580565 0 0 0 0 0.62093876737151099 -5.1997649704069424 0 -5.1997649704069424 7.2781209194287939 0 0 0 0 -0.73248330514002191 -29.501070361267921 0 -29.501070361267921 -10.854551734713823 0 0 0 0 -1.5417961518649221 -0.91465962603798978 0 -0.91465962603798978 -0.044736088915328764 0 0 0 0 -10.574738508741461 -8.1040313481157682 0 -8.1040313481157682 12.609644264597591 0 0 0 0 -11.744008823826363 -6.4776133683312764 0 -6.4776133683312764 22.88243008500649 0 0 0 0 -7.4816813253861483 -1.6426613976318549 0 -1.6426613976318549 14.290717797517573 0 0 0 0 23.208378319895473 -17.259228377819909 0 -17.259228377819909 -0.60128198686925316 0 0 0 0 -0.177092347042489 -19.174599389170453 0 -19.174599389170453 27.888228669956334 0 0 0 0 -6.3647937973600719 -3.8770449037585877 0 -3.8770449037585877 -7.0022352416763169 0 0 0 0 12.433363508954407 1.7844397251736837 0 1.7844397251736837 -5.3042680516882683 0 0 0 0 21.535606735327633 -20.582337272446694 0 -20.582337272446694 -6.9278280076141527 0 0 0 0 -6.7397940727492909 -12.552402161058808 0 -12.552402161058808 -8.8521765390069049 0 0 0 0 1.6335899535451972 -13.235347511528744 0 -13.235347511528744 -1.5777099571500912 0 0 0 0 -5.8580047560866149 -7.4990013676738272 0 -7.4990013676738272 5.0293745971302997 0 0 0 0 -2.2473096706227311 -6.5568407672694757 0 -6.5568407672694757 -1.084310712883152 0 0 0 0 1.7484018178492988 -10.605936430604061 0 -10.605936430604061 2.7873844007290245 0 0 0 0 7.8855202693512183 -11.598074581856054 0 -11.598074581856054 -4.1994392091764894 0 0 0 0 3.917613090844124 -8.6739749144691363 0 -8.6739749144691363 5.5661586384210295 0 0 0 0 11.895982499820093 -8.6967016956348289 0 -8.6967016956348289 4.2120146195107822 0 0 0 0 4.2206239660463325 -12.169497330253421 0 -12.169497330253421 5.7330201447009586 0 0 0 0 4.827720655993792 -4.6728961367670472 0 -4.6728961367670472 -2.8134327018285732 0 0 0 0 -1.8115112181687838 -11.380120244072771 0 -11.380120244072771 4.5085774210338059 0 0 0 0 -1.9716391064429288 -10.176126346003116 0 -10.176126346003116 1.18689652086141 0 0 0 0 -2.2800805143483274 -11.209814005691896 0 -11.209814005691896 4.7967625615819998 0 0 0 0 -3.3262251795653106 -7.5194281558623217 0 -7.5194281558623217 5.1543700300516608 0 0 0 0 -1.6623429814035844 -10.167458996259484 0 -10.167458996259484 5.9126179030404273 0 0 0 0 8.7750877605578808 -24.116522847800297 0 -24.116522847800297 6.0612957408668535 0 0 0 0 -0.42846581600221789 -7.6497359266389502 0 -7.6497359266389502 2.0289187406658806 0 0 0 0 2.5512761942918587 -10.973002627280948 0 -10.973002627280948 -1.4046056381703238 0 0 0 0 -10.61905149197446 -12.266061794505731 0 -12.266061794505731 3.5839825996472428 0 0 0 0 -4.0800137682656086 -10.038018232512705 0 -10.038018232512705 6.7569193740019102 0 0 0 0 -0.6733699759828502 -2.0733801560704883 0 -2.0733801560704883 0.80145270625854792 0 0 0 0 -0.28177678181788224 -6.900446621643141 0 -6.900446621643141 -2.7545327304287639 0 0 0 0 -7.5705306277159252 -14.114145768789967 0 -14.114145768789967 5.93139348693785 0 0 0 0 -3.12730867288019 -8.2630549653094931 0 -8.2630549653094931 -0.02285887718471713 0 0 0 0 -6.6071529672045699 -2.1598824511934254 0 -2.1598824511934254 3.4874594531775074 0 0 0 0 -8.0606549496888178 -5.1553182081291755 0 -5.1553182081291755 -1.1989404248031068 0 0 0 0 1.0490240744456325 -5.8326570200089947 0 -5.8326570200089947 3.9648367222026959 0 0 0 0 2.0031633490091112 -7.0115974457156165 0 -7.0115974457156165 1.8054641361636676 0 0 0 0 -7.5200045023902931 -14.788033776537986 0 -14.788033776537986 6.5753724564237928 0 0 0 0 -0.88109424559448035 -11.503395438837288 0 -11.503395438837288 4.5123278575392334 0 0 0 0 -21.970145742614022 -17.917375785212698 0 -17.917375785212698 10.388731210714383 0 0 0 0 -13.743250815253987 -24.411603518635957 0 -24.411603518635957 -4.9639272363137934 0 0 0 0 -6.8346915353752138 -8.1228839944822084 0 -8.1228839944822084 11.622525493958165 0 0 0 0 -7.2906404436052981 -7.0449781481111131 0 -7.0449781481111131 9.8963428924679135 0 0 0 0 7.1482384605119478 -10.366030765989308 0 -10.366030765989308 -0.92399035417747655 0 0 0 0 3.7290583181198702 -5.5802866326796936 0 -5.5802866326796936 0.79424927605526818 0 0 0 0 -0.90287728526777755 -8.7493186136221084 0 -8.7493186136221084 -0.18564753545888379 0 0 0 0 2.9714057419689306 -5.5952968447588631 0 -5.5952968447588631 5.9434764288102961 0 0 0 0 -1.8902800931969068 -11.790593521815026 0 -11.790593521815026 -1.6510190911303653 0 0 0 0 -0.91726425900151565 -7.0242027189940472 0 -7.0242027189940472 0.31364890139275303 0 0 0 0 0.89860908135099482 -11.190792894687092 0 -11.190792894687092 2.9101881717697324 0 0 0 0 4.2172068846569157 -5.6632455293415589 0 -5.6632455293415589 1.4986752372033401 0 0 0 0 -0.54447274691405778 -4.6466945392929526 0 -4.6466945392929526 3.8092938141056476 0 0 0 0 -96.290530305962633 14.283007325612743 0 14.283007325612743 -10.182751884012305 0 0 0 0 22.107124262630887 -6.4751969672724385 0 -6.4751969672724385 -21.619715264582283 0 0 0 0 -2.7305496835132885 -9.1909901579797406 0 -9.1909901579797406 -2.0147080387068854 0 0 0 0 0.70088995497249418 -5.9030226026421584 0 -5.9030226026421584 3.2552148131777727 0 0 0 0 0.020745502677840477 -9.616978877892393 0 -9.616978877892393 4.7974246223125192 0 0 0 0 3.389002581141483 -14.57986663327631 0 -14.57986663327631 -2.7695152720485794 0 0 0 0 15.329902593054385 -16.178856912266724 0 -16.178856912266724 -7.530287452988091 0 0 0 0 3.4343756823934939 -9.405243742260609 0 -9.405243742260609 3.8614841313760735 0 0 0 0 -3.6530777473518672 -7.1520306171548409 0 -7.1520306171548409 5.1454882451760415 0 0 0 0 6.6154241412023111 -15.243985085929125 0 -15.243985085929125 2.2401695086546169 0 0 0 0 3.8174085251557699 -14.593222886669992 0 -14.593222886669992 9.5771327242582629 0 0 0 0 3.9443702524940818 -15.39264502309743 0 -15.39264502309743 4.5861170207234352 0 0 0 0 5.7032924668515079 -16.269330545865159 0 -16.269330545865159 0.79636583735737076 0 0 0 0 -0.32491922081953817 -20.277167994518777 0 -20.277167994518777 -1.003436690606577 0 0 0 0 5.0516688833940862 -15.122083004097249 0 -15.122083004097249 0.69630815667915158 0 0 0 0 -4.0238633885160198 -16.735835952122784 0 -16.735835952122784 5.4157511068551685 0 0 0 0 -6.6920892510577232 -23.161265182587499 0 -23.161265182587499 2.0068184760930308 0 0 0 0 -6.3173778355858303 -12.87645313468397 0 -12.87645313468397 3.3767723690440334 0 0 0 0 -1.3099545626050713 -10.158531167968363 0 -10.158531167968363 3.4813405099773718 0 0 0 0 -0.95347989490567908 -6.8410509939108657 0 -6.8410509939108657 -3.790769162511288 0 0 0 0 -2.3462925731398059 -9.3522840839525543 0 -9.3522840839525543 -2.9669059267819193 0 0 0 0 10.46343127048749 -22.495188183753271 0 -22.495188183753271 0.020974330887838732 0 0 0 0 -2.2850069009115721 -2.7106897113912645 0 -2.7106897113912645 1.6748374665178334 0 0 0 0 4.955357295068211 -8.2206305268055075 0 -8.2206305268055075 -4.5301242122152416 0 0 0 0 -0.7798553204333798 -5.7849753080174935 0 -5.7849753080174935 -1.7994367919836822 0 0 0 0 3.9301005333149419 -8.5298994440192359 0 -8.5298994440192359 2.0745071810206355 0 0 0 0 -3.9783972118772724 16.011040896245134 0 16.011040896245134 89.257821530764659 0 0 0 0 4.5450698940218217 -6.3338887573803504 0 -6.3338887573803504 3.6271842464542132 0 0 0 0 5.4505121229616975 -10.793272868617237 0 -10.793272868617237 3.7049558917416885 0 0 0 0 7.8294769284986785 -5.177668734852432 0 -5.177668734852432 -5.1501455257084672 0 0 0 0 6.2906325552606575 -10.424706758328405 0 -10.424706758328405 -11.124782188669997 0 0 0 0 6.518431096025779 -7.4280948278482128 0 -7.4280948278482128 -4.8867288387682493 0 0 0 0 8.9762865680784465 1.3206395171951115 0 1.3206395171951115 -16.312862859635516 0 0 0 0 -0.47428267891178 -0.25581924668731859 0 -0.25581924668731859 -0.67231425484588803 0 0 0 0 -34.978143003373233 17.185121642069589 0 17.185121642069589 -10.830349446151558 0 0 0 0 -56.753653577664444 -10.508269954517118 0 -10.508269954517118 19.547090547425341 0 0 0 0 9.1644393571681597 -7.9254091362274721 0 -7.9254091362274721 -38.37011220459533 0 0 0 0 18.5010216082607 -53.078978495975775 0 -53.078978495975775 -2.6838008899111401 0 0 0 0 -17.758120646277106 -37.084877310099841 0 -37.084877310099841 57.750605221060027 0 0 0 0 -5.9617396765745738 -15.107064478970528 0 -15.107064478970528 15.645502861342152 0 0 0 0 -6.346044370704405 -19.293474483799514 0 -19.293474483799514 -4.7541239649510771 0 0 0 0 -11.389517629707907 -20.839803966353202 0 -20.839803966353202 13.219757123464547 0 0 0 0 -2.5351659116699636 -16.644950858476818 0 -16.644950858476818 9.924033535824492 0 0 0 0 -9.1621614398152644 -21.68548406553225 0 -21.68548406553225 6.1900018601866122 0 0 0 0 -5.8033477154314035 -21.472706782005957 0 -21.472706782005957 12.603588990598382 0 0 0 0 6.5264525353009333 -21.63834278046204 0 -21.63834278046204 -0.55510583855834739 0 0 0 0 8.2624518716458084 -15.646695368172118 0 -15.646695368172118 6.3592831833778689 0 0 0 0 43.731192997300383 -16.675880089918792 0 -16.675880089918792 -9.6703858970834347 0 0 0 0 -0.35031270870510411 -27.495596339257645 0 -27.495596339257645 -5.5436065120854892 0 0 0 0 -25.759412329112941 -92.768934540588816 0 -92.768934540588816 10.805120003546563 0 0 0 0 1.611552203009371 -2.1986740316200559 0 -2.1986740316200559 -1.6461193448383882 0 0 0 0 -1.7802759406263249 -15.742515865233955 0 -15.742515865233955 1.1426232256806088 0 0 0 0 -1.2850781536162685 -18.4610623758972 0 -18.4610623758972 -0.9218546251315729 0 0 0 0 13.617302609081889 -13.033782276812758 0 -13.033782276812758 -13.876518425745246 0 0 0 0 1.0168531100612128 -1.8457577634749445 0 -1.8457577634749445 0.64171527717472321 0 0 0 0 25.932703403050141 -68.279791268918331 0 -68.279791268918331 -24.048539598747084 0 0 0 0 5.198528716563942 -12.8732953496405 0 -12.8732953496405 86.646920900556324 0 0 0 0 -2.4348438059200967 -12.038292192106892 0 -12.038292192106892 -0.3701907417664323 0 0 0 0 -32.722860878831852 -14.927536101266242 0 -14.927536101266242 51.49939463884175 0 0 0 0 -0.97928200676960842 -27.483992777785261 0 -27.483992777785261 -16.90854515750425 0 0 0 0 -34.739468545402815 -37.463067215382807 0 -37.463067215382807 9.3238194795494564 0 0 0 0 -8.0203198878548392 -4.2956267455358557 0 -4.2956267455358557 12.076830916048493 0 0 0 0 -5.6936172308116966 -10.112461890564191 0 -10.112461890564191 15.62297586216755 0 0 0 0 -15.239509521781656 -19.304130066894004 0 -19.304130066894004 9.0645980969261473 0 0 0 0 -13.497177606868036 -13.345686386168722 0 -13.345686386168722 29.440554866560888 0 0 0 0 -6.5414808531336348 -4.1167650116436789 0 -4.1167650116436789 3.8411715676145377 0 0 0 0 18.981529984342274 3.9527266083835855 0 3.9527266083835855 -24.367717952769681 0 0 0 0 0.73785506051172067 -0.51652623980639634 0 -0.51652623980639634 0.24891529066339757 0 0 0 0 -9.407742500218319 9.0814276059340955 0 9.0814276059340955 32.614805078993072 0 0 0 0 -1.3767063777386284 -16.032144459360723 0 -16.032144459360723 -4.0361047147554814 0 0 0 0 -2.1773972915045761 -7.4272845894024613 0 -7.4272845894024613 -3.3498513077365715 0 0 0 0 -0.14697630510506343 -1.5027184925829662 0 -1.5027184925829662 1.5190462007628769 0 0 0 0 -9.2007283415987899 -19.674347248760849 0 -19.674347248760849 -4.2572238559732796 0 0 0 0 -7.2246608114246555 -6.9532563019188274 0 -6.9532563019188274 -3.3882641926454937 0 0 0 0 -9.1650999322536073 -17.227768969214651 0 -17.227768969214651 2.0035536716208071 0 0 0 0 -14.51514872662483 -18.934419922432028 0 -18.934419922432028 1.2167546861981577 0 0 0 0 -3.4960280243394664 -15.895707391700796 0 -15.895707391700796 0.40779597757909869 0 0 0 0 4.1618101866671395 -18.944981954826304 0 -18.944981954826304 -1.7076667620488024 0 0 0 0 -1.4462676861940014 -11.492218423425681 0 -11.492218423425681 0.51262621263268038 0 0 0 0 -3.2284293810062081 -18.544194567938689 0 -18.544194567938689 2.0508933678191283 0 0 0 0 -2.909961515068062 -18.673309099765788 0 -18.673309099765788 -1.2712181402785063 0 0 0 0 -4.3698180131596018 -22.289748386836493 0 -22.289748386836493 -4.2922719274298515 0 0 0 0 -5.6969175598278525 -25.861993811327665 0 -25.861993811327665 -4.4975563114430503 0 0 0 0 -6.4579873894399498 -25.679047654567654 0 -25.679047654567654 -1.6394857476618654 0 0 0 0 -17.815001394794308 -25.511127256071063 0 -25.511127256071063 -1.3504662680659862 0 0 0 0 -6.3330296860608541 -32.38803899583688 0 -32.38803899583688 -0.2134422498741344 0 0 0 0 -16.025059952269658 -31.514398506351597 0 -31.514398506351597 0.39180351748711928 0 0 0 0 -10.871065960916894 -27.76192918306424 0 -27.76192918306424 1.9824694551036828 0 0 0 0 -15.256004739660057 -25.159726939552172 0 -25.159726939552172 -2.1273862815478424 0 0 0 0 -11.782226778475888 -23.353531978866044 0 -23.353531978866044 -3.1184226454921031 0 0 0 0 -11.003417781645112 -26.807289893489383 0 -26.807289893489383 9.4533240456448766 0 0 0 0 -4.4691206163006427 -29.005729834457782 0 -29.005729834457782 1.3366736461865685 0 0 0 0 -18.641360672509109 -26.942768716014967 0 -26.942768716014967 0.27500224613572755 0 0 0 0 -51.323853633351973 -30.939944435647703 0 -30.939944435647703 -10.644894147818775 0 0 0 0 2.6188623721434752 -7.1373362025733105 0 -7.1373362025733105 -2.3672993426431477 0 0 0 0 -16.204541794441411 -30.063993055476722 0 -30.063993055476722 -10.859135931885248 0 0 0 0 -25.420856871813157 -11.069951672423031 0 -11.069951672423031 -8.548467890773054 0 0 0 0 -19.477309719201003 -17.694953383005668 0 -17.694953383005668 -15.32289358672665 0 0 0 0 -53.973200803549844 -16.590440531460672 0 -16.590440531460672 4.1255007363024561 0 0 0 0 -24.664681680329863 -21.000590546432118 0 -21.000590546432118 3.0112455698130134 0 0 0 0 -3.0325123361996722 -12.095993342872326 0 -12.095993342872326 1.5755018856768408 0 0 0 0 8.458984118758849 -12.739154750991752 0 -12.739154750991752 -2.3665807172293398 0 0 0 0 1.0107889818455078 -9.1456227504531853 0 -9.1456227504531853 -0.12354965136512419 0 0 0 0 -8.127505190464035 -12.654211354619804 0 -12.654211354619804 -6.2755249315050605 0 0 0 0 -15.173110955143784 -11.217988070591446 0 -11.217988070591446 -5.640394164679492 0 0 0 0 -6.8964975759276967 -15.245566745224323 0 -15.245566745224323 -1.9555855843059362 0 0 0 0 -16.762528473959719 -14.85445527696379 0 -14.85445527696379 -1.043678914794782 0 0 0 0 -17.741187944083322 -12.387254496922452 0 -12.387254496922452 -0.83391684216034179 0 0 0 0 -1.7850283473242143 -9.6490325590368684 0 -9.6490325590368684 -7.0521743136591795 0 0 0 0 -7.5739068163549064 -11.106151278423567 0 -11.106151278423567 2.8725144882205313 0 0 0 0 -7.0030978830418587 -8.3371019628950052 0 -8.3371019628950052 -4.4124187221260422 0 0 0 0 -9.9296653099745527 -14.457429645437898 0 -14.457429645437898 -2.1367105964580446 0 0 0 0 -2.6730329748233999 -8.5071672903344933 0 -8.5071672903344933 -1.5609308471690486 0 0 0 0 -7.5127376309750389 -8.0826673483108955 0 -8.0826673483108955 -5.2349498774066063 0 0 0 0 -7.8406030839041705 -13.828164509741327 0 -13.828164509741327 -7.6935518735856476 0 0 0 0 -2.4164650823811122 -8.852418756162999 0 -8.852418756162999 -3.6756991736644595 0 0 0 0 0.27779729048734225 -13.482679636866095 0 -13.482679636866095 5.3880269269217536 0 0 0 0 -6.4982912510981805 -14.326166271940679 0 -14.326166271940679 -11.482070732043212 0 0 0 0 -12.298657322388129 -9.7611109314444668 0 -9.7611109314444668 -5.1612282045147637 0 0 0 0 -9.817463691836906 -12.207328858625146 0 -12.207328858625146 -7.3565698936849913 0 0 0 0 31.116651081990312 -32.963508267713678 0 -32.963508267713678 37.025134033043287 0 0 0 0 -63.573279322974031 -49.661202904975653 0 -49.661202904975653 81.429643138369102 0 0 0 0 -7.8296485390104058 -9.4125068047812288 0 -9.4125068047812288 -10.704353493144751 0 0 0 0 130.54336766009919 -74.412783403422509 0 -74.412783403422509 18.975809617797495 0 0 0 0 95.843228635458445 -125.08775710020564 0 -125.08775710020564 -37.130275769126456 0 0 0 0 0.0086332906456512148 -2.1407728112997351 0 -2.1407728112997351 -2.2426765480256976 0 0 0 0 20.301412227848232 -13.053499530363752 0 -13.053499530363752 -157.64491333868864 0 0 0 0 11.012891203956315 -25.935598013802519 0 -25.935598013802519 62.630903356220188 0 0 0 0 -97.959417577143086 -134.60754874044414 0 -134.60754874044414 -34.910221743350121 0 0 0 0 86.67514262568011 -84.978484428131196 0 -84.978484428131196 102.54353004634788 0 0 0 0 101.23653311209955 32.007672337120312 0 32.007672337120312 -33.563249650775106 0 0 0 0 49.315928493151205 -35.218265873463679 0 -35.218265873463679 -59.23493319845511 0 0 0 0 52.632919055106868 -2.3803533178506768 0 -2.3803533178506768 -39.67815475037969 0 0 0 0 0.66055948124267161 10.650220487584193 0 10.650220487584193 -31.004123591514144 0 0 0 0 -0.01889256376745152 4.2285614616330349 0 4.2285614616330349 -24.012684887968135 0 0 0 0 29.05449596749304 -44.498138720136922 0 -44.498138720136922 -82.735681758822466 0 0 0 0 -3.0665432031537869 -2.1694573863112296 0 -2.1694573863112296 0.42728321780032985 0 0 0 0 -46.880634336778257 0.12739999436735161 0 0.12739999436735161 10.489843820064095 0 0 0 0 43.877122259043063 -11.385645760146872 0 -11.385645760146872 -19.60387825377984 0 0 0 0 42.839893842349284 -20.964057711973737 0 -20.964057711973737 -48.206095305849885 0 0 0 0 39.859489571967288 -33.394017483335574 0 -33.394017483335574 -46.681613964748976 0 0 0 0 25.015893193530246 -61.904695727536819 0 -61.904695727536819 -85.850459274288369 0 0 0 0 -4.2333354460179926 -15.875650940948068 0 -15.875650940948068 -21.085706838606757 0 0 0 0 -9.0854550887825098 -17.372846129380946 0 -17.372846129380946 -29.11401426934458 0 0 0 0 1.7857049818294399 -96.481462451728817 0 -96.481462451728817 -124.5896336441765 0 0 0 0 -8.6189131519495277 -26.216321562735516 0 -26.216321562735516 -26.9045365233128 0 0 0 0 -12.785176514403247 -19.785476807479483 0 -19.785476807479483 -18.340774015655143 0 0 0 0 -5.4579655842308057 -22.739347442514713 0 -22.739347442514713 -39.905190994085388 0 0 0 0 -6.3806106131351044 -8.8971583828266603 0 -8.8971583828266603 9.6895751349600232 0 0 0 0 -10.555854598588667 -16.155840225104441 0 -16.155840225104441 -0.92908860991929032 0 0 0 0 -29.94807277217069 -15.257255103898274 0 -15.257255103898274 -0.049477022796281744 0 0 0 0 -23.828860609508411 -15.554198103590352 0 -15.554198103590352 1.4367261597149081 0 0 0 0 -26.069687089402578 -18.873348141544625 0 -18.873348141544625 2.6665233326271505 0 0 0 0 -10.744242326031205 -4.0070104864330807 0 -4.0070104864330807 -3.1157266029936923 0 0 0 0 -4.3938356308379429 -13.636227258531637 0 -13.636227258531637 -8.1658627148581768 0 0 0 0 -7.6940041519860642 -13.171253613465751 0 -13.171253613465751 -8.5705283560753287 0 0 0 0 0.286099644101796 -8.6937919012434577 0 -8.6937919012434577 12.306465571563422 0 0 0 0 -1.6213327186357986 -4.4813882471062243 0 -4.4813882471062243 6.7091400948902447 0 0 0 0 -0.60831856180018429 -3.9912548059636435 0 -3.9912548059636435 2.5187338311022107 0 0 0 0 0.70355340759089557 -6.3993330245954212 0 -6.3993330245954212 12.991293896592651 0 0 0 0 0.5790842314769975 -8.0509711267332023 0 -8.0509711267332023 12.588299672879202 0 0 0 0 0.5193001302179493 -5.3973268990920209 0 -5.3973268990920209 4.777144439755336 0 0 0 0 0.94315456745064186 -8.6219082624709849 0 -8.6219082624709849 6.5424112263931882 0 0 0 0 -1.8141576300488116 -2.2308124445427264 0 -2.2308124445427264 2.0222502096117205 0 0 0 0 1.3167252439232169 -4.3633336306022326 0 -4.3633336306022326 -0.54760401984653295 0 0 0 0 -7.7896863528768954 -8.9058041222616566 0 -8.9058041222616566 22.657640717197069 0 0 0 0 2.5691909765700984 -7.9309705657801715 0 -7.9309705657801715 -2.3851394358305953 0 0 0 0 -0.67398882574520336 -10.33891644277054 0 -10.33891644277054 22.235741622155729 0 0 0 0 1.6909885764976025 -9.748701093636555 0 -9.748701093636555 -2.4990732198994579 0 0 0 0 3.3982989933379031 0.29655667080169223 0 0.29655667080169223 -5.5100813561932682 0 0 0 0 0.23594335932647303 -0.69537547632258745 0 -0.69537547632258745 0.48476958403588277 0 0 0 0 0.69348498405054215 -8.1367057163604386 0 -8.1367057163604386 7.8846285993228094 0 0 0 0 0.76520084480406603 -1.0821592685997323 0 -1.0821592685997323 -1.6707693205414775 0 0 0 0 6.5299557196261517 15.591834122175385 0 15.591834122175385 60.032821374450123 0 0 0 0 21.686843545687125 1.175104116521311 0 1.175104116521311 -7.0821597331609354 0 0 0 0 -0.035531356648775922 0.027503357610956902 0 0.027503357610956902 -1.511755874642577 0 0 0 0 0.49210633025560924 -1.326466398994171 0 -1.326466398994171 -22.576418643235684 0 0 0 0 3.6248288469708814 -0.40048828731309016 0 -0.40048828731309016 -14.428591525265649 0 0 0 0 2.3296603456434468 -11.203982583587276 0 -11.203982583587276 22.09342596881288 0 0 0 0 -4.9605072760406301 -16.737477293514303 0 -16.737477293514303 23.004233078492689 0 0 0 0 2.1184137910051155 -9.7838441005684125 0 -9.7838441005684125 6.8600525634415526 0 0 0 0 -5.6924324433020956 -14.377430875229038 0 -14.377430875229038 15.455111667888559 0 0 0 0 6.0880389629410274 -6.8350279249843879 0 -6.8350279249843879 21.390919160894555 0 0 0 0 0.085982410514215069 -0.78928536094598378 0 -0.78928536094598378 2.8367845948456445 0 0 0 0 -4.7696458925920524 -15.560514564663208 0 -15.560514564663208 28.866650839718659 0 0 0 0 -4.378717740299062 -1.3886142011752121 0 -1.3886142011752121 4.2642497729312439 0 0 0 0 4.1749648043087291 -13.103633005430311 0 -13.103633005430311 23.675961059877181 0 0 0 0 3.0382568514309298 -8.8351312013594452 0 -8.8351312013594452 34.286782302970096 0 0 0 0 1.9628985726479928 -11.089315588960611 0 -11.089315588960611 -2.4024489294825471 0 0 0 0 7.9645092466919323 -16.604147309329164 0 -16.604147309329164 13.313933782159438 0 0 0 0 4.0457209051712653 -16.093143998657069 0 -16.093143998657069 22.865298381857428 0 0 0 0 2.9730554299849246 -15.650756679213373 0 -15.650756679213373 34.962454600206911 0 0 0 0 5.8060139795923078 -16.478966883207249 0 -16.478966883207249 28.023235317667059 0 0 0 0 2.017861689950962 -15.787663649262868 0 -15.787663649262868 35.388031120754022 0 0 0 0 -2.1955716959330402 -32.511496035669552 0 -32.511496035669552 26.144944504452724 0 0 0 0 -1.5988961894162514 6.2437419699233772 0 6.2437419699233772 18.893766900153423 0 0 0 0 14.602532954276228 -12.178009234381761 0 -12.178009234381761 -16.830158783544931 0 0 0 0 8.5633740293412188 -11.998533276601904 0 -11.998533276601904 -15.10823221752446 0 0 0 0 -0.45837078204938375 -2.4165164793232705 0 -2.4165164793232705 -0.74854478467717955 0 0 0 0 28.972424350837208 -34.053587970065678 0 -34.053587970065678 -2.2998497691573903 0 0 0 0 -4.1826731551997227 -20.955471791172727 0 -20.955471791172727 -7.6806275305824556 0 0 0 0 6.3439967884608564 -8.3739453323006217 0 -8.3739453323006217 0.033532000107697968 0 0 0 0 -25.716192590571154 -18.179539965826621 0 -18.179539965826621 -1.3698405021100371 0 0 0 0 1.6724915860339777 -8.7873232988415761 0 -8.7873232988415761 1.059773737354162 0 0 0 0 -25.219889545431215 -13.009210317409725 0 -13.009210317409725 -1.8967880836867153 0 0 0 0 -14.596663516547778 -16.247940566032014 0 -16.247940566032014 -3.9640376022098991 0 0 0 0 -17.118315858924689 -13.999429247194485 0 -13.999429247194485 -3.0959139336673616 0 0 0 0 -22.787104007687958 -18.080437715194762 0 -18.080437715194762 -3.025525314832521 0 0 0 0 -6.2401806750869699 -12.338016489145827 0 -12.338016489145827 -0.37834915432835725 0 0 0 0 -3.3762880958645392 -9.5461593520637749 0 -9.5461593520637749 -3.9801910928564777 0 0 0 0 -2.3096322341316244 -13.417817265370191 0 -13.417817265370191 0.069376625660065194 0 0 0 0 0.85284186106764537 -10.581296928355641 0 -10.581296928355641 0.35740156668362033 0 0 0 0 -4.746377041420601 -14.034270710169949 0 -14.034270710169949 27.036525866488319 0 0 0 0 -8.1542907137461498 -10.07407507030166 0 -10.07407507030166 54.201090360784292 0 0 0 0 2.878750318208311 -4.1176740944460128 0 -4.1176740944460128 -5.5423471163514293 0 0 0 0 -7.3258916221324171 -24.300443031901523 0 -24.300443031901523 49.079509596671414 0 0 0 0 -11.25744772045914 -22.10600310267273 0 -22.10600310267273 53.714964714539747 0 0 0 0 7.9507946062566361 -71.046819877899907 0 -71.046819877899907 68.417885023049166 0 0 0 0 -9.4500832096396152 -24.574059233264961 0 -24.574059233264961 43.484952233699005 0 0 0 0 6.1864331955039233 -27.339618350704768 0 -27.339618350704768 -88.392502367220217 0 0 0 0 -2.6950046710529705 0.16968956871278351 0 0.16968956871278351 2.2308624388679164 0 0 0 0 -1.6583401275414831 -0.25865776203853663 0 -0.25865776203853663 0.83565071408850145 0 0 0 0 -18.83397475462175 -27.148482926165343 0 -27.148482926165343 52.642375999908836 0 0 0 0 -47.999720758125051 12.461342785798479 0 12.461342785798479 28.079091042061918 0 0 0 0 -35.073906453093514 -9.7450588846495521 0 -9.7450588846495521 54.597770473219271 0 0 0 0 -3.9767396024497828 -2.000963771579336 0 -2.000963771579336 29.968316014164884 0 0 0 0 -118.66751409702624 -24.395293750187193 0 -24.395293750187193 57.893019174575784 0 0 0 0 -64.435795448672934 -75.064517620984589 0 -75.064517620984589 -88.406927339571538 0 0 0 0 -117.31473479639408 16.913301799176224 0 16.913301799176224 -8.8520511629012617 0 0 0 0 -43.591431836351148 -25.378886844182489 0 -25.378886844182489 -15.739006720821635 0 0 0 0 -31.412362452086427 -0.64523930033101351 0 -0.64523930033101351 -21.461867280898332 0 0 0 0 -26.248773859618495 -32.17276973180924 0 -32.17276973180924 -35.513323963284392 0 0 0 0 -25.788691468276625 -29.222388441291514 0 -29.222388441291514 -36.353269571232886 0 0 0 0 -22.401021064711642 -34.099746783287628 0 -34.099746783287628 -45.435425058016335 0 0 0 0 -26.622084527743027 -30.220203931306969 0 -30.220203931306969 -20.141306750330841 0 0 0 0 -14.904168783425575 -22.02359624653127 0 -22.02359624653127 -35.01151488218602 0 0 0 0 -13.273991555488806 -26.950000088236266 0 -26.950000088236266 -38.134141575428998 0 0 0 0 -1.4028664556793728 -6.822522820805716 0 -6.822522820805716 -40.308429306738617 0 0 0 0 -0.030814070460093879 0.22886678064105048 0 0.22886678064105048 0.84065077290784096 0 0 0 0 -4.4259832378794499 -20.303843782152398 0 -20.303843782152398 -68.429301679507262 0 0 0 0 -8.064617379148217 11.555130739916422 0 11.555130739916422 -5.725440469997011 0 0 0 0 3.8197089945080052 -15.327475974017943 0 -15.327475974017943 35.02611989386196 0 0 0 0 -0.23468990224736602 -0.42192012642950871 0 -0.42192012642950871 0.33593801440260673 0 0 0 0 8.6498494384568687 -13.621790935574609 0 -13.621790935574609 35.613789187310431 0 0 0 0 3.8656954253175728 -16.82766765995774 0 -16.82766765995774 52.261598372380831 0 0 0 0 -2.9275662487005913 1.0759152661512985 0 1.0759152661512985 1.9859151077412953 0 0 0 0 0.43805066266804715 -16.021196670552854 0 -16.021196670552854 38.511259003886153 0 0 0 0 -1.050488328295424 -2.191767519361365 0 -2.191767519361365 0.64992057146074078 0 0 0 0 -1.0434203292506652 -1.9901451327423274 0 -1.9901451327423274 8.5625523587832504 0 0 0 0 0.58296004617683572 -1.0225667259204592 0 -1.0225667259204592 0.1413604517134166 0 0 0 0 -0.60722375036603038 -1.3966329340710839 0 -1.3966329340710839 1.0318015968004843 0 0 0 0 -1.3817200444055455 -3.3462998028291508 0 -3.3462998028291508 6.2166955955462981 0 0 0 0 -2.484757186608384 -5.771268325742426 0 -5.771268325742426 -21.316364168430482 0 0 0 0 -3.2944224870532821 -14.991606046403831 0 -14.991606046403831 -28.711807866613526 0 0 0 0 -5.6689636827790082 -15.442754385499939 0 -15.442754385499939 -22.089951013467726 0 0 0 0 0.81831509303866279 -1.0558917700399864 0 -1.0558917700399864 0.32128320286687995 0 0 0 0 -1.8642045741347317 -9.3244270551808768 0 -9.3244270551808768 -16.536198023076395 0 0 0 0 -1.2756807598830875 -9.9811767151629738 0 -9.9811767151629738 -17.380541905444261 0 0 0 0 -0.34241552192027314 -2.5211925786543361 0 -2.5211925786543361 1.5143788612449498 0 0 0 0 2.2143892412034631 -2.0357400976454301 0 -2.0357400976454301 -2.8248329575512798 0 0 0 0 -7.3959106362574687 -15.544351510610795 0 -15.544351510610795 4.4677198607741957 0 0 0 0 -5.1605749100072842 -16.908116623736078 0 -16.908116623736078 -8.3469367568122834 0 0 0 0 -1.6867516084289491 -21.680814743607698 0 -21.680814743607698 2.755903380264499 0 0 0 0 -6.1283987989048114 -15.846578213963767 0 -15.846578213963767 0.18026510125764617 0 0 0 0 -9.0645365022948283 -18.162366333361206 0 -18.162366333361206 -8.7218530128093334 0 0 0 0 -2.0957716340036967 -13.290581035920127 0 -13.290581035920127 -18.59528241528642 0 0 0 0 -2.0425437122406152 -14.05978664030863 0 -14.05978664030863 -11.417796246520084 0 0 0 0 -9.0851246156837817 -17.884040684130923 0 -17.884040684130923 -11.783916578735443 0 0 0 0 -14.085601152240827 -25.724853299718234 0 -25.724853299718234 -22.713448213280572 0 0 0 0 -13.724841201678885 -20.417507403650234 0 -20.417507403650234 -4.3556727597469944 0 0 0 0 -19.403580435658341 -23.380307760944959 0 -23.380307760944959 -5.9013430498162052 0 0 0 0 -13.624774928553791 -19.592539363327887 0 -19.592539363327887 2.0620849220877062 0 0 0 0 -22.065126168908591 -20.505270382790513 0 -20.505270382790513 3.5997800201221253 0 0 0 0 -25.774671903518993 -25.195014172302763 0 -25.195014172302763 -2.1847139997071281 0 0 0 0 -26.200139605329184 -25.781749525609939 0 -25.781749525609939 3.6334501350138453 0 0 0 0 -19.462328389182545 -21.847770862818933 0 -21.847770862818933 -5.837445583918452 0 0 0 0 -20.936207313447653 -26.54317799102364 0 -26.54317799102364 -18.798372645680502 0 0 0 0 -20.602245857980847 -23.998068182434508 0 -23.998068182434508 -7.5815815771202324 0 0 0 0 -26.606173486399825 -25.814815647642718 0 -25.814815647642718 -5.2333296618326131 0 0 0 0 -18.123203380014047 -21.236651889203131 0 -21.236651889203131 -16.344497297686075 0 0 0 0 -20.077499784388351 -18.048092084283326 0 -18.048092084283326 -18.459361648723643 0 0 0 0 -22.043952422116831 -29.830256676282715 0 -29.830256676282715 1.6361199553557526 0 0 0 0 -23.152675312612928 -27.140510961559812 0 -27.140510961559812 -4.8774947455276561 0 0 0 0 -19.955917236352661 -30.094579543127111 0 -30.094579543127111 1.6492992156727269 0 0 0 0 -28.00219741788726 -29.555790173226342 0 -29.555790173226342 10.424127970749396 0 0 0 0 -22.215518285734106 -16.102920130376333 0 -16.102920130376333 3.4071140764099255 0 0 0 0 -19.932332918112365 -32.769901971307263 0 -32.769901971307263 -34.394037580485019 0 0 0 0 -26.923549919944264 -23.200457858527898 0 -23.200457858527898 -20.625765147289712 0 0 0 0 -26.732968671233266 -35.588806649921025 0 -35.588806649921025 -53.308144631387677 0 0 0 0 -26.94601211729389 -27.92986650731109 0 -27.92986650731109 -18.086805453927809 0 0 0 0 -31.040571821822766 -21.565994360122204 0 -21.565994360122204 -1.8676268088293 0 0 0 0 -28.958154881812661 -26.198309934147915 0 -26.198309934147915 -21.115801463834941 0 0 0 0 -25.933263753371193 -28.882729808617114 0 -28.882729808617114 -19.875658423159621 0 0 0 0 -29.273016534634962 -25.451325503275257 0 -25.451325503275257 1.1836564890591035 0 0 0 0 -30.051228161556509 -24.566660939624853 0 -24.566660939624853 3.2689974172608345 0 0 0 0 -29.875018613611843 -20.885480500140034 0 -20.885480500140034 4.6368304966854339 0 0 0 0 -13.719363638749428 -20.886483777496323 0 -20.886483777496323 -0.75997437129626633 0 0 0 0 -20.978096075043084 -18.097786121800709 0 -18.097786121800709 0.74185039412805054 0 0 0 0 -22.040218458462618 -23.397685701516821 0 -23.397685701516821 3.2733003526579978 0 0 0 0 -30.950565852717588 -26.018174656331666 0 -26.018174656331666 1.5196600808230869 0 0 0 0 -11.012206434877243 -28.448678750432009 0 -28.448678750432009 -20.49251509712667 0 0 0 0 54.161834046707469 10.910470450859066 0 10.910470450859066 -7.5401258954580044 0 0 0 0 -12.878299351800194 -23.344359966008597 0 -23.344359966008597 -0.84475604400904558 0 0 0 0 -0.39020061451688548 -2.7352231517343171 0 -2.7352231517343171 6.2219389236561256 0 0 0 0 16.24553595943334 -26.485309098921789 0 -26.485309098921789 -24.427601782618694 0 0 0 0 -12.92341917605726 -27.037699207114997 0 -27.037699207114997 14.264607859347961 0 0 0 0 31.590963465041966 -33.862284034436925 0 -33.862284034436925 -4.7841464879948035 0 0 0 0 -7.3826751789715672 -16.446507777081933 0 -16.446507777081933 -11.28177536321482 0 0 0 0 -3.0831347901107944 -12.201001974234686 0 -12.201001974234686 -10.728449734686791 0 0 0 0 -1.6918456754094677 -10.043625662483464 0 -10.043625662483464 -6.8426592658106529 0 0 0 0 -0.18413144768759082 -8.4075243877118027 0 -8.4075243877118027 1.5702520242963054 0 0 0 0 -3.5897921948781004 -20.474636555535653 0 -20.474636555535653 -10.272918006321561 0 0 0 0 -10.429595688316567 -15.961687818877181 0 -15.961687818877181 -8.8347183439564105 0 0 0 0 -5.6968570511267558 -17.234995874014942 0 -17.234995874014942 -13.242133861544971 0 0 0 0 -6.4110171864555738 -10.483335397918092 0 -10.483335397918092 -0.11231321946644135 0 0 0 0 -5.5847758175468698 -9.4606264452777395 0 -9.4606264452777395 8.6316028259097948 0 0 0 0 -41.032869416331778 51.210980650508645 0 51.210980650508645 179.83390902816654 0 0 0 0 75.624564341204859 -12.4145368560512 0 -12.4145368560512 -61.384559339054249 0 0 0 0 -2.2727495092222894 -7.5856290676427918 0 -7.5856290676427918 -1.9262127639120958 0 0 0 0 88.156679584103586 316.28647074386754 0 316.28647074386754 268.99831851842737 0 0 0 0 -294.86720186482671 -177.0875066686358 0 -177.0875066686358 119.01783905294724 0 0 0 0 -47.161541967566336 -167.90551978927033 0 -167.90551978927033 -151.88327583355385 0 0 0 0 -91.194148282851984 -79.629149796874117 0 -79.629149796874117 -5.422654499426244 0 0 0 0 -7.619034399269367 -80.816713985770548 0 -80.816713985770548 -12.809213129829004 0 0 0 0 2.222231985806971 -49.079396418900956 0 -49.079396418900956 -49.325589414336719 0 0 0 0 -0.073366110402730556 -69.027289788217331 0 -69.027289788217331 -44.390419581628521 0 0 0 0 1.811010487007934 -55.318832246328384 0 -55.318832246328384 -28.823604300181614 0 0 0 0 -5.6788365151496691 -9.7818316670181957 0 -9.7818316670181957 9.9468670696223853 0 0 0 0 -43.610000260683591 -49.663556855801289 0 -49.663556855801289 4.1305167221707961 0 0 0 0 4.123153920001414 -12.425219948861013 0 -12.425219948861013 -24.654909284048699 0 0 0 0 15.372548644407061 -30.829618149282396 0 -30.829618149282396 -24.324269120077588 0 0 0 0 3.5238517287903051 -16.567852793124985 0 -16.567852793124985 -41.488611863435835 0 0 0 0 -3.3212004903530215 -31.168587923528321 0 -31.168587923528321 -24.318171781804452 0 0 0 0 11.568038084702721 -37.571405781452086 0 -37.571405781452086 -9.8452981809818993 0 0 0 0 -4.7941546020317674 -27.463518155671409 0 -27.463518155671409 -13.609543329781445 0 0 0 0 -5.2195229990284702 -26.448251926273088 0 -26.448251926273088 -14.184336803466067 0 0 0 0 2.1629103179388949 -11.445042581639427 0 -11.445042581639427 -16.426747443078057 0 0 0 0 4.293854415492433 -24.217360047447983 0 -24.217360047447983 -24.507949784491302 0 0 0 0 -6.0899760914742274 -23.435765700360207 0 -23.435765700360207 -8.5775327696155728 0 0 0 0 -19.87831337404657 -18.144179947438261 0 -18.144179947438261 47.936603623269548 0 0 0 0 -25.53342039919221 -46.07974729183843 0 -46.07974729183843 31.436531424322311 0 0 0 0 -1.1802012649520268 -2.75212553584951 0 -2.75212553584951 -1.2849378372731834 0 0 0 0 -14.122112699142122 -41.753275669589129 0 -41.753275669589129 21.873106056606048 0 0 0 0 -2.0928863904973696 -1.2183938002981449 0 -1.2183938002981449 21.235254667596863 0 0 0 0 19.100030728782713 -21.327424056909649 0 -21.327424056909649 -44.481274927758932 0 0 0 0 -13.640724898819144 -24.105713487430648 0 -24.105713487430648 -22.197800974805432 0 0 0 0 3.5964639480241658 -34.231040059723455 0 -34.231040059723455 -40.264819156398516 0 0 0 0 6.0055816530871198 -29.381077271595132 0 -29.381077271595132 -41.278775107824458 0 0 0 0 -18.07416329218529 -28.033808423750543 0 -28.033808423750543 -23.082391975449355 0 0 0 0 -5.5270584734244039 -52.419822409523022 0 -52.419822409523022 -17.905791402181421 0 0 0 0 -13.317742855795814 -49.312044915787737 0 -49.312044915787737 -53.419781076543586 0 0 0 0 0.39528830524407788 -11.373277287366445 0 -11.373277287366445 -7.8441996495077007 0 0 0 0 34.282912617881266 -17.284339578562594 0 -17.284339578562594 -21.550634114254535 0 0 0 0 32.897978625177075 -6.6117419263136981 0 -6.6117419263136981 -51.792625836515072 0 0 0 0 -6.8764529791733935 -11.901892592842614 0 -11.901892592842614 -2.7186806296940631 0 0 0 0 4.2232716984490253 -23.014374391115325 0 -23.014374391115325 12.253783745803958 0 0 0 0 -1.2506486228998173 -11.409295311723763 0 -11.409295311723763 -5.3078773926467484 0 0 0 0 3.0285825840780944 -18.14568415785493 0 -18.14568415785493 -9.4536943443054042 0 0 0 0 -2.0563656997037469 -15.597502462947432 0 -15.597502462947432 -3.67993952532197 0 0 0 0 -4.6522974071285716 -18.773063584962983 0 -18.773063584962983 -7.5533793393015003 0 0 0 0 -4.5719538551857113 -14.778772371347031 0 -14.778772371347031 1.1516930783436692 0 0 0 0 -4.6752559886781455 -13.759135823281213 0 -13.759135823281213 -4.849069339581547 0 0 0 0 -2.3819117789316806 -7.3892392000366272 0 -7.3892392000366272 1.5885840017435839 0 0 0 0 12.402195046208362 -2.1642346187709336 0 -2.1642346187709336 3.2719546752996393 0 0 0 0 3.5568890698141331 -15.768206103659395 0 -15.768206103659395 5.6365527662171644 0 0 0 0 10.970128941751682 -10.339020461831751 0 -10.339020461831751 -0.0027215413228987018 0 0 0 0 -1.5783153089869302 -11.664369387433908 0 -11.664369387433908 4.202885135426186 0 0 0 0 -1.4235106036194338 -15.918732417188949 0 -15.918732417188949 1.5035989454872833 0 0 0 0 -2.0613180464679317 -13.832726146231835 0 -13.832726146231835 -0.96696725188894561 0 0 0 0 9.4458602079375851 7.9325360258671935 0 7.9325360258671935 -1.1451310721288337 0 0 0 0 21.620720946229994 9.1738487370530493 0 9.1738487370530493 18.118194106435112 0 0 0 0 7.8923278045027132 -7.478064980785982 0 -7.478064980785982 2.3274149982282202 0 0 0 0 -0.50912774098660663 -1.7667212766223113 0 -1.7667212766223113 1.1478046678926308 0 0 0 0 -3.5940277598710964 -12.767772686800072 0 -12.767772686800072 14.003878035502566 0 0 0 0 33.87455510453583 -1.7269590235064243 0 -1.7269590235064243 3.4619488951257154 0 0 0 0 1.6265406075138351 -0.35691073057716238 0 -0.35691073057716238 -0.72282402285777536 0 0 0 0 45.207747505253792 23.389491040380562 0 23.389491040380562 -39.303162862957834 0 0 0 0 6.5748256466068291 -6.5292143665614191 0 -6.5292143665614191 2.0784341053937112 0 0 0 0 2.2320847141481863 -2.862388821942659 0 -2.862388821942659 2.2879237837732944 0 0 0 0 6.9666522700172209 -1.8233899425786149 0 -1.8233899425786149 -2.206938684699935 0 0 0 0 1.135194403578847 0.076237198593783972 0 0.076237198593783972 -0.030821866744659587 0 0 0 0 2.2523047879444675 -0.28313459975455757 0 -0.28313459975455757 14.750546590583326 0 0 0 0 -2.5394760926610616 -7.6057451869037322 0 -7.6057451869037322 12.410011939398828 0 0 0 0 -0.040677742886146007 -13.831503194006473 0 -13.831503194006473 0.13775978728335758 0 0 0 0 -0.039023278397507966 -17.70110395247525 0 -17.70110395247525 25.017974171247261 0 0 0 0 -1.9792208755052343 -14.472349687486712 0 -14.472349687486712 -1.6369638977175782 0 0 0 0 -2.8144928127351818 -13.255508066371021 0 -13.255508066371021 -0.34642365765830618 0 0 0 0 1.5246272671029146 -9.4206929317724644 0 -9.4206929317724644 2.721277968143113 0 0 0 0 -3.0656333016668214 -12.563919429017005 0 -12.563919429017005 -1.3895894460511045 0 0 0 0 -6.6219795236661412 -15.163441635148047 0 -15.163441635148047 -5.1889331039274111 0 0 0 0 -5.0766522883623111 -17.555574366198016 0 -17.555574366198016 -2.3183557331158227 0 0 0 0 -2.3650539294703776 -18.689637874766049 0 -18.689637874766049 -13.214442801157929 0 0 0 0 0.78143956781059387 -17.709456576454613 0 -17.709456576454613 -13.787987851541402 0 0 0 0 1.5619861660101222 -4.8576327812150311 0 -4.8576327812150311 4.0046850578137558 0 0 0 0 10.407832712249729 -18.768287895983121 0 -18.768287895983121 -29.254980720985714 0 0 0 0 -5.5826696334729604 -9.544967246683882 0 -9.544967246683882 -24.190564991644351 0 0 0 0 -3.4278664245775872 -30.084995045442611 0 -30.084995045442611 -29.403300755594501 0 0 0 0 0.10489212763351929 -0.67086903455006919 0 -0.67086903455006919 -1.9857445585991442 0 0 0 0 -2.33917353607103 -18.880185855025047 0 -18.880185855025047 -13.186842740349675 0 0 0 0 -5.3371764748935675 -19.163223909254157 0 -19.163223909254157 -4.1239643022686323 0 0 0 0 -5.8999726925908362 -11.151074997321302 0 -11.151074997321302 -19.790275500248754 0 0 0 0 -6.544427709674892 -17.173558600609795 0 -17.173558600609795 3.5140624931336788 0 0 0 0 13.631232016035938 -19.262201366219415 0 -19.262201366219415 -16.73008620030123 0 0 0 0 -10.96266119838856 -27.30668289116602 0 -27.30668289116602 -11.888461753887668 0 0 0 0 4.9135302704517017 -18.961039459226413 0 -18.961039459226413 -32.294242526570542 0 0 0 0 -9.8308689231434983 -2.4717207071571465 0 -2.4717207071571465 -11.472644226078046 0 0 0 0 -7.3480269393512572 -11.803280877609723 0 -11.803280877609723 -11.409053675015457 0 0 0 0 -1.2746419238738724 -3.3503806793538651 0 -3.3503806793538651 2.9352290406651509 0 0 0 0 1.5485657365059602 -2.542153505605345 0 -2.542153505605345 0.01011299672549093 0 0 0 0 0.88941645951672399 -18.027772372619438 0 -18.027772372619438 -23.674684277310007 0 0 0 0 -6.9891493752532483 -9.5797728192833063 0 -9.5797728192833063 -9.4088579372910317 0 0 0 0 -27.072630549590031 -36.335100156423323 0 -36.335100156423323 -4.3562576474109846 0 0 0 0 -10.255963213498035 11.999256896373481 0 11.999256896373481 -15.036841980611825 0 0 0 0 -0.051148560994862535 -0.38141226935774597 0 -0.38141226935774597 -0.71727325022694544 0 0 0 0 -0.077937063512962368 -3.3347260394071974 0 -3.3347260394071974 3.4072789606810865 0 0 0 0 1.5640817400853848 0.1183914230659866 0 0.1183914230659866 -18.105068119606585 0 0 0 0 1.3143233877590319 -8.5962310457543936 0 -8.5962310457543936 -27.964678263178939 0 0 0 0 21.111358350696946 3.8707995753947557 0 3.8707995753947557 -3.8539107363267249 0 0 0 0 -13.646098333478676 -9.0120994882782384 0 -9.0120994882782384 -15.6009379908337 0 0 0 0 5.84245467970959 -9.9447244328675879 0 -9.9447244328675879 -16.334089980912267 0 0 0 0 17.724755749629367 -26.943354623435425 0 -26.943354623435425 -3.3677841847293166 0 0 0 0 -17.79807303178859 -21.536196039709012 0 -21.536196039709012 -0.28503430813816522 0 0 0 0 5.0053605867326034 -3.1793940741929418 0 -3.1793940741929418 -0.82314226396253787 0 0 0 0 1.0929402068268246 9.9908389576685295 0 9.9908389576685295 -16.8736375946728 0 0 0 0 0.47540512176783523 1.3710773004295334 0 1.3710773004295334 0.31767838908763224 0 0 0 0 6.7744705858750098 -4.5605935871176193 0 -4.5605935871176193 1.084419586499731 0 0 0 0 -11.360819596436158 -11.083395795129036 0 -11.083395795129036 9.1959054032886343 0 0 0 0 25.11748922672723 -16.370725061646681 0 -16.370725061646681 19.343982259732002 0 0 0 0 -1.9365074042761989 -5.8742309386880152 0 -5.8742309386880152 -8.0645335034262189 0 0 0 0 -1.6790178440478485 -12.990625016003833 0 -12.990625016003833 -16.342654179699821 0 0 0 0 -1.3573609469877361 -0.86751352427606498 0 -0.86751352427606498 0.65933739819256143 0 0 0 0 -7.4543852056722244 -10.045917201593511 0 -10.045917201593511 -8.2872498785159223 0 0 0 0 -5.4322362481475466 -16.811861843228371 0 -16.811861843228371 -33.504538547266748 0 0 0 0 -14.891009752879654 -12.848108475269328 0 -12.848108475269328 -6.8932186112292584 0 0 0 0 -0.58962886102064616 0.042237696015043014 0 0.042237696015043014 -0.058334201093081184 0 0 0 0 19.432970390773335 -27.842343463658835 0 -27.842343463658835 -81.99182399939582 0 0 0 0 -9.0393809779552612 -5.9272507228770337 0 -5.9272507228770337 -35.465544860016962 0 0 0 0 7.2394495722664942 4.4005427767829133 0 4.4005427767829133 12.463078574470273 0 0 0 0 -0.15705974738481387 0.043402759412082048 0 0.043402759412082048 -0.033557932027161286 0 0 0 0 -8.0227223775973471 -2.6903945954627488 0 -2.6903945954627488 50.445481490868588 0 0 0 0 -7.6148088090976671 -4.2417869763667113 0 -4.2417869763667113 25.512375308728906 0 0 0 0 0.95216001516057958 -3.118048866447225 0 -3.118048866447225 1.2179751684201587 0 0 0 0 -12.749686250645027 -8.6852842393195715 0 -8.6852842393195715 0.51932267111169494 0 0 0 0 -22.814118435331693 -40.445836665355273 0 -40.445836665355273 -28.932822555417715 0 0 0 0 3.8920705320879279 -34.563449131004745 0 -34.563449131004745 -35.398616189663699 0 0 0 0 -1.128224774445016 0.97244155200678506 0 0.97244155200678506 -17.544757242972992 0 0 0 0 6.723852424531982 -6.1832084516272552 0 -6.1832084516272552 -2.7266987906428604 0 0 0 0 0.048997371311997995 -20.886998907914858 0 -20.886998907914858 21.151174629630077 0 0 0 0 -0.23155219120599213 -23.824945370787646 0 -23.824945370787646 -6.3752520883251691 0 0 0 0 -20.201334224702805 -18.562436031089419 0 -18.562436031089419 1.4901011931865469 0 0 0 0 -0.6938357064246361 -12.531063004499089 0 -12.531063004499089 -7.7674445201228082 0 0 0 0 -9.7630878852128262 -28.964401519241619 0 -28.964401519241619 -1.8156249321309588 0 0 0 0 5.8096661547661732 -6.8615366092340508 0 -6.8615366092340508 -0.9858202987296103 0 0 0 0 12.915248945386338 -18.437588510827482 0 -18.437588510827482 -18.270037695722749 0 0 0 0 15.859541583657119 -2.1302246197396926 0 -2.1302246197396926 -1.1794777935119782 0 0 0 0 33.389240572632843 -7.4567407310114504 0 -7.4567407310114504 -14.269858001102193 0 0 0 0 15.474985117941287 12.228248859141331 0 12.228248859141331 12.227905966467006 0 0 0 0 -29.521371983259996 -39.971438201605906 0 -39.971438201605906 5.9285028919439355 0 0 0 0 -25.225578238238313 -22.156623299902208 0 -22.156623299902208 35.988546685535766 0 0 0 0 -5.8383170421070645 -1.5511850947284529 0 -1.5511850947284529 -0.83808241351744073 0 0 0 0 2.0754298886786273 -11.639809187449828 0 -11.639809187449828 9.5003744619596091 0 0 0 0 6.4339945016545244 -1.8618066207382071 0 -1.8618066207382071 1.8975302538669894 0 0 0 0 -0.49053350725444034 -13.994474277110839 0 -13.994474277110839 -13.372891562461973 0 0 0 0 -1.6688662855467555 -1.3573310419742484 0 -1.3573310419742484 1.5856198295505237 0 0 0 0 4.1320458821543617 -2.0944827332070481 0 -2.0944827332070481 -3.5302083840797778 0 0 0 0 -3.9388308245570123 -3.8702297937234214 0 -3.8702297937234214 4.4347730864215906 0 0 0 0 -6.4567232364825031 1.9640098526779184 0 1.9640098526779184 18.642780243375455 0 0 0 0 1.1208006448632659 -20.304489593724611 0 -20.304489593724611 3.5133197549512261 0 0 0 0 -5.4274093458261632 -10.320616448336295 0 -10.320616448336295 -7.9425898370573123 0 0 0 0 10.031052874904162 -17.149489716203789 0 -17.149489716203789 -39.156403842649524 0 0 0 0 -0.22188468154115526 -0.095067967004705878 0 -0.095067967004705878 1.0784979450323693 0 0 0 0 -21.900872449795315 -21.565543156662443 0 -21.565543156662443 -7.8777810539770599 0 0 0 0 -4.8135943699662675 -9.796469961063849 0 -9.796469961063849 -28.484965762882894 0 0 0 0 17.662217389473881 -35.524921599167101 0 -35.524921599167101 -55.784373514641175 0 0 0 0 -4.9183293487003539 -33.951883472880581 0 -33.951883472880581 13.716158369870755 0 0 0 0 0.68854071010385454 -0.93258667298782072 0 -0.93258667298782072 -1.5920387418827033 0 0 0 0 2.0548305452423996 -1.1890672731664935 0 -1.1890672731664935 -0.64449494452263423 0 0 0 0 2.9263527099037674 -11.8156440538487 0 -11.8156440538487 43.959197254271203 0 0 0 0 -15.743980049867787 -6.531707598279354 0 -6.531707598279354 17.623471000284553 0 0 0 0 137.54068568094226 -7.364645126586538 0 -7.364645126586538 -44.284607258600204 0 0 0 0 39.390900657164821 -116.56398687677142 0 -116.56398687677142 55.111772546771363 0 0 0 0 0.26330554361347325 -7.800666773640927 0 -7.800666773640927 11.94421614039825 0 0 0 0 1.00772054636127 10.527690455884112 0 10.527690455884112 33.325567438096186 0 0 0 0 27.871860577922007 1.9184549503935386 0 1.9184549503935386 -68.987538194853187 0 0 0 0 5.2817858983617043 1.4237499737619146 0 1.4237499737619146 -9.71907676574574 0 0 0 0 -1.4019200677594199 15.039244057520591 0 15.039244057520591 23.058490940136153 0 0 0 0 0.78378980018072042 -0.25730315414519112 0 -0.25730315414519112 0.049838321368753213 0 0 0 0 -7.7159111104756448 -23.83850128239601 0 -23.83850128239601 22.289091337295758 0 0 0 0 11.873158720398351 -48.522232607687783 0 -48.522232607687783 -16.645185512477838 0 0 0 0 -2.9107072597907973 -15.641228277730079 0 -15.641228277730079 42.904687713105204 0 0 0 0 12.656995965229726 -12.274244041654811 0 -12.274244041654811 19.769967423952949 0 0 0 0 -21.866277272558364 9.3391600394052148 0 9.3391600394052148 114.14221454760923 0 0 0 0 0.81910795439339523 -0.024097115715855821 0 -0.024097115715855821 0.11549758164603041 0 0 0 0 -30.286254290866054 -7.8480483025905414 0 -7.8480483025905414 -70.536185744100749 0 0 0 0 -37.628281221552243 -51.130492684784258 0 -51.130492684784258 65.360012090139207 0 0 0 0 -0.314234619250783 -9.7171503514487085 0 -9.7171503514487085 11.785279390013102 0 0 0 0 -0.33523286644231121 -9.4620312996303255 0 -9.4620312996303255 8.7538663547147735 0 0 0 0 19.512828150608584 -6.5563994537769759 0 -6.5563994537769759 -17.994947520394362 0 0 0 0 -1.934880587573705 -5.3799299611269564 0 -5.3799299611269564 0.57459575094324222 0 0 0 0 -5.8651247539801261 -13.61708408409504 0 -13.61708408409504 19.714709681808074 0 0 0 0 32.007868239072195 -63.439777107078271 0 -63.439777107078271 -6.464311088415343 0 0 0 0 0.85481326806942093 -10.873678114554753 0 -10.873678114554753 5.0693819051512214 0 0 0 0 1.3345531680417579 -9.2208430865846385 0 -9.2208430865846385 3.6470711379163654 0 0 0 0 -44.762524027257314 -85.967497831331457 0 -85.967497831331457 -147.62097902312325 0 0 0 0 -22.353752534689647 -23.695484982508702 0 -23.695484982508702 60.712844549419515 0 0 0 0 -15.865743956735059 -7.24926136458879 0 -7.24926136458879 42.75866045053408 0 0 0 0 -40.518354025030931 36.72853884822473 0 36.72853884822473 100.2630768402571 0 0 0 0 -8.1656076273466169 14.883594880864621 0 14.883594880864621 -5.0130548371494115 0 0 0 0 -2.578485374662705 -16.033145039174997 0 -16.033145039174997 -6.8480861760171479 0 0 0 0 4.5747238686651031 -2.235922755633406 0 -2.235922755633406 3.2940512853082051 0 0 0 0 9.0867768474399782 -11.773872258478644 0 -11.773872258478644 -5.3215804038654682 0 0 0 0 2.492851270575958 -7.0429547069470324 0 -7.0429547069470324 12.502737953924562 0 0 0 0 6.9990240005417945 -5.9227301580272069 0 -5.9227301580272069 13.478654472085509 0 0 0 0 1.4682222720202844 -6.2722809397751007 0 -6.2722809397751007 1.9816907986312344 0 0 0 0 2.3214295241389422 -8.0364403528138642 0 -8.0364403528138642 6.1995304208186139 0 0 0 0 5.9764008301885951 -25.398122086708099 0 -25.398122086708099 -5.1935105000429758 0 0 0 0 2.8068617893277406 -13.494291299858096 0 -13.494291299858096 11.611014074657657 0 0 0 0 4.7106830866619394 -6.8592119778106744 0 -6.8592119778106744 1.9227795706673017 0 0 0 0 -3.9677763416254948 -2.9359177041127058 0 -2.9359177041127058 0.10309741022985142 0 0 0 0 -26.399830482780999 -81.106494299414749 0 -81.106494299414749 15.839551501897972 0 0 0 0 4.1774535744398236 -23.328220598508665 0 -23.328220598508665 15.44342235777151 0 0 0 0 63.281035110289622 112.11326142084707 0 112.11326142084707 16.441862459134313 0 0 0 0 -6.1251524562067061 1.443070189926857 0 1.443070189926857 -20.397376065966 0 0 0 0 -44.624621234494043 -214.41642741518763 0 -214.41642741518763 -277.80634098858718 0 0 0 0 0.68139265509111091 -0.98992141527396349 0 -0.98992141527396349 -2.0984445067773247 0 0 0 0 -184.93697097792028 -76.210893271937039 0 -76.210893271937039 243.73369593996449 0 0 0 0 -95.468617307150453 -50.808081162725102 0 -50.808081162725102 243.82684556951153 0 0 0 0 11.584455748092296 -21.859368220992621 0 -21.859368220992621 2.2628129188674961 0 0 0 0 1.4406334602181232 -2.3760690082119815 0 -2.3760690082119815 8.6171099997686724 0 0 0 0 -41.178334044971052 -36.368452382513794 0 -36.368452382513794 -5.2495376243585952 0 0 0 0 -1.6157177254501356 -0.35718544162468024 0 -0.35718544162468024 -0.21213674563671581 0 0 0 0 -34.48111768516992 -19.040558814836785 0 -19.040558814836785 36.716080796562693 0 0 0 0 -35.293389563694291 -16.941528953997761 0 -16.941528953997761 14.161220970409374 0 0 0 0 -24.157822528726683 -14.933090068724397 0 -14.933090068724397 2.9289741126595459 0 0 0 0 -24.95513879365194 -10.434533680710672 0 -10.434533680710672 -2.9309023210925602 0 0 0 0 -11.409336254447226 -13.300614346058751 0 -13.300614346058751 -54.454056749779284 0 0 0 0 -16.175480416206483 -26.462377164595409 0 -26.462377164595409 -11.022877202789687 0 0 0 0 -15.54516829352724 -4.0983875168858503 0 -4.0983875168858503 -6.9110949011630396 0 0 0 0 -22.494165963828436 -39.008134545015054 0 -39.008134545015054 27.511192790022051 0 0 0 0 -13.930392112824848 -38.536722809953972 0 -38.536722809953972 10.518898855777252 0 0 0 0 -17.888600665566628 -30.010752796655026 0 -30.010752796655026 -7.521826432009675 0 0 0 0 -20.654795525339068 -22.564008374560139 0 -22.564008374560139 3.137988636703291 0 0 0 0 -10.394533573622539 -33.314158304742897 0 -33.314158304742897 -5.5173611221338774 0 0 0 0 -18.654575211357951 -28.155703480401428 0 -28.155703480401428 -20.360849530501241 0 0 0 0 -19.163310136648761 -27.687365376016317 0 -27.687365376016317 -4.1983657784154502 0 0 0 0 -32.664206894819472 -31.880579803220485 0 -31.880579803220485 -3.6758446292471945 0 0 0 0 -23.997726761269405 -20.122717423062937 0 -20.122717423062937 -18.525115189068288 0 0 0 0 -5.0349464102218917 -25.419421171960934 0 -25.419421171960934 -19.284855067529932 0 0 0 0 -6.6862777728538276 -27.656680016436599 0 -27.656680016436599 -6.8534361559437684 0 0 0 0 3.7781742927472806 -28.17889020171873 0 -28.17889020171873 -7.5824418780223226 0 0 0 0 -2.4579700388362653 -27.095035056038512 0 -27.095035056038512 -4.793550192482229 0 0 0 0 0.42374497198761674 -27.242403067064856 0 -27.242403067064856 -14.006609897517443 0 0 0 0 -3.1964317205010957 -27.586866844024058 0 -27.586866844024058 -4.923790027056782 0 0 0 0 5.7363192695065663 -29.10926146547942 0 -29.10926146547942 4.956817271565285 0 0 0 0 -3.8276073114193423 -31.609491201955024 0 -31.609491201955024 4.7961361735224557 0 0 0 0 -3.7801326838603018 -23.002439209008323 0 -23.002439209008323 20.424643624903638 0 0 0 0 -12.216969577721102 -30.36723823506847 0 -30.36723823506847 10.975319093305018 0 0 0 0 -7.8419537145355207 -25.066145984952584 0 -25.066145984952584 28.639933386982648 0 0 0 0 -1.3890301967439882 -27.67919652943749 0 -27.67919652943749 11.604543647371997 0 0 0 0 -22.964658495022377 -38.55972381884942 0 -38.55972381884942 36.263467928158434 0 0 0 0 -2.0274054895747788 -0.13387516709041991 0 -0.13387516709041991 -0.026642652755033858 0 0 0 0 37.440358468207705 -29.487725574378146 0 -29.487725574378146 -152.55230953807302 0 0 0 0 -66.473691915374729 -37.436153370377497 0 -37.436153370377497 82.302814045980767 0 0 0 0 -41.420314873172174 -8.0490640513764902 0 -8.0490640513764902 106.79947235968234 0 0 0 0 -11.221068959264812 -12.717159258089396 0 -12.717159258089396 72.280924793529948 0 0 0 0 13.314009515168436 1.565240661492453 0 1.565240661492453 51.917765316331611 0 0 0 0 -6.3690675091274898 -26.085785174765533 0 -26.085785174765533 28.775010397500807 0 0 0 0 -6.1019790893154102 0.46552694675413298 0 0.46552694675413298 0.10495696542168523 0 0 0 0 -8.4186680348798291 -14.107964876893647 0 -14.107964876893647 41.619352852862221 0 0 0 0 4.9973558809579117 -22.103221067219124 0 -22.103221067219124 20.108837060869547 0 0 0 0 -29.970910164417546 -21.665603046097829 0 -21.665603046097829 -9.7541681730990604 0 0 0 0 -4.8840828772349703 -7.8015788568270006 0 -7.8015788568270006 3.380897999057455 0 0 0 0 1.57208091555799 -14.812349616021265 0 -14.812349616021265 -74.232337299832352 0 0 0 0 7.5399047450441685 27.405717204766404 0 27.405717204766404 -63.743024113045067 0 0 0 0 24.103986345657177 -14.308944914921426 0 -14.308944914921426 -140.34864940254181 0 0 0 0 -0.17651989856767614 -9.4310183203983797 0 -9.4310183203983797 -11.791650785440197 0 0 0 0 -3.8320881846866541 -9.6925999248546759 0 -9.6925999248546759 -4.4748840435295278 0 0 0 0 -37.935166966854013 -9.0277016131781238 0 -9.0277016131781238 11.998214883606977 0 0 0 0 -3.8936656336686362 -8.3886206359719271 0 -8.3886206359719271 3.3520984083165519 0 0 0 0 1.6996351608813711 -14.204543753788585 0 -14.204543753788585 -31.532808697219934 0 0 0 0 21.97210854547302 16.101336453076101 0 16.101336453076101 14.305300361039599 0 0 0 0 0.38926209968164827 -2.8560194614542134 0 -2.8560194614542134 -2.8630297544188945 0 0 0 0 -28.144003765602974 -17.59713788725162 0 -17.59713788725162 -32.747741291507282 0 0 0 0 -0.3343761042989275 -5.3410533049113376 0 -5.3410533049113376 1.6499460059583626 0 0 0 0 -3.0143432520169711 -7.6815138412297292 0 -7.6815138412297292 7.2872612540188735 0 0 0 0 -1.8436036378398057 -8.0833957822210323 0 -8.0833957822210323 -3.1838087404330508 0 0 0 0 -1.262745949341479 -59.23307977906893 0 -59.23307977906893 -44.218058604618705 0 0 0 0 2.0815830903527157 -0.48473492794409268 0 -0.48473492794409268 -0.17051703468743806 0 0 0 0 18.221074978848264 5.0789108148080686 0 5.0789108148080686 87.247048416867983 0 0 0 0 0.19451665545766872 -1.939931007529303 0 -1.939931007529303 -2.9492057734164252 0 0 0 0 4.1640485440657358 -20.299216596812585 0 -20.299216596812585 105.00910697186782 0 0 0 0 -15.864616407927315 5.8625632155858511 0 5.8625632155858511 88.846910209325756 0 0 0 0 5.2016352339105651 -8.9973716838524069 0 -8.9973716838524069 89.413802304345609 0 0 0 0 -2.1341680109253502 -82.803483931959818 0 -82.803483931959818 -9.6457960856632781 0 0 0 0 -5.2792769985717314 -66.895134690055329 0 -66.895134690055329 -19.858641538997063 0 0 0 0 -10.09198444570211 -88.812953519625808 0 -88.812953519625808 61.627661501596322 0 0 0 0 -109.1599562847623 -67.431625560258681 0 -67.431625560258681 100.96499178907038 0 0 0 0 15.543783550878288 -107.91643946107206 0 -107.91643946107206 23.535351173869458 0 0 0 0 -12.322814104938516 -73.94789617155493 0 -73.94789617155493 -0.85834026495285798 0 0 0 0 -47.584135603490722 -235.39633462075062 0 -235.39633462075062 350.5001243796778 0 0 0 0 -173.87425279677336 -85.052449797926556 0 -85.052449797926556 -59.777286366535009 0 0 0 0 133.18183890964247 7.9529851793977286 0 7.9529851793977286 -283.18964101535084 0 0 0 0 29.532945254555671 -47.754503222579842 0 -47.754503222579842 54.045027843147182 0 0 0 0 42.358042601622856 -87.347965206575395 0 -87.347965206575395 107.84270257549861 0 0 0 0 
</DataArray>
<DataArray type="Float64" Name="cross_section_updated" format="ascii">
1 1 1 1 1 1 1 1 1 1 1 1 1 1 1 0.0087965108992911802 1 1 1 1 1 1 1 1 0.0099011181930656316 1 1 1 1 0.0097501811791703384 1 1 1 1 1 0.0083138259419631294 1 1 1 1 1 1 0.011530846938535245 1 1 1 1 1 0.0081724322094620435 1 1 1 1 1 1 1 1 0.010714307717421611 1 1 0.0089195095155061577 1 1 1 1 1 0.0096567286781640248 1 1 0.011490579264203042 0.0099991737659420009 1 1 0.010642312178928207 1 0.0098490341014473536 1 1 1 1 1 1 0.010236468751144305 1 1 1 1 1 1 1 1 1 0.011582265712564693 1 1 1 1 1 1 1 1 1 1 0.011086188522482762 1 1 0.0099880308176195504 1 1 1 0.011403461810584173 1 1 1 1 1 1 1 1 1 1 1 0.009286735594354046 1 1 0.010014068402975494 1 0.0099719230411578728 1 1 1 0.0090613277418511422 1 1 0.01031749227216909 1 0.009921155977282603 1 1 1 0.010076719650266963 1 1 1 0.0095811822077210458 1 1 1 0.0099927010369360338 1 0.010003666796035871 0.0091379315698007033 1 1 1 0.0097190578098644807 0.010001268586158013 1 1 1 1 1 1 1 1 1 1 1 1 1 1 1 1 1 1 1 1 1 1 1 1 1 1 1 1 1 1 1 1 1 1 1 1 1 0.010293038881357618 1 1 1 1 1 1 1 1 1 1 1 1 1 1 1 1 1 1 1 1 1 1 1 1 1 1 1 1 1 1 0.010121827838078112 1 1 1 1 1 1 1 1 0.010254381355037822 0.010254611881405133 1 1 1 1 1 0.010568525537728496 1 1 1 1 1 1 1 1 1 1 1 1 0.010042990561922141 1 1 1 1 0.0099220351734236704 1 1 0.010050196794739268 0.010651298482554444 1 0.01034596418779225 1 1 1 0.0099724160083926698 1 0.010420328455706427 1 1 1 1 0.01136518665753365 1 1 1 1 0.009976414319597178 1 1 1 1 1 1 1 1 1 1 1 1 1 1 1 1 1 1 1 1 1 1 1 1 1 1 1 1 1 1 1 0.010309603890466314 1 1 1 1 1 1 1 1 1 1 1 1 1 1 1 1 1 1 1 1 0.010115863699535993 1 1 1 1 1 1 1 0.0099431232869422632 1 1 0.0097810048081087599 1 1 1 1 1 1 0.010095565107618939 1 1 1 1 1 1 1 1 1 1 1 1 1 1 1 0.009225431936517571 1 1 1 1 0.0099942242613476791 1 1 0.0093797420853674145 1 0.010011519135794428 1 1 1 1 1 1 1 0.0099714927436924811 1 1 1 1 0.0090611934279680902 1 1 1 1 1 1 1 1 1 1 1 1 0.011432951186043448 1 1 1 1 1 1 1 1 1 1 1 1 1 1 1 1 1 1 1 1 1 1 1 1 1 1 1 1 1 1 1 1 0.010212615621282891 1 1 0.01053065594855758 1 1 1 1 1 1 1 1 0.010684025244573882 1 1 1 1 1 1 1 1 1 1 0.009521362404632942 1 1 1 0.010737129828485948 0.0098880123706842678 1 1 1 0.010008026087647406 1 1 1 1 1 1 1 1 1 1 0.010050874085582702 1 1 0.010132824724368619 1 1 0.010149776797293935 1 1 1 1 1 1 1 1 1 1 1 1 0.010416533092169583 1 1 1 1 1 1 0.011025782959130755 1 1 0.0095907173574236605 1 1 1 1 1 1 0.010097568183412071 1 1 1 1 0.010131131887627464 0.010861922340100359 1 1 1 0.010002871815619875 1 0.0096294051636592916 1 1 1 1 1 1 1 0.0098677621303689539 1 1 1 1 1 1 1 1 1 1 1 1 1 1 1 0.010361793318655809 0.0095991783188783767 1 1 1 1 1 1 1 1 1 1 1 0.010067818387591786 1 1 1 1 1 1 1 1 1 1 1 1 1 1 1 1 1 1 1 1 1 1 0.010365219881260462 1 0.010306100111167582 1 1 1 0.010171479690330141 1 1 1 1 1 1 0.0099675006110708283 1 1 1 1 1 1 1 1 1 1 1 1 1 1 1 1 1 1 1 1 1 1 1 1 1 1 1 1 1 1 1 1 1 1 1 1 0.010855088764746803 1 1 0.0094048997716838761 1 1 1 1 1 1 1 1 0.010000804961084476 1 1 1 1 1 1 1 1 1 1 1 1 1 1 1 1 1 1 1 1 1 0.0092581556664493875 1 1 0.0091586808794754324 1 1 1 0.010803967232999548 1 1 0.010522041138069725 1 1 1 1 0.010575814150938466 1 0.010625404457478818 1 1 1 1 0.011050507819219941 1 1 1 1 0.0095226981959579335 0.011229572148924161 1 1 1 0.010029024440925403 1 0.010004923857670307 1 1 1 1 1 1 1 1 1 0.0096705088079917442 0.01009936059516214 1 0.0099020272358068765 1 1 1 1 1 1 1 1 1 1 1 1 1 1 1 1 1 1 1 1 1 1 1 0.0098442192323769349 1 1 0.0099981613925675273 1 1 1 1 1 1 1 1 1 1 0.010879345297624996 1 1 1 1 1 1 0.01045601158202813 1 1 1 0.0099440410437013349 1 1 1 1 1 1 1 1 1 1 1 1 1 1 1 1 0.010005125645191071 1 1 0.010349169034945632 1 1 1 0.010191553057723391 1 1 0.010123939294350169 0.010181817839556 1 1 1 1 1 0.010657439741102221 1 1 1 1 1 1 1 1 0.010062835231376252 1 1 1 1 1 1 1 1 0.0099694334802424948 1 0.011124555184194217 1 1 1 0.010001761165026341 1 0.0091091439672744291 1 1 1 1 1 0.011285755208491548 1 0.010189699936028217 1 1 1 1 1 0.0096686059049745712 1 1 0.011279987655471954 1 1 1 1 0.010052176020004024 0.010425734377318186 1 1 1 0.0099994924537772818 1 1 1 1 0.0099998548214855001 1 1 0.008620925615083536 1 1 1 1 1 1 1 1 1 1 1 1 1 1 0.0092057127353659032 1 1 1 1 0.010603306896607319 1 1 1 0.0093854317305811091 1 0.010005407060604252 0.0084776998665750773 1 1 1 1 1 1 1 0.011207764585855828 0.010229824245384364 1 1 1 1 0.010000229191926261 1 0.0099664319438113151 1 1 0.0098583842647475776 1 1 0.010232202815995047 1 1 1 1 1 1 1 1 1 0.010122419998645844 0.010040861078322257 1 1 1 0.010391558683106303 0.010526239864094424 1 1 1 1 0.0095138558680415604 1 0.0099968543830890617 1 1 0.0094744014739055384 1 1 1 1 0.0098218237116380214 1 1 1 1 0.010096440192940764 0.010069346961429889 1 1 1 1 1 1 1 0.0098714449027673158 0.010688115660836118 1 1 0.010867312965906739 1 1 1 1 1 1 1 0.010036011173752525 1 1 0.010016360164760166 1 1 0.010004110939629128 0.010177034336617714 1 1 1 1 0.010060198150148495 1 1 1 1 1 0.0099832568493485249 1 1 1 1 1 1 1 1 1 1 1 1 1 1 1 1 0.010978632454008663 1 1 1 1 0.01011410020899583 1 0.0099088430200837668 1 0.010265323110912144 1 1 1 1 1 0.0099728643076148395 1 1 1 1 1 1 1 0.010095603729113653 1 1 1 1 1 1 1 1 1 1 1 1 0.010465816746339295 1 0.009905283372362652 1 1 0.011102252204202176 1 1 1 1 1 1 0.010335379418255665 1 0.011211067505872498 1 1 1 1 1 1 0.010042661052380306 1 1 1 0.010368806383622427 1 1 1 1 1 0.01013139705002419 1 1 1 0.010155629411529005 1 0.009998705433740462 0.010324096523609173 1 1 0.010119607974462208 1 1 1 1 1 1 1 0.010001507732701472 1 0.0101904819101864 1 1 1 1 1 1 1 1 1 0.010253105040424785 1 1 0.0099685206111438576 0.010235260041081553 1 1 1 1 1 0.010078746137728415 1 0.010369982431590014 1 1 1 1 0.011338659133083157 1 0.0093777813554591968 1 0.0093670095687057465 1 1 1 1 1 1 1 1 1 1 1 0.009752398316266838 1 1 1 1 1 1 0.01002787021593984 1 1 1 1 1 1 1 1 0.0098946066654651069 1 1 0.0098638816559914796 1 0.0099968364762495383 1 1 1 1 0.0098932626092506255 1 1 1 1 1 1 1 1 1 1 1 1 0.010502496871489398 0.0097840735304008924 1 1 1 0.0099578516456568979 0.0093326488053118752 1 0.010657489500499859 0.011208513294716844 0.0107653918684338 0.0098168733543396568 1 1 1 1 1 1 0.011733045382823978 1 1 1 1 1 1 1 1 1 1 0.011248901131060033 0.010029769967602062 1 1 1 1 1 1 1 1 1 1 1 1 1 1 1 1 0.0099606792797206946 1 0.0099600746267384625 1 1 1 1 1 0.010008006351893521 1 0.0078753671265589555 1 1 1 1 1 1 0.0094219522324819668 1 1 1 1 1 1 1 1 1 1 1 1 1 1 1 1 1 1 1 1 1 0.0094939497602321496 1 1 1 1 1 1 1 1 1 1 0.0095731791757964705 1 1 0.010024881040247706 1 1 1 1 1 1 1 0.012371012068630265 0.0099081956535205067 0.010917173055698108 1 1 0.010035733752735181 1 1 1 1 1 1 1 1 1 1 1 1 1 1 1 1 1 0.010894398129419624 1 1 0.01004955053680536 1 1 1 1 0.012364082544215598 0.0099723356027871003 0.0097718223070437388 0.0091965778417073089 1 0.011132502239358508 1 0.010655319325339113 1 1 1 1 1 1 1 1 0.010593252899880647 1 1 0.010354322681842739 1 1 1 1 1 1 1 0.009962515171580956 1 1 1 0.010100179804111606 1 0.0098886343146476798 1 1 1 1 0.010444763597205373 1 1 0.0099210614370228503 1 1 1 1 1 1 1 1 1 1 1 1 1 1 1 1 1 1 1 1 1 1 0.010141453897092966 1 1 1 0.010056046739725799 1 1 1 1 1 1 1 0.010085582964101563 1 1 1 0.010069481199337758 1 1 1 1 1 1 1 1 1 0.010034513938909896 1 1 1 1 1 0.010098912345674563 1 1 1 0.010019624098217605 0.0099956107722878364 1 1 1 1 1 1 1 0.010066018257128459 1 1 1 1 0.010043314227944165 1 1 0.010097913650657316 1 1 1 1 1 1 0.010077998509968624 1 1 1 1 1 1 1 1 1 1 1 1 1 1 1 1 1 1 1 1 1 1 1 1 1 1 1 1 1 1 1 0.010032084956647865 1 1 1 1 1 1 1 0.0099341603511962796 1 0.010004573519347786 1 1 1 0.010008685869392396 1 1 1 1 1 0.0099144214495973382 1 1 1 1 1 1 1 1 1 1 1 1 1 1 1 1 1 1 1 1 1 1 0.010277091098819491 1 1 1 0.010002257253354643 1 1 1 0.010055772403646796 1 1 1 1 1 1 1 1 1 0.010762797439021381 1 1 1 1 1 1 0.010102728062048816 1 1 0.010250924101096638 1 1 1 1 1 1 1 1 1 0.010047251337497266 1 1 1 1 1 1 1 1 1 1 0.0097997783408332699 1 1 1 1 1 1 1 1 1 1 1 1 1 1 0.010021513227673085 1 1 0.0089910476102615551 1 1 1 1 1 0.0094260666724288802 1 1 1 1 1 1 1 1 1 0.0098200422579522093 1 1 1 1 1 1 1 0.0095127673969580134 1 1 1 0.0093694427229266911 1 1 1 1 1 1 1 1 1 1 1 1 1 1 1 1 1 1 1 1 1 1 1 1 1 1 1 0.010051394786208237 1 1 1 1 1 1 1 1 1 1 1 1 1 1 1 1 1 1 1 0.010072963878296315 1 1 1 1 1 1 1 1 1 1 1 1 1 1 1 1 1 1 1 1 0.010017963661337316 1 1 1 1 1 1 1 1 0.010253204225862893 1 1 1 1 1 1 1 1 1 1 0.0099087662522556845 1 0.0097717158423318365 1 1 1 1 0.0096838642229529776 1 1 1 1 1 1 1 1 1 1 1 1 1 1 1 1 1 1 1 1 1 1 1 1 1 1 1 0.010013498399827299 1 1 0.010016942982731092 1 1 1 1 1 1 0.010064613695495913 1 1 1 0.010151678286521604 1 1 1 1 1 0.008089959808667644 1 1 1 0.0079705585862202381 1 1 1 1 0.01008472985486507 1 1 1 1 1 0.010021512234065383 1 1 1 1 1 1 1 1 1 1 0.010871375809539788 1 0.010628343074008144 1 1 0.011409599762260135 1 0.010032787252143918 1 1 1 1 1 1 0.010011356197762057 1 1 1 1 1 1 1 1 0.0095997143086373089 1 1 1 0.011524272182471162 1 0.011639554167108447 1 1 1 1 1 1 1 1 1 1 0.011485225012154043 1 1 1 1 1 1 1 1 1 1 1 1 1 1 1 1 1 1 1 1 1 1 1 1 1 1 1 1 1 1 1 1 1 1 1 1 1 1 1 1 1 1 1 1 1 1 1 1 1 1 1 1 1 1 1 1 1 1 1 1 0.010972078925755486 1 1 1 1 1 1 1 0.0099914695258623981 1 1 1 0.0099873064933793457 1 0.010123551930537258 1 1 1 1 1 1 1 1 1 0.011587196993347655 1 1 1 1 1 1 1 1 1 1 1 1 1 1 1 1 1 1 1 1 1 1 1 1 1 1 1 1 1 1 1 1 1 1 1 1 1 1 1 1 1 1 1 1 1 1 1 1 1 1 1 1 1 1 1 1 0.010017672064921757 1 1 1 1 1 1 1 1 1 1 1 1 1 0.010074392353433 1 1 1 1 1 1 1 1 1 1 1 1 1 1 0.010052859048314971 1 1 1 1 1 0.0099831785116989979 1 1 1 1 1 1 1 1 1 1 1 1 1 1 1 1 1 1 1 1 1 1 1 1 1 1 1 1 0.0099502130536977592 1 0.010061254038261283 1 1 1 1 1 0.0099025313527304343 1 1 0.01241800849365976 1 1 1 1 1 1 1 1 1 1 1 1 1 0.0085093680241197494 1 1 1 1 1 0.0078349424634465478 1 1 1 1 1 1 1 1 1 1 1 1 1 1 1 1 1 1 1 1 0.010125834722344391 1 1 1 1 1 0.010364550181781796 1 1 1 1 1 1 0.0099813677250980611 1 1 1 1 1 1 1 1 1 1 1 1 1 1 1 0.010420636110661805 1 1 0.010824492669674836 1 1 1 1 1 1 1 1 1 1 1 1 1 1 1 1 1 1 1 1 1 0.01078909534731699 1 1 1 0.010610356883061734 1 1 1 1 1 1 1 1 1 1 1 1 1 1 1 1 1 1 1 1 1 1 1 1 1 1 1 1 1 1 1 1 1 1 1 1 0.009569714830849738 1 1 1 0.010270548930449579 0.0096330006097622711 1 0.010079366096382826 1 1 1 1 1 1 1 1 1 1 1 1 1 1 0.0096553454682101608 1 1 1 1 1 1 1 1 1 1 1 1 1 1 1 1 1 1 1 1 1 1 1 1 1 1 0.0097095193358329324 1 1 1 1 1 1 1 1 1 1 1 0.0097692924524556204 1 1 1 0.010516819878349362 1 1 1 1 1 0.0099806252193171546 1 1 1 1 1 1 1 0.0099100550533335503 1 1 1 1 1 1 1 1 1 1 0.010056720288511244 1 1 1 1 1 1 1 1 1 0.010220543977047448 1 1 1 1 1 1 1 1 1 1 1 1 1 1 1 0.01012770594049627 1 1 1 0.0094321017564063768 1 0.0089435956507330876 1 1 0.010532175399595861 0.010086780186415656 1 1 1 1 1 0.0099918228959659933 1 1 1 1 1 1 1 1 0.010059130161338329 0.0098292900009931614 0.009491794214322731 1 1 1 0.010300801751265628 1 1 0.010121919039817079 0.0093772653587226359 1 1 1 1 1 1 1 1 1 1 1 1 1 1 1 1 1 1 1 1 1 1 1 1 1 1 1 1 1 1 1 1 1 1 1 1 1 1 1 1 1 1 1 1 1 1 1 1 1 1 1 1 1 1 0.0096926871940852775 1 1 1 1 0.0099609453493396723 1 1 1 1 1 0.0099952481546940579 1 1 1 1 1 1 1 1 1 1 1 1 0.01032803566607669 1 1 1 1 0.010537420012586108 1 1 1 1 1 1 1 1 1 1 1 1 1 1 1 1 1 1 1 1 1 1 1 1 1 1 0.011432269535382109 1 0.010624315559530976 1 1 1 1 1 1 1 1 1 1 0.0102285911488996 1 1 1 0.010345033517241685 1 1 1 1 1 1 0.010096764780538732 1 1 1 1 1 1 0.010235683981606132 1 1 1 1 1 0.010487582811844025 0.0099470456457773394 0.0097171015980696517 0.010630243116493854 1 1 1 1 1 1 1 1 1 1 1 1 1 1 1 1 1 1 1 0.0099695920493970032 1 0.0093858502842206482 1 1 1 1 1 1 1 0.0097076195991511148 1 1 1 1 1 0.010115701529555097 1 1 1 0.0098215281111710337 1 1 0.010168020675768854 0.010626021655800445 1 0.0097538648236418918 0.010008212522707819 0.010532496454961 1 1 1 1 1 1 1 1 0.010487306803520032 1 1 0.010357842265713013 0.010202441498842665 0.010012058632034308 1 1 1 0.0097448655769021269 0.010000048789726665 1 1 0.0097122699894688115 1 1 1 0.010281409498650872 1 1 1 0.0099970974562125468 1 1 1 1 1 1 1 1 1 1 1 1 0.010146846810784106 1 1 1 1 1 1 1 1 1 1 0.011407734817218473 1 1 1 1 1 1 1 0.011057758827142007 1 1 1 0.010043516345399871 1 1 1 1 1 1 1 0.010424482909019123 1 1 1 1 1 1 1 1 1 1 1 1 1 1 1 1 1 1 1 1 1 1 0.010691710826869288 1 1 1 1 1 1 1 1 1 1 1 1 1 1 1 1 1 1 1 1 1 1 1 0.010297335411082454 1 1 0.010958552420465725 1 1 1 1 1 1 1 1 1 1 1 1 1 1 1 1 1 1 1 1 1 1 1 1 1 0.011069872643115737 1 1 1 1 1 1 1 1 1 1 1 1 1 0.0104678730140667 1 1 1 1 1 1 1 1 1 1 1 1 1 0.010500953109470709 1 1 0.011253457304906182 1 1 1 1 1 1 1 1 0.010119334178500347 1 1 1 0.010002513912398543 1 1 1 1 1 1 1 0.010091630106755883 1 0.010321513316255351 1 0.010444771548367551 1 1 0.010455431834775587 1 0.01038256458522149 1 1 1 1 1 0.0099983735731169147 1 0.010946592008379174 1 1 1 0.010031715872083138 1 1 1 1 1 1 1 1 1 1 1 1 0.0095471606100692198 1 1 1 1 0.01014569213051077 1 1 0.0095683886803664183 1 1 1 1 1 1 1 0.0095416385534809432 1 1 1 0.01000248775169946 1 1 1 1 0.010016524532372353 1 1 0.010005752239551947 1 1 0.0095477545739784155 1 0.010003847318849339 1 1 1 1 1 1 1 1 1 0.0099669913357768036 1 1 1 1 0.010376454204998121 0.0099048503394180299 1 1 1 1 1 1 1 1 0.010098162481182641 1 0.010054072309275392 1 1 1 0.010297628783294016 0.0097137231145963867 1 1 1 1 1 1 1 0.0099213116999865691 1 1 1 1 1 0.0098617530076105867 1 1 1 0.010199862016779949 1 1 1 1 1 1 1 0.010035602536951621 1 1 1 1 1 1 1 1 1 1 1 1 0.010509781019809785 1 1 0.010035380589876576 1 1 1 1 1 1 1 1 1 1 0.0097332949762569121 1 1 1 1 1 1 1 1 1 1 1 1 0.009871572677325767 1 1 1 1 1 1 1 1 1 1 1 1 1 1 1 0.010548221645488243 1 1 1 0.010238302642458404 1 1 1 1 1 1 1 1 1 1 1 1 1 1 1 0.010037029419992287 1 0.009731834213850498 1 1 1 1 1 1 1 1 1 1 1 1 1 0.0099835323553896984 1 1 1 1 1 1 1 1 1 1 1 1 1 1 1 1 1 1 1 1 1 1 1 1 1 1 1 1 1 1 1 1 1 1 1 1 1 1 1 1 1 1 1 1 1 1 0.010030933311085146 1 1 1 1 1 0.0099533054759093163 1 1 1 1 1 1 1 1 1 1 1 1 1 1 1 1 1 0.010059119016084694 1 1 1 1 1 1 1 1 1 1 1 1 1 1 1 1 1 1 1 1 1 1 1 1 1 1 1 1 1 1 1 1 1 0.010033273814440125 1 1 1 0.01024571574206104 1 1 1 1 1 1 1 1 1 1 1 0.0099624282192528092 1 1 1 1 1 1 0.0099688263354163476 1 1 1 1 1 0.010684792728801722 1 1 1 1 1 1 1 1 1 1 1 0.009866953503017405 1 1 1 1 0.010238202166658114 1 1 0.0097973569995654531 1 1 1 1 0.0099934973906401596 0.0099575087080350753 0.01017976994892526 0.010189351000687196 1 1 0.010560126485012308 0.0099702898984503352 1 0.010124269546194132 0.010775148400446643 1 1 1 1 1 1 1 1 1 1 0.010005757399806867 1 1 1 1 1 1 1 1 1 1 1 1 1 1 1 1 0.010401237456376587 1 0.010521481505048665 1 1 0.0098424009009770545 1 1 1 0.0094735808881666658 1 1 1 0.0097283457233390998 1 1 1 1 1 1 1 1 1 1 0.0097796432682653676 1 1 1 1 1 1 1 1 1 1 0.0099291675816718904 1 1 1 1 1 1 0.0096835726114715467 1 1 1 1 1 1 1 1 1 1 1 1 1 1 0.01015653226106273 1 1 1 1 0.0093906267433207982 1 1 1 1 1 0.0091464612878029653 1 1 1 1 1 1 1 1 1 1 1 1 1 1 1 1 1 1 1 1 1 1 1 1 1 1 1 1 1 1 1 1 1 1 1 1 1 1 1 1 1 1 1 1 1 1 1 1 1 1 1 1 1 1 1 1 1 1 1 1 1 1 1 1 1 1 1 1 1 1 1 1 1 1 1 1 1 1 0.010034708384420868 1 1 1 1 1 1 1 1 1 1 1 1 1 1 1 1 1 0.010047246265529421 1 1 1 1 1 1 1 0.0099662288705679031 1 1 1 1 0.0099858601355281192 1 1 1 1 1 1 1 1 1 1 0.0099016562129089977 1 1 1 0.0099947180843459327 1 0.0099832092691327957 1 1 1 1 1 0.0097877414233442529 1 1 0.010312962233282406 0.010155724475031935 1 1 1 1 1 1 1 0.0099699286088107426 1 1 1 1 1 1 1 1 1 1 1 1 0.008895132231403419 1 1 1 1 0.0091276482255016368 1 1 1 1 1 1 1 1 0.0098719254389877178 0.0093444703808719769 1 1 1 1 1 1 1 1 1 1 1 1 1 0.010156309620423095 1 0.010437511333741319 1 1 0.009637040613833206 1 1 0.0099326521549283966 1 1 1 1 1 1 1 0.0096256810850228781 1 1 1 0.0091452164298339612 1 1 1 1 1 0.0097182149765701747 1 1 1 1 1 1 0.0092382284361588428 1 1 1 1 1 1 1 1 1 1 0.0099787330654664431 1 1 1 1 1 1 1 1 1 1 1 1 1 0.010043636493709689 1 1 1 1 1 1 1 1 1 1 1 1 0.0099799015818960845 1 1 1 1 0.0093568759260091866 1 1 1 0.0083384008989824381 0.0099968482769298116 1 1 1 1 1 1 1 0.0099993584642015815 0.0077610097905905177 1 1 1 1 1 0.010790119284045692 1 1 1 1 1 1 1 0.0073535293656705773 1 1 0.0099641641328834692 1 1 1 1 1 0.0099813419906952978 1 1 1 1 1 1 1 0.0098482366118598542 1 1 1 1 0.0098382429837688863 1 1 1 1 1 1 1 1 1 1 1 1 1 1 1 1 1 0.010092104689026564 1 1 1 1 1 1 1 0.010048468195316875 1 1 1 1 1 1 1 1 1 1 1 1 1 1 1 1 1 1 0.009963788506760619 1 1 1 1 1 1 1 1 1 1 0.0099170939826699368 1 1 1 1 1 1 1 1 1 1 1 1 1 1 1 1 1 1 1 1 1 1 1 1 1 0.0099970177051901324 1 1 1 1 1 1 1 0.0099270980100246153 1 1 1 1 1 0.0099114337619605683 1 0.010498223901530828 0.0098859615304782572 1 1 1 1 1 1 1 1 1 1 1 1 1 1 1 1 0.010178166685018667 1 1 1 0.0094745748357889324 1 1 1 1 1 0.0091805377621118275 1 1 1 1 1 1 1 1 1 1 1 0.010064035176471912 1 1 0.010143150459371158 1 1 1 1 1 1 1 1 1 1 1 1 1 1 1 1 1 1 1 1 1 1 1 1 1 1 1 1 1 1 1 1 1 1 1 1 0.0096981890077859588 1 0.010138955498679887 1 1 1 0.0097361664317903041 1 1 1 1 1 1 1 1 1 1 1 1 1 0.0098128614620895567 1 1 1 0.0099039696247179045 1 1 1 1 1 1 1 1 1 1 1 1 1 1 1 1 1 1 1 1 1 1 1 1 1 1 0.0098295148864246413 1 1 1 0.0099949484280143809 1 1 1 1 1 1 1 1 1 1 1 1 0.0097466003965912072 1 1 1 0.010048615671386285 1 1 1 1 1 0.01026032747510928 1 1 1 1 1 1 1 1 1 1 1 1 1 1 1 1 1 1 1 1 1 0.0094332425786293646 1 1 1 1 1 1 1 1 1 1 1 1 1 1 1 1 0.0099601560529629218 1 0.0099602032418304644 1 1 1 1 1 1 1 1 1 1 1 1 1 1 1 1 1 1 1 0.01001843457069778 1 1 0.0089292363510797869 1 1 1 1 1 1 0.010042142358878242 1 1 1 1 1 1 1 1 1 1 1 1 1 0.0095598093912075254 1 0.010010786653012695 0.0098265104146077788 1 1 1 1 0.0099449479961675573 1 1 1 1 1 1 1 1 1 1 1 1 1 1 1 1 1 1 1 1 1 1 1 1 0.0099231813369048145 1 1 1 1 1 1 1 1 1 1 1 1 0.0098309715697509452 1 1 1 1 0.0098317815391559173 1 0.0099955520403865496 1 1 1 1 1 0.009692155842618724 1 1 1 1 1 1 1 1 1 1 1 0.0097199815456682354 0.0098654469880603418 0.0099473725930740858 1 1 0.0099905057295589742 0.0099872937207239904 1 1 1 1 1 0.010018225277171415 1 1 0.0078533139227462082 1 1 1 1 1 1 1 0.0084973286722398872 1 1 1 1 1 1 1 1 1 1 1 1 1 1 0.0073762924144249193 1 1 1 1 1 1 1 1 1 0.0099902590526437865 1 1 0.010183318857972622 1 1 0.0095293585827961359 1 0.0096160876117661713 1 1 0.0098503190033939116 1 0.010033805829515343 1 0.010074616772568119 1 1 1 0.010297995322439586 1 0.0096036274593521154 1 0.010038328525585847 0.0098859144052573476 0.010073333796819402 1 1 1 0.009704044098465715 1 1 0.0099083377284869493 0.010063366972154104 0.0095787646768195171 1 1 1 0.0098521596047590563 1 1 1 0.0094590604201861914 0.010035175578130291 1 1 1 0.0098010429590047396 0.010296101250642762 0.0099948542735815143 1 1 1 1 1 1 1 1 1 1 1 0.0099851382609844816 1 1 1 1 1 1 0.0099108058640571695 1 1 0.0084412257536091388 1 1 1 1 1 1 1 1 1 1 1 1 1 1 0.0099973279164679955 1 1 0.010113108341457108 0.0096878764495811117 1 0.0096927192802021105 1 0.0082728785149588282 1 1 1 1 1 1 1 1 1 0.0099382383950754015 1 1 1 1 1 0.0096026575251516502 1 1 1 1 1 1 1 1 1 1 1 1 0.009998677079070744 1 1 1 1 0.009711291557514698 0.0096834273971030307 1 1 1 1 0.010034980423274716 0.0091365596419234318 1 0.0098946504407204615 0.0098737894573909107 1 1 1 1 1 1 1 1 1 1 1 0.0099621117502332966 0.010129607662767146 1 1 1 1 1 1 1 1 1 1 1 1 1 1 1 1 1 1 1 1 1 1 1 1 0.0099525398313071098 1 1 1 1 1 0.010044536321103484 1 0.0098959077408898484 1 1 1 1 1 1 1 1 1 1 1 0.0098291188955786507 1 1 1 0.0099032944622071319 1 1 1 1 1 1 1 1 1 1 1 1 1 1 1 1 1 1 1 1 1 1 0.010112084478173435 1 1 1 0.0099924906799640466 1 1 1 1 1 1 1 1 1 1 1 1 1 1 1 1 1 1 1 1 1 1 1 1 1 1 1 1 1 1 1 1 1 1 1 1 1 1 1 1 1 1 1 1 1 1 0.010011073840846207 1 1 0.010261513099434069 1 1 1 0.0099921384158656763 1 1 1 1 1 1 1 1 1 1 1 1 1 1 1 1 1 1 1 1 1 1 1 1 1 1 0.0099242010744884385 0.010160921698043038 1 0.010517827582575686 1 1 0.0099986012815057052 0.0094697837984264073 1 1 0.01023733615045715 0.0097101203173416903 1 1 1 1 1 1 0.010011200251259521 1 1 1 1 1 1 1 0.0099774021689478902 1 0.010423602795734222 1 0.0089709822196168375 1 1 1 1 0.010066077552112355 1 1 1 1 1 0.009460694242227858 1 1 1 1 1 1 1 1 1 1 1 1 0.0097879015335962227 0.0088366950975720237 0.010369791581419131 1 1 1 0.0094901884136508411 1 1 1 1 1 1 1 0.0099209620999999616 1 0.009882705066528252 1 0.0092701830190853301 1 0.0099992447207716741 1 1 1 0.0096558738539382974 0.010001790495975611 1 1 1 1 1 1 1 1 1 1 0.0088727677398284764 1 0.010051450606933833 1 1 1 1 1 0.0094047717459499608 1 0.0093329467165999668 1 1 1 1 1 1 1 1 1 0.0099940898944795315 0.010629643648120687 1 1 0.010731517357679281 1 0.010000107575919241 0.0094181715541051363 1 1 1 1 0.0088975896788025064 0.010542621728163424 1 1 1 0.0098007806505097869 1 1 0.0088911220956050009 1 1 1 1 0.010509537188208715 1 1 1 1 0.0099956636397936297 1 0.010150305607261488 1 1 1 1 1 1 1 1 0.0095707569262875117 1 1 0.010358703053044467 1 1 0.0092422770671611205 1 1 1 1 0.0099420481880334623 1 0.0090876117161103106 1 0.010667573239267992 0.0079323134236549582 1 0.010367726858371541 1 0.0096595027881081381 0.010350103710561921 1 1 0.010000788574035952 0.0099721976827644374 0.008866725920263099 0.010001394068753524 0.0095045409379723288 1 1 1 1 1 1 1 1 1 1 1 1 1 1 1 1 1 1 0.0084203426942805921 1 1 1 0.010002117328873222 0.0089854807789019712 1 1 1 1 1 1 0.010072090660294099 1 1 1 0.010010419724555696 0.0098460722483858596 1 1 1 1 1 0.010311414782542043 1 0.0093418113799602631 1 0.010073413371709059 0.010293868214684712 1 1 1 1 1 0.0099502708260634266 1 0.010084291419189295 1 0.0096711771816647522 1 1 0.0095335796036614424 1 1 1 0.0097733868542498846 1 1 0.010073177932952114 0.00973704290537835 1 0.010623667685507144 1 0.0092790064034960901 1 1 1 0.0098076364608578725 0.0099994848259058605 1 0.0099930914508196966 0.010219772058380674 1 1 1 1 1 1 1 1 1 0.0094106802314951714 1 0.0091398428504129003 1 1 1 0.0095172452312067453 1 1 0.0091006699669084808 0.0091436605127192486 1 0.010111973039887369 1 1 1 1 1 0.010221080467766139 0.0094601702802335208 1 1 0.010323528328300044 1 1 1 1 1 1 1 1 0.0094894451103008301 1 1 1 1 1 0.010141971776065429 1 0.0095517886468051774 0.010009467769963526 1 1 1 1 0.0099989412553285542 1 0.0098322562765831532 1 0.0099872279946488195 1 0.0096430888982868505 1 1 1 1 1 1 0.01003074806707986 1 1 1 1 1 1 1 1 1 1 1 1 1 1 0.0099575990066037307 1 0.010078517109774849 1 1 0.0099910621269944048 1 1 1 1 1 1 1 1 0.0099934309504212428 1 0.010018091489563917 1 1 1 0.010055182047277669 1 1 1 1 1 0.0098321715737517655 1 1 1 1 0.0099603445960084816 1 0.010000417265797996 1 0.0099997559699641046 1 1 1 0.0099134179967956607 1 1 1 0.0099218957718556731 1 0.010072688324904683 1 0.0096871254913610642 1 0.010014651298691595 1 0.010000981552326076 1 1 1 1 1 1 1 1 1 1 1 1 1 1 1 1 1 1 1 1 1 1 1 0.0099758229106807345 1 1 1 1 1 1 1 1 1 1 1 1 1 1 1 1 1 1 1 1 1 1 1 1 1 1 1 1 1 1 1 1 1 1 1 1 0.010045434490393936 0.010719400874906391 1 1 1 1 1 1 0.0094411639263684739 1 1 0.009910342418293477 1 0.010340897914533295 1 0.010709113762852699 1 1 1 0.0099565067221149602 1 1 0.010002618943642396 1 1 0.0098539377207055197 1 1 0.0099772078567392126 1 1 1 1 1 1 1 1 1 1 1 1 1 1 1 1 1 1 1 1 1 0.010035596681985049 1 1 1 1 1 1 1 0.010070528584574523 1 0.010063347459763974 1 1 1 1 1 1 1 1 1 1 1 1 1 1 0.010027527259610324 1 1 1 1 1 1 1 1 1 1 1 1 0.010166979521440451 1 1 1 1 1 1 0.010440037528142057 1 0.010633682942470371 0.010145870205389963 1 1 1 1 1 1 1 1 0.0099589687756016822 1 1 1 1 1 1 1 1 1 0.0099669756117209199 1 1 1 1 1 1 1 1 1 1 1 1 1 1 1 0.010021768093190889 1 1 1 0.01093637959491485 1 1 1 1 1 1 1 1 1 1 1 1 1 1 1 1 0.011114754245543913 1 0.010084035613413325 1 1 1 0.011231137063424294 1 1 0.010174011652894426 1 1 1 1 1 1 1 1 1 1 1 1 1 1 1 1 1 1 1 0.010046242119745469 1 1 0.010112876805333664 1 1 1 1 1 1 1 1 1 1 1 1 1 1 1 1 1 1 1 1 1 1 1 1 1 1 1 1 1 1 1 1 1 1 1 1 1 1 1 1 1 1 1 1 1 1 1 0.010046927769676917 1 1 1 1 1 1 1 1 1 1 1 1 0.01033609159072015 1 1 1 1 1 1 0.0094511529408946512 1 1 0.010027580259342668 0.0094742864808729441 1 0.010171703730089358 0.01031161375586351 0.0098119121088165832 1 1 1 1 1 0.010741784794605511 1 1 0.0098222094989231581 0.010188479404542339 1 1 0.010843351573557827 1 0.010001128154796606 0.010083862236272773 0.010364029898675412 1 1 0.0095540946404232985 1 1 1 1 0.010591576475205835 1 1 1 1 1 0.010120386136693289 1 1 1 1 1 1 0.010036438528559037 1 0.0099255282379332732 1 0.010004728627501402 1 1 1 1 1 1 1 1 0.0099900201394129452 1 1 1 1 1 1 1 1 1 1 0.010136121280939853 1 1 0.0099716583862395625 1 1 1 1 1 1 1 1 1 1 1 0.0092665716769277685 1 1 1 1 1 1 1 1 0.0097985032527395551 0.010000571391182966 1 1 0.0091199219734151068 1 1 1 1 0.010255973401564561 1 1 0.0098320383667787059 1 1 1 0.009570895322521691 1 0.01046078114367072 0.0095448559973222609 1 1 1 0.010117386164908657 1 0.0097464981990672724 0.0099980873134318127 1 0.010151212750972437 1 1 0.0096543879493054992 0.0099963626052084961 1 1 0.01011876331340629 1 1 1 0.0096015371433132539 0.0094929025159173532 1 1 1 1 0.010133240278589258 1 1 1 1 0.0095855364775458609 1 0.010548163810275013 0.010312270766409283 1 0.0092737490499769874 0.0095183628183837885 1 1 1 1 1 1 1 1 0.010395998668769729 1 1 1 1 1 1 1 0.010039805494339412 0.010298175763174315 1 1 0.0097747114467330604 1 1 1 0.010121504005524661 1 0.010011174200822311 1 0.0096635799108026887 0.0099999721590581462 1 0.0098456017077942475 1 1 0.0096546327445074433 1 0.01025911614438672 1 1 0.0098721821495864979 0.010502776020149035 1 1 1 1 1 0.010527010625274167 1 1 1 1 0.011095993790541102 0.0098517798952210862 1 1 1 1 1 0.0099812544871024228 1 1 0.010037060484632715 1 1 1 1 1 1 1 0.010408910122215046 1 1 1 0.010136974861053355 1 1 1 1 1 0.0093104907936218725 1 1 1 0.0094546058711149072 1 0.010747706739419768 1 1 1 1 1 0.010944939765670226 1 1 1 1 1 1 1 1 0.0099584489844371134 1 1 1 1 1 1 1 1 1 0.0099768874791575819 1 1 1 1 1 1 1 1 1 0.0099589219012013105 0.010468680307228815 1 1 1 1 1 1 0.010183751471477062 1 0.0099930774471336942 1 1 1 0.0098342813181385852 0.010540308160591804 1 1 0.010337565565117224 1 1 1 1 1 1 1 1 1 1 1 1 1 1 1 1 1 1 1 1 1 1 1 1 1 1 1 1 1 1 1 1 1 1 0.010002958130430388 1 1 0.01053770508736069 1 1 1 0.010031466125685949 1 1 1 0.010178033221744097 1 1 1 1 1 1 0.01049332526632075 0.0099972261227969199 1 1 1 1 1 1 0.010216165023688564 1 1 1 1 1 1 1 1 1 1 1 0.0098324838452560921 1 1 1 0.010005152101732379 1 1 1 1 1 1 1 1 1 1 1 0.0095357581385465458 1 1 1 1 1 0.0092818993913067957 1 0.0097321253078558947 1 1 1 0.010032436582463458 1 1 0.0094606386542046648 0.010465663112456391 1 0.0098105604333038696 1 1 1 1 1 0.0100110851345033 1 1 1 1 1 1 1 1 1 0.010503588494165706 1 1 1 0.010315847543580725 1 1 1 1 1 1 0.011138743951751689 1 1 1 0.010109754799402342 1 1 1 1 1 1 1 1 1 1 0.0097687856729903374 1 1 0.011267677342149283 1 0.0099991909855285006 0.0106859156265848 1 1 0.011030849827292919 1 0.0093900328462895241 0.010786389420549537 0.0096808035146127881 1 1 1 1 1 1 1 0.010995657602883499 0.011253671582554244 1 1 1 0.0093178078669395332 1 1 0.0099998854620586414 1 1 1 1 1 1 1 1 1 0.0097598072944152323 1 0.010491159640670638 1 0.0095491595479932322 1 1 1 1 1 1 1 1 1 0.010151296511429837 1 1 1 1 0.010100439246959015 1 1 1 1 1 1 1 1 1 1 0.0098831523957123718 1 1 1 1 0.010042123401121171 1 1 1 1 1 1 1 1 1 1 1 1 0.0091648311443375333 0.010006447598647637 0.010029763304194984 1 1 1 1 1 1 1 0.0090556549604550174 1 1 0.0097412993337967404 1 0.010405445844429439 1 1 1 1 1 0.010000162958385843 0.010379156900590743 1 1 1 1 1 1 1 1 1 0.0099074972680237641 1 1 0.010021789139440365 0.0099472371550089443 1 1 1 1 0.0099949011437407385 1 0.0097704881965447743 1 1 1 1 0.010243159827614267 1 1 1 0.010384343450150258 1 1 1 1 1 1 1 1 1 1 1 1 1 1 1 1 1 1 1 1 1 1 1 1 1 1 0.0094676685839661812 0.0089664607724266633 1 1 1 1 0.0099716891639024287 1 0.0099253062658921122 0.010391531665874795 1 0.0091346417961114326 1 1 1 1 1 1 1 1 1 1 0.0087711327629077605 1 1 1 1 1 1 1 0.010213068416778891 1 1 1 0.010003096094468696 1 1 1 1 0.0099984093526933118 1 1 1 1 1 1 0.0099666725840780509 1 1 1 1 1 1 0.010013985302815633 0.0095419164218055498 1 0.0098944597845598385 1 0.0096645874599549288 1 1 1 1 1 1 0.009552329848806709 1 1 1 1 1 0.0093242646849943395 1 1 1 1 1 1 0.0091039632607928991 1 1 1 1 1 1 1 0.0087208866057665781 1 1 1 0.0089213902843839864 1 1 1 0.0099827941238583209 1 1 1 0.0096643142625906214 0.0099514262040234485 1 0.0097168458122014207 1 1 1 1 1 1 1 1 1 1 1 1 1 1 1 1 1 1 1 1 1 1 0.0098403274475829944 0.010000503624695688 1 0.01060831243976695 1 1 1 1 0.0097142510859645845 1 1 0.0094766078388148559 1 1 0.0096384063596628624 1 1 1 1 0.011017806468718506 1 1 0.010883562403824761 0.0096669145764559008 1 1 1 1 0.010051369107719402 1 1 1 1 1 1 1 1 1 1 1 1 1 1 0.0097722439741110955 1 1 1 1 0.01092905302264364 1 1 1 0.010967160895290809 1 1 1 1 0.0087235868851747427 1 0.01119996603855274 1 0.0096253720937359184 1 0.0091772755270958864 1 1 0.0095991881263135063 1 1 1 1 1 1 0.0095024858422201666 0.0095787216451971476 1 1 0.0092228200967543403 1 1 1 1 0.0095142799893482184 1 1 1 1 1 1 1 1 1 1 1 0.01008201309613538 1 1 1 1 0.010495840444717118 0.0095479725341856142 0.0098565227264908271 1 1 0.00896315960900523 0.010479684608200038 1 1 0.010366386605622238 0.010151183817811476 1 1 1 1 1 0.011466475412055414 1 1 1 1 1 0.010906464690920908 0.0099993126302342829 1 0.0099889498982676361 1 1 1 1 1 1 1 1 1 1 0.011338046529519544 1 1 1 1 1 1 1 1 1 1 1 1 1 1 1 1 1 1 1 1 1 1 1 1 1 1 0.010135300116800715 1 1 1 0.010004485974221967 1 1 0.01005196926601031 1 1 1 1 1 1 1 1 1 1 1 0.010046888438548444 1 1 1 1 1 1 1 1 1 1 1 1 1 1 1 1 1 1 1 1 0.010122764535332831 0.010023303640163243 1 1 1 1 0.010009483573368512 1 1 0.0099196986090043359 1 0.0099829250178962246 1 1 1 1 1 0.0096513116702723039 1 0.0096664519660863025 1 1 1 0.0097766784804892738 0.0102098508631773 1 1 1 1 0.01006417634176706 0.010023666044441201 1 1 1 1 1 1 1 1 1 1 1 0.01078961428195264 0.010796065308468609 0.010007079827133147 1 1 1 0.010174550868714423 1 0.011118791329762429 1 1 0.010827523038468406 1 1 1 1 0.010910153283203118 1 1 1 0.010023971415310265 1 0.0099731583590232219 1 0.010079344789217241 1 1 1 0.0095828689553113123 0.010129704785979741 0.011349760054752271 0.010951173428978465 1 1 0.0095537737354234181 1 1 0.0099662829405990395 1 1 0.009624052590755312 0.011135958043284749 1 1 0.010145029935900036 1 1 0.011200406843091436 1 1 1 0.0099993161747240922 1 1 1 1 1 1 1 1 1 1 1 1 1 1 1 1 1 1 1 1 1 1 1 1 1 1 1 0.010010043176727539 1 1 1 1 1 0.0097950642207250953 1 1 0.0099693348743964821 1 1 1 1 1 1 1 1 0.0099887991817231951 1 1 1 1 1 1 1 1 1 1 1 1 0.010006441108041502 1 1 1 1 1 1 0.010020877079074068 1 0.0099993974519137011 1 1 1 1 1 0.0098660622028749062 1 1 1 1 1 0.0095868178143630467 1 1 0.0093031905108868149 1 1 1 0.010019797875640793 1 1 1 0.010050168320470123 1 1 1 1 1 1 1 1 0.01003037044482933 1 1 1 1 1 1 1 1 1 0.009013674503078644 1 1 1 1 1 1 1 1 0.0095330954323584738 1 1 0.0092650661390322638 1 1 1 1 1 1 1 1 1 1 1 1 1 1 1 0.010290455823737801 1 1 0.010026629014134932 1 1 0.010856565380774714 1 1 0.010014724338244657 1 0.0095154598550596589 1 1 1 1 1 1 1 1 1 1 1 0.010167833587387032 1 1 0.010180988772897071 1 1 1 1 0.0089989853230057482 1 1 0.0097464154499895539 1 1 1 0.0096399003784372432 1 1 1 0.010948507892876835 1 0.0099952603219589358 0.010287306091000717 1 1 1 0.010098631399624334 1 1 1 1 0.010280115779421548 1 1 1 1 1 0.01015358912845361 1 1 0.010504747197057162 0.010136588813545667 0.009278939430360721 1 1 1 1 1 1 1 0.010021508981413196 1 0.010030598460459242 1 1 0.010064993263778296 1 1 1 1 1 0.0087787765625046265 1 1 0.010104863081988652 1 0.0091595928798794239 0.0090101604121605606 1 1 1 1 1 0.0088616537435735748 1 1 1 1 1 1 1 0.0089448230976754434 1 1 0.0096526682982147078 1 1 0.010573172699343481 1 0.01000210993022794 1 1 1 1 1 1 0.0097294474689083484 1 0.0097448809262958274 1 1 1 1 1 1 1 1 1 1 1 1 1 1 0.0099248054252951273 0.0094062011999699584 1 1 0.010224160387908573 1 1 1 0.0099947502711991154 1 1 1 1 1 1 1 1 1 1 0.009732083120464835 1 1 0.01008400203563742 1 1 1 1 1 1 1 1 0.0096618907806718789 1 1 1 1 1 1 1 1 1 1 1 1 1 1 1 1 1 1 1 1 1 1 1 1 0.0099332393081008157 1 0.009793972168891843 1 1 1 1 1 1 0.0094292064150495961 1 1 0.0090437001679815696 1 1 1 1 1 0.0087032747493613165 1 1 1 1 0.010292245661013097 0.0099841224122563174 1 0.00889973908058307 1 1 1 1 1 1 0.0099928939817489088 0.0091297309562477606 1 1 1 1 1 1 0.0086494953481416805 1 1 1 0.0087563348538339074 1 1 1 1 1 1 1 0.0088163425303255886 1 1 1 1 1 0.010016637763036519 1 1 1 1 1 1 0.0096144630279589964 1 1 1 1 0.01002891131875382 0.0086235806917197948 1 1 1 1 1 1 1 1 0.01000011706336665 1 0.012214561138356485 1 1 0.0094595147754320767 1 0.0097394663395462353 1 0.010003878598474864 1 0.011731121738229487 1 1 1 0.0098258141723991613 1 1 1 1 1 1 0.011444108119219807 1 1 1 1 0.011378201733861559 1 0.011205402178199535 1 1 0.0099603067966490579 1 1 1 1 1 1 1 1 1 1 0.0099796732399803634 1 1 1 1 1 0.010643400987138559 1 1 0.0097499969363235121 1 1 1 1 1 1 0.010670444506784869 1 1 1 1 1 1 1 1 1 1 1 1 1 1 0.0099291071841013552 1 1 1 1 1 1 0.009777732443855984 1 1 1 1 0.010064862940378493 1 1 1 1 1 1 1 0.010501050443670706 1 1 1 1 0.010539223308302488 1 1 1 1 1 1 1 1 1 1 1 1 1 1 1 1 1 1 1 1 1 0.010284869515577154 1 1 1 1 1 0.0098708850619708185 1 1 1 1 1 1 1 1 1 1 1 1 1 1 1 1 1 1 1 1 1 1 1 1 1 1 1 1 0.0090116784419228511 0.01006981079441472 1 1 1 1 0.009309428366945819 1 0.0096013693271122039 1 1 1 1 1 1 1 1 1 1 1 1 1 1 1 1 1 1 1 1 1 1 1 1 1 1 1 1 1 0.010042190268419586 1 1 1 0.010121053331977926 1 1 1 1 1 1 1 1 1 1 1 1 1 1 1 1 1 1 1 0.0099705606131033839 1 1 1 1 1 1 1 1 1 1 1 1 1 1 1 1 1 1 1 1 1 1 1 1 1 1 1 1 1 1 1 1 1 1 1 1 1 0.0097630815952168219 1 1 1 1 1 1 1 1 0.009949905496783859 1 1 1 1 1 1 1 1 1 0.0097523464008118371 0.01011084248616927 1 1 1 1 1 1 1 1 1 1 1 0.0094759284658860951 1 1 1 1 1 1 0.0091926232739283492 1 1 1 1 1 1 1 1 1 1 1 1 1 1 1 0.010217153976409259 1 0.011634448453038066 1 0.0085377472514527805 0.011680458797370938 1 0.0089273990904068581 1 1 1 1 0.0099774008777344103 1 1 1 1 1 1 1 1 1 1 1 1 1 0.0099578068047069361 1 1 1 1 0.0098926062139013133 1 1 1 1 1 1 1 1 1 1 1 1 1 1 1 1 1 1 1 1 1 1 1 0.0115032608430038 1 1 0.011564454130851888 1 1 1 1 1 1 1 1 1 1 1 1 1 1 1 1 1 1 1 1 1 1 0.0097371072223536338 1 0.0099992835885059014 0.01000701995074053 1 1 1 1 1 1 1 1 0.011571816405212937 1 0.011504512022039722 1 1 1 1 1 1 0.0099726162450740913 1 1 1 0.010071584191416766 1 1 1 1 0.011157711254351582 0.0098123737906733038 1 1 1 1 1 1 1 1 1 1 1 1 1 0.0099513164004050702 1 1 1 1 1 0.0099671292343176641 1 1 0.0098505771267786753 1 1 1 1 1 1 0.0095722859221361381 1 1 1 1 1 1 1 1 1 1 1 1 0.0093563536507695073 1 1 1 1 1 1 1 0.01000050881034654 1 1 1 1 1 1 1 1 1 1 0.010393429632165465 1 0.010501421400825481 1 1 1 0.0098109535996016121 0.0098908252299758932 1 1 0.011052267009620913 1 0.010274551100082052 0.011294795200384726 1 1 1 1 1 0.0099675802796804804 1 0.0099070666090994349 1 1 1 1 1 1 1 1 1 1 1 1 1 1 1 0.010148108984415639 1 1 1 0.010248030194674594 1 1 0.010090827111324899 1 0.0099990351741261838 1 0.010258332225665672 1 1 0.0097250164521349679 0.010131369731075649 1 1 1 1 1 1 0.0099423445776381496 1 1 0.010049210042588182 1 1 1 1 1 0.0098232756278632989 1 1 0.010062696272490811 1 0.0099269837155345521 1 0.009719173102212271 1 1 1 0.0098361455690574584 1 0.010279580980985028 0.0099416615449005874 1 1 0.0091907995535200314 1 1 0.010055317553994539 1 1 1 0.0096020057280277807 1 1 1 1 1 1 0.0099602503114151648 1 1 0.010418017680354243 0.0096437957713519581 1 0.010250597414767608 1 1 0.0096167549066798457 1 1 1 1 1 0.0096721660421175727 1 1 1 1 1 1 0.0096875092746166111 1 1 0.0099749309272102633 1 0.0083357690677921658 0.010388797436887497 1 1 1 1 1 0.0098907649508673343 1 1 1 1 1 1 1 1 0.011533828553731999 1 0.010649148261264582 1 1 1 0.010293132139574192 1 1 0.010811431254855921 1 1 1 1 0.010830370753281623 1 1 1 1 1 1 1 1 1 0.010106386861422168 1 1 1 1 1 0.010371382303800856 1 1 1 1 0.010055069434792913 1 1 1 1 1 0.010175924190158909 1 1 1 1 0.010048016164124061 1 1 1 1 1 1 1 1 1 1 1 1 1 0.0098821014840754957 1 1 1 0.010177184897521199 1 0.010835763868124949 1 1 0.010541122449890413 1 1 1 0.010052288072399137 1 1 1 1 1 0.010181362169537066 1 1 1 1 1 1 1 1 1 1 1 1 1 0.010016030872291203 0.0099991411986198233 1 1 1 1 1 0.010003783522957936 1 0.010030086375698393 1 1 0.01000097575658024 1 0.010540158793033249 1 1 0.0099372549223615964 1 1 1 1 0.0099055969422797204 0.01040089107491985 0.010340588151224845 1 1 1 0.010294558144261981 1 0.010531270520585908 1 1 1 1 0.01058173480535976 0.010271447961364404 1 1 1 0.0099997462422464142 1 1 1 1 1 1 1 1 1 1 0.010010623595807015 1 0.010010354393954498 1 1 1 1 1 1 1 1 1 1 1 1 1 1 1 1 0.0099939158122458911 1 1 1 1 1 1 0.0095681855556715573 0.0096541897294354917 1 1 0.0099463837417824701 1 1 1 1 1 1 0.0099784412958490807 1 1 1 1 1 1 1 1 1 1 1 1 0.010112167949381677 1 1 1 1 1 1 1 1 1 1 1 0.009992581947800715 1 1 1 1 1 1 1 1 1 1 0.009981488330375262 1 1 1 0.0099933923567965145 1 1 1 1 1 1 1 1 0.010178887553821118 1 1 0.010062672023821884 1 1 1 1 1 0.010028882522357362 1 1 1 1 1 0.0099358277823789753 1 0.0099807643818417072 1 1 1 1 1 1 1 1 1 1 1 1 1 1 1 1 1 1 1 1 1 1 1 1 1 1 1 1 1 1 1 1 1 1 1 1 1 1 1 1 1 1 1 1 1 1 1 0.0099508592995477697 1 1 1 1 1 1 0.0098563780498621741 1 1 1 1 1 1 1 1 1 1 1 1 1 1 1 0.0094449044411236451 1 0.010054001778227786 1 1 1 1 1 1 1 1 1 1 1 1 1 0.010743849606306173 1 1 1 1 0.010858766851737095 1 1 1 1 1 1 1 1 1 1 1 1 0.0097774954093632124 0.010007289030316179 1 1 1 1 1 1 1 1 1 1 1 1 1 1 1 1 1 1 1 1 1 1 1 1 1 1 1 1 1 1 1 1 1 1 1 1 1 0.010015010244763443 1 1 1 1 1 1 1 1 1 1 1 1 1 1 1 1 1 1 0.0099369216651809915 1 0.010005900640047484 0.0097771957476043506 0.010197983566639809 1 1 1 0.01000116971174099 1 1 0.010002435741267239 0.010230293236178852 1 1 1 0.0097367820241577568 1 1 1 1 1 1 0.0098448406196888424 1 1 1 1 1 1 1 1 1 0.010349276333914796 0.010261392263213135 1 1 1 0.010317951308797509 1 1 0.010502374841112154 1 1 0.010546294531583508 1 1 0.010037554883355962 1 1 1 0.010889370947634818 1 0.010019313991009058 1 0.010561972593355989 1 1 0.01020807728549827 1 1 1 0.0091925351225421222 1 1 1 0.0095044782094914557 0.010185395177284852 1 1 1 1 1 1 1 1 1 0.0099015120614094412 1 0.010889918504982877 1 1 1 0.0096718339322107577 1 0.0099793197822732136 1 1 1 0.0099174136249180478 1 0.010000291977726981 0.010486935119827394 1 1 1 1 1 1 0.0096774139647493127 0.010674165487291311 1 1 0.0097031203953731882 0.010298443818191711 1 1 1 0.0099224807041367116 1 1 0.010071209544425967 1 1 0.0098552654654007615 1 1 1 1 0.0096778044838685493 1 0.010022417378327675 1 0.0097147417371689568 1 1 1 0.009431629308949193 1 0.010168683791782811 1 1 1 1 0.010291135837900745 0.0099986586182478094 1 0.0096612523631181505 1 1 1 1 0.0097531861891760763 1 1 1 0.0098007957855130601 0.010335306567611906 0.0099145352551940468 0.010304865736226479 0.0099039757704738815 1 1 0.010194380510858556 1 1 0.0098965747440192108 0.0097439864749830473 0.010269466871969415 1 1 0.0098733662992856932 0.010144509217233739 0.010531269134299935 1 1 0.0097515643424691077 1 1 0.010390148187554502 0.010336404080137239 1 0.0096009561508226589 1 0.010220579933680418 0.010021289178769748 1 1 1 1 0.0103133364047658 0.010485750059369492 1 1 1 0.0097430855385183986 1 0.0099933918227755776 1 1 1 1 1 1 0.0099979080167123639 1 1 1 1 0.010027277153894598 1 1 0.0095186974688314385 1 0.0098029007967354465 1 0.0097207348811954673 1 0.009869341822663278 1 1 0.0099997119522414746 1 1 1 1 1 1 1 1 1 1 1 0.009554010683175778 1 1 1 0.0099953514534898598 0.010530435557899532 1 0.01000501849865593 1 1 1 1 0.010346916266204475 1 1 1 0.01000043955467996 1 0.0099745610574729637 1 1 1 1 0.010208727496747267 0.0097163949647205289 1 1 1 1 0.0099626981691408895 1 1 0.010179153948546795 0.010104416337464443 1 1 0.010173558992721455 0.010225093413287888 1 1 0.0098567595093386751 1 1 1 0.0093162283829998412 0.0098196317799215931 1 1 1 1 0.0099290605656008335 1 0.010479647672948967 1 0.0096430783497649594 1 0.0092708155461524704 1 0.0092900242650019779 1 1 0.011344244916471326 0.010012858103165123 1 1 0.0099877955769542698 1 1 0.0099850923616922292 1 0.010778377490794648 0.010680779441160859 1 1 0.0099469430251883442 1 1 0.010590717467300094 1 0.010506078018644484 1 0.010656778612944375 1 0.0097260404524421445 1 1 0.0096402245644138379 1 1 1 1 1 0.0097658878803520144 0.0099433726730902942 1 1 1 1 1 1 1 1 1 1 1 1 1 1 0.010018096370116726 1 0.0095697068615291578 1 1 0.0099994392474235996 1 1 1 1 0.0094498560033381609 1 1 0.010000877334143518 1 0.01028805895561288 1 1 1 1 1 1 1 1 1 1 0.010432415587391119 1 1 1 1 1 1 1 1 1 1 1 1 1 1 1 0.010006029687736413 0.0099295472127544672 1 1 1 0.0097834432160925338 0.010044477972701603 1 1 1 1 0.01002066158582844 1 1 1 1 1 0.0099680582478611883 1 1 1 1 1 0.010019853440186501 1 1 1 1 1 1 1 1 1 1 1 1 1 1 0.010230490016718864 1 1 0.010008686849719613 0.0098459156844337564 1 0.010082108678790841 1 1 0.0099857686087997145 1 1 0.0099791997495591277 1 1 1 1 1 1 0.0099956777823948066 1 1 0.01002456003451571 1 0.010008282226598181 1 1 1 1 1 1 1 1 1 1 1 1 1 0.0099632193987943193 1 1 1 0.0098832964077760904 1 1 0.010022929581841103 1 1 0.010073386238929729 1 1 1 0.0094550731967872788 1 0.010020339068665715 1 1 0.0097880115613226942 1 1 0.0099979809063311456 1 0.0091916349554745456 1 1 0.0093576795324394509 1 1 1 1 0.0095288068664482976 1 1 1 1 0.0090982072555451637 1 1 1 0.0095592971625526532 1 1 1 1 1 0.010046231088552611 1 1 1 1 1 1 1 1 0.0098858480677478586 1 1 1 1 1 1 1 1 1 1 0.009682681155311363 1 0.010070444397456777 1 1 1 0.0096091212502051049 1 1 1 1 1 1 1 1 1 1 1 1 1 1 1 1 1 1 1 1 1 1 1 1 1 1 1 1 1 1 1 1 1 1 1 1 1 0.0099975254791971856 1 1 1 0.0089467651941221686 1 1 1 1 1 1 1 1 1 1 1 1 1 1 1 1 0.0095831219105007043 1 1 1 1 0.0092781194354226246 1 1 1 1 1 1 1 1 1 1 1 1 1 1 1 1 0.0098637288954770003 1 1 1 1 1 1 1 1 1 1 1 1 1 1 1 1 1 1 1 1 1 1 1 1 1 1 1 1 1 1 0.0095016864738410953 1 0.010141010036354656 1 1 1 0.010055104405583108 1 1 1 1 1 1 1 1 1 1 1 1 1 1 1 1 1 1 1 1 1 1 0.010155389595863255 1 1 1 0.0099944839816710138 1 1 1 1 0.0099613200654949923 1 1 1 1 1 1 0.0098703126848403433 1 1 1 1 1 1 1 1 0.0093998446010757214 1 1 1 1 1 1 0.009999351283921213 1 1 0.010013093663499421 0.0092178256574731322 1 1 1 0.0096346863628060803 0.01005884314647712 1 1 0.010108005220717305 1 0.0097907337611243296 1 0.0097505422654729137 0.01000020756451854 1 1 1 1 0.0099968677929319766 1 0.010311712103795752 1 1 1 1 0.0095821428918929311 1 1 0.0098323888021242291 1 0.0096379900752029436 1 1 1 0.0095033959857969662 0.010249785790973884 0.010276271144105016 1 0.0099978115207620642 1 0.010351569833506208 1 0.0096642777883292515 1 0.00989035519170447 0.010096203337581107 1 0.0097636996706870136 0.0098391706956570402 1 1 1 0.0098745493812169554 1 0.010326942137750199 1 1 1 1 1 0.009790360825704475 1 0.0099419317484824733 1 1 1 1 1 0.0099827471669269308 1 0.0097157069635112371 1 0.0096512642124825573 1 1 1 1 1 0.0097414192568355366 1 1 0.0097600552262536999 1 1 1 1 0.0097208101953950247 1 1 1 1 0.010000116898652007 1 0.0098225049361740906 1 1 0.0098515020100204756 1 1 1 0.009999931983290633 1 1 1 1 1 1 1 1 1 1 1 1 1 1 1 1 1 1 1 0.0097524191774954628 1 1 1 0.010183776335816162 1 1 1 0.0099986258613828562 1 1 1 1 0.010157496540414892 1 1 1 1 1 1 1 1 1 1 1 1 1 1 1 1 1 1 1 1 1 1 1 1 1 1 1 1 0.010310968661751813 1 1 1 1 1 1 1 1 1 1 1 1 1 0.0098269869640629746 1 1 1 1 1 1 1 1 1 0.01003897932431432 1 0.010570160336497134 1 1 1 1 0.010468026023463139 1 1 1 1 1 1 0.0099779584600758215 1 1 1 1 0.0099278364637374189 0.0096359223036683109 1 0.010138829066955653 1 0.010264540551011834 1 1 1 1 0.0095667991484916018 1 1 0.009671561550383288 0.010193824210028169 1 1 1 1 1 0.0095720733112497468 0.010180678872017493 1 1 0.0095447391427578125 1 0.0099254074914743341 1 0.0094153361757431213 0.0095904065111360147 1 1 1 1 1 0.0099994793583723564 1 0.0096433131228571937 1 0.0097584423335817776 0.010241291945170032 1 1 0.0096373030336271443 0.0095738796605556748 1 0.010289005205639804 1 0.0097343278506145901 1 1 1 0.0097090431289676322 1 1 1 0.010205224623790631 1 1 0.010429696328088437 0.010036175867470774 0.0097016900591741836 0.010349766260342931 1 0.0098803921161861579 1 1 1 1 0.0093355837103998428 0.0099933183214174701 1 1 0.009945286467455676 1 1 0.010072800914585303 1 1 0.0097709391648988925 1 1 1 1 1 1 1 0.010010450634059462 1 1 1 1 0.0097822057191201232 0.010625683477955096 1 0.0098274956455804887 0.010091300937587012 1 1 1 1 0.0098017189026486009 1 1 0.010520235483853392 1 0.0096579343125778577 1 1 1 0.0098856964713316519 0.009811450558493846 0.0097660154086275115 0.011108929716416874 1 1 0.010222870010004378 1 1 1 1 0.0098070015862717647 1 1 1 1 0.0099500390140038267 0.010001916704574079 1 1 0.010444045944118643 1 1 1 1 1 1 1 1 0.0099892576040990326 1 0.010084852076820026 1 0.0099644708877481315 1 1 1 1 1 1 1 1 1 1 1 0.0099935448123683393 1 1 1 1 0.0099446170663927275 1 1 0.0098650432854394711 1 1 1 1 0.010066543010715676 1 1 1 0.0098837544615951716 1 0.009998939624218885 1 1 0.01067404380941353 1 1 1 1 1 1 1 1 1 1 1 1 1 0.01067022127877796 1 0.010004181906792836 1 1 1 1 1 1 1 1 1 1 1 1 1 1 1 1 1 1 1 1 1 0.010350372641312354 0.01035871886961524 1 1 1 1 0.010000883377414189 1 1 1 1 1 1 1 0.010707696497856073 1 1 1 1 0.009300669246789699 1 1 1 1 1 0.0095858928511806888 1 1 1 1 1 1 1 1 1 1 1 1 1 1 1 1 1 0.0098632816796743843 1 1 1 1 1 1 1 1 1 1 1 1 1 1 1 0.010002013849941444 1 1 1 1 1 1 1 0.010165717189711664 1 0.0089301923625201268 1 1 1 1 1 1 0.010056860226061779 1 1 0.010000181823687587 1 0.010835319082413877 1 1 1 1 1 1 1 1 1 0.010717124005940701 1 1 1 1 1 0.010662732483185999 1 1 1 1 1 1 1 1 1 1 1 0.01002660811906576 1 1 1 0.0099901868289829221 1 1 0.010081897110348105 1 1 1 0.010656203244900797 1 0.0095223807646070933 1 1 0.010240524725548174 1 0.0096140913874592851 1 1 1 1 0.0098829079737768784 1 1 1 1 1 0.0087214403160046274 1 1 0.0099596694545567317 0.0087204218860847879 1 1 1 0.0094813808933081542 1 0.010008497010290298 0.0085064650021910073 1 1 1 0.010049246691802261 1 1 1 1 1 1 1 1 1 1 1 0.010289610494177695 1 1 1 1 1 1 1 1 1 1 1 1 1 1 1 1 1 1 1 1 1 1 1 0.01017257728890467 1 1 0.009512263517389024 1 0.01027388822617226 1 1 0.0095266530497396737 0.0096422802697872911 1 0.0085725092267915012 1 1 1 0.0097327475736380051 1 1 1 1 0.010000561889127874 1 1 1 1 1 0.0099407102157899451 0.0097759828883345577 0.0099994090963861151 1 1 0.010223895449702855 1 1 1 1 1 1 1 1 0.010007959545183564 1 1 1 1 1 1 0.010164640988467186 1 0.0093724419432204813 1 1 1 1 0.010228750155604437 0.0092614181078364902 1 1 1 1 1 1 0.009899962266721787 1 0.0098715569634625355 1 1 1 0.010022724162822776 1 1 1 0.0099448134775223934 1 1 0.0095333306079400555 1 1 0.009820470624109125 1 1 1 0.0099996811203311338 1 1 0.010017106337484462 1 1 1 0.010354915676435903 1 1 1 1 1 1 1 1 1 1 1 1 0.0092768969116611751 1 1 1 1 1 1 0.0097474255404967694 1 1 1 1 0.010131694546186955 1 1 1 1 0.010396791379706376 1 0.010001844186362442 1 1 0.0078232762953601865 1 1 1 1 1 1 1 1 1 1 1 0.0082685091678547738 1 1 1 1 1 1 1 1 1 1 1 1 1 1 1 1 1 1 1 1 1 1 1 1 0.0087601989355498081 1 1 1 1 1 1 1 1 1 1 1 1 0.00951086047350941 1 1 1 1 1 1 1 1 1 1 1 1 1 1 1 1 1 1 1 1 1 1 1 1 1 1 1 1 1 1 1 1 1 1 1 1 1 1 1 1 0.0095789535467661092 1 1 1 1 1 0.010147287308849253 1 1 1 1 1 1 1 1 1 1 1 1 1 1 1 1 1 1 1 1 1 1 1 1 1 1 1 1 1 1 1 1 1 1 0.0099690016780434113 1 1 1 1 1 0.0099461317317036772 0.010244222388606082 1 1 1 1 1 0.010013117878359111 1 1 1 1 0.0099928121536076199 1 1 1 1 1 1 1 1 1 0.010030224215843573 1 1 1 1 1 1 1 1 1 1 1 1 1 1 1 1 1 1 1 1 0.010109111435454544 1 0.0099924236675735766 1 1 0.010379019802619009 0.0095804477536478236 1 0.01023421026487009 0.0099183991531581212 1 1 1 1 0.010141147731023981 0.01018344822541942 1 0.0095666845832056251 1 0.0098094919157844067 1 1 1 0.01000925209734186 0.010032181703960971 1 0.010392180571085041 1 1 1 1 0.01047571908539608 1 0.0093555029909151901 1 1 1 1 0.010212278176157807 1 1 1 1 1 0.0099350533258809725 1 1 0.0088603407973573498 1 1 1 1 1 1 1 1 1 1 0.0098654072808597847 1 1 1 1 1 1 1 1 1 1 1 1 0.010164519749578868 1 1 1 1 1 0.010165672530041348 1 1 1 1 1 1 1 1 1 1 1 1 1 1 1 1 1 1 1 1 1 1 1 0.0089660155722618099 1 1 1 1 1 1 1 0.0099520087371193743 1 1 0.0099250499387006919 1 1 1 1 1 1 1 1 1 1 1 0.0099444439387965239 1 0.0090030584080104514 1 1 1 1 1 0.0096352086652588802 1 0.0086742776484897959 0.010084049529505484 1 1 1 0.0098415067808363434 1 1 1 0.0098095821038518063 0.0090630726175220163 1 1 1 1 1 1 1 1 1 1 1 1 1 1 1 1 1 1 1 1 1 1 1 1 1 1 1 1 1 1 1 1 0.0097664397451285561 1 1 1 1 1 1 1 1 1 1 1 1 0.0096704730354311933 1 1 1 0.010054255478090609 1 1 1 1 1 1 1 1 1 1 1 1 1 1 1 1 1 1 1 1 1 1 1 1 1 1 1 1 0.010167030007248026 1 1 1 1 0.010008335014395939 0.0090256337419555525 0.01000401855723532 1 0.0087981171378779411 0.010010553652727912 1 1 1 0.010156193803335292 1 1 1 1 1 1 0.010067460181425198 1 1 1 1 1 1 1 1 1 1 1 1 1 1 1 1 1 1 1 1 1 1 1 1 1 1 1 1 1 0.010962518771026639 1 1 1 0.011306480123969183 1 1 1 1 1 1 1 1 1 1 1 1 0.0092093379110923454 1 1 1 1 0.0090668398996513831 1 1 1 0.010118570114200039 1 1 1 1 0.0092513809550940837 1 0.011597878445949159 1 1 1 1 1 1 0.0094030163465060254 1 0.01064104768631929 1 1 1 1 1 0.010040792624318087 1 1 1 1 0.010502756803664137 1 1 1 0.010325252009802218 1 1 1 1 1 1 1 0.010003665384049829 1 1 0.010364366843455503 1 1 0.010129652621868606 1 1 1 1 1 1 1 1 1 1 1 1 1 1 1 1 1 1 1 1 1 1 1 0.010053322833082967 1 0.010315040831750765 1 1 1 0.0098582640311453626 1 0.010162905091989435 1 0.010005909523439072 0.01055718841421634 1 1 1 1 1 1 1 1 0.010005292663465663 1 1 1 1 1 1 1 1 1 1 1 1 1 1 1 1 1 1 1 0.0099454475711369013 1 1 1 1 1 1 1 1 0.010533117577888391 1 1 1 1 1 1 1 1 1 1 1 1 1 1 1 1 1 1 1 1 1 1 1 1 1 1 1 1 1 1 1 1 1 1 1 1 1 1 1 1 1 1 1 1 1 1 1 1 1 1 1 1 1 1 1 1 1 1 1 1 1 1 1 0.010235630461673693 1 1 1 1 0.010646288710904639 1 1 1 1 0.010080155603974348 1 1 1 1 1 1 1 1 1 1 1 0.0099356454468400301 1 1 0.0095702210383926938 0.0099901536189181076 1 1 1 1 1 0.0098406414832030008 1 1 1 1 1 1 1 1 1 1 1 1 1 0.0098821869060085818 1 1 0.0099646374015208913 1 1 1 1 1 1 1 1 1 1 1 1 0.0099327496380179434 1 1 0.00998620817884939 1 1 1 1 1 1 1 1 1 1 1 1 1 1 1 1 1 1 1 1 1 1 0.0099668494507696506 1 1 1 0.01007085023562718 0.011058890891991715 1 1 1 1 0.011214845366164105 1 1 0.010614856780465245 1 0.0091238994407150179 1 1 1 1 0.010546755266373341 1 1 0.010861629099825767 1 1 1 1 0.0099799096193153303 1 1 1 0.010728113768220452 1 0.0090513567536331437 0.010202839144082095 1 1 1 1 1 0.00993148685229054 1 1 1 1 1 1 1 0.008942493822948535 1 1 0.0091419080320269651 1 1 0.010000315643336245 1 0.0099998254606458309 1 1 1 1 1 1 1 1 1 1 1 1 1 0.010048326262767505 1 1 1 1 1 1 1 1 1 1 1 1 1 1 1 0.0093611469111158051 0.010244194409493946 1 1 1 1 0.010143145442928823 1 1 1 1 1 1 1 1 1 0.0094611783739894616 1 1 1 1 0.008258347343408471 1 1 1 1 1 1 1 0.0084849588493689874 1 1 1 1 1 1 1 0.0087264446135152923 1 1 1 1 1 1 1 1 1 1 1 1 1 1 1 1 1 1 1 1 1 1 1 1 1 1 1 1 1 1 1 1 1 1 1 1 1 1 1 1 1 1 1 0.010328409030433881 1 1 1 1 1 1 1 1 1 1 1 1 1 1 1 1 1 1 1 1 1 1 1 1 1 1 1 1 0.0086205043869272292 1 1 0.0095404320380102058 1 1 1 1 1 1 1 1 0.010386101438194477 1 1 1 1 1 1 1 1 1 1 1 1 1 1 1 1 1 1 1 1 1 1 1 1 1 1 1 0.010012346672259831 1 1 1 1 1 1 1 1 1 1 1 1 1 1 1 0.010041454891158718 1 1 1 1 0.010132459712277551 1 1 1 1 1 1 0.010068433247545581 1 1 1 1 0.010171616974266752 1 1 1 1 1 1 0.010090558627445073 1 1 1 1 1 1 1 1 1 1 1 1 0.010047705094163353 1 1 1 1 1 1 1 0.010308355868952009 0.0097429721811124158 1 0.01007032532696921 0.0097654222303966698 1 1 0.0098583457523112802 1 1 0.010308305088106557 0.010624089002822953 1 1 0.010496470728336572 1 0.010709838547132448 1 1 1 1 0.010479192141553656 1 0.0099959278122618116 1 0.010316377493555663 1 1 0.010461198443232608 1 0.0097423153463073332 0.010008467181898517 1 1 1 0.010292855816660337 1 1 1 1 1 1 1 1 1 1 1 0.010163514031023609 1 1 0.010301277193149924 1 1 1 0.010922190971682032 1 0.010426418048238111 0.01020662969475112 1 1 0.0099985862390320965 1 0.0096028173884049745 1 0.01029224305924163 1 0.010120214301773293 1 1 1 0.007928066506440198 1 1 1 0.0097827059333704738 1 0.0097459078132732489 0.010905241725682205 1 1 0.0085760622101686921 1 1 1 0.0080985407758115569 1 1 1 1 0.011005173002217197 1 0.0099511473172774739 1 1 1 1 1 1 1 1 1 1 0.010543197724358463 1 1 1 0.010065178999264915 1 1 1 1 1 1 1 1 1 1 1 1 1 0.010127324934697465 1 1 1 1 1 1 1 1 1 1 1 1 0.0099996743574632327 0.010176202143654552 1 1 1 1 1 1 1 1 1 1 1 1 1 1 1 1 1 1 1 1 1 1 1 0.011603719360328318 1 1 1 0.0099555706932843557 1 1 0.0098620122393800729 1 0.010863503507598592 1 0.010089623063268102 1 1 1 1 1 1 1 0.0099738270848508965 0.0099295370412417119 1 1 1 1 1 0.01010917869805184 0.0099962126860808891 1 1 1 1 1 0.0099973650474421277 1 1 1 0.010216063999882537 1 1 0.010306433402720925 0.0099950588099691397 1 1 1 1 0.0099911199238936054 0.010486766436294667 1 1 0.01011419268799168 1 1 1 0.010053158256935819 0.010000242434102932 0.010002942113011032 1 1 0.010575943637455405 1 1 1 1 1 1 1 1 1 1 1 0.010037701323838641 1 1 1 1 1 1 0.0097065960516412968 1 1 1 0.0099576997083561693 1 0.011407153401043636 1 1 1 1 1 0.011046399313140089 1 1 1 1 1 1 1 1 1 1 1 0.010274671921723124 0.0098598193555519079 1 1 1 1 1 0.010690626407436454 1 1 1 1 1 1 1 0.011106547985677961 1 1 0.011011321677661867 1 1 1 0.010215044093986998 1 1 1 1 1 1 1 1 0.010354964845748972 1 1 0.0097015491661236394 1 0.0097414776876939106 0.011030791809751134 1 1 1 0.0095961315167343124 1 1 1 1 1 1 0.01038914834934771 1 1 1 1 1 1 1 1 0.010643345506505713 1 1 1 1 1 0.010222810540052961 1 1 1 1 1 1 1 1 1 1 1 0.010194821171463687 1 1 1 0.010049230912234466 1 1 1 1 1 1 1 1 0.010024577072570151 1 0.010000490988629313 1 1 1 0.010580266419807045 1 1 1 1 1 1 1 1 1 1 1 1 1 1 1 1 1 1 1 1 1 1 1 1 1 1 1 1 1 1 1 1 1 1 1 1 1 1 1 1 1 1 1 1 1 1 0.010035110521068894 1 1 1 1 1 1 1 1 1 1 0.010023352773172787 1 1 0.0099416347747458798 1 1 1 1 1 1 1 1 1 1 0.010070077781496762 1 1 1 1 1 1 1 0.011041409669104335 1 1 1 1 0.011183447001579097 0.010126168450120415 1 1 0.0096800127939565585 1 1 0.0099827233737001843 1 1 0.0091461447610375161 1 0.010378173582427021 1 1 1 1 1 0.0091905512650624372 1 1 1 0.010698901455121708 1 0.010621828087950617 1 0.010764756154659005 1 1 1 0.010706739972462432 1 0.010035536871148712 1 1 1 1 1 1 1 1 1 1 1 0.0094100855398874042 1 1 0.011291248733442172 1 1 0.010102960815541491 1 1 1 0.010210781026216521 1 1 0.0095026137880052704 1 1 0.0090806072916586964 0.0099991369621281311 1 1 1 1 0.008945776568060523 0.010776881338828093 0.010605267568463861 1 1 1 1 1 1 1 0.010445522611037664 1 0.01094827094465243 1 1 1 0.010518780414702989 0.010307353785852189 1 1 1 0.01049249737083986 1 1 1 1 0.010222237256217286 1 1 1 1 1 1 1 1 1 1 0.0093803678067628064 1 1 0.01000031233536597 1 0.0096118491074613909 1 1 1 1 1 1 1 1 0.0099156867355956642 1 1 1 1 1 1 1 1 1 1 1 1 1 1 1 1 0.010000875243560711 1 1 1 0.0099811954184195664 1 1 0.0097828312704079969 1 1 1 1 1 1 1 1 1 0.010081080800867634 1 1 1 0.010240322102584088 1 1 1 1 1 1 0.009879291533775628 1 1 1 1 1 1 1 1 1 1 1 1 1 1 1 0.0099969648542953485 1 1 1 1 1 0.0099751288597465758 1 1 1 1 1 1 1 1 1 0.0090167215598443221 1 1 0.0085899661614571264 1 0.0094452733748187044 1 1 0.0088566512915676729 1 1 1 0.0081217827078916317 1 1 0.010019110347732729 1 1 1 1 1 1 1 1 1 1 0.0096876355320723376 1 1 1 1 1 0.0076647352515024029 1 1 1 1 1 1 1 1 1 1 0.008961987376912459 0.0089827479943866521 1 1 1 0.00968483620601099 1 1 0.010834528392637592 0.011273279002423583 0.0097170537012731713 0.010173358059216108 1 1 1 1 1 0.010000095733936057 1 0.010038657870834156 1 1 0.0099958366447163577 1 0.0093329505537901175 1 1 0.011454234088790618 1 1 0.009999219405199853 1 0.0095902438339049885 1 1 0.0097953236007742254 1 1 1 1 1 1 1 1 1 0.0096995595062810535 1 1 1 1 0.010874643653338671 1 1 1 1 0.008511966715771771 0.0093271289875465676 0.01110010633760128 1 1 1 0.010003619106914876 1 1 1 1 1 1 0.0098523094787456907 1 1 1 1 1 1 1 1 1 1 1 1 1 1 1 1 0.010007809858607782 1 1 1 0.010001897545863907 1 1 0.0098549553670900063 1 0.010017976928476061 1 0.010107146858173849 0.0098952324169758066 1 1 1 1 0.01013199035733661 1 1 1 1 1 1 1 1 1 1 1 1 1 1 1 1 1 1 1 1 1 1 1 1 1 1 1 1 1 1 1 1 1 1 1 1 1 1 1 1 1 1 1 1 1 1 1 1 1 1 1 1 0.0087499831292260112 1 0.010572467379724275 1 1 1 0.009753470147402684 1 1 1 0.010044388252423646 1 1 1 1 1 1 1 1 1 1 1 1 1 1 1 1 1 1 1 1 1 1 0.010066485213140484 1 1 1 1 1 1 1 1 1 0.0090510461608246644 1 1 1 1 0.0093018181688540452 1 1 1 1 1 1 1 1 1 1 1 1 1 1 0.011001549646524795 0.010006147878846194 1 1 0.010042817823984324 1 0.010933833892719388 1 1 0.0100241326139898 1 1 1 1 1 1 1 1 1 1 1 1 0.010516353232210349 1 1 1 0.010002315635687715 1 1 1 1 1 1 1 1 1 0.010154088588286888 0.010343458755438203 1 1 1 1 0.0099866536973362494 0.010263188690920421 1 1 1 1 1 1 1 0.010421395546661069 1 1 0.010738724525316132 1 1 1 1 0.0098950759069582062 1 1 1 0.0099409985481108964 1 1 1 0.0099832735028723679 1 1 0.010382271663489867 1 1 1 1 0.010316645744463048 1 1 1 1 1 0.010498977591281456 1 1 1 1 1 1 1 1 1 1 1 0.01011085679942232 0.009771669227269247 1 1 1 1 0.010001303526856865 1 1 1 1 0.010008268433204355 0.0102390139375181 1 1 1 1 0.011539069208798264 1 1 1 1 0.010068573778632715 1 1 1 1 1 0.01008045693534906 1 1 1 1 1 0.0094642875947762387 1 1 0.010872669004085039 0.0095181294754754717 1 1 1 1 1 1 0.010591346113678252 1 0.011579449186046122 1 1 0.010823881843066797 1 1 0.0109336668689856 0.0094555563740911109 1 1 1 1 1 0.0099769548270162694 1 1 1 1 1 0.0098336071528113637 1 1 1 1 1 1 1 1 1 1 1 1 1 1 1 1 1 1 1 1 1 1 1 1 1 1 1 1 1 0.0097988088011632876 1 1 1 1 1 1 0.0093869240773399067 1 1 1 0.0098169893755230379 1 1 1 1 1 1 0.0099336157536754552 1 1 0.010198397887874359 1 0.010602819498687636 0.010006377212361679 1 1 0.010211441255082715 1 0.010095624078083801 1 1 1 1 1 1 1 1 1 1 1 1 1 1 
</DataArray>
</CellData>
</Piece>
</UnstructuredGrid>
</VTKFile>
